>compound EQ67686916
>parentmass 181.04950000000002
>ionization [M+H]+
>formula C9H8O4
>rt 1218.000000
>profile orbitrap
#smiles_iso CC(=O)OC1=CC=CC=C1C(=O)O
#smiles_can CC(=O)OC1=CC=CC=C1C(=O)O
#inchikey BSYNRYMUTXBXSQ-UHFFFAOYSA-N
#pubchem_id 2244
#mb_accession EQ357801,EQ357802,EQ357803,EQ357804,EQ357805,EQ357806,EQ357807,EQ357808,EQ357809

>ms2peaks
65.038500 104350.800000
76.030400 51712.300000
77.038300 59787.800000
92.025500 62376.100000
121.028300 60114.200000
133.028000 71635.500000
149.023100 48015640.000000
163.038600 30645778.000000
167.033700 125712.800000
181.049300 294703.700000

>ms2peaks
65.038500 91976.100000
76.030500 59017.000000
77.038400 54838.600000
121.028100 94148.900000
133.028200 178853.800000
135.043600 76204.500000
149.023100 50752316.000000
163.038600 32133136.000000
167.033600 139695.000000
181.049300 228496.800000

>ms2peaks
51.022800 57954.400000
65.038300 241474.500000
76.030400 48574.800000
79.054000 223579.800000
92.025500 53493.900000
93.033300 141026.000000
95.049000 144209.500000
105.033400 84134.900000
105.044700 98015.400000
107.049000 48531.300000
111.043800 59568.900000
121.028200 2340892.800000
121.039400 315086.900000
133.028200 2206326.800000
135.043800 1890252.100000
149.023100 47650352.000000
163.038600 30263834.000000
167.033700 108356.500000
181.049200 151755.100000

>ms2peaks
50.014900 49377.400000
51.022800 53422.100000
53.038500 454244.500000
55.017700 57881.000000
65.038400 1997532.000000
77.038300 825848.200000
79.054000 1153465.500000
80.025400 96202.800000
81.033400 58626.800000
91.054100 44573.800000
92.025400 394779.800000
93.033300 1129287.800000
94.041100 56357.200000
95.049000 1654496.500000
98.036100 72487.300000
105.033300 707899.400000
105.044500 1119356.400000
107.048900 207437.400000
111.043900 587441.800000
120.020300 166384.000000
121.028200 9695889.000000
121.039400 2506571.200000
133.028200 5824675.000000
135.043800 6124332.000000
138.030800 78621.800000
149.023100 34285448.000000
163.038600 18191732.000000
167.033700 69049.300000
181.049100 120675.900000

>ms2peaks
50.014900 71905.300000
51.022700 87460.500000
53.038500 1353948.600000
55.017800 120189.000000
63.022700 35943.900000
65.038400 7698479.000000
67.054100 13574.700000
68.996900 35704.600000
77.038400 1995864.900000
79.054100 1602232.500000
80.025500 164927.400000
81.033300 147836.200000
83.012600 13614.100000
91.054000 85259.600000
92.025500 1581186.100000
93.033400 2102072.500000
94.041100 102619.900000
95.049000 4083902.500000
98.036100 115622.300000
105.033300 1450665.500000
105.044500 2700195.200000
106.041500 16853.000000
107.049000 237759.000000
109.064600 41882.600000
111.043900 1553545.900000
119.049400 23321.300000
120.020400 338060.500000
121.028200 10117922.000000
121.039400 5012563.000000
122.036300 16107.900000
133.028200 4142325.200000
135.043800 4999472.000000
138.030800 182732.300000
149.023100 13253762.000000
163.038700 4912125.500000
167.033600 44881.700000
181.049100 39005.200000

>ms2peaks
50.015000 208801.900000
51.022800 108197.600000
53.002100 131255.700000
53.038500 1737717.900000
55.017800 241651.800000
63.022800 114501.700000
64.030600 96117.300000
65.038400 16778914.000000
67.054100 43624.000000
68.996900 65442.700000
77.038400 3677426.200000
79.054100 1267804.900000
80.025500 155673.700000
81.033300 234434.600000
91.054000 100268.200000
92.025500 4132527.200000
93.033400 2055767.200000
94.041200 134249.500000
95.049000 6246858.500000
98.036100 110674.100000
105.033300 1860692.900000
105.044600 4225308.000000
106.041500 43516.800000
107.049000 135247.200000
108.020400 17988.900000
109.064600 30925.800000
110.036000 34189.900000
111.043900 1979614.600000
120.020400 505513.200000
121.028200 6329803.000000
121.039400 5208605.500000
122.036500 34282.200000
133.028200 1951288.000000
135.043800 2556734.800000
138.030900 219331.200000
149.023100 4217150.000000
163.038700 1219534.200000

>ms2peaks
50.015100 813285.900000
51.022900 521378.800000
53.002100 361917.800000
53.038500 1347373.200000
54.046300 121297.100000
55.017800 146205.300000
62.014900 47933.200000
63.022800 798780.700000
64.030700 876363.200000
65.038500 18274184.000000
67.054100 37436.400000
67.989100 74116.200000
68.997000 41024.600000
77.038400 3849456.800000
79.054100 224603.400000
80.025500 47456.200000
81.033300 273767.800000
91.054100 81879.200000
92.025500 7273920.000000
93.033400 384051.200000
94.041200 115578.200000
95.049000 4787763.000000
98.036100 29960.300000
105.033300 501288.900000
105.044600 3407981.200000
109.064600 42184.600000
111.043900 565622.800000
120.020500 113212.400000
121.028200 639197.100000
121.039500 1144804.500000
133.028200 136615.500000
135.043800 161635.000000
138.030800 67757.500000
149.023200 151884.100000

>ms2peaks
50.015100 1489431.600000
51.022900 1910289.800000
53.002100 702169.500000
53.038500 654378.700000
54.046300 313631.800000
55.017700 52251.600000
61.007100 12167.600000
62.015000 130098.300000
63.022800 3445562.000000
64.030700 2330410.800000
65.038500 8019136.500000
66.009900 13312.800000
66.046300 26000.700000
67.054100 14373.800000
67.989100 119094.900000
68.996900 13734.600000
74.014900 27456.600000
75.022800 74035.400000
77.038400 2058629.500000
79.017800 8820.000000
79.054100 39091.700000
80.025500 31546.800000
81.033400 194168.400000
82.041200 10133.600000
91.054100 12300.700000
92.025500 4975963.000000
92.036700 420245.700000
93.033400 34686.000000
94.041100 49844.000000
95.049000 2109590.000000
98.036100 8669.600000
105.044600 1462298.100000
106.041600 12148.100000
109.064500 12641.800000
111.043900 49606.500000
119.012700 10711.000000
121.028200 29828.900000
121.039400 105432.900000

>ms2peaks
50.015100 1794982.400000
51.022900 2976664.000000
53.002100 888118.800000
53.038500 191650.400000
54.010000 28917.100000
54.046300 275795.700000
55.017700 31606.600000
61.007200 83591.600000
62.015000 446801.100000
63.022800 6558969.000000
64.030600 2208239.800000
65.038500 2349925.800000
66.009900 38480.000000
66.046200 15225.700000
67.054200 7070.500000
67.989100 115644.100000
68.997000 12259.600000
74.015000 141406.200000
75.022800 127258.400000
76.030600 31777.600000
77.038400 837924.300000
79.017600 6969.900000
81.033300 116878.100000
82.041300 9139.600000
92.025500 1719832.000000
92.036700 221585.700000
94.041200 14115.500000
95.049000 575278.900000
98.036000 11033.900000
105.044600 443568.700000
119.012200 7075.000000

