>compound EQ67773242
>parentmass 149.1073
>ionization [M+H]+
>formula C9H12N2
>rt 60.000000
>profile orbitrap
#smiles_iso C1CC(NC1)C2=CN=CC=C2
#smiles_can C1CC(NC1)C2=CN=CC=C2
#inchikey MYKUKUCHPMASKF-UHFFFAOYSA-N
#pubchem_id 412
#mb_accession EQ328001,EQ328002,EQ328003,EQ328004,EQ328005,EQ328006,EQ328007,EQ328008,EQ328009

>ms2peaks
70.065100 5049596.500000
80.049400 18062944.000000
106.065100 18751748.000000
115.054200 450253.300000
117.057300 4203578.500000
119.072900 327501.000000
120.080700 2332454.500000
130.065200 40971972.000000
132.080700 107833464.000000
149.107300 159747680.000000

>ms2peaks
70.065000 5129219.000000
80.049400 16938116.000000
106.065100 17698036.000000
115.054300 574402.400000
117.057200 4319636.500000
119.072900 153124.400000
120.080800 2234918.500000
130.065200 37716444.000000
132.080700 104010184.000000
149.107300 149453952.000000

>ms2peaks
70.065100 10906853.000000
80.049400 38827828.000000
92.049500 175779.100000
93.057300 175765.700000
94.065100 179003.600000
105.069900 427980.800000
106.065100 23606398.000000
115.054200 1650811.000000
117.057300 18549030.000000
118.065000 762025.600000
119.072800 806538.700000
120.080700 3808675.800000
130.065200 72623408.000000
131.072900 498371.100000
132.080700 106588960.000000
149.107300 74027704.000000

>ms2peaks
51.022800 122834.300000
53.038500 253693.400000
56.049400 146967.800000
65.038600 109363.700000
70.065100 15445977.000000
77.038200 100315.600000
80.049400 53005200.000000
91.054300 363766.300000
92.049400 1140197.900000
93.057300 417678.300000
94.065000 327426.400000
103.054300 141722.800000
104.049200 118097.000000
105.069900 1271127.100000
106.065100 20525940.000000
115.054200 4263312.500000
117.057300 45296308.000000
118.065000 2856875.800000
119.072900 1478147.900000
120.080700 4208549.500000
121.076100 131291.700000
130.065100 80632048.000000
131.073000 1368914.000000
132.080700 60407560.000000
149.107300 17181630.000000

>ms2peaks
51.022800 86293.500000
53.038600 675101.800000
54.033900 121549.900000
56.049500 81296.000000
65.038500 484335.600000
67.041700 84332.800000
68.049500 94104.400000
70.065100 21798060.000000
77.038400 136145.100000
78.033800 156652.700000
79.054200 632624.000000
80.049400 63392260.000000
82.065000 84164.800000
89.038500 92844.300000
90.046400 157786.400000
91.054200 987042.400000
92.049400 3752275.200000
93.057300 876354.400000
93.069900 95197.700000
94.065100 420470.700000
95.049100 109541.700000
96.044300 613194.100000
103.054200 1553504.200000
104.049400 158980.800000
105.069900 1453239.100000
106.065100 17745468.000000
110.060000 393510.200000
115.054200 5474596.500000
117.057300 68388336.000000
118.065100 7683508.500000
119.073100 1091732.100000
120.080800 4371813.500000
121.076300 140390.300000
128.049100 95600.100000
130.065100 75852376.000000
131.073000 1698291.400000
132.080700 26519670.000000
149.107300 3812314.000000

>ms2peaks
50.014900 102207.300000
51.022800 153299.100000
53.038600 1420551.400000
54.033800 566017.400000
63.022900 106436.600000
65.038600 1889647.100000
66.046400 104443.100000
67.041600 166396.800000
68.049500 427951.700000
70.065100 24637720.000000
77.038400 860949.800000
78.033700 922157.600000
79.054200 1434305.800000
80.049400 66857512.000000
82.065000 96946.800000
89.038600 299906.200000
90.046400 1686482.200000
91.054200 1841472.200000
92.049400 6718434.500000
93.057300 1921580.000000
93.069700 138336.600000
94.065200 526249.200000
95.049000 697476.600000
96.044400 1587778.900000
103.054200 4564948.000000
104.049500 398750.100000
105.044800 269024.800000
105.069800 1971285.500000
106.065100 14869064.000000
110.059900 1078223.400000
115.054200 5632760.000000
117.057300 82643920.000000
118.065100 11452559.000000
119.073000 435564.000000
120.080700 3206868.500000
128.049400 330095.200000
130.065100 65632744.000000
131.072900 2089821.800000
132.080700 8714503.000000
146.060000 337169.700000
149.107400 758005.100000

>ms2peaks
50.015000 495005.500000
51.023000 768881.300000
53.038600 5743053.500000
54.033800 376160.500000
65.038600 7142622.000000
66.046400 1109887.400000
67.041700 724858.500000
68.049500 608315.500000
70.065100 21574278.000000
77.038500 2662505.200000
78.033800 2382140.500000
79.041600 695533.500000
79.054200 1661882.400000
80.049400 49730568.000000
81.033600 83871.200000
89.038500 4723310.500000
90.046400 12630462.000000
91.054200 3282297.800000
92.049500 6083081.000000
93.057300 3593778.500000
94.065200 266424.400000
95.049100 4245583.000000
96.044400 4014484.500000
102.046400 594835.600000
103.054200 9043585.000000
104.049300 443189.300000
105.044700 2284908.200000
105.069900 575807.100000
106.065100 6481445.000000
110.060100 1071722.000000
115.054200 3116734.800000
116.049400 626284.200000
117.057300 55904392.000000
118.065100 11561012.000000
120.081000 678815.000000
128.049400 644025.400000
130.065200 30190856.000000
131.072900 1062670.400000
132.080900 567704.100000
146.060000 446386.800000

>ms2peaks
50.015100 1185440.600000
51.022900 3988793.200000
52.030700 274991.500000
53.038600 10285943.000000
54.033800 285768.800000
63.022900 1083060.400000
64.030700 389540.200000
65.038600 10783362.000000
66.046400 2148690.500000
67.041600 1173633.800000
68.049400 970796.700000
70.065100 16301303.000000
75.022900 74459.400000
77.038500 4480714.500000
78.033800 4094405.500000
79.041600 1361048.600000
79.054200 1064164.600000
80.049400 29992906.000000
81.033500 341194.100000
89.038600 18985948.000000
90.046400 18395390.000000
91.041600 360282.500000
91.054200 6286594.000000
92.049400 3468879.500000
93.057300 2948686.200000
94.065200 350996.600000
95.049100 7984881.500000
96.044400 5239515.000000
102.046400 945980.200000
103.054200 6758926.000000
104.049500 467213.500000
105.044700 4138262.000000
106.065100 2070241.000000
110.060100 541656.200000
115.054200 1222509.500000
116.049500 1439252.600000
117.057300 26271306.000000
118.065100 7009508.000000
120.080900 115375.800000
128.049500 747241.900000
130.065100 12066199.000000
131.072800 327531.700000
146.060000 152702.600000

>ms2peaks
50.015100 2859369.200000
51.023000 8612015.000000
52.030700 492091.000000
53.038600 9961268.000000
54.033900 276408.800000
63.022900 3039623.500000
64.030800 1063620.900000
65.038600 9142530.000000
66.046400 1343329.200000
67.041600 1011255.900000
68.049400 772027.800000
70.065100 8719581.000000
75.022900 415173.200000
77.038500 4860907.000000
78.033800 5131535.500000
79.041600 1609796.500000
79.054200 414072.800000
80.049400 13630206.000000
81.033500 140946.900000
89.038600 26437392.000000
90.046400 9920756.000000
91.054200 5606794.000000
92.049500 1995360.400000
93.057300 1636877.500000
95.049100 7162006.500000
96.044400 4535826.000000
102.046400 740213.400000
103.054200 2860630.000000
104.049400 354059.900000
105.044700 3569533.200000
106.065200 510934.100000
110.059900 290149.600000
115.054100 257105.200000
116.049500 1089930.800000
117.057300 10238146.000000
118.065100 2322404.800000
128.049300 276120.800000
130.065200 3847482.200000
146.060100 78762.500000

