>compound EQ67486520
>parentmass 266.16519999999997
>ionization [M+H]+
>formula C17H19N3
>rt 282.000000
>profile orbitrap
#smiles_iso CN1CCN2C(C1)C3=CC=CC=C3CC4=C2N=CC=C4
#smiles_can CN1CCN2C(C1)C3=CC=CC=C3CC4=C2N=CC=C4
#inchikey RONZAEMNMFQXRA-UHFFFAOYSA-N
#pubchem_id 4205
#mb_accession EQ362201,EQ362202,EQ362203,EQ362204,EQ362205,EQ362206,EQ362207,EQ362208,EQ362209

>ms2
72.080700 28251328.000000
195.091400 17629544.000000
209.107100 4105497.200000
223.123200 1160065.800000
264.149300 947248.900000
266.164800 771539968.000000

>ms2
70.065100 518818.400000
72.080600 169508640.000000
194.083600 569093.300000
195.091500 141548944.000000
209.107100 30355520.000000
223.122800 7237424.000000
235.122700 5899701.000000
264.149200 5554645.000000
266.164800 409655424.000000

>ms2
56.049300 466082.200000
58.065000 1784203.800000
70.065000 4841152.000000
72.080700 227648672.000000
85.075900 680848.900000
91.054200 459818.900000
92.049400 402476.000000
105.069700 485127.000000
107.060200 1332359.900000
110.059900 1873130.000000
115.053900 1877711.900000
133.075800 1274772.500000
144.080500 1210276.900000
146.096200 469255.500000
170.095700 641623.200000
180.080500 2361217.200000
182.096300 3199781.000000
192.080700 923687.200000
194.083500 2406320.000000
195.091500 390903488.000000
207.091500 1259952.200000
209.107100 62541108.000000
218.096300 1308370.800000
219.091500 524592.300000
220.098700 857829.900000
221.107000 490124.800000
223.122700 11475702.000000
233.107100 607091.200000
235.122700 14166226.000000
237.138600 1116403.600000
264.149200 6231270.500000
266.164900 52882328.000000

>ms2
56.049300 799250.900000
57.057200 588665.600000
58.065000 3787816.200000
65.038500 434565.000000
70.065000 6205829.500000
72.080700 122131976.000000
80.049400 402161.700000
85.075900 600690.500000
91.054100 1929306.400000
92.049400 1647549.600000
103.054100 418695.200000
105.069700 2096225.100000
107.060200 2176972.000000
110.059900 8872116.000000
115.054100 6824086.000000
117.069700 852269.400000
129.069600 682457.000000
130.065100 593159.500000
131.060200 1066335.200000
131.072900 1761204.000000
133.075800 1338520.100000
133.088600 452402.400000
135.091600 430323.700000
141.069800 561467.300000
144.080600 2382528.800000
146.096200 753326.800000
165.069900 467099.100000
167.072600 1441751.900000
168.080600 1203536.000000
170.096100 827572.200000
178.065500 784077.200000
179.072600 664064.800000
180.080500 6030534.000000
181.075700 921454.200000
181.088300 799189.200000
182.096200 5398400.000000
192.080800 2225445.500000
193.075600 486220.100000
194.083700 15516202.000000
195.091500 391852384.000000
206.084200 709309.800000
207.091400 2760728.500000
208.099300 790768.800000
209.107100 40530148.000000
217.088000 588869.700000
218.096400 1641150.000000
219.091500 2668751.800000
220.099100 1898254.500000
221.106500 819555.800000
223.122800 4948039.000000
233.107000 1244910.500000
235.122700 6640338.000000
237.138400 610545.900000
264.149300 1750807.200000
266.164900 1739290.000000

>ms2
56.049400 1084490.000000
57.057200 726778.500000
58.065000 5116752.000000
65.038500 2959592.000000
70.065000 6421320.000000
72.080700 75851328.000000
78.033700 450265.300000
80.049300 1221163.000000
85.075900 493479.100000
91.054100 4283287.000000
92.049400 4923411.500000
96.044300 1002183.000000
103.054100 1034048.200000
105.069800 3801358.200000
106.065100 521406.600000
107.060200 2572426.800000
110.059900 16075800.000000
115.054100 9798034.000000
116.049300 1564588.100000
117.044500 1665181.400000
117.057200 524314.700000
117.069700 1370344.400000
118.052500 361930.800000
119.060200 539629.300000
129.069700 868116.200000
130.065000 1778207.200000
131.060200 1987247.500000
131.072800 4003200.200000
133.075800 1876461.400000
133.088500 587630.600000
134.059900 724032.600000
135.055000 1069001.900000
141.069700 1142987.900000
144.080600 3546345.500000
146.096300 731478.100000
153.069700 605666.900000
154.065100 456365.400000
165.069900 1466222.100000
166.065100 714694.300000
167.072700 6888903.500000
168.080600 8584328.000000
169.064700 494782.600000
170.096300 394532.200000
178.065000 7077062.000000
179.072700 4140463.000000
180.080500 10799985.000000
181.075600 1385609.800000
181.088200 1140930.000000
182.096200 4316995.500000
191.072300 783106.800000
192.080700 2478231.800000
193.075600 1373333.600000
193.088500 514895.500000
194.083700 69739104.000000
195.091500 322814208.000000
196.075400 1389583.200000
204.080700 346149.900000
205.075700 1338785.400000
206.083800 1578690.400000
206.096400 452275.200000
207.091400 4385874.000000
208.099200 1369595.000000
209.107100 18639214.000000
217.088300 1420318.000000
218.083600 416924.700000
218.096300 938181.100000
219.091500 5520952.000000
220.099000 1446166.000000
221.106900 1461769.600000
223.122500 1396907.500000
233.107100 1292968.600000
235.122800 1693967.500000
264.149300 805089.900000

>ms2
56.049400 2034080.200000
57.057200 1222530.100000
58.065000 6092061.000000
65.038500 9311354.000000
67.041500 376409.300000
70.065000 5664476.500000
72.080700 46716636.000000
78.033700 1189936.500000
79.041500 189408.800000
79.054100 452312.000000
80.049300 1905270.600000
85.075900 545098.400000
89.038400 402585.800000
90.033800 732911.400000
91.054100 6368866.000000
92.049300 7786435.000000
93.057200 395682.800000
95.060300 323630.700000
96.044200 2316584.500000
103.054000 1812885.500000
104.049300 585354.100000
104.061800 192785.000000
105.044400 261556.200000
105.069700 3491739.000000
106.065000 443794.500000
107.060200 1606588.400000
110.059900 18499026.000000
115.054100 12637001.000000
116.049300 4052163.500000
116.062000 537548.300000
117.044500 4153911.200000
117.057100 1332871.100000
117.069700 1618039.200000
118.052400 763067.100000
119.060300 613226.000000
121.075900 390275.200000
127.054200 174212.300000
128.049200 538592.200000
128.061900 737276.900000
129.069700 1020484.000000
130.065000 4475008.000000
131.060300 2374235.800000
131.072800 3987175.500000
132.067900 517293.700000
132.080500 613735.100000
133.075900 1197401.500000
133.088500 604723.900000
134.059900 542569.400000
135.055000 2834167.200000
139.053900 452350.900000
140.049100 387614.100000
141.069700 3378492.500000
142.064800 174170.200000
143.072800 412361.800000
144.080600 3987188.800000
145.064300 194757.700000
146.059800 520614.800000
146.096300 474035.600000
151.054000 1436196.500000
152.062000 1427845.500000
153.057000 989562.900000
153.069700 1216839.400000
154.064900 1704294.000000
155.060200 857904.900000
158.096300 170906.500000
165.069800 2592143.800000
166.065000 1660586.500000
167.072800 18604056.000000
168.080600 18217806.000000
169.064600 2770140.500000
177.057000 1488078.500000
178.064900 13821399.000000
179.060900 2017298.500000
179.072700 10526637.000000
180.069100 847628.200000
180.080500 12573330.000000
181.075800 1275196.000000
181.088500 1367248.400000
182.096100 1882529.100000
190.064900 173690.800000
191.072700 2406085.000000
192.067700 348844.700000
192.080600 1975944.000000
193.075900 6009513.500000
193.088600 447623.800000
194.083700 134451808.000000
195.091400 167965664.000000
196.075500 1955715.900000
203.072500 284627.400000
204.080400 483746.100000
205.075800 1798356.200000
206.071500 746918.900000
206.083300 1758867.900000
206.097000 175557.600000
207.091400 3854657.200000
208.099200 1528154.600000
209.107000 5078445.000000
216.080500 182258.600000
217.088300 1269324.500000
218.083400 1051219.000000
219.091500 6253222.000000
220.099200 487069.200000
221.107000 769562.000000
223.122300 375816.200000
233.106700 1008727.100000
235.122600 430928.500000

>ms2
50.015100 440124.200000
51.022900 467263.200000
53.002200 187407.700000
53.038500 831228.700000
54.033700 113531.700000
56.049400 2597133.200000
57.057200 1168666.500000
58.065100 4278805.000000
62.014900 100564.500000
63.022800 1652649.800000
64.018100 136612.400000
64.030600 141768.300000
65.038500 26549740.000000
66.033800 507277.400000
66.046400 103060.700000
67.041500 583862.400000
70.065000 3308603.800000
72.080700 15252332.000000
75.022800 115972.000000
77.038400 1079598.100000
78.033700 3072332.200000
78.046300 428605.300000
79.041500 1005451.900000
79.054100 1038954.700000
80.049300 2737589.000000
81.033500 98997.900000
85.076100 120207.800000
89.038500 3922355.500000
90.033800 3089580.000000
90.046300 728871.900000
91.041500 1324485.200000
91.054100 7139375.000000
92.049400 7220686.500000
93.057200 1273133.400000
95.049000 1567242.000000
95.060200 166260.600000
96.044300 3900985.200000
102.046400 177262.400000
103.054100 3911755.500000
104.049300 1213760.400000
104.061900 470798.100000
105.044700 1370706.400000
105.069800 1445386.400000
106.065000 431960.800000
107.060300 469806.600000
108.044300 632893.600000
110.059900 8956750.000000
115.054100 15518781.000000
116.049300 5127903.500000
116.061900 729907.200000
117.044600 3882651.500000
117.057100 3059876.500000
117.069600 717077.600000
118.052400 1592046.800000
118.064900 419913.100000
119.060200 982535.200000
125.038300 136808.100000
126.046300 541221.000000
127.054000 1405123.800000
128.049300 1494575.200000
128.061900 3202325.500000
129.044500 580505.200000
129.057200 823971.600000
129.069900 521997.700000
130.065000 7795303.500000
131.060200 2519421.800000
131.072800 1423007.200000
132.068000 510546.400000
132.080600 313680.100000
133.075900 528346.900000
134.060000 553969.200000
135.055100 2136122.500000
139.054000 3183370.500000
140.049400 2038036.400000
140.061800 2910893.200000
141.057200 347626.700000
141.069700 6701989.000000
142.065000 573332.500000
143.060300 161757.200000
143.072800 1131677.200000
144.080700 2509279.000000
145.064700 1070244.600000
146.059900 867319.600000
150.046200 1108382.200000
151.054000 4101941.800000
152.061900 8991888.000000
153.057100 4419306.500000
153.069700 2584897.800000
154.065000 2478478.200000
154.077500 128525.600000
155.060200 2973841.500000
155.073000 160186.200000
156.080800 148099.300000
163.054200 430372.300000
164.049100 123571.300000
164.061800 876973.800000
165.056900 295496.800000
165.069800 3964689.000000
166.065000 11536563.000000
167.072800 42235656.000000
168.068500 3497637.000000
168.080600 11156304.000000
169.064600 9482812.000000
170.059600 890303.800000
176.061900 187789.900000
177.057100 4436449.000000
178.065000 8469506.000000
179.060400 6632579.000000
179.072700 11336355.000000
180.068800 1230348.900000
180.080500 9292527.000000
181.075700 1045435.400000
181.088700 485576.000000
182.096400 135916.900000
184.075500 313947.700000
189.069500 364942.900000
190.064800 1305368.600000
191.060100 171714.800000
191.072700 2281084.500000
192.067900 4992297.500000
192.080400 891196.300000
193.075900 37914824.000000
194.083700 98450256.000000
195.091500 15427880.000000
196.075400 742292.400000
203.072500 161482.600000
204.055200 121610.800000
204.080300 728285.300000
205.075900 2861665.000000
206.070600 137465.500000
206.083700 1710989.900000
207.091400 2287408.800000
208.099300 344204.800000
209.107400 124786.400000
216.080300 951876.000000
217.088300 176873.800000
218.083600 4243280.500000
219.091500 2902810.000000
221.106500 137919.300000
231.092100 119361.800000

>ms2
50.015100 1638616.200000
51.022900 1666487.200000
52.018100 332368.200000
52.030800 150657.300000
53.038500 1915356.200000
54.033800 122755.800000
55.041700 75050.600000
56.049400 2587654.200000
57.057200 977264.100000
58.065100 2319680.500000
62.014900 422222.900000
63.022800 4482723.000000
64.018100 526393.900000
64.030700 773615.900000
65.038500 28252780.000000
66.033700 912995.800000
66.046400 721185.200000
67.041600 1400408.000000
70.065000 1344503.100000
72.080700 3886130.200000
74.014800 166392.000000
75.022800 986601.000000
76.030500 100552.700000
77.038400 2295813.800000
78.033700 3368359.200000
78.046400 979444.400000
79.041600 973586.700000
79.054100 697573.900000
80.049400 1775240.000000
81.033300 154391.600000
87.022800 166643.000000
88.030600 116403.800000
89.038500 9215830.000000
90.033700 1984671.200000
90.046300 2467250.800000
91.041600 1551509.200000
91.054100 7165261.500000
92.049400 3739529.000000
93.044500 138373.200000
93.057200 977711.000000
95.049000 4673287.500000
96.044300 2887239.500000
99.022800 319591.200000
101.038400 385915.100000
102.046300 1760357.400000
103.054100 3776340.000000
104.049400 1216723.400000
104.061800 93607.800000
105.044600 2897263.000000
105.069800 328969.500000
106.065300 112199.400000
107.060300 75251.200000
108.044200 450219.200000
110.059900 2006750.800000
113.038500 617007.200000
114.033400 101216.800000
114.046300 613694.100000
115.054100 20292548.000000
116.049400 2672974.800000
116.061900 736946.400000
117.044600 1040969.200000
117.057200 3190398.200000
117.069600 312036.500000
118.041300 110557.900000
118.052300 1267217.200000
118.064900 133131.800000
119.048800 286471.800000
119.060300 702896.400000
122.060100 103935.300000
125.038500 1113492.100000
126.046300 2897815.200000
127.041400 410408.300000
127.054100 2321835.000000
128.049300 1451598.100000
128.061900 3188589.800000
129.044600 1057794.900000
129.057200 1400504.100000
130.065000 6528233.000000
131.060200 1703353.800000
131.073000 397183.300000
132.056800 288268.100000
132.067800 116570.700000
132.080700 135075.100000
134.059900 163258.400000
135.055100 332580.300000
138.046200 310114.000000
139.054100 17904478.000000
140.049400 6659472.000000
140.061800 6189905.500000
141.057200 1273044.200000
141.069700 2684914.500000
142.052300 179247.700000
142.064900 581266.400000
143.049100 145676.400000
143.072900 879973.800000
144.080600 940381.600000
145.064700 1368174.500000
146.059900 968948.400000
149.038400 179820.100000
150.046300 6515735.500000
151.054100 4018967.200000
152.049500 812096.000000
152.061900 14680675.000000
153.044500 293765.200000
153.057200 4842735.000000
153.069700 1856493.000000
154.065100 1803716.500000
155.060200 3121972.800000
156.056900 85819.100000
163.054000 2558719.000000
164.049300 1087052.800000
164.061700 1620378.400000
165.057500 1113338.900000
165.069800 2458556.800000
166.065000 27980382.000000
167.072800 24640044.000000
168.056600 499418.200000
168.068200 2900109.000000
168.080500 3660117.000000
169.064600 8811336.000000
170.059900 1622172.000000
175.041100 81347.500000
176.049600 92575.600000
176.062100 527053.800000
177.057100 5842257.500000
178.064900 4978673.500000
179.060200 6336656.000000
179.072500 3907720.800000
180.055400 377906.400000
180.067900 307160.600000
180.080500 4460373.000000
181.075500 159304.300000
183.067700 336293.900000
184.075400 951599.100000
189.057400 131202.600000
189.069800 559051.600000
190.064900 3055107.800000
191.060000 789544.900000
191.072700 2173022.000000
192.068000 19147760.000000
193.075900 32196888.000000
194.083700 19605888.000000
195.091500 551369.800000
196.075900 83384.800000
203.072800 145876.200000
204.055100 403449.300000
204.080800 452836.800000
205.075800 3034852.800000
206.083600 916375.000000
207.091500 439286.800000
214.064500 132112.200000
216.068200 334419.000000
216.080700 391270.700000
217.075800 712489.100000
218.083600 3021529.000000
219.091400 367700.400000

>ms2
50.015100 2747753.000000
51.022900 4517375.500000
52.018100 646913.900000
52.030700 668931.300000
53.002200 1570420.900000
53.038500 2526247.800000
54.033800 333471.700000
55.041500 97520.900000
56.049400 2232840.800000
57.057200 372577.100000
58.065100 987669.500000
62.015000 998900.800000
63.022800 8573154.000000
64.018100 1019393.700000
64.030700 1283134.500000
65.038500 19940558.000000
66.033800 625328.000000
66.046400 670909.200000
67.041600 1348080.900000
70.065000 458267.200000
72.080700 812506.100000
74.015000 993467.600000
75.022800 3221166.000000
76.018100 363206.656300
76.030600 1475188.100000
77.038400 3482077.000000
78.033700 2889700.800000
78.046300 2217104.000000
79.041500 722114.800000
79.054100 471476.400000
80.049300 909039.800000
81.033400 124797.100000
87.022800 955190.900000
88.030600 932603.900000
89.038500 12736809.000000
90.033800 860390.100000
90.046400 2017153.500000
91.041500 1373522.400000
91.054100 5178532.500000
92.049400 1411855.000000
93.057300 497254.400000
95.049000 6145758.000000
96.044300 1715568.900000
98.015000 493601.562500
99.022800 1403364.000000
101.038400 419122.300000
102.046300 3917835.000000
103.041500 363718.062500
103.054100 3431609.500000
104.049300 1031539.300000
105.044600 4251456.000000
108.044200 87885.600000
110.060000 663331.200000
113.038400 3471588.200000
114.033700 582932.700000
114.046300 1649017.400000
115.054100 17568948.000000
116.049300 1679657.400000
116.062000 399587.000000
117.044700 299008.900000
117.057100 1441966.600000
117.069800 92520.700000
118.041100 355220.700000
118.052300 551013.000000
119.048900 420420.600000
119.060200 277264.100000
122.060400 89224.500000
125.038500 2195810.200000
126.046300 6099242.500000
127.041500 1225015.600000
127.054100 2003740.000000
128.049300 1135296.400000
128.061800 2439173.200000
129.044600 1711667.800000
129.057200 658536.400000
130.065000 3012934.500000
131.060500 693105.900000
131.072800 103702.000000
132.056900 721155.900000
134.060000 147135.300000
137.038700 616982.375000
138.046300 1163016.600000
139.054100 34706488.000000
140.049300 13025339.000000
140.061600 2990075.000000
141.057100 1245764.400000
141.069600 808573.600000
142.052500 118840.500000
142.064900 301398.100000
143.049000 169457.600000
143.060200 80394.300000
143.072600 269387.100000
144.080700 135935.100000
145.064800 830813.600000
146.059800 600326.600000
149.038300 606841.200000
150.046300 10187081.000000
151.041700 730106.125000
151.054000 2247780.500000
152.049700 910102.000000
152.061900 14155531.000000
153.044600 494255.200000
153.057200 2277610.500000
153.069700 717080.700000
154.065100 598055.100000
155.060200 2499036.800000
156.057000 122785.800000
163.054100 4610155.000000
164.049300 4689231.000000
164.061200 990390.875000
165.057200 2429413.800000
165.069500 1056649.600000
166.065000 19620194.000000
167.060500 385142.937500
167.072800 6470628.000000
168.056700 418816.100000
168.068100 1309435.600000
168.080200 704245.500000
169.064600 6322002.000000
170.059800 1406223.100000
175.041300 126879.300000
176.049000 104789.300000
176.061900 462201.900000
177.057100 2834171.500000
178.064900 1994406.800000
179.060200 4407808.000000
179.072300 849711.800000
180.055400 313964.400000
180.080400 1095271.500000
183.067800 662361.400000
184.075300 503720.100000
188.049300 386072.625000
189.057300 171712.600000
189.069600 301734.000000
190.064900 2863613.800000
191.060200 2163671.000000
191.072700 1045475.800000
192.068000 16261998.000000
193.075900 6740345.500000
194.059900 408356.843800
194.083700 1208420.100000
203.072300 109502.100000
204.055500 330285.500000
204.081200 103411.100000
205.075900 1479854.100000
206.084000 96279.500000
214.064800 179405.300000
216.067700 324262.900000
217.075900 476207.800000
218.083700 530216.000000

