>compound EQ68230405
>parentmass 373.0408
>ionization [M+H]+
>formula C14H17IN2O2
>rt 996.000000
>profile orbitrap
#smiles_iso CCCN1C(=O)C2=C(C=CC(=C2)I)N=C1OCCC
#smiles_can CCCN1C(=O)C2=C(C=CC(=C2)I)N=C1OCCC
#inchikey FLVBXVXXXMLMOX-UHFFFAOYSA-N
#pubchem_id 11057771
#mb_accession EQ349101,EQ349102,EQ349103,EQ349104,EQ349105,EQ349106,EQ349107,EQ349108,EQ349109

>ms2
288.946400 11918870.000000
330.993900 496302816.000000
373.040900 299297856.000000

>ms2
145.015500 650751.200000
162.042300 3681944.800000
245.942300 835055.400000
270.936600 1161347.100000
271.920400 20398914.000000
288.947000 436050432.000000
312.983100 805367.400000
330.993900 394176352.000000
373.041000 15587562.000000

>ms2
119.036700 5049566.500000
137.047300 1842422.200000
145.015400 1580973.800000
162.042500 28699902.000000
186.079000 960241.600000
215.930400 4236992.500000
245.941400 2949155.000000
270.936600 17408316.000000
271.920500 239077920.000000
288.947000 453487392.000000
289.930400 1302880.900000
303.947100 2557362.500000
312.982600 1163939.600000
330.994100 41886512.000000

>ms2
53.002200 529887.300000
89.026100 518384.600000
91.041700 395330.100000
92.025800 632220.400000
116.036900 390583.400000
117.020900 2300381.500000
119.036700 18730054.000000
121.015900 433212.600000
137.047200 7736847.500000
144.032000 1344738.100000
145.015900 15156958.000000
146.023900 554718.400000
162.042500 46549584.000000
176.021900 567430.100000
177.005800 10195033.000000
186.078900 637039.200000
194.032400 12132474.000000
215.930700 64820052.000000
217.946400 3118071.500000
242.941600 3613135.200000
245.941300 3017183.000000
270.936600 38231800.000000
271.920500 377401088.000000
288.947000 136695392.000000
289.931100 3360418.500000
302.963200 461849.700000
303.946700 4316344.500000
330.993600 1878631.900000

>ms2
53.002200 535774.100000
62.014900 1087209.900000
65.026000 303164.100000
66.010000 646973.500000
79.041600 346984.200000
88.018100 743512.800000
89.025900 2754978.200000
91.041700 2785863.000000
92.025700 3727231.200000
93.020900 398493.900000
116.037000 4545789.500000
117.021000 19642654.000000
118.052500 317728.300000
119.036700 22618566.000000
121.015900 1204033.900000
135.031500 1101351.000000
137.047300 10016001.000000
144.032000 4530533.000000
145.016000 44526528.000000
146.023800 1210755.600000
148.003000 633309.300000
151.062900 486851.900000
162.042500 33471268.000000
163.026300 327578.900000
164.919400 278366.900000
176.021800 2329802.500000
177.005800 29803040.000000
186.078700 444226.100000
188.919800 360769.200000
190.935700 314002.300000
194.032400 13370669.000000
215.930700 174559088.000000
217.946400 3017657.000000
242.941600 7094313.000000
245.941300 1249168.100000
270.936500 21196730.000000
271.920400 179316048.000000
288.947000 19007826.000000
289.931000 1249865.200000
302.962500 491167.100000
303.946800 2134373.800000

>ms2
52.030800 338142.600000
53.002200 670757.100000
61.007300 432472.900000
62.015100 5972521.000000
63.010300 304277.800000
63.022900 764677.900000
64.030800 1033814.900000
65.026000 1770619.600000
66.010100 4602671.000000
67.041700 374559.400000
76.018200 321070.800000
77.025900 357643.600000
79.041700 2162253.500000
88.018200 4218457.000000
89.026000 18256484.000000
90.033900 905586.000000
91.041700 7028243.500000
92.025700 10589156.000000
93.021000 362555.900000
101.026200 662077.800000
107.036500 520257.800000
116.037000 13643872.000000
117.021000 63048188.000000
118.052500 292500.800000
119.036700 17846630.000000
121.015900 1620194.900000
135.031600 1852094.900000
137.047300 8240044.500000
140.919800 785716.300000
144.032000 6854700.000000
145.016000 55256100.000000
146.023800 2266676.800000
148.003100 905132.100000
151.062900 432229.700000
162.042500 19135404.000000
163.026400 447772.200000
164.919800 2225811.800000
176.021900 3767248.000000
177.005800 39281340.000000
188.919800 1562733.900000
190.935300 428174.700000
194.032500 8742341.000000
215.930700 238428192.000000
217.946300 2406936.000000
242.941600 5921024.500000
245.941300 468366.300000
270.936500 8528605.000000
271.920500 62277148.000000
288.947000 2775303.200000
303.947400 589359.600000

>ms2
50.015100 998169.600000
51.023000 308968.900000
52.018300 753834.300000
52.030900 625188.800000
53.002200 879137.900000
53.997500 373310.800000
54.033900 596083.300000
54.046500 556566.200000
55.017900 111516.000000
61.007300 4084292.200000
62.015200 56146436.000000
63.010300 1077011.100000
63.023000 3394065.800000
64.018200 1401308.400000
64.030800 3467205.000000
65.026100 6970295.500000
66.010100 15503381.000000
67.005300 166655.200000
67.041800 510177.400000
67.989400 292333.900000
68.013100 600572.700000
68.997200 364357.500000
69.992500 100213.800000
74.015200 135414.800000
75.010200 263351.900000
75.022900 116862.100000
76.018200 803503.800000
76.030800 359256.900000
77.002300 145913.200000
77.026000 851995.100000
78.010200 538311.300000
78.033900 1284405.000000
79.017900 2119573.500000
79.041700 5150781.500000
80.013100 274266.600000
80.025700 278573.800000
81.033500 323765.500000
87.010500 319019.900000
88.018300 17057006.000000
89.026100 63242772.000000
90.033900 2343734.000000
91.041700 10339608.000000
92.025800 14012747.000000
93.021100 165420.700000
95.036600 148491.000000
101.026000 927550.800000
105.044900 123094.200000
106.028800 337291.800000
107.036600 1889699.800000
109.052400 93329.400000
116.037000 15242464.000000
117.021000 62959960.000000
118.052500 275698.800000
119.036700 3745683.000000
121.015700 488993.000000
134.047600 312662.800000
135.031600 1482354.000000
137.047300 1835799.100000
140.919700 4109314.800000
144.032000 2024548.900000
145.016000 13938207.000000
146.023900 1014059.200000
148.003000 133925.500000
162.042500 2026745.500000
164.919800 8842921.000000
176.022000 1319095.400000
177.005900 11673871.000000
188.919800 3881582.800000
189.915000 992543.600000
190.935400 288802.300000
194.032500 985681.812500
215.930800 90334472.000000
217.946700 168630.200000
242.941500 597754.100000
270.936800 497008.100000
271.920500 2408945.800000

>ms2
50.015200 1240564.600000
51.023000 145624.600000
52.018200 1908636.400000
52.030800 325521.600000
53.002200 2056495.400000
53.997500 795086.700000
54.033900 342899.800000
54.046500 1044139.800000
61.007400 16162876.000000
62.015200 125521392.000000
63.010400 4099603.800000
63.023000 10832433.000000
64.018200 2089418.100000
64.030800 5767689.500000
65.026000 8929762.000000
66.010100 12781560.000000
67.005300 256650.900000
67.041700 264315.900000
68.013100 550117.100000
68.997200 392535.000000
69.992400 147596.500000
74.015100 552408.400000
75.010400 1649903.200000
75.022900 316519.900000
76.018200 965527.800000
76.030700 470008.900000
77.002200 418629.400000
77.013400 165161.500000
77.026000 280916.400000
78.010100 1945614.600000
78.033900 853834.400000
79.017900 5583526.000000
79.041700 3179525.200000
80.013100 405633.700000
80.025700 136150.000000
81.033500 395086.600000
87.010400 1469544.500000
88.018300 28595856.000000
89.026100 53317184.000000
90.021400 329021.300000
90.033900 3010419.200000
91.005300 433807.700000
91.041700 5443141.000000
92.025700 8372041.500000
101.026200 900491.400000
105.044800 284384.100000
106.028900 301894.100000
107.036700 1677215.100000
116.037000 6220465.000000
117.021000 22403552.000000
119.036700 442338.700000
135.031600 613858.900000
137.047300 346120.700000
140.919700 4634417.500000
145.016000 2222368.800000
162.042400 131870.700000
164.919800 7579984.000000
165.914900 250784.600000
177.005900 1833696.125000
188.919700 2059013.500000
189.914900 643922.600000
215.930800 18240882.000000

>ms2
50.015200 1467783.500000
51.023000 326031.400000
52.018200 2925601.000000
52.030800 334517.700000
53.002300 2264794.200000
53.997500 1124891.200000
54.046400 526576.200000
61.007300 31363898.000000
62.015100 122021320.000000
63.010400 6598599.000000
63.023000 16341863.000000
64.018200 2413470.500000
64.030800 4968524.000000
65.026000 5840538.000000
66.010100 5814889.500000
68.997200 245171.200000
69.992400 143661.400000
74.015100 777887.100000
75.010400 2611246.000000
75.023000 763473.100000
76.018200 847300.800000
76.030800 240837.800000
77.002100 850014.600000
77.013500 413945.800000
77.026000 122741.300000
78.010100 2864458.200000
78.033900 500697.800000
79.017900 6356704.000000
79.041700 1140983.100000
80.013100 636622.100000
81.033600 147365.700000
87.010400 2545412.000000
88.018200 31371852.000000
89.026000 19592038.000000
90.021400 141425.500000
90.034000 1760046.200000
91.005300 122301.700000
91.041700 1743886.500000
92.025700 2750486.000000
101.026100 323210.600000
104.013000 135438.100000
105.044900 304149.000000
107.036700 478769.600000
116.037000 1350966.100000
117.021000 4222221.500000
140.919700 2788515.000000
164.919800 3426863.200000
188.919700 670975.100000
189.914900 324561.700000
215.930800 2654512.000000

