>compound EQ70662967
>parentmass 400.1467
>ionization [M+H]+
>formula C21H19F2N3O3
>rt 270.000000
>profile orbitrap
#smiles_iso CN1CCN(CC1)C2=C(C=C3C(=C2)N(C=C(C3=O)C(=O)O)C4=CC=C(C=C4)F)F
#smiles_can CN1CCN(CC1)C2=C(C=C3C(=C2)N(C=C(C3=O)C(=O)O)C4=CC=C(C=C4)F)F
#inchikey NOCJXYPHIIZEHN-UHFFFAOYSA-N
#pubchem_id 56206
#mb_accession EQ366601,EQ366602,EQ366603,EQ366604,EQ366605,EQ366606,EQ366607,EQ366608,EQ366609

>ms2
356.157000 8662567.000000
382.135900 5456845.000000
400.146700 181831408.000000

>ms2
58.065200 1965724.800000
70.065100 506941.800000
72.080800 487671.000000
84.080800 406404.500000
85.088500 95521.500000
258.072300 185099.900000
273.083000 177310.400000
281.088800 133137.100000
285.083500 1795287.400000
293.108300 102739.100000
299.099300 22752268.000000
306.139900 143988.600000
308.119800 247495.100000
311.098400 257350.800000
313.114900 329907.300000
325.115200 93879.100000
327.117800 98045.000000
336.150900 1071136.500000
339.118500 123713.700000
354.141400 3199647.500000
356.157100 79071984.000000
362.129800 231605.400000
380.140800 88939.100000
382.136400 45252856.000000
400.146900 77492120.000000
401.150100 144229.200000
402.150100 115347.900000

>ms2
56.049500 390460.400000
58.065200 8776650.000000
70.065200 3405433.200000
72.080800 1238246.800000
82.065200 467405.400000
84.080800 729007.400000
85.076100 99117.900000
85.088600 390173.600000
97.076200 113388.100000
98.084000 122064.900000
99.091800 88852.500000
136.055700 86378.700000
148.055900 90061.700000
155.060700 113565.900000
165.082600 140005.900000
173.107400 86685.000000
185.107500 540504.900000
196.099800 96183.500000
201.066200 86417.600000
203.061800 260742.600000
219.092600 190592.100000
221.072400 117492.100000
225.082700 112236.700000
237.082800 95367.600000
238.066200 356489.100000
242.078000 215238.800000
243.073300 233029.500000
249.082500 80377.800000
251.098300 221000.700000
256.056000 198072.000000
257.064800 294026.900000
257.089300 142133.500000
258.072800 760762.100000
263.098300 405437.400000
264.105600 170644.500000
265.113900 165657.000000
269.089000 129786.700000
270.073000 86107.900000
270.096700 97666.700000
271.080500 924617.200000
272.088700 217455.300000
273.083500 297627.300000
277.101000 195947.800000
278.072500 120366.600000
278.108900 620857.000000
279.093100 1931579.900000
280.124300 253205.500000
281.088500 1354374.900000
282.056400 91945.800000
282.073000 177931.900000
283.067900 787988.800000
284.052100 138758.800000
284.076100 232224.700000
285.083600 5573683.000000
290.109100 128975.100000
291.080400 110118.600000
291.094100 212146.900000
291.116600 591131.600000
292.088300 275577.200000
293.071600 103376.600000
293.094900 325853.200000
293.110100 244775.400000
297.083600 752632.400000
299.099300 60438040.000000
302.063500 155315.300000
304.124700 192817.800000
305.072500 292344.000000
305.094600 210292.800000
305.133000 208107.100000
306.103900 1585155.500000
306.140200 6284592.500000
307.087700 78106.100000
307.111000 195488.800000
307.148100 168649.900000
308.119700 1040031.200000
311.085300 143560.400000
311.099500 2192989.000000
313.115000 812324.800000
317.072700 90822.400000
318.104200 88003.600000
318.138600 164971.100000
319.074700 102915.100000
320.119100 211885.200000
323.082300 114882.200000
325.079700 225838.900000
325.097300 62909.400000
325.115300 128310.900000
326.110100 160517.100000
326.146000 260631.800000
329.073100 110931.900000
333.126400 223879.600000
334.099200 1194441.625000
334.135100 3272666.200000
336.150900 1555879.800000
338.146900 221230.900000
339.081600 1500377.400000
339.117700 1061420.800000
343.089200 116805.200000
352.089000 249056.900000
352.109600 668980.500000
353.097400 135642.400000
354.105400 2884614.200000
354.140800 2068858.900000
356.157100 7544311.500000
362.130100 1979667.400000
367.113100 162009.400000
380.141100 932385.300000
382.136500 27667648.000000
400.147000 41201920.000000

>ms2
56.049500 1053189.900000
57.057300 146948.000000
58.065200 8472479.000000
67.041700 99846.600000
68.013100 91954.800000
68.049500 51776.800000
70.065200 5314002.000000
71.073000 260669.000000
72.080800 1321462.200000
80.049500 31744.500000
82.065200 1552377.500000
83.060400 224650.700000
83.073000 36854.600000
84.080800 464036.000000
85.076100 200978.600000
85.088600 183891.200000
89.038600 52438.600000
95.060300 28215.100000
97.076100 835740.400000
98.083900 632603.100000
99.091700 102861.700000
103.054300 36762.300000
107.029200 46913.400000
109.044900 428181.100000
110.040200 122396.200000
115.054300 109692.100000
116.049500 229480.000000
117.057200 194970.100000
121.045000 226524.500000
122.040200 158597.900000
123.024000 115643.100000
123.035400 27489.800000
123.060600 87719.100000
124.055900 28864.500000
128.049600 418766.700000
130.065200 249260.800000
131.060600 49903.900000
133.044900 231116.000000
134.040100 384244.900000
134.060100 177257.000000
135.048000 284668.300000
136.055900 696160.800000
137.063700 42548.600000
138.035200 112496.000000
141.057800 29928.000000
142.065400 117254.300000
144.044900 41922.500000
144.055900 109157.200000
144.080900 288598.900000
145.076200 28131.500000
146.040100 40085.200000
147.024600 31039.000000
148.055800 1332803.600000
149.040100 29874.300000
149.051100 49615.900000
149.063500 86555.100000
150.035300 87681.500000
150.071700 143071.300000
151.067100 48624.900000
152.050500 148058.500000
154.065700 111580.500000
155.060500 673779.100000
156.044400 187070.000000
156.068400 30019.400000
156.081200 138553.400000
157.076100 173807.000000
158.040400 153660.500000
158.096600 44992.000000
160.055900 130784.000000
161.051200 211499.200000
162.035300 267389.600000
162.071600 174138.300000
164.050700 262965.200000
165.082600 276179.300000
169.076300 96782.600000
170.084100 159954.800000
172.099900 144730.100000
173.051100 90361.700000
173.107300 180686.000000
174.059200 130013.200000
175.066800 695399.500000
176.050800 348865.400000
176.074900 42057.700000
176.087300 45660.900000
177.046200 30110.200000
177.082700 39594.700000
178.066400 48841.800000
178.090400 35367.200000
180.045700 636625.300000
181.076500 27642.900000
183.092000 38047.100000
184.056400 58197.400000
184.063300 43388.100000
185.050900 207735.900000
185.107500 3757475.000000
186.034700 25655.000000
186.059000 114536.900000
186.071700 33682.100000
187.067000 26164.400000
189.046000 37729.800000
189.082500 44438.900000
190.065300 84120.300000
191.098000 328076.500000
192.106000 151014.000000
194.061600 47488.100000
196.099700 845790.800000
197.076600 28510.100000
198.071600 140674.500000
201.051800 209798.400000
201.066100 522700.100000
203.061700 1042986.400000
204.081300 82117.500000
205.076600 39611.200000
205.113900 233548.500000
209.063900 745880.200000
210.071600 559540.800000
211.079500 181474.800000
213.102100 46889.400000
216.062200 139046.000000
219.056900 90594.000000
219.093000 194264.800000
220.055400 34006.500000
221.072500 386703.900000
222.071600 602160.700000
223.067000 332803.200000
223.079300 106416.900000
224.087000 535273.200000
225.082500 729787.600000
226.046800 84212.900000
227.054200 562521.200000
228.062200 827906.000000
229.069900 1006616.400000
230.066100 27960.000000
230.078100 113656.300000
231.049000 26450.900000
231.073200 37806.500000
234.071600 279787.400000
235.067200 119433.100000
235.079500 226481.100000
236.050900 301845.600000
236.062300 25994.000000
236.074700 247796.000000
236.087300 302682.700000
237.058600 152907.600000
237.082700 731354.200000
237.094400 71950.300000
238.066700 1093209.600000
239.054500 84976.600000
239.074500 71013.800000
240.062200 628382.600000
241.057900 92277.300000
241.069800 1212124.000000
242.077700 1338887.900000
243.073300 445929.800000
243.092200 38340.200000
244.080900 97195.500000
245.064500 27496.500000
248.074800 214437.600000
248.087400 76168.100000
249.069900 88361.000000
249.082400 884162.100000
250.066000 83803.100000
250.077700 154333.100000
250.090400 923561.200000
251.074300 85553.600000
251.098200 1154668.800000
252.082100 258138.200000
252.104900 30865.100000
253.077600 136709.400000
254.065300 96863.900000
254.078000 187026.800000
255.049500 264925.400000
255.072900 588709.300000
255.086000 227820.200000
256.057100 3001593.200000
256.080500 265521.000000
257.065000 1372212.800000
257.088100 654358.900000
258.072800 1064911.500000
259.086700 115307.000000
260.074700 229807.000000
261.082600 787552.200000
262.077900 223541.700000
262.090600 308469.500000
263.085300 694111.200000
263.098300 1514394.400000
264.046000 438509.300000
264.069700 57890.000000
264.105600 681137.500000
265.077700 327056.500000
265.100900 265327.800000
265.114000 462338.100000
267.072800 191050.400000
268.057300 118856.200000
268.080500 204093.500000
269.064600 110031.900000
269.088800 1230534.800000
270.059800 130482.100000
270.072800 311651.400000
270.096400 842734.300000
271.067500 240516.400000
271.080500 1606843.500000
271.104800 271279.000000
272.075400 196446.000000
272.088600 783646.100000
273.083300 261419.800000
274.090300 87986.500000
275.085200 27267.300000
275.098200 174048.200000
276.069500 79081.400000
276.093400 297797.100000
276.106500 134799.200000
277.063200 35751.600000
277.077600 469055.900000
277.101200 714398.800000
277.114300 183596.300000
278.072600 483258.562500
278.085300 332053.300000
278.109000 1806559.200000
279.093100 5357212.000000
280.124700 648578.200000
281.088700 2254037.200000
282.056400 504985.300000
282.072600 571958.700000
282.097200 84411.500000
283.068000 1829016.200000
283.104100 319146.000000
284.052200 561907.100000
284.075700 694816.400000
285.083700 3802497.500000
288.093700 30268.500000
289.054600 137043.300000
289.077300 116696.500000
290.072500 237586.800000
290.108900 1142358.600000
291.080300 887445.100000
291.093500 376081.700000
291.116900 1629902.100000
292.088300 428360.900000
292.101600 65804.300000
292.124300 194453.800000
293.072400 288958.300000
293.095800 448494.031300
293.109200 245875.900000
294.103900 28224.400000
296.075800 43314.800000
297.083700 1807921.100000
298.091400 112753.300000
299.099400 25556742.000000
302.062600 529632.400000
303.093100 108701.300000
304.088200 286727.900000
304.124600 516058.600000
305.072600 584406.600000
305.095000 293546.400000
305.111200 48337.400000
305.132700 938205.900000
306.067500 736204.200000
306.104000 2260245.000000
306.140400 4343161.500000
307.087900 128366.600000
307.148400 173367.500000
308.119800 279690.700000
309.084200 39647.800000
310.078200 136124.100000
311.062600 718727.200000
311.085100 800273.700000
311.099800 378040.500000
311.121600 240640.900000
313.077700 28998.500000
313.115100 219100.700000
315.070000 46065.100000
317.073000 227442.000000
318.067600 470289.200000
318.103800 298929.500000
318.140300 111597.800000
319.072700 371062.600000
320.083000 38974.500000
320.119500 242351.600000
323.082700 234584.900000
324.077800 358412.687500
324.094900 165396.900000
324.112800 363526.156300
325.079000 899733.200000
325.099000 133457.400000
326.110100 122213.600000
326.146800 317237.800000
329.073600 727126.100000
332.083600 89172.200000
332.120200 149827.700000
333.127300 235915.500000
334.099100 1066743.400000
334.135000 1100724.900000
335.082700 114294.700000
336.078100 302717.300000
336.150700 111811.000000
338.074000 250359.000000
338.111000 46284.700000
338.146600 467217.100000
339.081600 1633549.800000
339.116600 548104.200000
343.089200 684929.000000
346.098300 103043.100000
352.089200 485576.900000
352.109600 421748.400000
353.097600 190469.600000
354.105200 823695.600000
356.156800 88612.200000
362.130400 606023.600000
367.112400 102557.900000
380.141100 245153.300000
382.136400 3158733.200000
400.147100 4383863.000000

>ms2
53.002200 44167.800000
53.038600 20310.700000
54.033900 83175.600000
55.041700 22242.100000
55.054300 26737.300000
56.049500 1503079.800000
57.057400 300473.200000
58.065200 7032814.000000
63.023000 25007.900000
65.038600 45938.200000
67.041700 217102.400000
68.013100 88484.700000
68.049400 141302.200000
69.044800 21439.700000
69.057400 23142.800000
70.065200 5532270.500000
71.073000 321268.200000
72.080800 1080286.200000
75.022900 50238.300000
80.049600 43210.900000
81.057400 25285.700000
82.065200 2208091.000000
83.029200 178783.200000
83.060400 470776.900000
83.073000 102998.300000
84.080800 225381.000000
85.076000 196359.000000
85.088700 39545.100000
89.038600 596776.400000
91.054400 40342.400000
92.049700 42533.600000
95.060500 39213.900000
96.068400 29754.300000
97.076100 896011.100000
98.083900 313018.200000
99.091900 112384.300000
101.038700 34880.000000
103.054300 235422.600000
104.049600 92433.200000
105.045000 29398.200000
107.029200 548726.300000
108.037100 115399.600000
109.044900 1308222.600000
110.040100 310222.200000
113.039800 48858.700000
114.034100 34604.900000
115.054300 432685.800000
116.049500 737110.800000
117.057300 329071.600000
117.069900 40008.700000
118.065200 106687.600000
119.049300 45202.800000
120.037100 33477.800000
121.044900 505652.700000
122.040200 438119.100000
123.024100 193755.700000
123.035400 245032.400000
123.060900 29322.500000
124.055900 135675.000000
128.049600 1711393.800000
129.044800 332759.500000
129.057500 156713.000000
130.065300 651832.200000
131.060500 163448.100000
132.044700 20503.400000
133.044900 466540.700000
134.040200 1277698.000000
134.060200 519155.200000
135.047900 714261.200000
136.055800 785895.800000
137.051000 25851.700000
137.063700 81987.800000
138.034900 161331.200000
140.049800 105486.600000
141.057600 93099.400000
142.065300 248889.200000
143.060600 33574.900000
143.073100 181335.500000
144.044700 104968.100000
144.055700 325784.000000
144.080900 612474.500000
145.076200 34092.100000
146.040200 328966.000000
146.060200 36699.700000
147.024000 174824.500000
147.048000 112838.800000
148.055800 3121373.000000
149.039600 42244.300000
149.051200 154129.400000
149.063800 139650.400000
150.035200 94675.100000
150.058900 48752.400000
150.071500 174907.700000
151.067100 50617.600000
152.050800 403724.600000
153.044600 27616.300000
154.040000 29652.700000
154.065400 271586.200000
155.060500 1774642.900000
156.044600 294916.200000
156.068300 216975.600000
156.080900 311772.100000
157.045300 32036.500000
157.076100 302564.600000
157.088800 133019.300000
158.040100 346574.200000
158.096800 41780.700000
159.055700 23768.200000
159.091900 77326.900000
160.043400 272194.200000
160.056000 129987.900000
161.051100 238294.600000
161.063800 104216.400000
162.035100 318835.500000
162.046300 103723.900000
162.071400 335555.700000
163.042600 23592.400000
164.050600 361481.400000
165.082800 91567.200000
166.065600 32966.000000
167.060600 83925.500000
167.073200 47059.600000
167.098200 30261.700000
168.080800 34941.300000
169.076200 263380.200000
170.083900 299519.400000
171.061300 22031.300000
171.092100 24445.000000
172.055700 27259.300000
172.099300 73393.400000
173.051000 273940.600000
173.107800 43843.500000
174.034900 28521.400000
174.059300 238982.400000
175.066800 837317.200000
176.050700 354233.200000
176.074700 29861.500000
176.087200 126099.600000
177.046000 49220.200000
177.070200 82804.900000
177.082800 100658.500000
178.066100 25329.000000
179.061200 83884.100000
180.045700 1120754.600000
181.044800 100692.300000
181.076200 194961.800000
182.071100 24290.800000
183.061000 945583.200000
183.092000 84738.300000
184.055900 292803.300000
184.063500 100398.500000
185.051300 273839.200000
185.107500 2981972.800000
186.058900 379117.400000
186.071700 114505.600000
187.055600 21664.500000
187.066600 82447.200000
188.050700 93940.300000
189.046100 45813.000000
189.082600 95905.500000
190.065300 333243.700000
191.098200 132032.000000
192.106300 41619.600000
194.061300 181333.700000
195.048000 93069.000000
195.060900 44657.800000
195.091700 158502.900000
196.056100 169876.300000
196.099700 659746.200000
197.063900 34922.800000
198.071700 314327.900000
200.042700 36057.000000
201.051300 1117311.100000
201.065700 498677.000000
202.046000 141634.100000
202.066400 23565.500000
203.061600 1189269.400000
204.081200 213341.900000
205.077000 46938.300000
205.113400 73314.600000
207.058400 130785.679700
208.055900 1144998.100000
209.063800 2816144.500000
210.071600 829900.200000
211.079400 303303.900000
212.051400 40528.000000
214.046400 141352.100000
214.058800 93291.000000
214.067500 33243.500000
215.054200 100427.700000
215.067000 113453.800000
216.061900 420623.600000
219.056800 148565.900000
220.056400 105009.400000
221.053100 34352.300000
221.063100 217118.000000
221.073000 168717.700000
222.059900 96455.100000
222.071500 1824681.400000
223.067000 984529.100000
223.079500 509803.600000
224.074800 225798.100000
224.087400 703441.400000
225.082400 392522.800000
226.046400 386651.700000
227.054300 3092621.800000
228.062200 1747426.600000
229.069800 2680692.500000
230.041300 81932.100000
230.065600 49385.700000
230.076600 34233.000000
231.049200 78057.000000
231.073400 22892.800000
231.092100 122922.800000
233.063400 49468.200000
234.059000 112364.700000
234.071800 442867.800000
235.067100 340282.100000
235.079600 575948.700000
236.050800 316637.200000
236.062100 90636.200000
236.074800 678311.100000
236.087200 390895.300000
237.058900 336551.500000
237.082500 961864.700000
237.094800 104969.300000
238.047000 75026.400000
238.066600 820606.400000
238.090100 74978.200000
239.054100 394816.500000
239.074400 136731.600000
240.062100 1678830.000000
241.057700 122499.300000
241.069700 1851790.100000
242.065500 184086.400000
242.077400 1782979.600000
243.073000 369730.900000
243.092100 133133.300000
244.056700 108793.200000
244.081100 320687.300000
244.100600 25281.000000
245.064600 310456.700000
246.072300 99322.900000
247.067000 235198.600000
247.078200 33508.900000
248.062300 102595.700000
248.074800 575393.800000
248.087400 157730.000000
249.070000 132418.700000
249.082300 1519138.100000
250.078100 203965.700000
250.090200 1442062.500000
251.074500 210664.600000
251.085800 105141.400000
251.097700 696206.500000
252.082200 260407.600000
252.106200 28632.700000
253.057400 45890.400000
253.069000 307761.000000
254.041300 44936.700000
254.065000 389885.700000
254.078100 298960.500000
255.049600 814871.100000
255.073100 1450768.500000
255.085900 252858.800000
256.057100 4761783.000000
256.080600 432861.600000
257.064800 1311333.800000
257.087000 375602.093800
258.072400 576634.500000
259.044300 35532.600000
259.087000 104580.900000
260.074700 412474.900000
261.082400 1017591.800000
262.077800 728505.700000
262.090600 443486.600000
263.061800 125632.700000
263.085500 1182957.800000
263.098500 1432681.100000
264.045900 172356.300000
264.069400 79728.200000
264.093300 317742.100000
264.106300 434863.100000
265.077600 363650.000000
265.101200 390409.687500
265.113900 151308.500000
267.072800 344003.700000
268.057300 136245.500000
268.080800 433099.300000
269.066300 218809.828100
269.088700 1203522.500000
270.059700 87528.300000
270.072800 774542.200000
270.095800 388686.800000
271.067300 263566.400000
271.080500 1133020.800000
272.075400 164966.100000
272.088600 395429.800000
273.083200 325550.600000
274.077700 31018.300000
274.090400 48111.000000
275.086000 146686.000000
275.097900 191274.100000
276.069700 123012.300000
276.093100 532100.700000
277.064700 50166.900000
277.077600 359964.800000
277.101300 523423.800000
277.114300 163195.200000
278.072400 129012.400000
278.085400 350427.500000
278.108700 540393.900000
279.093100 2405162.000000
280.080800 102039.300000
280.124000 207276.000000
281.088700 1048399.200000
282.036300 48774.700000
282.056600 286938.100000
282.072900 328088.000000
282.095900 44261.300000
283.067900 1340219.800000
283.104000 216456.800000
284.052300 229340.800000
284.075500 467050.600000
285.083600 1382962.400000
287.039000 137294.800000
288.094200 37279.700000
289.054700 418509.800000
289.077600 136057.900000
289.101400 136768.000000
290.073000 544366.700000
290.108800 1176015.400000
291.080400 625222.400000
291.093700 162274.800000
291.116600 430738.400000
292.088600 288943.400000
292.124500 91543.200000
293.072400 113392.800000
293.094900 30374.600000
293.109400 46822.000000
296.076400 41074.000000
297.061200 165457.671900
297.083500 1277835.000000
299.099300 3566796.800000
302.062500 178639.600000
303.093400 34291.400000
304.087700 161279.900000
304.124300 258899.000000
305.072200 329824.400000
305.132300 277037.700000
306.067500 174691.100000
306.103800 231889.500000
306.140200 327367.300000
309.083700 31609.100000
310.078600 184617.700000
311.063000 579062.500000
311.085700 345350.600000
311.123000 82337.800000
313.079700 30528.400000
315.070300 86386.700000
317.072200 120083.398400
318.067500 524993.400000
318.103600 173251.300000
319.074500 87134.400000
320.119700 82295.800000
323.083200 130795.300000
324.093800 89943.400000
325.079600 274672.700000
325.097500 52249.600000
329.073200 370784.800000
332.084100 33381.400000
332.120000 42955.500000
334.098500 141691.600000
335.083700 28377.100000
336.078200 354706.800000
338.073900 128140.600000
338.109100 38806.600000
338.146900 88244.100000
339.081400 147314.000000
339.119000 29389.400000
343.089200 115574.200000
346.098200 45611.200000
352.089900 77445.500000
400.145400 43472.600000

>ms2
50.015100 32445.200000
51.022900 42894.500000
53.002300 116577.300000
53.038600 95725.900000
54.033900 97115.200000
55.041700 32238.100000
55.054300 25356.900000
56.049500 1720753.900000
57.057400 285004.700000
58.065200 4976387.500000
63.022900 153791.800000
65.038600 100191.300000
67.041700 252285.700000
68.013100 24148.200000
68.049500 136700.300000
70.065200 3670469.000000
71.029200 49104.900000
71.073000 260603.000000
72.080800 617674.100000
74.015200 20986.400000
75.022900 304717.500000
77.038600 126560.600000
78.046500 23293.500000
79.054300 25912.500000
80.049500 148364.200000
81.057500 30449.900000
82.065200 1840925.000000
83.029200 593480.800000
83.060400 447503.800000
83.073000 149549.500000
84.037100 46182.400000
84.080900 39954.300000
85.076100 163450.600000
87.023000 34981.700000
89.038600 1348685.800000
90.033900 75447.100000
90.046600 35975.500000
91.054300 211528.400000
92.049500 44946.100000
95.029300 106586.600000
95.049200 153292.600000
95.060500 152702.600000
96.037100 50338.200000
96.044400 38918.400000
96.068300 29272.700000
97.045000 31098.400000
97.076100 482866.500000
98.040000 35052.600000
98.084000 110659.300000
99.091700 110090.400000
101.038700 158034.600000
102.046400 175359.400000
103.054300 591843.900000
104.049600 248709.000000
105.044900 115506.300000
107.029200 1646344.900000
108.024500 114284.000000
108.037100 473397.800000
109.044900 1764659.100000
110.040200 420843.900000
113.039900 251469.000000
114.034100 45657.700000
115.041900 48880.100000
115.054400 799819.700000
116.049600 909787.100000
117.057400 424614.300000
117.070000 35098.300000
118.028900 23309.000000
118.065200 76848.400000
119.049200 186353.500000
120.037200 298274.500000
121.045000 557735.600000
122.040200 630444.600000
123.024200 236236.400000
123.035400 413976.100000
123.060700 44584.500000
124.056000 140965.600000
127.041800 28822.800000
127.054500 33965.000000
128.049600 2343587.500000
129.044800 731556.600000
129.057400 314394.900000
130.065300 695635.900000
131.060500 220612.800000
132.024600 108164.300000
132.044400 22315.800000
133.032600 41454.900000
133.045000 555931.200000
134.040200 1840738.000000
134.060100 443004.400000
135.048000 1094830.100000
136.055900 529886.800000
137.051400 32658.400000
138.035200 92308.000000
140.027100 36034.600000
140.049700 241306.400000
141.045100 24858.900000
141.057400 183760.900000
142.052800 122728.900000
142.065300 308018.400000
143.060600 43291.500000
143.073200 276547.800000
144.044600 81035.000000
144.055800 268439.000000
144.080900 377646.100000
146.040200 598834.700000
146.060200 159522.200000
147.024300 281083.600000
147.035700 47636.300000
147.048200 219130.500000
148.055800 3113066.800000
149.039400 24311.200000
149.051400 98410.000000
149.063800 108678.000000
150.035300 83022.900000
150.058800 46589.900000
150.071600 119478.000000
151.043000 22797.700000
151.054400 25820.000000
152.050800 429183.900000
153.045100 49050.600000
154.040300 101790.200000
154.065400 264263.200000
155.060500 1625659.900000
156.044700 173689.500000
156.068200 363562.600000
156.080900 306622.300000
157.044700 158456.300000
157.076100 220602.600000
157.089000 91684.900000
158.040300 685335.100000
159.035400 40363.900000
159.048300 42745.700000
159.092200 40419.800000
160.043400 280610.400000
160.055900 132143.800000
161.051400 244872.600000
161.063500 191360.300000
162.035400 218098.200000
162.046400 132846.700000
162.071400 253446.500000
163.043000 26237.200000
163.054500 119184.900000
164.050700 413019.800000
165.045000 33849.600000
165.082700 34574.600000
166.053000 76743.800000
166.066200 32429.000000
167.060600 125261.500000
167.072700 40457.200000
167.097900 21747.900000
168.068500 80584.500000
168.080600 35662.400000
169.045200 24399.100000
169.076200 386154.600000
170.052800 95187.900000
170.084000 355247.700000
171.061100 26106.700000
171.092200 22888.100000
172.055800 134086.300000
172.099200 19695.200000
173.051200 402973.000000
174.035300 35774.300000
174.059100 303109.100000
175.066700 557560.800000
176.050600 176017.100000
176.062400 77770.600000
176.074800 76401.200000
176.087300 78289.900000
177.046000 29948.400000
177.057800 29859.200000
177.070200 117879.200000
177.082200 45227.100000
178.065900 91540.800000
179.060900 26032.600000
180.045700 532881.400000
180.068400 86220.000000
181.045100 457714.700000
181.076300 99843.400000
182.040200 42799.000000
182.053000 209011.200000
182.071500 30034.700000
183.060800 1164635.000000
183.092000 133513.900000
184.055900 355448.200000
184.063500 114493.100000
185.051100 197522.500000
185.063600 213045.700000
185.107600 640443.900000
186.048000 76782.700000
186.059000 396254.500000
186.071800 85542.400000
187.055700 75156.400000
187.067000 45374.400000
188.042900 84786.100000
188.050200 157197.800000
189.046100 98163.900000
189.057800 30249.600000
189.082400 75703.800000
190.065300 409370.400000
191.073000 46330.900000
191.097900 24685.200000
194.052600 108140.500000
194.061100 96116.100000
194.084100 30723.600000
195.048000 219855.200000
195.061400 173526.718800
195.091700 177235.800000
196.055800 361449.000000
196.068500 204907.400000
196.099500 158697.100000
197.051400 95472.400000
197.063600 178090.200000
197.076400 45404.700000
198.071700 298899.600000
199.036100 28964.300000
200.043100 535168.800000
201.051200 2825131.800000
202.046500 449662.800000
202.066600 139131.900000
203.054300 101136.500000
203.061900 929601.600000
203.072200 64846.900000
204.038600 276253.600000
204.081100 246898.400000
205.076700 89997.400000
205.113900 24010.200000
206.040500 33963.700000
207.048300 191117.800000
207.061000 205804.700000
208.056000 3440746.500000
209.063800 3875706.200000
210.060300 37374.900000
210.071700 553089.500000
211.079300 308720.200000
212.051000 108566.200000
214.046600 140593.000000
214.059100 214055.700000
214.067500 57997.600000
215.053500 287341.300000
215.066600 27258.700000
216.061900 512077.100000
216.080200 36318.700000
217.077900 25221.900000
219.048300 90660.200000
219.057500 43605.100000
220.056100 292847.200000
221.052300 65209.300000
221.063700 597163.700000
221.073500 48275.300000
222.071600 2933873.500000
223.066800 1185407.600000
223.079400 441912.300000
224.074900 195516.400000
224.087300 472959.700000
225.038400 22268.100000
225.058900 108830.100000
225.082700 78515.400000
226.046600 1515310.400000
226.064500 139249.718800
227.054400 5425016.500000
228.062200 2048422.400000
229.069700 2345534.200000
230.041300 104096.100000
230.065100 88030.800000
231.049300 25530.200000
231.091900 29822.600000
232.056200 176039.400000
233.050400 28236.500000
233.063800 140578.200000
234.059000 275709.500000
234.071600 608719.400000
235.066900 619327.600000
235.079500 685541.400000
236.051500 345408.400000
236.062300 131189.000000
236.074700 668452.100000
236.087300 361457.600000
237.058700 317739.100000
237.082600 590537.600000
237.094600 48922.800000
238.046400 92446.600000
238.066800 504855.700000
238.090000 48418.000000
239.054100 713358.400000
240.062200 2772102.800000
241.057400 151446.400000
241.069600 1172939.200000
242.065400 174415.600000
242.077200 1148980.200000
243.049900 34642.700000
243.072700 159369.800000
243.092200 111741.200000
244.057200 119958.500000
244.080400 253911.500000
244.099300 64086.000000
245.064300 234786.700000
246.071100 75965.000000
247.066800 407959.400000
247.078700 42142.400000
248.062200 149629.100000
248.074700 733616.600000
248.087300 74143.300000
249.069900 149740.100000
249.082400 1520061.100000
250.067100 180018.400000
250.078000 118566.800000
250.090100 806238.500000
251.074100 102461.000000
251.085500 150697.300000
251.098100 159015.800000
252.060200 153761.453100
252.082200 126349.900000
253.056800 133640.100000
253.070100 310121.600000
254.042200 168777.100000
254.065100 475824.800000
254.077900 366751.200000
255.049500 1035950.100000
255.073000 1276335.500000
255.085600 99244.000000
256.057200 3277936.000000
256.080600 286500.300000
257.064900 504969.800000
257.088900 105182.700000
258.072300 203485.100000
259.043800 83174.100000
259.066400 104909.000000
260.074800 553434.900000
261.082400 830183.100000
262.077700 1112905.500000
262.090400 330121.300000
263.062900 153592.400000
263.085400 379034.100000
263.098300 813946.100000
264.046400 34331.100000
264.093400 312546.700000
264.106200 87677.200000
265.057200 30854.700000
265.077200 102934.700000
265.100800 160484.500000
265.113900 50095.500000
267.072900 325925.400000
268.057400 249097.900000
268.081000 293525.800000
269.065600 168824.900000
269.088500 456599.900000
270.060000 62268.600000
270.072700 707019.900000
271.067000 217103.406300
271.080700 398696.000000
272.075600 45214.500000
272.088500 38592.600000
273.082500 195512.093800
274.077400 44944.100000
274.090600 90607.800000
275.085000 177298.900000
275.098300 86832.000000
276.069500 88278.900000
276.093500 418467.700000
276.106900 37166.100000
277.077700 257488.100000
277.101000 169222.200000
277.114500 91232.200000
278.085300 81402.200000
278.109100 88049.100000
279.073100 118016.200000
279.092900 338229.400000
280.081000 47919.200000
281.089400 260435.900000
282.035600 82447.300000
282.056300 82108.000000
282.071900 77715.100000
282.096500 41605.800000
283.068200 661195.900000
283.105000 40890.600000
284.075700 146238.500000
285.083600 222006.900000
287.039800 48543.100000
288.093600 115641.700000
289.053200 153848.203100
289.077400 68968.200000
289.101300 253333.600000
290.072800 537018.100000
290.109000 481681.400000
291.080200 150928.200000
291.094500 46419.200000
291.115800 35133.500000
292.088000 122646.800000
297.083900 517246.100000
299.099000 197393.600000
304.088600 73183.000000
304.124500 117958.400000
305.071700 93997.800000
305.131300 24299.800000
306.103300 26603.100000
310.078400 32112.700000
311.063000 184498.400000
311.084200 22568.100000
318.067800 153439.600000
318.103600 44029.500000
329.073400 49097.700000
336.077800 126735.800000

>ms2
50.015100 130532.000000
51.023000 193275.900000
52.018200 23556.800000
53.002300 244654.000000
53.038600 284856.400000
53.997600 21929.500000
54.033900 102193.400000
55.017900 20848.700000
55.041700 25781.400000
55.054300 43920.100000
56.049500 1376061.100000
57.013500 433364.200000
57.057300 194435.200000
58.065200 2165727.200000
59.029200 44697.200000
62.015100 83457.100000
63.023000 713948.800000
65.038700 176837.200000
67.041700 331774.000000
68.049500 80400.500000
69.044800 31977.400000
70.065200 1213772.200000
71.029200 88464.100000
71.072800 21147.000000
72.080800 205921.900000
74.015200 262446.600000
75.022900 1808029.800000
76.018100 42698.700000
76.030900 29426.800000
77.038600 355743.300000
78.033900 119379.500000
78.046400 108778.600000
79.054200 26132.800000
80.049500 132696.000000
81.013600 230063.600000
82.065200 784757.200000
83.029200 1555013.900000
83.060400 219430.400000
84.037000 193208.200000
85.076000 43012.600000
87.023000 173135.000000
88.018300 29483.600000
88.030800 81115.500000
89.038600 2330987.000000
90.034000 155612.600000
90.046500 172333.400000
91.041800 21776.900000
91.054300 281629.200000
94.021500 93679.600000
95.029300 363986.100000
95.049200 632801.200000
95.060500 101825.500000
96.037100 166313.100000
96.044500 208507.200000
97.076100 106002.000000
98.040300 30244.900000
99.023000 135991.200000
99.091900 27369.200000
100.018300 112651.000000
100.030900 97757.200000
101.038700 345357.000000
102.033900 134361.900000
102.046500 567144.200000
103.041700 41230.200000
103.054300 401185.000000
104.049500 220692.600000
105.013600 75397.700000
105.044800 524452.800000
106.021400 33390.900000
107.029200 4239398.500000
108.024600 210923.500000
108.037000 1050788.800000
109.044900 1099457.500000
110.040100 168444.600000
112.031900 28283.000000
113.039500 424454.700000
114.034000 226853.200000
114.046500 37285.200000
115.041900 205324.100000
115.054300 961856.300000
116.049600 384006.900000
117.057500 236177.400000
118.028700 29418.300000
118.065300 32299.900000
119.029600 27905.300000
119.049300 379322.800000
120.037100 700470.400000
121.032300 81289.400000
121.044900 288996.800000
122.040100 585035.100000
123.035400 979786.100000
124.055900 38930.400000
125.038600 44447.400000
126.034000 184297.200000
127.041900 129069.200000
127.054400 105196.100000
128.049600 1952730.900000
128.062200 111672.700000
129.044800 1367518.500000
129.057400 338773.800000
130.040100 178758.800000
130.065300 343891.200000
131.029200 201952.100000
131.060600 41071.100000
132.024400 300166.600000
132.036900 45739.100000
132.044800 39935.400000
133.032400 194880.900000
133.044900 993329.100000
134.040100 1049542.200000
134.060300 143231.800000
135.047900 807014.800000
136.055800 168635.900000
138.034200 25575.000000
139.041700 19270.100000
139.054400 29416.500000
140.027200 40380.400000
140.049600 308562.400000
141.044800 97225.000000
141.057400 319975.800000
142.052600 115138.000000
142.065200 297443.600000
143.060600 25184.200000
143.073100 128049.600000
144.037000 31348.000000
144.044500 94394.700000
144.055800 109824.400000
144.080500 25973.000000
145.032500 82885.700000
145.045200 27777.800000
146.040200 815614.400000
146.052700 76773.200000
146.060100 160501.200000
147.024300 219326.500000
147.035500 151990.400000
147.047900 229304.700000
148.055800 1279381.900000
149.039000 96082.600000
149.051200 148354.100000
149.063700 30003.300000
150.034900 84039.000000
150.046700 32767.900000
150.058800 31575.900000
150.071600 18164.500000
151.035600 182083.900000
151.042600 39001.200000
151.054400 46715.400000
152.050600 249719.800000
153.045100 158826.400000
153.057600 24279.300000
154.040100 307758.800000
154.065300 257965.900000
155.029600 65246.700000
155.060500 781042.700000
156.036900 43116.500000
156.044300 38995.200000
156.068300 197982.000000
156.080900 94288.400000
157.045100 517726.700000
157.075900 26589.500000
158.040300 991587.700000
159.035600 31836.100000
159.048100 83871.900000
159.055000 29345.600000
160.043100 140564.800000
160.056000 169075.900000
161.039000 122134.300000
161.051700 142072.400000
161.063900 43889.700000
162.035000 90867.800000
162.046200 160691.100000
162.071600 34786.200000
163.042800 20769.500000
163.054300 379579.200000
164.050000 253753.300000
165.045000 80349.900000
166.052600 142695.000000
166.065900 19363.000000
167.060700 67314.800000
168.037300 165929.800000
168.068400 150681.800000
168.081300 23344.600000
169.044800 118369.800000
169.065100 120804.600000
169.076200 300695.000000
170.040400 77296.600000
170.052700 319588.500000
170.059500 28866.500000
170.083900 76589.400000
171.035300 24466.900000
171.048200 85585.100000
172.055800 152280.300000
173.051200 318907.800000
174.046800 103851.600000
174.059200 152112.400000
175.035600 261502.400000
175.042100 43476.500000
175.054600 129205.700000
175.066300 142066.800000
176.030900 150819.500000
176.050500 120895.400000
176.062300 102143.100000
176.087200 25412.400000
177.045400 23908.100000
177.057500 112577.500000
178.065800 37651.300000
179.029500 96744.600000
179.060500 101127.200000
180.037200 242743.200000
180.045100 63792.900000
180.068400 80539.300000
181.045000 2309981.200000
182.040300 698717.200000
182.052700 475888.500000
183.048000 103457.000000
183.060700 969384.300000
184.055900 336755.100000
184.063500 30613.500000
185.051200 97424.200000
185.063800 250563.500000
186.047400 234770.000000
186.059100 135995.200000
187.042700 35624.000000
187.055400 372923.300000
187.067400 29206.700000
188.043000 291224.400000
188.049900 527063.100000
189.057900 219667.300000
190.065500 301540.100000
191.073400 37960.700000
192.036900 74334.100000
192.044900 22733.300000
193.045100 112161.300000
193.052800 20244.400000
193.064800 195394.200000
194.053000 517142.300000
194.060600 97083.900000
195.048100 832788.900000
195.061000 188490.500000
196.055900 553837.400000
196.068300 213838.800000
197.051200 268557.300000
197.063800 154149.500000
198.071600 112197.900000
199.035500 1300037.500000
200.031000 107513.500000
200.043300 896123.100000
201.051000 3106028.800000
202.046200 477585.900000
202.065700 292634.600000
203.061400 443101.300000
203.073000 73433.600000
204.038500 487642.700000
204.055800 106349.100000
204.081000 90851.300000
205.045100 87957.100000
205.076300 32825.400000
206.040400 977638.900000
207.048100 553658.600000
207.060600 326852.400000
208.056000 4927010.500000
209.063800 1805763.600000
210.059100 42084.000000
210.071600 207279.700000
211.043200 145167.300000
211.055000 41840.400000
211.079600 24838.900000
212.041900 144696.600000
212.051100 102314.300000
213.038100 142554.000000
214.045800 287257.400000
214.059100 287779.300000
215.053100 258698.200000
216.061400 211271.700000
216.081100 18749.600000
217.076300 32682.400000
218.040200 39535.700000
218.060300 77873.200000
219.048100 411072.600000
219.057300 22658.100000
220.056000 701985.500000
221.051300 386669.500000
221.063800 879811.200000
222.048200 151071.921900
222.059700 105865.200000
222.071600 1664987.000000
223.067000 412228.100000
224.074300 86221.300000
224.086500 32202.900000
225.039100 150705.400000
225.058800 131907.900000
226.046500 4810112.500000
227.054300 3636402.800000
228.062500 673301.100000
229.069000 121490.500000
229.077000 130723.835900
230.040600 23294.900000
232.033300 255125.100000
232.043400 23454.900000
232.045400 28682.900000
232.055900 363506.100000
233.051200 181357.300000
233.063800 262626.400000
234.059000 445464.900000
234.071600 507449.200000
235.066800 410632.300000
235.079600 263754.500000
236.050800 95805.600000
236.062100 101679.000000
236.074700 295902.600000
236.087000 88135.800000
237.038600 24708.700000
237.058400 36808.300000
237.082600 107235.000000
238.047300 168299.200000
238.066500 295146.800000
239.038400 138777.100000
239.053900 627012.500000
240.062100 1656354.100000
241.057300 167259.500000
241.070100 99944.800000
242.076800 192415.400000
243.049300 43717.100000
244.056600 28532.300000
246.072000 75291.400000
247.066800 648512.600000
248.062200 92682.600000
248.074700 344710.600000
248.086700 53207.000000
249.070300 40553.800000
249.082300 324277.000000
250.066500 41706.800000
250.090400 41243.200000
251.053500 25438.100000
252.050000 43755.400000
252.061600 237209.800000
253.056400 126917.000000
253.070100 247378.000000
254.041800 30080.800000
254.065100 189938.900000
254.077400 42641.200000
255.049500 245459.700000
255.072500 193412.400000
256.057100 578127.400000
259.066800 146417.200000
260.074700 338669.800000
261.069600 186627.906300
261.082700 268709.500000
262.077600 169533.875000
262.090600 115388.600000
263.061800 42206.600000
263.085100 27580.600000
263.098400 74126.800000
265.057100 28575.600000
267.072500 86532.400000
268.057200 31205.400000
268.080200 40120.200000
269.065300 38826.200000
270.072900 47789.400000
271.067800 23821.200000
273.083000 36165.100000
274.077800 37052.400000
275.085400 70635.600000
276.093700 24142.300000
279.072700 35344.400000
288.092800 92935.100000

>ms2
50.015200 313206.100000
51.023000 486262.400000
52.018200 39973.800000
53.002300 287229.000000
53.038600 292219.500000
53.997500 18609.300000
54.033900 72676.300000
55.017800 19583.400000
56.049500 896917.100000
57.013600 1471504.200000
57.057400 101526.800000
58.065200 951743.700000
59.029200 110455.200000
61.007300 92944.400000
62.015100 389671.800000
63.023000 1594135.600000
64.018200 39646.700000
65.026000 25403.500000
65.038600 231952.000000
67.041700 301716.000000
68.005700 30710.800000
68.049600 42081.300000
69.013400 26452.900000
70.021400 164035.300000
70.065200 321061.400000
71.029200 27093.500000
72.080900 71072.100000
74.015100 1213250.600000
75.022900 4378558.500000
76.018200 184385.300000
76.030700 161219.500000
77.002200 121787.500000
77.038600 533634.300000
78.033900 163277.500000
78.046400 113634.700000
80.049400 35263.100000
81.013600 763384.900000
82.008800 110454.100000
82.021300 101858.300000
82.065200 267244.000000
83.029200 1693399.400000
84.037100 89891.200000
85.007300 27878.200000
86.015200 150619.700000
87.010300 22477.600000
87.023000 317243.200000
88.018300 143115.600000
88.030800 224578.300000
89.038600 1858756.200000
90.033900 127406.800000
90.046500 189238.000000
91.041900 18617.300000
91.054300 207195.500000
92.025900 30111.400000
93.013500 47327.800000
94.021500 363799.800000
95.029200 308840.800000
95.049200 714441.300000
96.037000 171508.000000
96.044600 159947.500000
97.044800 35633.300000
98.015200 200358.100000
98.040000 22622.900000
99.010500 34223.700000
99.022900 536911.400000
100.018300 333027.700000
100.030900 157109.700000
101.038700 366392.300000
102.033900 215584.800000
102.046500 557494.400000
103.041700 87827.500000
103.054200 160042.800000
104.049700 182062.800000
105.013500 221873.200000
105.044800 472052.500000
106.008800 30781.600000
106.021400 197742.200000
107.029200 4604628.000000
108.024400 197123.100000
108.037000 505189.400000
109.044900 557268.900000
110.040100 68665.300000
111.023300 29015.800000
112.018300 37816.200000
113.026100 30881.100000
113.039500 425331.400000
114.033900 445126.700000
114.046500 111040.400000
115.041800 186190.800000
115.054300 641487.900000
116.049600 174992.400000
117.057400 137909.500000
118.021500 41403.500000
118.028900 38379.700000
119.029400 89023.700000
119.049200 196147.700000
120.037100 569963.400000
120.044300 29361.100000
121.032300 123073.000000
121.045000 108137.500000
122.040100 301831.800000
123.023100 221004.000000
123.035400 661331.600000
124.018300 89990.800000
125.019800 25461.200000
125.038700 191445.000000
126.034000 216056.800000
126.046600 82387.600000
127.041700 127416.800000
127.054200 28348.200000
128.049600 983779.600000
129.044800 932870.100000
129.057300 106655.600000
130.040100 120423.900000
130.065200 95465.600000
131.029300 632512.300000
132.024600 400286.600000
132.037100 86210.300000
133.032300 141446.800000
133.044900 863679.100000
134.040200 443120.600000
134.060000 29089.700000
135.048000 280980.200000
136.055900 28780.000000
137.038900 132682.200000
138.034200 41003.400000
139.041800 35424.900000
139.054400 88438.700000
140.049600 403486.600000
141.044800 31942.800000
141.057400 225656.200000
142.053100 72551.100000
142.065300 136474.700000
143.029300 81740.600000
144.037200 172541.400000
144.044600 44865.500000
145.032400 72169.600000
145.044900 27614.000000
146.040300 506767.100000
146.052600 99391.600000
146.060200 86237.900000
147.023400 142380.600000
147.035400 116499.100000
147.048100 75955.900000
148.018400 37466.600000
148.030800 36660.100000
148.055800 434054.200000
149.019900 79036.300000
149.038800 271626.500000
149.051100 41918.000000
150.034700 96325.400000
150.046600 228424.500000
151.035600 286352.200000
151.041400 45339.000000
152.050400 109179.000000
153.044600 85738.500000
154.040200 235293.100000
154.065300 75223.300000
155.029300 339125.900000
155.060700 256520.900000
156.024500 35199.700000
156.036900 152332.800000
156.068200 25773.000000
156.081000 26440.100000
157.045000 675201.600000
158.040200 902372.600000
159.048200 38005.000000
160.055900 32112.700000
161.038700 543232.900000
162.027800 26044.200000
162.046500 188826.500000
163.042100 30884.500000
163.054200 466644.800000
164.050000 172785.100000
165.044900 30610.000000
166.052600 31747.600000
166.065900 23800.900000
167.029500 77340.200000
167.049100 72103.500000
167.060900 19962.300000
168.037200 761087.200000
169.032300 33838.100000
169.044800 98754.700000
169.064800 90907.300000
169.075900 30188.100000
170.040200 122397.700000
170.052800 449980.000000
170.059800 34782.400000
171.035800 22836.800000
171.047700 89533.000000
172.055900 46490.500000
173.019900 35392.300000
173.038800 107948.600000
173.051100 195807.800000
174.027400 43254.800000
174.046800 280982.300000
174.058900 32902.100000
175.035600 452290.000000
175.042100 144012.700000
175.054400 106929.100000
176.030800 291671.400000
176.049800 106910.500000
176.062300 110845.400000
177.045500 26972.300000
177.057500 131139.100000
179.029400 618117.700000
179.060500 125625.400000
180.037000 508645.000000
181.044900 4449853.500000
182.040200 1185026.100000
182.052400 250436.312500
183.048600 167089.500000
183.060600 400886.000000
184.032200 31431.900000
184.055800 152539.400000
185.039700 101057.445300
185.063700 34603.800000
186.027400 77656.600000
186.034200 103294.500000
186.047600 89089.900000
187.042500 36760.500000
187.055200 442820.250000
188.043000 277180.800000
188.049700 1016720.100000
189.057500 183282.100000
190.065200 177200.000000
192.037200 247397.900000
192.044500 51712.500000
193.032500 96670.900000
193.045200 152424.700000
193.052500 21328.100000
193.065000 232046.400000
194.040000 110942.600000
194.052700 595351.000000
194.060600 120895.300000
195.048100 626914.300000
196.055800 407783.400000
196.068500 34750.500000
197.020400 21375.500000
197.051400 270908.500000
197.063500 22641.800000
198.027900 103410.400000
199.035500 3160106.800000
200.030700 498003.300000
200.043300 438199.800000
200.050400 76222.200000
201.050700 1273391.500000
201.057500 176126.671900
202.046500 409224.700000
202.065400 211521.100000
203.053600 122478.200000
203.062600 129282.890600
204.038100 216511.100000
204.055500 73195.100000
205.032700 39316.900000
205.045400 187211.843800
206.040400 2419918.800000
207.048100 598449.600000
207.060500 349528.800000
208.056000 2323322.800000
209.063700 391211.200000
210.027300 22067.800000
210.072100 23539.400000
211.043000 111196.300000
211.055000 78520.800000
212.027600 134712.700000
212.041900 204447.200000
212.050800 127929.100000
213.038900 127981.000000
214.045800 135738.400000
215.042000 69912.700000
215.053100 40365.000000
218.040700 19043.500000
218.060300 81072.200000
219.048200 543962.800000
220.056100 705925.000000
221.051200 244211.600000
221.063700 519359.200000
222.047100 148454.700000
222.060800 33487.200000
222.071400 333613.900000
223.066800 119383.300000
224.031000 224070.600000
225.038600 252147.700000
225.049600 48531.600000
225.058700 102467.500000
226.046500 3105318.000000
227.054100 793852.100000
228.056000 102785.900000
230.040500 37706.800000
232.033100 102487.300000
232.055800 355149.700000
233.051000 178394.800000
233.063600 127357.100000
234.059000 248197.100000
234.071600 161730.100000
235.066500 86123.000000
235.078200 20599.600000
236.050200 19839.200000
236.074700 30251.200000
237.038500 90368.700000
238.046000 111476.100000
238.066700 141369.500000
239.038400 88993.500000
239.054300 291669.200000
240.061700 277568.600000
243.048900 38895.700000
247.066900 249381.000000
251.054100 44407.400000
252.050100 21126.500000
252.062300 116192.800000
255.049400 25171.700000
256.056200 35260.200000
257.028100 85483.400000
259.067000 126248.300000
260.074400 101980.400000
261.082600 32956.100000

>ms2
50.015200 802984.900000
51.023000 881526.200000
52.018300 29360.400000
53.002200 349290.700000
53.038600 211933.000000
53.997500 17756.700000
54.033900 87305.500000
55.041600 19280.800000
56.049500 538075.900000
57.013600 3065300.500000
58.065200 409006.600000
59.029200 132902.200000
61.007300 447783.100000
62.015100 1001221.800000
63.023000 2318325.500000
64.018300 168837.300000
65.026100 31683.200000
65.038600 246109.500000
67.041700 207618.400000
68.005700 124594.000000
68.049600 29407.200000
69.013600 133961.900000
70.021400 251494.200000
70.065200 83092.700000
74.015100 2809420.000000
75.023000 5598672.000000
76.018200 289082.900000
76.030800 311802.300000
77.002200 85870.700000
77.038600 289109.100000
78.033900 145034.000000
78.046500 108019.100000
80.049500 37027.200000
81.013600 1913906.900000
82.008700 162230.900000
82.021400 124592.600000
82.065100 125823.500000
83.029200 1471224.400000
84.037100 79862.200000
85.007400 200866.500000
86.015200 532272.600000
87.010400 132486.700000
87.023000 825435.900000
88.018200 325141.900000
88.030800 234758.900000
89.038600 1420671.600000
90.034100 30957.700000
90.046500 96707.500000
91.054400 43224.700000
92.025700 18979.700000
93.013700 165172.900000
94.021500 466031.700000
95.029300 212792.600000
95.049300 532068.600000
96.037100 155534.500000
96.044400 157110.700000
97.044800 20281.600000
98.015200 829065.200000
99.010400 120097.400000
99.023000 1013774.800000
100.018200 455900.400000
100.030900 151606.800000
101.038700 172852.500000
102.034000 118516.000000
102.046500 398620.600000
103.041600 34954.300000
104.049500 75460.200000
105.013600 718137.300000
105.044800 350922.500000
106.008900 109338.100000
106.021400 334684.800000
107.029200 3833801.500000
108.024500 152554.200000
108.037000 174969.900000
109.044900 225214.400000
110.015200 241630.703100
111.022900 283331.500000
112.018300 152068.300000
112.031900 43554.800000
113.026200 26387.300000
113.039100 399082.500000
114.033900 282457.400000
115.041800 90174.300000
115.054300 357075.800000
116.049500 25926.800000
117.057400 20569.700000
118.021400 78915.700000
119.029400 30557.100000
119.049300 118173.100000
120.037100 444440.700000
120.044400 34613.600000
121.032400 83700.200000
122.015200 261071.109400
122.040200 146767.800000
123.010500 104156.632800
123.023000 626505.800000
123.035400 415810.900000
124.018400 231667.300000
125.019900 145690.500000
125.038600 146054.900000
126.034400 169932.000000
126.046600 76482.700000
127.041700 43921.700000
127.054400 17159.700000
128.049600 377517.900000
128.062300 22344.500000
129.013600 203676.703100
129.044800 483684.900000
130.040200 81817.300000
130.065400 23366.800000
131.029300 1204776.400000
132.024600 348837.300000
132.037400 100144.400000
133.032600 43098.500000
133.044900 599902.600000
134.040100 148359.900000
135.048100 78477.500000
137.038900 208367.800000
138.034100 93662.400000
139.054300 88405.900000
140.049600 190109.700000
141.057600 118266.300000
142.052700 27545.500000
143.029300 123750.700000
144.037100 343919.000000
144.044700 31368.500000
145.032600 85494.600000
145.044800 20810.900000
146.015200 128889.562500
146.040200 202855.400000
146.052900 31677.200000
147.023000 206482.578100
147.035400 92173.100000
148.018300 109116.900000
148.031000 42377.100000
148.055800 84047.600000
149.020000 305926.200000
149.038900 277944.000000
150.046700 351782.600000
151.035600 323826.400000
151.041500 40389.000000
152.050000 66771.900000
153.044700 19808.100000
153.057700 21951.700000
154.040200 187351.300000
155.029300 964439.100000
155.060600 103337.000000
156.024600 184292.600000
156.037000 179563.600000
157.045000 471795.800000
158.040200 540096.800000
160.055800 24588.800000
161.038800 837747.900000
162.027500 113872.000000
162.034200 89805.000000
162.046200 137132.300000
163.054400 322371.300000
164.049600 155911.296900
167.029400 177638.100000
167.049300 83845.600000
168.037200 1262036.500000
169.032600 92653.200000
169.045000 105975.800000
169.065000 64049.400000
170.040300 124535.600000
170.052600 250601.500000
170.059900 25257.800000
171.048000 29427.900000
173.019900 220793.000000
173.038900 91181.500000
173.051500 76779.900000
174.027700 34997.300000
174.034400 74735.800000
174.046600 331508.000000
175.035500 467695.400000
175.042200 198405.700000
176.030900 244779.100000
176.050100 40569.500000
177.045300 22743.900000
177.057700 45112.700000
179.029400 1849508.600000
180.025100 176363.968800
180.037200 746499.700000
181.045000 2950414.200000
182.040200 796797.600000
182.052900 77265.800000
183.060800 83481.500000
184.031900 29453.600000
184.055900 82622.600000
186.026700 216630.800000
186.035200 219963.500000
187.055400 261235.000000
188.043200 70986.400000
188.050000 716822.400000
189.057500 100485.200000
190.065500 39512.500000
192.037000 359545.200000
192.044600 50434.000000
193.032700 209809.900000
193.045300 32798.800000
193.064900 72923.600000
194.040200 107341.900000
194.052800 349675.900000
194.060800 58356.100000
195.048100 374482.200000
196.055900 93346.900000
197.020000 145346.400000
197.051000 106430.800000
198.027800 265263.300000
199.035400 2466798.000000
200.030800 426509.200000
200.043100 94407.100000
200.050900 34415.400000
201.049900 196588.546900
201.057900 138458.062500
202.046400 86443.400000
202.065300 45691.800000
204.024600 109253.195300
204.038000 87019.600000
204.055700 24784.100000
205.032400 153617.500000
205.045100 236103.400000
206.040400 2098191.000000
207.048100 334635.100000
207.061000 114297.600000
208.055900 606033.800000
209.063900 40411.700000
210.028100 26061.500000
211.044300 21839.900000
212.027600 157428.300000
212.041700 139225.300000
212.050600 100615.200000
213.038600 92881.900000
214.045500 27830.200000
215.042300 35281.200000
218.039900 33757.700000
218.059900 43098.200000
219.048000 298510.100000
220.056100 225800.000000
221.051200 82718.900000
221.063600 99757.800000
222.046500 109186.100000
222.071200 44318.300000
224.030900 423368.200000
225.039300 159056.900000
225.049400 28325.800000
226.046500 789305.200000
227.053400 25042.500000
228.055900 85755.500000
230.040500 82545.700000
232.055800 116105.200000
233.051400 42924.000000
233.063200 33437.200000
234.058900 25393.100000
237.038700 26750.900000
238.046000 75174.600000
238.066700 27418.800000
239.054300 37301.200000
257.029300 32956.000000

