>compound EQ71975292
>parentmass 188.1104
>ionization [M+H]+
>formula C9H17NOS
>rt 630.000000
>profile orbitrap
#smiles_iso CCSC(=O)N1CCCCCC1
#smiles_can CCSC(=O)N1CCCCCC1
#inchikey DEDOPGXGGQYYMW-UHFFFAOYSA-N
#pubchem_id 16653
#mb_accession EQ371401,EQ371402,EQ371403,EQ371404,EQ371405,EQ371406,EQ371407,EQ371408,EQ371409

>ms2peaks
55.054100 904022.400000
56.013000 84416.400000
70.065100 369022.800000
81.069900 146723.900000
83.085500 1935036.000000
84.080800 105045.700000
89.005400 153301.100000
97.064900 33377.200000
98.096400 1824182.400000
126.091300 32604658.000000
128.143400 53928.900000
160.115500 548824.600000
188.110300 27768306.000000

>ms2peaks
55.054200 1441034.400000
69.069800 39652.800000
70.065100 560141.300000
81.069900 267665.300000
83.085500 3191242.800000
84.080700 165427.400000
89.005500 190231.900000
97.064700 65022.300000
98.096400 2850539.800000
126.091300 35420684.000000
128.143300 89097.800000
160.115400 661385.300000
188.110300 20189814.000000

>ms2peaks
53.038500 114957.800000
55.054200 8885297.000000
56.013000 71893.400000
56.049400 45254.500000
58.028700 38582.300000
58.065100 37679.900000
69.069800 185681.500000
70.065100 1387936.900000
81.069900 920069.300000
82.065100 30616.100000
83.085500 9379607.000000
84.044300 29069.300000
84.080800 370596.500000
89.005500 304972.600000
97.064800 187861.800000
98.096400 6888333.000000
99.104200 74642.800000
100.112100 38022.500000
108.080800 85767.900000
109.064700 51118.900000
126.091300 24927094.000000
128.143400 93325.700000
160.078900 52837.700000
160.115400 709459.800000
188.110400 2703030.800000

>ms2peaks
53.002200 27240.300000
53.038600 215707.200000
55.054200 17002836.000000
56.049500 113421.000000
57.057300 38772.800000
58.028700 53788.200000
58.065200 63370.800000
69.069900 249829.700000
70.065100 1340361.200000
79.054200 105427.400000
81.069900 1100511.000000
82.065100 37025.100000
83.085500 7130445.000000
84.044400 67435.800000
84.080700 344631.800000
89.005500 134533.100000
96.080600 28142.100000
97.064900 113404.100000
98.096400 5668990.500000
99.104300 93800.100000
100.112100 47910.200000
108.080800 111942.800000
109.064900 43785.700000
126.091400 7551627.500000
128.143500 59939.400000
160.079100 45688.800000
160.115500 241874.100000
188.110400 168804.200000

>ms2peaks
53.002300 56381.300000
53.038600 343447.700000
55.054200 20452132.000000
56.013100 37175.700000
56.049500 211614.100000
57.057300 59572.300000
58.028700 41406.100000
58.065100 40313.100000
67.989300 28772.800000
69.069900 263934.800000
70.065100 1222708.800000
79.054200 177297.800000
81.069900 868479.200000
82.065200 33852.800000
83.049100 198778.400000
83.085500 3100870.200000
84.044400 67697.900000
84.080800 232232.800000
89.005500 34601.000000
96.080700 44585.100000
97.064900 67765.800000
98.096400 3998041.800000
99.104200 56354.700000
100.112100 34028.100000
108.080700 72112.700000
126.091400 1508555.800000
160.115400 43618.700000

>ms2peaks
53.002200 94983.500000
53.038600 409907.100000
55.054200 19024964.000000
56.013000 117643.500000
56.049500 270877.800000
57.057300 61310.100000
57.069900 32968.200000
58.028700 27463.000000
58.065100 30644.000000
67.054300 27456.200000
67.989300 27187.300000
68.049500 27609.700000
69.069800 186086.000000
70.065100 925748.500000
79.054200 262239.000000
81.069900 588744.100000
82.065100 54348.500000
83.049100 83821.600000
83.072900 58211.000000
83.085500 906558.400000
84.044300 47062.400000
84.080800 183486.600000
96.080800 63250.900000
97.065000 24599.700000
98.096500 2378027.200000
99.104200 26564.400000
108.080700 40371.800000
126.091400 231980.600000

>ms2peaks
51.022900 21572.000000
53.002200 162403.500000
53.038600 521937.200000
53.997400 38755.100000
55.054200 10582308.000000
56.013100 237844.900000
56.049500 294911.400000
57.057200 31037.200000
57.069900 12325.000000
65.038400 24133.800000
66.046400 25294.600000
67.054200 30037.900000
67.989200 36152.900000
68.049500 62114.400000
69.057200 11728.600000
69.069900 73160.800000
70.065100 530188.600000
71.990100 32748.400000
78.008600 11693.900000
79.054200 196942.000000
80.049400 10691.200000
81.069900 191880.100000
82.065200 93369.200000
83.049100 22342.300000
83.072900 166580.800000
83.085500 49645.200000
84.044400 58871.700000
84.080700 93060.800000
93.057300 22843.000000
96.080700 44413.600000
98.096500 690571.400000

>ms2peaks
51.023000 20708.200000
53.002200 215990.600000
53.038600 498991.700000
53.997500 58271.400000
54.033800 9342.600000
55.054300 4199574.500000
56.013100 251403.800000
56.049500 215095.000000
57.057200 20524.100000
58.028700 7064.300000
58.995000 9024.700000
65.038600 37119.700000
66.046400 6936.700000
67.041600 6956.500000
67.054300 44214.000000
67.989300 24176.400000
68.049400 72626.900000
69.057300 29170.000000
69.069900 26740.200000
70.065100 254172.400000
71.990200 31735.600000
78.008800 8515.600000
79.054200 94201.900000
81.069900 37205.800000
82.065100 205876.500000
83.072900 148138.800000
84.044400 87945.500000
84.080800 32708.500000
95.049200 12027.000000
96.080900 10380.600000
98.096500 151862.100000

>ms2peaks
51.023000 21038.200000
53.002200 217710.100000
53.038600 337995.600000
53.997500 46342.700000
54.033900 10004.100000
55.054300 1320650.600000
56.013100 240621.300000
56.049500 129741.000000
58.028900 5103.000000
58.995000 7512.900000
65.038600 33071.600000
66.046400 9077.200000
67.041600 26187.300000
67.054200 42107.100000
67.989300 32674.100000
68.049500 60827.900000
70.065100 101372.700000
71.990200 37394.400000
78.008700 8067.900000
79.054200 35630.800000
80.049500 9318.300000
82.065100 230238.700000
83.072900 79864.000000
84.044400 71514.500000
84.081100 4792.800000
95.049200 11037.100000
98.096600 26047.100000

