>compound EQ72719504
>parentmass 257.1648
>ionization [M+H]+
>formula C16H20N2O
>rt 252.000000
>profile orbitrap
#smiles_iso C[N+](C)(CCC(C1=CC=CC=C1)C2=CC=CC=N2)[O-]
#smiles_can C[N+](C)(CCC(C1=CC=CC=C1)C2=CC=CC=N2)[O-]
#inchikey OBBDJQMNZLQVAZ-UHFFFAOYSA-N
#pubchem_id 222605
#mb_accession EQ325401,EQ325402,EQ325403,EQ325404,EQ325405,EQ325406,EQ325407,EQ325408,EQ325409

>ms2
196.112100 862531008.000000
257.164900 54206148.000000

>ms2
196.112100 877223232.000000
257.164900 1503890.900000

>ms2
91.054100 1533313.800000
118.064700 2150692.000000
167.072800 9446621.000000
168.080800 17932402.000000
195.104400 889726.600000
196.112100 869303040.000000

>ms2
91.054200 14955594.000000
110.060100 1061871.500000
117.057100 2229964.000000
118.065100 13158206.000000
119.072900 2197348.200000
167.073000 68312048.000000
168.080800 144850608.000000
180.080700 1344640.000000
181.088700 2142114.800000
194.096600 4500362.000000
195.104500 2832142.200000
196.112100 637049728.000000

>ms2
65.038500 967074.600000
80.049400 695526.600000
91.054300 52307672.000000
92.049400 1806018.900000
93.057300 763551.100000
94.065100 935403.400000
103.054300 1180375.200000
110.060000 4325932.500000
115.054100 606739.100000
117.057300 10862596.000000
118.065100 38951236.000000
119.073000 10222994.000000
129.069900 757679.600000
141.070000 803342.600000
166.065000 592647.100000
167.073000 206520496.000000
168.080800 323385056.000000
180.080800 5520388.000000
181.088600 5078199.000000
193.088600 702885.100000
194.096600 15364279.000000
195.104400 5208444.000000
196.112100 311850336.000000

>ms2
65.038600 5286375.500000
78.033900 678030.900000
80.049400 1054193.000000
91.054200 76392904.000000
92.049500 3694377.800000
93.057300 2369900.000000
94.065200 1245964.100000
96.044400 1247180.400000
103.054200 1848374.400000
104.049400 472029.500000
105.057300 479762.400000
110.060100 7646252.000000
115.054200 2461987.800000
117.057300 23044902.000000
118.065100 61673396.000000
119.073000 11858036.000000
128.049200 796806.800000
128.062100 437016.600000
129.069700 595555.100000
130.065300 524547.200000
141.069900 2222292.500000
166.065100 2569154.800000
167.073000 329503968.000000
168.080800 253789280.000000
178.076900 441574.800000
180.080800 8569116.000000
181.088600 3613620.000000
193.088500 2377774.200000
194.096500 17350036.000000
195.104300 3056985.000000
196.112200 72256224.000000

>ms2
50.015100 568500.600000
51.022800 815285.100000
53.038600 559502.500000
63.022800 638575.600000
65.038600 23212612.000000
66.046400 687046.300000
77.038600 984653.100000
78.033800 3492019.000000
79.041600 603648.600000
80.049400 948793.200000
89.038600 1600637.600000
90.046500 3031222.000000
91.054200 76388256.000000
92.049500 4088551.000000
93.057300 6236293.000000
94.065100 1021687.100000
95.049200 1811530.000000
96.044400 4025596.200000
103.054200 2277105.500000
104.049400 2567429.200000
105.044800 573285.600000
110.060100 3793371.500000
115.054300 11305876.000000
116.049400 869737.500000
116.062100 542300.400000
117.057300 41960444.000000
118.065100 104526128.000000
119.073000 4487958.500000
128.049400 3445250.000000
128.062200 1552615.900000
129.044800 461185.500000
130.065200 621139.800000
139.054200 11301675.000000
140.049900 1909034.200000
140.062100 8630643.000000
141.057500 658694.500000
141.069900 3942732.200000
146.059900 891457.900000
152.062100 1581047.600000
154.065400 512962.700000
165.070100 763851.100000
166.065200 44209456.000000
167.073000 433601568.000000
168.080800 48352868.000000
179.072900 993426.600000
180.080800 10730915.000000
181.088300 612491.400000
192.080800 1777635.200000
193.088600 4107273.800000
194.096500 14147184.000000
196.111900 1538907.000000

>ms2
50.015100 2021728.500000
51.022900 1978664.900000
53.002200 662271.100000
53.038600 1279005.100000
62.014900 268214.400000
63.022800 2336144.200000
65.038600 33014126.000000
66.046400 2597266.800000
67.041700 766644.200000
75.022900 886328.100000
77.038500 2211354.200000
78.033800 6473116.500000
79.041600 903800.100000
80.049400 633073.100000
88.030700 429905.400000
89.038600 9948105.000000
90.046500 10007949.000000
91.054300 51271088.000000
92.049500 2614514.800000
93.057400 7405311.000000
94.065300 201447.500000
95.036800 207956.300000
95.049200 2956589.000000
96.044400 7210095.500000
102.046400 935659.500000
103.054200 1299846.000000
104.049500 2380098.500000
105.044800 1911481.900000
110.060100 1271024.900000
113.038700 1279540.500000
114.046500 1449447.800000
115.054300 21369216.000000
116.049500 2312650.000000
116.062100 686215.400000
117.057300 42531084.000000
118.065100 81744824.000000
119.049200 471460.100000
119.072700 412460.100000
126.046500 775699.500000
127.041600 456190.800000
127.054200 491920.200000
128.049500 5633182.500000
128.062000 1517417.400000
129.044800 1686124.000000
130.040300 387655.300000
130.065200 479624.700000
132.057100 606659.400000
134.060300 443572.400000
138.046400 267193.700000
139.054300 65324304.000000
140.049600 19413894.000000
140.062000 17762976.000000
141.057400 1858718.500000
141.069900 2311787.200000
142.065200 218133.500000
145.064900 194088.300000
146.059900 806501.800000
152.062100 4713627.500000
153.057000 255696.700000
153.070000 403382.400000
154.065100 664735.200000
155.060500 659339.200000
164.049500 1026841.700000
165.057600 1686202.800000
165.070100 1449204.200000
166.065200 110291800.000000
167.073000 190131504.000000
168.080800 3106228.800000
169.064800 696416.600000
178.065300 1091390.400000
179.072800 791656.600000
180.080800 5187189.500000
183.068600 242288.800000
184.075600 1234396.100000
191.072900 1145881.400000
192.080900 2143573.800000
193.088700 3307436.200000
194.096700 2712020.800000

>ms2
50.015100 5001268.000000
51.023000 4363446.000000
52.018200 436135.900000
53.002200 1292630.100000
53.038600 1421606.800000
62.015100 2625612.800000
63.022900 7548598.000000
64.030800 580111.800000
65.038600 32822424.000000
66.046400 2409505.200000
67.041600 508563.400000
67.989200 123749.500000
75.022900 3427359.000000
76.030600 523935.100000
77.038600 2652106.000000
78.033800 12504670.000000
79.041600 1323997.200000
80.049500 524236.000000
81.033600 159062.600000
87.023000 1057310.100000
88.030800 2481437.800000
89.038600 26694802.000000
90.046500 13186111.000000
91.054300 39605028.000000
92.049500 2263596.000000
93.057400 4489319.500000
95.036600 454691.100000
95.049200 3441524.200000
96.044400 14198761.000000
101.038600 675015.900000
102.046500 2124270.500000
103.054300 462160.800000
104.049500 2049106.900000
105.044800 2149668.800000
110.060000 927869.900000
113.038600 8516835.000000
114.046400 3562461.800000
115.054300 25288796.000000
116.049500 4278170.000000
116.062000 516065.000000
117.057300 44797912.000000
118.065100 40113672.000000
119.049200 667396.700000
126.046400 1964799.000000
127.041700 583749.200000
127.054200 910083.000000
128.049500 3963999.500000
128.062100 829363.700000
129.044600 1938719.900000
130.040200 457798.100000
130.065100 190211.500000
132.057100 1890068.600000
134.060200 190665.800000
138.046300 1342443.000000
139.054300 114343072.000000
140.049500 47511352.000000
140.061800 8656279.000000
141.057300 1796233.200000
141.069600 744561.900000
145.065000 187997.000000
146.059900 1012313.400000
150.046400 515686.200000
152.062100 4419568.000000
153.057200 192223.600000
153.070200 134510.200000
154.065200 422553.000000
155.060500 566132.800000
164.049600 2728367.200000
165.057500 2840683.800000
165.069900 903186.200000
166.065200 73697320.000000
167.073000 43893896.000000
168.080800 160537.900000
169.064600 670057.100000
176.062600 116974.300000
178.065400 1240641.600000
179.073000 452985.300000
180.080500 863716.100000
183.068000 130746.600000
184.075500 683871.000000
191.072900 1892077.900000
192.080700 1492025.200000
193.088600 899011.300000
194.096400 230829.000000

