>compound EQ73083667
>parentmass 130.08629999999997
>ionization [M+H]+
>formula C6H11NO2
>rt 54.000000
>profile orbitrap
#smiles_iso C=CC(CCC(=O)O)N
#smiles_can C=CC(CCC(=O)O)N
#inchikey PJDFLNIOAUIZSL-UHFFFAOYSA-N
#pubchem_id 5665
#mb_accession EQ362601,EQ362602,EQ362603,EQ362604,EQ362605,EQ362606,EQ362607,EQ362608,EQ362609

>ms2
53.038500 21938.900000
67.054100 833029.700000
69.069800 64647.400000
70.065000 16944.400000
71.049000 11285025.000000
85.064500 19725.700000
95.049000 411807.900000
112.075700 19812.500000
113.059500 5626480.000000
130.086200 330226.700000

>ms2
65.038500 15771.100000
67.054100 805966.900000
69.069700 45962.900000
70.065100 23542.300000
71.049000 11519421.000000
85.064500 16870.400000
95.049000 396177.700000
112.075600 21297.300000
113.059500 5544528.500000
130.086100 358796.900000

>ms2
53.002100 16499.700000
53.038400 12641.500000
65.038400 16153.500000
67.054100 1011822.200000
69.069700 51826.700000
70.065100 16749.600000
71.049000 11822442.000000
85.064500 17330.800000
95.049000 359114.400000
112.075600 12881.900000
113.059500 2978904.800000
130.086100 103632.800000

>ms2
53.002100 22298.000000
53.038500 105412.400000
57.069800 13407.800000
65.038500 114611.400000
67.054100 2074121.800000
69.069700 25141.500000
70.065100 19573.800000
71.049000 13259003.000000
85.064800 18032.400000
95.049000 249764.400000
113.059500 697547.200000
130.086200 21867.900000

>ms2
53.002200 41231.700000
53.038500 127416.600000
57.069800 18781.500000
65.038500 239123.500000
67.054100 2333108.000000
67.989100 14183.800000
69.069900 15117.400000
71.049000 9563253.000000
85.064600 17099.600000
95.049000 159336.100000
113.059400 123536.900000

>ms2
53.002200 112296.000000
53.038500 248573.600000
53.997300 16824.400000
54.009800 9889.900000
57.069800 15027.500000
65.038500 347976.800000
67.054100 2232190.500000
67.989100 14928.900000
70.065000 13246.300000
71.049000 6203143.500000
95.049000 56438.800000

>ms2
51.022800 15744.900000
53.002200 131478.400000
53.038500 386133.600000
53.997400 13131.700000
54.010000 11416.200000
65.038500 476605.100000
67.054100 1347330.100000
67.989200 53171.500000
71.049000 1716390.800000

>ms2
51.022800 20559.500000
53.002100 154525.000000
53.038500 246373.000000
53.997300 23685.700000
65.038500 355142.200000
67.054100 541288.300000
67.989100 51586.300000
71.049000 299737.700000

>ms2
51.022900 17635.500000
53.002200 144470.900000
53.038500 121522.000000
53.997400 47834.200000
65.038500 207993.500000
67.054200 157345.300000
67.989200 20256.800000
71.049000 20953.300000

