>compound EQ73502610
>parentmass 358.00770000000006
>ionization [M+H]+
>formula C12H14Cl2FNO4S
>rt 276.000000
>profile orbitrap
#smiles_iso CS(=O)(=O)C1=CC=C(C=C1)C(C(CF)NC(=O)C(Cl)Cl)O
#smiles_can CS(=O)(=O)C1=CC=C(C=C1)C(C(CF)NC(=O)C(Cl)Cl)O
#inchikey AYIRNRDRBQJXIF-UHFFFAOYSA-N
#pubchem_id 5201447
#mb_accession EQ364101,EQ364102,EQ364103,EQ364104,EQ364105,EQ364106,EQ364107,EQ364108,EQ364109

>ms2peaks
82.945000 70986.200000
103.054100 38835.000000
130.065100 65625.300000
210.058000 21052.600000
230.064400 55068.100000
239.997800 117495.200000
241.005500 13559642.000000
261.011200 25628.700000
319.991000 806598.000000
339.997000 18076552.000000
358.007800 131236.300000

>ms2peaks
82.945000 60772.900000
103.054200 79686.400000
115.054000 29400.500000
129.057100 27054.400000
129.069900 26909.300000
130.064500 162705.400000
131.072700 68702.000000
132.057000 1087281.600000
134.052800 33552.600000
170.060000 715690.800000
177.034200 59681.900000
205.029100 97983.600000
206.036800 3818236.200000
210.058300 953484.600000
213.038200 78764.600000
230.064600 531238.400000
241.005400 25793258.000000
284.014300 227262.800000
319.990900 792375.900000
339.997100 463569.700000

>ms2peaks
63.022700 11027.500000
77.038400 14768.400000
78.984800 17081.600000
82.944900 325861.700000
102.046300 13814.600000
103.054000 86014.200000
104.062000 51589.100000
107.049100 17905.000000
109.955900 79956.800000
115.054100 112527.600000
127.053800 33026.900000
128.062000 379302.100000
129.057300 160233.900000
129.069800 18541.700000
130.065100 1312497.400000
131.049100 246970.400000
131.073000 1353341.800000
132.056900 5529458.500000
133.064800 49678.800000
134.052600 181188.900000
141.057200 19368.900000
142.065100 273289.300000
145.064800 96853.500000
150.023100 164240.600000
151.079000 15781.700000
152.087000 12764.700000
155.060300 227343.900000
157.052100 17503.700000
158.060000 134516.300000
162.023000 70716.100000
163.030900 1381527.100000
166.042000 25951.600000
169.052300 30888.500000
170.060000 4515465.000000
171.067900 83458.400000
176.026000 21099.800000
177.034000 423530.400000
178.017900 47411.200000
178.041700 103367.400000
188.025900 12490.400000
189.009900 15322.900000
193.031600 22575.600000
196.991900 33496.200000
205.029100 184992.600000
206.036700 10376429.000000
210.058300 1330131.100000
213.038100 31159.300000
220.042500 14105.200000
226.042500 20148.000000
230.064600 619598.800000
238.053000 25286.700000
241.005500 6930945.500000
284.014400 84183.200000
285.022000 42598.300000
319.990600 35820.100000

>ms2peaks
51.022800 13788.800000
63.022700 13263.900000
74.040000 6183.100000
77.038100 22488.400000
78.046400 14471.800000
78.984800 37043.600000
82.944900 1031521.400000
91.054100 21959.600000
102.046300 28066.000000
103.054200 695688.400000
104.062000 240572.100000
105.033400 13105.200000
105.069900 14508.900000
107.049100 51060.900000
109.955900 175978.800000
115.054200 441972.700000
116.049500 49879.000000
116.062000 13416.700000
117.057200 18625.200000
117.069900 14263.100000
118.065100 18010.700000
119.049300 20025.900000
121.064800 31794.200000
125.039900 7153.700000
127.054100 114956.500000
128.062100 1756653.200000
129.057300 210800.800000
130.065100 4149987.500000
131.049200 1040951.100000
131.072900 2818874.000000
132.056900 5044395.500000
133.044700 62091.900000
133.064600 25523.300000
134.052500 239419.500000
135.060500 10070.500000
140.049100 5108.900000
141.057200 39950.300000
142.065200 1061695.000000
143.049000 31929.700000
143.060600 5478.800000
143.073000 19924.300000
144.044300 12441.400000
145.064800 423906.500000
146.060000 6500.200000
150.023100 302761.800000
150.071400 15190.200000
151.079200 48155.100000
152.049400 17028.700000
152.087000 30687.900000
155.060300 1054344.600000
156.057400 5790.000000
157.052200 15215.200000
158.060000 132225.700000
160.075700 43869.600000
162.023100 76825.600000
162.091400 20061.300000
163.030900 1725096.800000
166.042000 22740.800000
169.052100 28707.100000
170.060000 4927411.000000
171.067800 190355.500000
176.025900 15887.000000
177.034000 310471.400000
178.017800 29911.400000
178.041800 122707.600000
183.047200 16860.600000
183.068800 12096.900000
188.026100 130159.200000
189.010300 38778.800000
189.021100 25780.800000
193.031600 12479.800000
196.991900 30946.800000
197.050500 47752.900000
205.028800 60619.600000
206.036800 2952366.200000
208.042700 6790.900000
210.058400 380240.200000
213.037700 6850.300000
230.064600 162263.700000
241.005600 474744.400000
285.021800 23539.000000

>ms2peaks
50.015000 12631.700000
51.022800 22323.000000
53.038500 13238.000000
63.022800 16850.200000
74.040100 11046.300000
77.038200 33745.000000
78.046400 65884.000000
78.984800 66696.200000
82.944900 2139129.800000
89.038500 11586.000000
90.046400 16494.200000
91.054200 61738.300000
92.062000 14422.800000
93.069900 11277.800000
95.049100 35546.800000
102.046300 83383.300000
103.054200 2812222.800000
104.062000 438203.500000
105.033400 38603.000000
105.044700 23224.400000
105.069900 27300.300000
107.049100 91453.800000
109.955900 142304.200000
114.046300 13686.400000
115.054200 1489355.900000
116.049400 118661.600000
116.061800 21280.100000
117.057200 63092.300000
117.070000 15277.400000
118.065000 71735.600000
119.049100 18632.600000
119.072900 6770.600000
121.064900 47086.000000
125.039800 13254.200000
126.046200 13300.600000
127.054200 169600.700000
128.062000 2590217.500000
129.057300 203366.200000
130.065100 6284835.000000
131.049100 2188051.000000
131.072900 2208811.800000
132.056900 2715010.200000
133.044700 228212.700000
133.064700 15230.200000
134.052500 196344.400000
134.060000 50981.800000
135.060400 17031.500000
140.049300 60612.200000
141.057300 70816.400000
142.065100 1630083.000000
143.049100 59062.000000
143.060400 14964.100000
143.072900 78209.500000
144.044300 19951.600000
145.064800 519000.600000
146.059900 25535.600000
149.015400 16205.900000
150.023000 186397.000000
150.071400 14189.900000
151.079100 73908.800000
151.992800 10579.900000
152.049400 16124.500000
152.086900 15163.300000
153.057400 35724.100000
155.060300 1546320.500000
156.057400 12293.400000
158.060000 62478.900000
160.075700 53459.900000
161.047100 18334.400000
162.023000 84821.900000
162.091100 6684.900000
163.030800 564673.500000
163.062600 46599.900000
169.052000 14274.100000
170.060000 2771152.800000
171.067800 124582.700000
176.026000 12487.900000
177.033800 85870.100000
178.041900 69402.200000
179.025900 6781.600000
183.069000 20074.700000
188.026100 181573.800000
189.010000 17402.500000
189.021500 60749.100000
197.050400 55910.700000
206.036800 309110.800000
210.058400 50477.600000
230.064700 15987.600000
241.004700 20079.600000

>ms2peaks
50.015000 18388.800000
51.022900 20697.800000
53.038600 39220.100000
55.017800 7120.300000
60.024400 7039.200000
62.014900 10842.400000
65.038500 14900.700000
77.038300 62515.400000
78.046400 162981.900000
78.984800 61833.200000
79.054100 15167.200000
82.945000 2706629.800000
89.038500 29587.300000
90.046400 35030.400000
91.054300 154361.800000
92.062100 23485.800000
95.049100 155373.100000
102.046400 159537.800000
103.054200 5243137.500000
104.049600 27408.700000
104.062000 427742.000000
105.033400 55974.500000
105.044700 111053.200000
105.070000 22385.500000
107.049000 95014.000000
109.955900 54608.800000
114.046200 26573.500000
115.054200 2404031.200000
116.049400 151654.400000
116.061800 23003.600000
117.057300 96657.900000
117.069900 20683.900000
118.041300 17296.000000
118.065100 109749.500000
119.049300 12096.000000
121.064900 22674.400000
125.039300 15716.000000
126.046400 51652.900000
127.054200 297643.100000
128.062100 2351971.800000
129.057300 141882.200000
130.065100 6311859.000000
131.049100 2322762.200000
131.072900 967933.900000
132.056900 952957.200000
133.044700 389764.900000
134.052500 122916.000000
134.060000 77794.300000
135.060500 6949.100000
140.049400 119762.300000
141.010100 6434.800000
141.057300 71839.500000
142.065200 1048952.900000
143.049000 37160.300000
143.060500 31166.400000
143.072900 93506.400000
144.044300 15317.300000
145.064800 408418.600000
146.059900 22260.400000
149.015400 16663.400000
150.023100 39025.700000
150.071200 14441.100000
151.079300 33727.400000
152.049600 47731.100000
153.057400 86624.100000
155.060400 1141311.200000
158.060000 23953.500000
160.075700 18298.000000
161.047000 17599.300000
162.023000 60515.600000
163.030900 90661.300000
163.062800 31755.500000
170.060100 1187180.500000
171.067700 45411.100000
177.033800 20474.200000
178.041900 26747.400000
179.025400 10808.000000
180.055800 23023.400000
183.068800 18967.200000
188.026100 95722.800000
189.021300 44605.100000
197.050500 15953.900000
206.036600 27188.200000

>ms2peaks
50.015000 48097.700000
51.022800 35757.400000
53.038600 373587.200000
55.017800 35286.900000
60.024400 31571.900000
63.022800 57264.300000
65.038600 113265.900000
66.046400 20011.400000
75.022800 41059.800000
76.030600 26020.200000
77.038500 321066.900000
78.046400 388535.000000
79.054200 69326.700000
81.033500 59444.500000
82.944900 3505366.200000
88.030700 20845.700000
89.038600 270917.600000
90.046400 60405.200000
91.054200 412731.400000
92.062000 7003.100000
94.041300 14356.800000
95.049100 1296837.100000
99.022800 10983.800000
101.038500 16831.400000
102.046400 411249.000000
103.054200 6884097.500000
104.049400 89876.300000
104.062000 140204.600000
105.044700 955624.900000
106.065000 17524.000000
107.029200 18460.000000
107.049100 70339.500000
113.038500 41530.400000
114.046400 78115.200000
115.054200 2666292.000000
116.049400 188978.000000
116.061900 27935.600000
117.057300 162694.900000
118.041200 23978.100000
118.065000 81172.300000
119.049300 23997.800000
119.073100 11050.200000
125.038600 57228.800000
126.046400 216519.100000
127.054200 315216.700000
128.049600 83408.200000
128.062000 1573018.500000
129.044700 78271.800000
129.057300 43873.200000
130.065100 4531408.000000
131.049100 1078584.200000
131.072900 79431.900000
132.057000 101556.500000
133.044800 530505.400000
134.052500 11226.600000
134.060000 53528.200000
140.049400 204515.100000
141.057400 29003.700000
142.065200 145603.000000
143.049000 22186.400000
143.072900 41571.500000
145.064800 141292.100000
146.059900 28652.300000
149.015300 17608.900000
152.049500 50436.700000
153.057300 86844.300000
155.060300 366981.700000
162.022900 16694.100000
170.060000 261185.000000
180.055900 11171.300000

>ms2peaks
50.015100 163284.200000
51.022900 93377.800000
52.018200 12622.900000
53.038600 714483.700000
54.033900 4107.700000
55.017900 53881.300000
57.013500 17069.300000
60.024400 25315.400000
61.007300 12377.200000
62.015100 37745.500000
63.022900 197475.400000
64.030700 6433.500000
65.038600 341623.600000
66.046400 20069.000000
66.974500 10111.900000
67.054300 9744.600000
68.997200 4947.900000
74.015000 43020.000000
75.022900 151340.500000
75.971000 12184.900000
76.030700 83371.700000
77.038500 774975.400000
78.046400 352347.200000
79.054200 52234.500000
80.049500 23089.400000
81.013600 6451.100000
81.033500 95116.600000
81.937200 6126.400000
82.945000 3547768.000000
86.015100 6301.300000
87.023000 34487.500000
88.030700 51853.500000
89.038600 676434.400000
90.034000 9896.300000
90.046400 80306.600000
91.054200 402432.000000
94.041300 25992.500000
95.049100 2475260.000000
96.044300 4886.700000
98.014900 4178.000000
99.023000 29387.400000
100.030800 6302.900000
101.038500 31479.000000
102.046400 586652.600000
103.054200 3887567.000000
104.049400 93417.700000
104.061900 24977.500000
105.044700 1772370.500000
106.041800 13997.000000
106.065200 3979.700000
107.029100 53182.100000
107.049100 25228.800000
109.044900 5796.700000
109.064900 5676.700000
113.038500 109565.500000
114.033800 13027.000000
114.046400 52717.200000
115.054200 1424568.600000
116.049500 99989.600000
116.062000 14933.500000
117.057200 121805.500000
118.041200 12002.700000
118.065100 21330.700000
119.049200 16878.700000
120.020600 11781.000000
125.038600 39742.500000
126.046400 224369.100000
127.054200 124008.000000
128.049500 71604.200000
128.062000 654375.800000
129.044700 76810.300000
129.057200 11890.800000
130.065200 1568727.400000
131.049200 177480.300000
132.056800 21848.600000
133.044800 339166.100000
134.060300 14127.700000
140.049500 111550.200000
141.057400 10802.500000
142.065200 13545.200000
145.064800 45144.400000
146.059900 18613.300000
152.049500 14783.500000
153.057300 19363.600000
155.060400 110653.400000
170.060100 44294.000000

>ms2peaks
50.015100 536579.400000
51.022900 327494.400000
52.018200 19654.900000
52.030700 8776.500000
53.002200 37390.800000
53.038600 689754.300000
55.017800 57954.500000
57.013500 66665.100000
60.024400 21917.800000
61.007200 26768.300000
62.015100 110172.200000
63.022900 491202.200000
63.994900 3384.000000
64.030800 13252.500000
65.038600 466325.100000
66.010000 9985.600000
66.046400 24689.200000
66.974500 5103.700000
67.041800 8252.600000
67.054200 24371.900000
68.997100 5619.700000
74.015100 135819.700000
75.022900 293457.300000
75.971000 18918.100000
76.030700 141364.400000
77.038500 998713.400000
78.046400 285793.500000
79.054200 18007.900000
80.049500 14520.800000
81.013500 24288.700000
81.033500 109053.300000
81.937200 5914.900000
82.945000 3309489.200000
86.015100 25859.900000
87.022900 84459.400000
88.030700 48805.400000
89.038600 763405.000000
90.033800 10905.000000
90.046400 61035.700000
91.054300 209970.000000
94.041300 29944.000000
95.049100 2235052.500000
96.044300 9906.200000
98.015100 20108.000000
99.022900 43453.900000
100.030800 13491.900000
101.038500 24972.500000
102.046400 534123.100000
103.054200 1301566.000000
104.049400 50310.400000
105.044700 1640807.600000
106.041800 11101.900000
107.029100 84985.600000
109.044700 3470.400000
109.064900 10219.600000
113.038500 111714.600000
114.034000 10081.800000
114.046500 21102.100000
115.054200 516449.500000
116.049500 32630.400000
117.057300 59480.400000
118.041300 5091.200000
118.065000 4312.700000
119.049100 13574.900000
120.020800 5506.200000
125.038800 17988.700000
126.046400 143071.400000
127.054200 67854.900000
128.049400 33032.500000
128.062000 143610.100000
129.044700 51967.500000
130.065200 333636.800000
131.049300 20585.000000
132.056800 11256.500000
133.044800 137100.800000
140.049500 36764.900000
146.060100 5064.600000
155.060300 57161.900000
170.060300 4629.500000

