>compound EQ73417682
>parentmass 530.1911
>ionization [M+H]+
>formula C28H22F3N7O
>rt 492.000000
>profile orbitrap
#smiles_iso CC1=C(C=C(C=C1)C(=O)NC2=CC(=CC(=C2)C(F)(F)F)N3C=C(N=C3)C)NC4=NC=CC(=N4)C5=CN=CC=C5
#smiles_can CC1=C(C=C(C=C1)C(=O)NC2=CC(=CC(=C2)C(F)(F)F)N3C=C(N=C3)C)NC4=NC=CC(=N4)C5=CN=CC=C5
#inchikey HHZIURLSWUIHRB-UHFFFAOYSA-N
#pubchem_id 644241
#mb_accession EQ358801,EQ358802,EQ358803,EQ358804,EQ358805,EQ358806,EQ358807,EQ358808,EQ358809

>ms2peaks
289.108000 693800.400000
307.119000 433534.600000
530.191000 86008208.000000

>ms2peaks
246.088600 70154.900000
259.096500 242477.400000
260.105500 1007776.700000
261.113400 1355725.900000
263.128900 50897.300000
289.108200 41444660.000000
307.118800 25302098.000000
321.134500 969855.000000
510.185000 626819.300000
512.180900 78429.200000
530.191200 25544602.000000

>ms2peaks
83.060200 40932.300000
104.049200 39978.600000
131.060100 111131.600000
157.075900 39176.600000
158.071300 136623.300000
159.055200 65961.400000
171.078900 41945.500000
174.066100 34263.900000
183.079200 69936.600000
198.052500 43513.300000
220.087300 31960.500000
221.094500 63908.400000
225.063400 150817.200000
226.071300 94032.200000
233.082000 52087.100000
234.102600 803410.100000
235.097900 73390.500000
241.082500 89473.700000
242.089800 46879.900000
243.074000 430631.700000
244.086800 283463.100000
245.082200 157964.400000
245.094800 272676.500000
246.089900 836951.400000
257.080900 31867.500000
258.060400 52153.400000
259.097800 10178900.000000
260.105600 20433614.000000
261.113300 25004468.000000
263.129000 847472.000000
268.068800 207291.900000
272.081800 554494.187500
278.080200 61533.700000
289.108200 21831020.000000
307.118900 14367116.000000
318.103500 96189.100000
321.134500 444196.100000
337.103000 64306.300000
408.124300 41625.800000
442.177100 36931.500000
470.172200 301845.800000
475.154200 102296.100000
490.178600 140921.800000
510.184800 281844.000000
512.180500 315187.900000
530.191200 188507.100000

>ms2peaks
56.049500 139363.400000
78.033800 32904.100000
80.049400 45702.100000
83.060200 94062.600000
91.054200 212523.100000
104.049400 484367.000000
105.044700 107866.000000
106.065100 96879.100000
107.072700 65996.700000
117.057300 64767.800000
118.065100 36162.100000
119.049200 58651.400000
129.044700 42535.300000
130.065100 153873.600000
131.060300 605623.200000
132.068100 416259.300000
133.075800 42047.000000
134.060000 45634.700000
142.052700 77001.500000
143.060400 51037.800000
144.068200 49000.600000
147.067700 49133.000000
155.060200 113387.900000
156.055500 193897.600000
156.068000 118591.400000
157.075900 368275.900000
158.071200 484134.300000
159.055200 131304.500000
159.091600 41305.200000
171.079000 435063.400000
174.066000 285743.800000
176.081900 44674.200000
182.071100 145104.500000
183.079200 298453.700000
184.086700 80764.600000
185.070800 211427.900000
188.031900 66311.500000
193.076100 53056.200000
194.064700 47409.000000
194.071500 45566.900000
195.080200 69110.500000
196.057000 80642.300000
198.052400 486195.200000
200.055400 60978.800000
206.071100 37777.500000
207.079100 39182.900000
207.091600 100288.000000
208.087000 214012.200000
213.063200 115313.700000
214.071100 323005.300000
217.076400 64209.900000
218.070900 38000.400000
218.083100 34001.900000
219.079100 171178.600000
220.087100 237932.700000
221.082300 53860.800000
221.094700 318241.200000
223.067500 48489.600000
225.063400 490096.300000
226.071400 185191.200000
232.086500 131982.900000
233.082100 101531.100000
233.094700 208868.700000
234.102500 2887708.500000
235.097700 294270.800000
236.118500 54332.600000
241.082100 548229.000000
242.089500 128193.000000
243.073600 523244.000000
244.073700 82102.500000
244.086800 794659.400000
245.082200 1119489.400000
245.094700 845097.900000
246.090000 5629822.000000
247.097700 287369.800000
249.071000 96514.900000
257.082100 58691.100000
258.061000 97560.500000
258.089300 62827.200000
259.097700 31895940.000000
260.105600 12027364.000000
261.113300 24278780.000000
263.128900 798755.800000
268.069000 468139.500000
272.081600 156355.500000
272.093300 50475.100000
278.080500 96739.300000
286.108300 34059.500000
289.108200 1343545.900000
307.118900 849060.200000
337.103000 63770.100000

>ms2peaks
53.038400 42335.200000
56.049500 235660.000000
65.038600 125235.900000
77.038200 49096.400000
79.054200 161947.000000
80.049400 89792.200000
81.044500 39672.200000
83.060300 124422.900000
89.038500 226988.400000
91.054200 410838.300000
95.049100 137798.200000
103.054200 80732.700000
104.049400 1526624.000000
105.044600 314992.100000
106.065100 311246.600000
107.072900 153598.400000
110.059900 64217.400000
114.033700 78119.900000
116.049400 532750.100000
118.052400 92194.000000
118.064900 62086.100000
119.048800 39259.900000
119.060300 114322.300000
128.049500 103605.400000
129.044600 234361.100000
129.057000 47676.200000
130.040000 65905.000000
130.052600 69427.800000
130.065000 343527.100000
131.060300 1548485.800000
132.068100 366984.600000
133.075900 115160.600000
134.059900 124849.500000
142.052500 466242.000000
143.047600 41308.400000
144.044200 37872.600000
144.055500 36726.600000
144.068200 168270.700000
145.075700 34329.600000
146.060000 82642.400000
147.055100 106137.000000
147.067700 80805.000000
148.055700 88374.400000
149.070900 92807.400000
151.035300 158263.000000
155.060300 366628.300000
156.055500 795113.300000
156.068100 283209.000000
157.063600 75284.000000
157.075900 504098.600000
158.040000 62329.800000
158.071200 716029.800000
159.055100 95396.300000
162.042200 37310.200000
166.065100 39191.700000
168.068200 39962.000000
169.063300 77959.500000
170.070800 63884.200000
171.055100 52208.500000
171.079000 654515.200000
172.036700 77745.300000
172.062700 72021.000000
174.066100 626526.200000
175.066600 41908.200000
176.081900 83429.000000
178.045900 100628.600000
180.080600 51498.700000
181.062900 44721.700000
181.075700 38141.900000
182.071200 292960.100000
183.079100 277676.100000
184.086700 64924.100000
185.070400 34959.800000
188.031800 100930.500000
190.065100 66435.600000
192.068000 133709.400000
193.056700 97542.300000
194.064400 502552.300000
194.071500 82736.700000
194.083800 77716.900000
196.056900 85395.500000
198.052400 554969.200000
199.047700 77405.200000
200.055300 137259.000000
201.039600 42341.600000
205.057700 73995.200000
206.071300 114388.200000
206.083000 98292.900000
207.079100 109226.600000
207.091500 296711.600000
208.086900 451554.100000
209.082300 42921.100000
213.026600 50584.800000
213.063200 246782.200000
214.071100 781744.400000
216.068600 63302.200000
217.076100 178206.600000
218.071100 192490.200000
218.083700 177441.000000
219.079000 742337.600000
219.091500 238483.300000
220.086900 594546.800000
221.051700 99615.200000
221.082100 106665.700000
221.094500 325297.000000
223.047600 39235.500000
224.055300 34930.200000
225.051900 37739.400000
225.063100 259217.800000
226.071600 69453.000000
230.071200 41248.900000
232.086800 403066.200000
233.082100 154624.500000
233.094600 587370.000000
234.102500 2713757.800000
235.097800 242427.600000
240.074100 92912.500000
241.082200 398254.300000
242.089800 135238.100000
244.073900 180599.300000
244.086800 810853.700000
245.082400 3194963.000000
245.094600 578985.100000
246.090000 8032397.500000
247.097700 542354.900000
249.070600 34325.400000
257.081600 91138.700000
258.089700 128814.800000
259.097700 33990368.000000
260.105500 4593579.000000
261.113300 7647733.000000
272.093200 56177.200000
278.080100 117242.700000
286.108400 47153.900000
289.107800 60201.000000

>ms2peaks
50.015100 70926.700000
51.022800 59314.300000
53.038600 175685.000000
54.033800 39852.500000
56.049500 243453.100000
63.022900 66738.700000
65.038600 321589.600000
77.038400 154975.100000
78.033700 318329.200000
79.041600 136707.800000
79.054200 323212.600000
80.049400 120558.600000
81.044600 68012.900000
82.052500 32079.000000
83.060200 100163.900000
89.038500 682668.200000
90.033800 49239.800000
90.046400 73057.400000
91.041700 82621.900000
91.054200 643886.700000
92.049400 232045.100000
93.057200 50314.200000
95.049100 469710.900000
96.044300 361270.200000
102.033800 63968.500000
102.046400 131443.100000
103.041500 88345.900000
103.054200 208103.300000
104.049400 2700518.200000
105.044700 703828.700000
106.052500 39279.100000
106.065000 434910.200000
107.072900 132138.700000
110.060000 91684.800000
114.033700 155877.200000
115.041600 236672.000000
115.054100 60046.500000
116.036900 51032.600000
116.049400 844255.600000
117.044600 32383.200000
117.057200 348547.900000
118.052400 197397.400000
118.065000 123987.200000
119.049100 32589.200000
119.060500 140025.300000
120.044300 128231.300000
121.039600 34648.000000
126.027600 43067.300000
127.035200 46758.500000
128.049400 225923.600000
129.044600 642534.000000
129.057100 106262.500000
130.039900 246559.500000
130.052500 160477.300000
130.065100 407345.800000
131.060300 2051009.400000
132.068100 254210.000000
133.026200 35291.600000
133.052100 34833.500000
133.075900 63750.000000
134.047300 157530.000000
134.059800 158855.300000
135.055400 32688.800000
139.022700 62711.900000
140.049500 91404.400000
141.044600 37526.800000
142.052500 967236.900000
143.047700 108833.200000
143.060300 191247.100000
144.044300 37352.700000
144.055800 64530.100000
144.068200 252288.100000
145.025700 94485.000000
145.063600 53440.900000
145.075900 198602.400000
146.060000 162707.400000
146.071400 42086.900000
147.055100 285265.100000
147.067300 66445.700000
148.055500 119650.000000
149.070800 88252.700000
151.035400 395755.600000
152.030600 38148.200000
153.038500 253181.500000
155.060300 680677.400000
156.055500 1522082.900000
156.068100 283914.200000
157.026100 31636.000000
157.063500 86019.400000
157.076000 292811.000000
158.040200 118401.500000
158.071200 473039.700000
159.055200 47849.200000
160.063100 32460.300000
161.020700 102262.100000
162.042200 71302.600000
166.046300 89434.600000
166.065100 89523.100000
167.047700 36953.700000
167.060500 42363.100000
167.073000 37860.100000
168.055600 35445.400000
169.063300 141107.900000
171.055000 85826.400000
171.079000 535992.100000
172.036800 140412.300000
172.062900 61255.200000
173.044300 34814.500000
173.051200 43419.700000
174.059000 37975.800000
174.066100 491276.900000
175.066900 56999.300000
176.081900 43157.300000
178.046200 131617.500000
179.060300 66905.200000
180.049100 36038.100000
180.055700 48765.400000
180.068200 51153.900000
180.080500 91649.500000
181.063400 64759.600000
181.075700 68847.500000
182.071200 344769.300000
183.066600 33468.000000
183.079100 190942.600000
186.016000 52013.700000
186.052400 97784.400000
187.048600 57199.900000
190.065000 99408.400000
191.060600 72510.400000
191.072800 91815.200000
192.068100 360277.500000
193.056700 357083.400000
193.063800 74053.700000
193.076000 189833.200000
194.071500 153107.100000
195.080300 140668.500000
196.036800 34192.800000
196.056900 48595.900000
197.045100 60856.200000
198.052400 270575.200000
199.047800 86606.800000
200.055300 114808.500000
201.039800 44493.800000
201.052900 41050.000000
205.057400 39058.500000
205.076000 226574.600000
206.071400 198515.400000
207.079200 170762.600000
207.091700 211698.900000
208.086900 523633.000000
210.040000 34794.100000
213.027000 47436.300000
213.063400 367463.200000
214.071200 533947.900000
216.068200 150197.100000
217.063500 63697.500000
217.076100 186375.800000
218.071300 642616.400000
218.083700 245901.800000
219.079200 1171524.600000
219.091500 200057.500000
220.086800 922856.800000
221.051600 72040.500000
221.082300 143575.800000
221.094800 180121.200000
223.047400 94035.500000
224.055400 31534.900000
225.051900 34459.800000
225.063600 79936.200000
230.070900 107070.300000
231.079000 84313.200000
232.086900 837324.200000
233.082200 160024.200000
233.094800 683883.000000
234.089900 122209.400000
234.102400 1116265.200000
240.074100 57505.900000
241.082700 73771.600000
242.071100 55153.700000
242.089700 51487.900000
243.079100 366855.700000
244.074300 1543245.500000
245.082300 5059641.000000
245.094100 309548.900000
246.090000 4771008.500000
247.097700 522567.200000
257.082000 266147.600000
258.089900 727642.400000
259.097700 30002424.000000
260.105600 1908690.500000
261.113300 1415594.000000
268.068800 44491.400000
272.093100 39283.000000
278.079800 50661.400000

>ms2peaks
50.015100 199288.400000
51.022900 227094.200000
52.018200 61185.200000
52.030800 29379.300000
53.002200 32453.000000
53.013400 44850.300000
53.038600 342320.600000
54.033900 95899.400000
54.046300 8746.900000
55.017800 17569.500000
55.041600 12937.500000
56.049500 164661.800000
57.013400 16573.500000
62.015100 80054.400000
63.022900 426447.600000
64.018100 31896.700000
64.030700 46807.100000
65.026000 56858.300000
65.038600 598844.300000
66.046400 53814.000000
67.041600 36154.300000
68.049400 9987.400000
68.994500 12473.000000
74.015000 39127.500000
75.004000 18143.300000
75.022900 286932.000000
76.018000 87230.200000
76.030700 72947.600000
77.038500 474024.200000
78.033800 733013.100000
78.046400 58097.100000
79.041600 309619.100000
79.054200 271408.000000
80.036700 8305.300000
80.049400 116498.300000
81.013400 14399.600000
81.033500 65057.600000
81.044700 94118.000000
82.052500 17967.700000
83.029100 44770.700000
83.060300 74363.400000
88.018100 82099.200000
88.030600 105513.210900
89.038500 1362123.400000
90.033800 223315.900000
90.046400 175621.700000
91.041600 260324.800000
91.054200 512154.900000
92.036800 32150.600000
92.049500 340750.500000
93.057400 16248.900000
95.049100 1138880.200000
96.044300 1086894.600000
97.039700 10623.600000
98.015100 8063.300000
99.004100 9645.000000
100.018100 13690.400000
101.019600 17600.400000
101.038600 40744.000000
102.033800 369792.500000
102.046400 276587.100000
103.029000 49236.400000
103.041600 278539.200000
103.054200 185888.900000
104.049400 3027881.000000
105.044700 1008668.800000
106.052800 54287.200000
106.065100 284042.200000
107.029100 74849.500000
107.072900 13233.300000
108.024500 7569.200000
108.044300 7655.500000
109.032300 8065.700000
110.059900 59675.400000
111.031400 79470.600000
113.019700 15364.700000
113.038700 31987.300000
114.033800 380018.200000
115.041600 650703.400000
115.054200 79281.500000
116.036900 284450.000000
116.049400 590757.400000
117.044700 86529.400000
117.057200 406006.500000
118.052500 164387.500000
118.065000 192512.300000
119.048800 31493.200000
119.060300 71881.500000
120.037000 45727.900000
120.044400 248013.700000
121.032300 7182.000000
121.039600 116123.600000
121.044700 35363.400000
122.040000 13728.400000
123.035200 29626.500000
124.018200 34471.100000
125.019700 142289.100000
125.038900 7526.300000
126.027600 134710.800000
126.034200 10329.400000
127.035300 76778.900000
127.041600 44117.500000
127.053900 8590.600000
128.049400 438783.700000
129.044700 1382987.400000
129.057100 111242.000000
130.040000 670956.400000
130.052500 200206.200000
130.065100 166397.200000
131.060300 1424279.800000
132.018200 62341.500000
132.044400 18257.600000
132.068100 46041.100000
133.026000 34731.500000
133.052200 55919.900000
134.039900 48179.900000
134.047500 211834.100000
134.060000 112438.700000
135.055200 35038.300000
139.022800 141133.600000
139.035300 53638.000000
139.054100 75300.100000
140.030600 212482.800000
140.049300 216412.300000
141.025800 73517.300000
141.045100 56392.500000
141.057200 40952.500000
142.052500 609116.400000
143.010300 14554.200000
143.047800 197770.300000
143.060300 252060.000000
144.044500 10938.200000
144.055700 68719.300000
144.068100 133703.200000
145.025900 264660.500000
145.063900 16725.100000
145.076000 216451.984400
146.034500 9001.600000
146.040200 38827.700000
146.060000 176394.400000
147.055200 607413.600000
148.030500 13986.000000
148.055600 79268.500000
149.071300 11353.800000
150.046500 12246.000000
151.035300 356119.500000
152.030600 96437.600000
152.049800 16189.100000
152.062000 49273.000000
153.038600 323981.100000
153.044700 51402.400000
154.040000 40588.900000
154.052500 44094.500000
154.065100 61212.000000
155.060300 729461.300000
156.055600 1310643.100000
156.068100 100408.300000
157.026100 8044.800000
157.052200 15786.700000
157.063600 55619.400000
157.076100 43459.400000
158.040000 101892.000000
158.071300 45060.100000
159.028900 11140.200000
159.055100 53695.000000
160.036800 58408.200000
161.020700 39764.200000
162.042200 73442.600000
163.054300 38483.700000
164.049400 226686.500000
165.044800 45643.900000
165.057000 94776.400000
165.070000 12864.600000
166.046300 175322.300000
166.052600 62866.400000
166.065100 135657.800000
167.047700 16778.300000
167.053900 31628.300000
167.060400 91440.600000
167.072900 42749.100000
168.055900 91407.500000
168.068200 109207.000000
169.026000 10666.300000
169.052100 11287.800000
169.063700 144226.671900
170.071100 127896.000000
171.055300 114749.900000
171.079000 59628.400000
172.036900 125775.400000
173.032300 10913.900000
173.051000 87800.200000
174.059100 19528.200000
174.066000 127640.900000
176.030800 31359.100000
178.046200 46839.700000
178.053300 10892.000000
179.060300 172847.400000
179.072700 17863.900000
180.048800 13694.700000
180.055600 68183.400000
180.068000 44400.800000
180.080700 39422.800000
181.063700 55812.000000
181.075900 77616.500000
182.071200 230315.800000
183.055500 14289.300000
183.067100 44353.000000
183.079400 53946.000000
186.016000 54578.000000
186.042800 26071.600000
186.052600 73750.400000
187.047800 41155.700000
188.049600 30798.600000
189.045100 24981.600000
190.052500 51679.200000
190.064900 126974.500000
191.060200 334460.200000
191.072800 94278.900000
192.068100 580909.437500
193.057000 290493.300000
193.063700 217388.200000
193.076100 205906.600000
194.064600 111741.600000
194.071400 283683.600000
195.055400 30447.500000
195.072600 84414.400000
195.080300 21650.400000
196.036900 15763.300000
197.044800 14416.100000
197.070500 8830.600000
199.047800 81342.200000
200.055700 40753.200000
201.052300 18307.600000
202.053000 10666.500000
203.060400 68845.200000
204.055900 100203.200000
204.067900 55818.900000
205.063900 34863.800000
205.076100 411967.300000
206.071300 271510.900000
206.083700 79949.100000
207.066900 42098.400000
207.079100 136344.200000
208.063600 15485.200000
208.087000 201294.400000
209.070900 62472.100000
213.063600 144498.900000
214.072000 23636.600000
215.060300 80924.500000
216.055900 47015.200000
216.068200 248921.400000
217.063500 660494.600000
217.075900 125667.700000
218.071300 907507.000000
218.083500 121019.900000
219.066900 67468.000000
219.079100 420063.200000
219.091300 51785.100000
220.086800 383771.900000
221.081900 73775.700000
223.047800 80024.300000
225.052300 14929.300000
229.050700 7643.400000
230.071200 270304.400000
231.066800 59266.200000
231.078900 353560.300000
232.086800 824531.600000
233.082100 117827.400000
233.094700 112118.700000
234.066400 71405.200000
234.090100 29273.100000
234.102600 68443.600000
241.063100 39197.500000
242.070900 71843.300000
243.066500 377361.200000
243.079200 304554.400000
244.074400 6874411.500000
245.082200 2052426.800000
246.090000 330711.300000
247.097600 73608.900000
256.074200 80548.700000
257.082100 2866364.000000
258.090000 2100307.000000
259.097800 6261351.500000
260.105700 72245.900000
276.063400 27887.100000

>ms2peaks
50.015100 711928.200000
51.022900 533544.900000
52.018200 127407.100000
52.030700 39414.400000
53.002200 65661.800000
53.013400 46823.700000
53.038600 420011.400000
54.033800 149249.600000
54.046500 8291.600000
55.017900 31713.800000
55.041600 34006.000000
56.049500 124879.500000
57.013500 114386.000000
61.007200 92443.800000
62.015100 360589.500000
63.022900 1259001.400000
64.018200 115903.700000
64.030700 104818.600000
65.002200 56436.500000
65.026000 134321.900000
65.038600 745322.000000
66.046400 97362.800000
67.041600 46300.200000
67.054100 29864.200000
68.049400 29815.400000
68.994600 76593.500000
74.015000 139728.500000
75.004000 119008.500000
75.022900 1062201.400000
76.018100 343985.200000
76.030700 236805.300000
77.038500 785056.100000
78.033800 1154115.200000
78.046400 99785.900000
79.041600 339035.100000
79.054200 121376.700000
80.036800 10967.500000
80.049400 77253.500000
81.013500 116546.000000
81.033500 78339.100000
81.044700 126453.600000
82.021200 7521.300000
83.029100 104520.500000
83.060300 41458.800000
86.015100 35584.800000
87.010300 16298.000000
87.022900 149297.000000
88.011900 37001.800000
88.018100 215376.600000
88.030700 259557.300000
89.026000 116803.200000
89.038500 1665578.400000
90.033900 289880.600000
90.046400 220519.300000
91.041600 204124.600000
91.054200 419994.200000
92.036900 34539.700000
92.049400 248740.000000
93.013500 8678.400000
93.044900 11390.100000
93.057000 9540.500000
94.041300 36784.700000
95.049100 1305737.000000
96.037500 76801.500000
96.044300 1398413.400000
97.039700 28353.000000
98.015000 16008.100000
99.004000 46486.800000
99.022900 76879.900000
100.018100 110709.900000
101.019800 76598.500000
101.026000 27645.600000
101.038600 58706.400000
102.033800 681588.200000
102.046300 268154.100000
103.029000 115477.300000
103.041600 300552.000000
103.054100 79047.600000
104.049400 2069429.600000
105.044700 1157451.600000
106.052600 15036.500000
106.065100 138087.900000
107.029100 169904.600000
108.024300 43903.600000
108.044300 13282.000000
109.032300 30737.100000
109.044700 9572.800000
110.060000 43839.300000
111.004100 13944.800000
111.023400 9202.900000
111.031500 109212.200000
112.011900 40544.200000
113.019700 48937.000000
113.038700 114059.100000
114.033800 632111.400000
114.046300 55838.400000
115.041600 360776.400000
115.054200 88686.600000
116.036900 236225.000000
116.049400 318121.900000
117.044500 60013.200000
117.057200 459027.500000
118.052500 138455.600000
118.065000 127981.300000
119.049200 60447.100000
119.060500 45476.500000
120.020500 28512.200000
120.037100 40087.100000
120.044300 346922.400000
121.032200 13831.500000
121.039600 139702.900000
123.023200 10046.200000
123.035100 86803.200000
124.018200 29643.500000
125.019700 347738.600000
125.038600 31824.500000
126.027500 114363.700000
126.034200 43131.100000
126.046400 40173.500000
127.029200 14216.600000
127.035300 56170.800000
127.041700 75941.300000
128.049400 381480.000000
129.044600 1270318.600000
130.040000 874424.300000
130.052500 73095.000000
130.065100 66880.400000
131.029300 63985.100000
131.060300 717328.500000
132.018100 67330.100000
132.024700 13699.100000
132.044300 28734.800000
132.057000 15164.200000
133.025900 16017.400000
133.052000 51646.500000
134.039800 7395.900000
134.047500 73691.400000
134.059900 103374.800000
135.055500 9459.000000
137.038600 48102.800000
138.034100 49025.200000
139.022700 91744.900000
139.035400 81970.100000
139.041700 68538.900000
139.054100 159244.200000
140.030600 244764.800000
140.036800 48350.300000
140.049400 379278.300000
141.044700 60302.100000
141.057100 66547.400000
142.052500 267117.300000
143.010400 40743.300000
143.047900 144256.200000
143.060300 152303.300000
144.044400 12591.700000
144.055600 56665.500000
145.026000 324419.300000
145.075800 80705.300000
146.060000 107635.500000
146.071600 14775.700000
147.035600 55537.800000
147.055200 304902.800000
148.030600 58327.900000
148.055800 34899.800000
149.019600 27277.000000
149.038900 9305.800000
150.034100 12577.200000
150.046600 58547.300000
151.035500 187903.700000
151.041600 40020.200000
152.030600 92276.700000
152.049600 81271.800000
153.038400 110161.400000
153.044800 124493.300000
153.057200 68788.100000
154.040000 94761.200000
154.065300 56049.300000
155.060300 348710.600000
156.055600 448570.600000
157.063400 11586.300000
158.040300 37396.800000
159.029100 14035.000000
159.055100 53754.700000
160.037100 37902.400000
162.033900 38228.700000
163.041500 128468.265600
164.049400 722471.300000
165.044800 179785.200000
165.057100 117577.800000
165.070100 9417.400000
166.046200 176923.000000
166.052700 132584.900000
166.065100 95482.000000
167.047900 30738.600000
167.073100 11800.300000
168.044500 34515.100000
168.055700 72453.200000
168.068200 34657.500000
169.026000 31290.000000
169.051700 15573.200000
169.064400 187844.700000
170.060000 103229.000000
170.071100 37598.800000
171.055200 69222.800000
172.036900 56728.500000
173.051100 73639.700000
174.065700 23152.900000
175.041800 37100.600000
177.044700 126667.100000
178.046500 8429.200000
178.052900 17918.100000
178.064900 119026.800000
179.060300 252326.100000
179.072800 26404.100000
180.055600 87663.800000
180.068100 26242.900000
180.080700 16202.400000
181.052100 76336.500000
181.064200 22515.100000
182.071100 67238.100000
183.055500 30186.800000
183.068200 35078.000000
186.042500 9339.400000
186.052400 11636.100000
188.049500 147566.000000
189.044600 361834.200000
190.052400 278255.500000
190.064900 144066.200000
191.048100 78668.500000
191.060300 442703.100000
191.073200 48191.300000
192.055600 101650.400000
192.068000 442680.900000
193.056800 57745.300000
193.064100 296024.800000
193.076400 38245.100000
194.071300 98553.500000
195.031500 14815.000000
195.055300 249716.100000
198.052800 11868.700000
199.047800 16427.100000
203.060300 236755.300000
204.055800 295460.200000
204.068000 44418.900000
205.050900 13148.700000
205.063800 38405.800000
205.076100 253415.300000
206.071200 241645.200000
207.055400 79042.400000
207.065300 9747.400000
207.078900 56280.800000
208.063200 169708.300000
208.087200 39867.800000
213.063400 13177.900000
215.060400 131977.800000
216.055700 267588.900000
216.068100 130708.500000
217.063500 1096999.900000
217.075500 56319.800000
218.071200 407808.700000
219.066800 40269.800000
219.079200 99813.000000
220.087300 39963.400000
221.081300 7093.200000
222.066300 186391.000000
223.047900 8894.600000
228.055500 34090.100000
229.063500 55863.800000
230.071300 625848.100000
231.066800 79429.800000
231.079200 245070.900000
232.087000 182385.300000
233.082500 41264.800000
233.093700 7207.800000
234.066100 240699.800000
241.063100 30756.600000
242.058700 61440.100000
242.071100 37731.500000
243.066700 745167.800000
244.074400 2409934.000000
245.082100 189074.100000
255.066500 145457.300000
256.074200 415063.900000
257.082100 3136112.000000
258.089900 358300.000000
259.097800 271761.600000
276.064100 16219.900000

>ms2peaks
50.015100 1255268.000000
51.022900 932603.100000
52.018200 155567.300000
52.030700 45879.100000
53.002200 105445.200000
53.013500 49685.100000
53.038600 364878.100000
54.033800 163909.300000
55.017900 38092.800000
55.041600 14991.000000
56.049500 101128.600000
57.013500 207411.800000
61.007200 170431.200000
62.015100 789045.200000
63.022900 1993849.500000
64.018200 177939.200000
64.030700 103742.300000
65.002200 118953.000000
65.026000 111844.200000
65.038600 631579.200000
66.046400 109218.600000
67.041700 36931.100000
67.054200 7447.100000
68.049500 10964.000000
68.994600 111721.200000
74.015100 509854.000000
75.004000 238175.700000
75.022900 1756874.200000
76.018100 752586.400000
76.030700 350211.500000
77.038500 688267.900000
78.033800 1070858.400000
78.046400 62787.900000
79.041600 218824.800000
79.054200 43837.100000
80.036800 10704.000000
80.049400 61843.100000
81.013500 184765.300000
81.033500 111360.400000
81.044700 126663.400000
82.021200 11320.300000
82.052500 7302.600000
83.029000 77694.000000
83.060300 14579.600000
86.015000 116675.700000
87.010300 48237.500000
87.022900 300244.900000
88.012200 49303.300000
88.018200 337090.200000
88.030700 290679.000000
89.026000 115347.700000
89.038600 1407364.600000
90.033900 253769.100000
90.046400 225307.400000
91.041600 159811.200000
91.054200 226469.500000
92.036800 15324.300000
92.049400 112065.900000
93.013500 62669.700000
93.044800 7798.200000
93.057300 10662.200000
94.041300 33922.900000
95.049100 1020443.200000
96.037200 56109.800000
96.044300 984041.400000
98.015100 80843.300000
99.004100 88925.700000
99.022900 169221.800000
100.018100 251553.800000
101.019800 60473.100000
101.026100 27621.700000
101.038600 58549.900000
102.033800 629657.200000
102.046300 167393.900000
103.029000 88255.500000
103.041600 160649.000000
103.054300 15698.400000
104.049400 765993.200000
105.044700 806219.400000
106.065100 62203.700000
107.029100 116004.800000
108.024400 34862.300000
109.044700 33517.200000
110.060100 25243.200000
111.004300 13500.200000
111.023200 13716.700000
111.031500 76185.100000
112.011900 42805.200000
113.019600 55899.300000
113.038600 190423.900000
114.033800 554455.800000
114.046300 48988.400000
115.041600 220377.300000
115.054200 104525.000000
116.036900 78317.900000
116.049500 195682.300000
117.044800 27409.200000
117.057200 236174.300000
118.052400 65743.200000
118.065100 43198.700000
119.049100 35690.400000
119.060400 11688.200000
120.020700 12327.300000
120.037000 32769.500000
120.044300 204170.300000
121.039600 109591.600000
122.040100 32952.300000
123.022900 59901.200000
123.035200 105141.687500
124.018200 62699.700000
125.019700 329970.800000
125.038500 85012.700000
126.027600 28208.300000
126.033900 50753.100000
126.046500 64206.600000
127.029100 16206.300000
127.035600 49307.100000
127.041600 87095.200000
127.054100 12085.900000
128.049400 193098.300000
129.044700 689310.100000
130.040000 517643.500000
130.052700 27240.700000
131.029600 47728.100000
131.060400 194408.500000
132.018100 48102.800000
132.024600 28734.400000
132.044200 33999.900000
132.056900 16758.000000
133.026300 6541.700000
133.052100 13958.600000
134.047600 10331.700000
134.059800 49804.600000
137.038600 174796.800000
138.033800 200866.700000
139.022800 38080.400000
139.036000 15722.600000
139.041700 122169.200000
139.054100 115881.500000
140.030600 97272.700000
140.036900 40976.600000
140.049400 269710.900000
141.026000 66873.600000
141.044800 34545.000000
141.057300 27116.000000
142.052500 127883.500000
143.010200 16334.200000
143.048400 55926.000000
143.060400 41257.500000
144.044600 11131.100000
144.055500 28974.600000
144.068400 10854.100000
145.026000 127949.900000
145.075800 13244.800000
146.040100 28611.800000
146.060000 37101.100000
147.035400 53815.400000
147.055200 70235.700000
148.030500 41098.600000
148.055800 12095.600000
149.019300 8185.300000
149.038700 52163.500000
150.033800 66125.000000
150.046300 149829.800000
151.041800 78921.900000
152.049500 111051.400000
152.062300 32259.200000
153.038500 26572.900000
153.044500 147915.300000
153.057200 51490.500000
154.040100 102397.800000
154.052600 30609.000000
155.060400 140826.600000
156.055600 98024.100000
157.052200 162916.600000
159.055200 26466.600000
162.033800 239659.400000
163.041700 232531.718800
163.054100 99076.800000
164.049400 816093.400000
165.044800 190463.300000
165.057300 83788.600000
166.046100 40194.400000
166.052500 128706.300000
167.048100 46119.800000
168.044300 83850.600000
168.055800 33419.700000
168.068200 17022.000000
169.039500 11505.100000
169.052300 7941.300000
169.064500 90129.400000
170.060200 103401.100000
171.055400 44194.000000
172.036600 7548.700000
173.051000 15624.700000
175.041600 88777.200000
176.030700 8901.100000
177.044800 209840.000000
178.052500 60413.800000
179.060400 187822.100000
180.055500 44653.300000
181.052000 104252.800000
182.071700 7971.500000
183.055300 43070.300000
186.042400 12139.800000
188.049500 150260.000000
189.044700 822436.400000
190.052500 201381.200000
190.065100 57616.600000
191.048000 97187.500000
191.060200 228664.500000
191.073000 22166.900000
192.055600 66569.700000
192.068000 139154.500000
193.063700 78719.100000
194.059900 171055.171900
195.031700 48362.700000
195.055300 267697.400000
197.070500 7457.600000
202.052500 102393.400000
203.060400 246571.200000
204.055600 339425.300000
204.067700 30738.600000
205.051200 12076.800000
205.076400 49833.400000
206.071200 106653.800000
207.055700 110910.100000
207.065700 13075.900000
207.078600 9471.100000
208.063200 59833.900000
209.071000 29863.500000
216.055500 208885.484400
217.063500 356103.400000
218.071300 66768.100000
222.066400 40974.900000
228.055700 100342.200000
229.050600 34657.300000
229.063400 116305.200000
230.071400 424995.900000
231.066600 50554.800000
231.079000 59350.900000
234.066000 130506.984400
242.059000 120998.800000
242.070500 13270.600000
243.066600 232157.500000
244.074400 170519.900000
255.066600 365839.500000
256.074300 388776.000000
257.082100 809440.100000

