>compound EQ73947443
>parentmass 233.1648
>ionization [M+H]+
>formula C14H20N2O
>rt 282.000000
>profile orbitrap
#smiles_iso CCC(=O)N(C1CCNCC1)C2=CC=CC=C2
#smiles_can CCC(=O)N(C1CCNCC1)C2=CC=CC=C2
#inchikey PMCBDBWCQQBSRJ-UHFFFAOYSA-N
#pubchem_id 259381
#mb_accession EQ361201,EQ361202,EQ361203,EQ361204,EQ361205,EQ361206,EQ361207,EQ361208,EQ361209

>ms2peaks
55.054100 2929009.000000
56.049300 5381979.500000
57.033500 3434414.000000
84.080700 239076976.000000
150.091200 15209164.000000
177.138400 31657296.000000
216.138100 2742231.800000
233.164500 1135709824.000000

>ms2peaks
55.054100 9832154.000000
56.049400 26357058.000000
57.033300 7663055.500000
67.054100 3228073.000000
82.065000 1624637.000000
84.080700 679533376.000000
132.080500 1325210.600000
140.106800 1571712.100000
150.091200 44949112.000000
177.138400 81006000.000000
216.138100 7633840.000000
233.164500 629310016.000000

>ms2peaks
53.038600 906029.100000
55.054200 40093556.000000
56.049400 89377624.000000
57.033400 21205068.000000
57.069800 2055950.800000
67.054100 10425436.000000
82.065000 5909511.500000
84.080600 815593792.000000
94.065000 5036019.500000
120.080700 1044448.200000
132.080600 4917476.000000
150.091200 59202732.000000
177.138400 36684640.000000
216.138100 5688050.000000
233.164600 61683652.000000

>ms2peaks
53.038400 2314850.200000
55.054200 92535128.000000
56.049400 139017664.000000
57.033400 25948602.000000
57.069800 3344155.200000
65.038400 830740.400000
67.054200 17156838.000000
69.057200 574301.400000
82.065100 8502227.000000
84.080700 511504544.000000
94.065000 21888424.000000
120.080700 1700397.100000
132.080600 6204422.500000
150.091200 31571450.000000
177.138400 3964352.000000
216.138200 1195704.500000
233.164600 2228883.500000

>ms2peaks
53.038500 3430000.800000
55.054200 148834416.000000
56.049400 143468192.000000
57.033400 21049802.000000
57.069800 4562629.500000
65.038500 976048.900000
67.054200 17362332.000000
69.057200 1046662.100000
82.065000 7697712.000000
84.080700 236179216.000000
94.065000 33316984.000000
95.049000 265896.500000
117.057200 570954.100000
120.080700 1160348.900000
132.080700 5160123.000000
150.091200 7622699.000000

>ms2peaks
53.002100 290592.900000
53.038500 4624929.000000
55.054200 161878160.000000
56.049400 105334504.000000
57.033400 13711534.000000
57.069800 2555158.500000
65.038600 1379981.800000
67.054200 13656586.000000
68.049400 227999.400000
69.057300 1440176.200000
77.038400 871841.900000
80.049300 241254.900000
82.065000 5608497.000000
84.080700 92397000.000000
94.065000 28945344.000000
95.049100 1452627.400000
105.044600 738584.500000
106.064900 177868.300000
117.057200 1063216.900000
120.080500 1168515.500000
130.064800 204239.000000
132.080700 2463558.200000
150.091200 1876046.200000

>ms2peaks
51.022900 704943.900000
53.002200 940483.600000
53.038600 9858998.000000
53.997400 168566.300000
54.033800 154310.400000
55.054200 136831808.000000
56.049400 55314332.000000
57.033400 4939689.000000
57.069900 853654.300000
65.038500 1734686.000000
67.041700 513237.700000
67.054200 5968835.500000
67.989300 245734.900000
68.049400 1422315.900000
69.057200 1868170.600000
77.038400 1965815.400000
80.049500 273283.200000
82.065000 2856221.500000
84.080700 11464463.000000
93.057500 726404.700000
94.065100 17599510.000000
95.049100 4187715.200000
105.044700 3476951.000000
106.065300 164485.200000
117.057200 1088267.200000
120.081100 288787.500000

>ms2peaks
50.015100 223163.100000
51.022900 2164909.200000
53.002200 1536994.500000
53.038600 9853490.000000
53.997500 157736.600000
54.033800 489295.000000
55.054200 64274764.000000
56.049400 23654576.000000
57.033500 1171028.900000
57.069900 180282.200000
65.038500 1344089.200000
67.041600 1053483.800000
67.054200 2154485.500000
67.989300 261723.100000
68.049400 2105211.200000
69.057200 1938788.900000
77.038400 3697966.200000
80.049300 167813.800000
82.065000 899293.400000
84.080700 1330956.200000
93.057200 1168249.900000
94.065100 4116184.500000
95.049100 6333591.000000
105.044700 3143152.000000
117.057200 248658.000000
130.065200 271080.400000

>ms2peaks
50.015100 1096061.100000
51.022900 4366123.500000
53.002200 1353663.900000
53.038600 5682543.500000
53.997400 447760.100000
54.033800 957878.200000
55.054200 20819788.000000
56.049400 8000470.500000
57.033400 262823.200000
65.038500 804836.400000
66.046400 245072.953100
67.041600 1178049.100000
67.054100 943524.000000
67.989200 202699.100000
68.049400 2554870.200000
69.057200 543243.800000
77.038500 2665547.000000
80.049300 252757.300000
82.065100 531831.200000
84.081000 126892.100000
93.057300 744578.600000
94.065100 820640.900000
95.049100 3798673.000000
105.044700 2460536.800000

