>compound EQ74266687
>parentmass 256.1696
>ionization [M+H]+
>formula C17H21NO
>rt 396.000000
>profile orbitrap
#smiles_iso CN(C)CCOC(C1=CC=CC=C1)C2=CC=CC=C2
#smiles_can CN(C)CCOC(C1=CC=CC=C1)C2=CC=CC=C2
#inchikey ZZVUWRFHKOJYTH-UHFFFAOYSA-N
#pubchem_id 3100
#mb_accession EQ335201,EQ335202,EQ335203,EQ335204,EQ335205,EQ335206,EQ335207,EQ335208,EQ335209

>ms2
88.075700 3194581.500000
165.069500 3301525.500000
167.085500 911958400.000000

>ms2
88.075600 1183792.100000
152.061600 1529537.000000
165.069800 4330742.000000
166.077800 971197.400000
167.085500 835448064.000000

>ms2
88.075700 1069288.200000
152.062100 18864308.000000
165.070000 33006960.000000
166.077800 10196123.000000
167.085500 793048192.000000

>ms2
88.075800 713680.400000
128.062200 711683.900000
141.070000 2146548.800000
151.054100 2660559.500000
152.062100 122464112.000000
165.070000 128690504.000000
166.077800 49322616.000000
167.085500 519902720.000000
169.064800 4833785.500000
179.060300 2159463.800000

>ms2
88.075600 479544.700000
115.054200 943064.100000
128.062100 6870921.000000
141.069900 9219258.000000
151.054300 5178212.000000
152.062100 262714256.000000
164.061900 560947.800000
165.070000 249735568.000000
166.077800 86744048.000000
167.085500 220812544.000000
169.064800 10864062.000000
179.060300 4491971.500000
183.080300 672078.400000

>ms2
63.022700 404117.000000
65.038600 733899.600000
115.054200 4360955.500000
128.062100 17214896.000000
139.054100 1005122.100000
141.069900 19286722.000000
150.046400 478762.700000
151.054200 6248801.500000
152.062100 296225920.000000
164.062000 1337328.600000
165.069900 305628096.000000
166.077700 75130832.000000
167.085500 57516576.000000
169.064800 13146430.000000
179.060400 5833205.000000

>ms2
63.022800 1714014.800000
65.038600 7146511.500000
67.989200 540809.800000
78.046400 1278529.000000
89.038600 2895832.000000
91.054300 2622983.000000
95.049200 472648.600000
102.046400 3637000.200000
115.054300 44527368.000000
125.038900 498900.500000
126.046400 3083624.200000
127.054400 2078671.900000
128.062100 46892060.000000
139.054200 8905530.000000
140.062000 531237.000000
141.069900 24737146.000000
145.065100 1353139.000000
150.046500 4645733.000000
151.054300 6954768.000000
152.062100 257985008.000000
155.060400 1935472.900000
163.054200 3334942.800000
164.062100 17174728.000000
165.069900 346502304.000000
166.077700 22368958.000000
167.085400 2056942.900000
168.056900 5130422.500000
169.064800 18267014.000000
179.060400 6540317.500000
196.051600 1544652.900000

>ms2
50.015100 610999.200000
51.023000 519562.800000
53.002200 871658.300000
53.038600 644352.200000
62.015100 1233978.400000
63.022900 6903299.000000
65.038600 10976257.000000
74.014900 963151.400000
75.022800 1056073.600000
76.030700 2472410.800000
77.038500 1219491.900000
78.046400 6908544.000000
81.033500 266948.000000
86.015100 510967.200000
87.022900 1759776.000000
89.038600 10055444.000000
91.054300 5553682.500000
95.049100 2300319.000000
98.015000 198488.800000
99.022900 719640.900000
100.030800 223899.100000
101.038600 489467.400000
102.046400 16705242.000000
103.054200 198251.900000
105.044800 1595646.500000
113.038500 1228057.900000
115.054300 72269224.000000
125.038600 1545586.900000
126.046500 17050860.000000
127.054200 3310851.800000
128.062100 35148168.000000
129.044500 446771.500000
138.046400 579885.300000
139.054300 24243646.000000
140.062000 619276.500000
141.069900 6910997.500000
145.065000 1397992.400000
149.038900 234916.800000
150.046500 12141840.000000
151.054300 9211660.000000
152.062100 101966248.000000
155.060400 2749368.000000
163.054300 19153164.000000
164.062100 30799148.000000
165.069900 180621856.000000
166.077700 1656821.600000
168.057000 9333198.000000
169.064800 29500254.000000
179.060400 9717083.000000
196.051900 3937994.800000

>ms2
50.015100 2869842.200000
51.022900 2686549.800000
52.030700 493322.400000
53.002200 1124495.800000
53.038600 1392017.900000
61.007200 1504125.600000
62.015100 5191991.000000
63.022900 22890156.000000
65.038600 19570234.000000
67.989300 217409.700000
74.015100 6508994.000000
75.022900 4578599.000000
76.030700 10562493.000000
77.038500 2620919.200000
78.046400 15481030.000000
81.033600 280218.000000
86.015100 2486790.000000
87.022900 5812900.000000
89.038600 30074146.000000
91.054300 7652327.500000
95.049200 5878849.000000
98.015200 2766250.500000
99.023000 2056309.100000
100.030700 1996510.200000
101.038400 171142.000000
102.046400 30996372.000000
103.054200 261802.600000
105.044800 3254442.000000
113.038600 5175790.500000
114.046400 817086.700000
115.054300 79639240.000000
119.049200 230697.000000
125.038600 3457080.200000
126.046500 29053008.000000
127.054200 5299443.000000
128.062100 16324073.000000
129.044700 1192385.000000
137.038600 1309973.600000
138.046400 1623712.800000
139.054300 35669020.000000
140.062100 705199.800000
141.069900 1447137.800000
145.064800 1532205.600000
149.038500 784175.200000
150.046500 25713648.000000
151.054300 8586230.000000
152.062100 29957224.000000
155.060500 4010992.200000
162.046600 1220087.600000
163.054300 49929324.000000
164.062100 32215742.000000
165.069900 85021984.000000
168.057000 11929836.000000
169.064800 25272484.000000
179.060500 7684660.000000
196.052100 4124943.500000

