>compound EQ74674397
>parentmass 103.03240000000002
>ionization [M+H]+
>formula C3H6N2S
>rt 60.000000
>profile orbitrap
#smiles_iso C1CNC(=S)N1
#smiles_can C1CNC(=S)N1
#inchikey PDQAZBWRQCGBEV-UHFFFAOYSA-N
#pubchem_id 2723650
#mb_accession EQ027101,EQ027102,EQ027103,EQ027104,EQ027105,EQ027106,EQ027107,EQ027108,EQ027109

>ms2peaks
58.995000 266648.100000
59.990100 228662.400000
69.044700 660730.200000
76.021500 852372.500000
86.005900 4277822.000000
103.032400 182427712.000000

>ms2peaks
58.995000 214025.600000
59.990100 377187.600000
69.044700 579918.900000
76.021500 811450.400000
86.005900 4377472.500000
103.032400 186834176.000000

>ms2peaks
58.995000 261786.100000
59.990000 230461.600000
69.044700 580532.400000
76.021500 889863.900000
86.005900 4386918.000000
103.032400 195056288.000000

>ms2peaks
58.995000 518376.500000
59.990200 507443.800000
69.044700 762622.600000
76.021500 1129925.500000
86.005900 6986155.500000
103.032400 142208336.000000

>ms2peaks
58.995000 1192760.900000
59.060400 186921.200000
59.990200 1295171.600000
69.044700 1064491.500000
70.052500 243848.400000
76.021500 1340815.600000
86.005900 10717559.000000
103.032400 96152712.000000

>ms2peaks
58.052600 83828.100000
58.995000 2003650.900000
59.060400 143826.600000
59.990300 2670113.000000
69.044700 908089.400000
70.052500 485681.400000
74.005900 83190.200000
76.021500 1021375.000000
83.990300 102454.200000
85.039700 87177.300000
86.005900 11706152.000000
103.032400 47748268.000000

>ms2peaks
55.029100 25937.500000
56.979400 20717.000000
57.987200 80464.200000
58.052600 42869.100000
58.995000 3510893.500000
59.990300 7334034.000000
69.044700 506996.500000
70.052500 961289.800000
74.006000 130367.500000
76.021500 422360.900000
83.990300 468011.600000
85.039700 220495.700000
86.005900 9744270.000000
103.032500 10459185.000000

>ms2peaks
56.979300 150853.100000
57.987200 191190.000000
58.052500 41805.100000
58.995000 3307627.500000
59.990200 11097200.000000
69.044700 279210.900000
70.052500 812601.900000
74.005800 195297.100000
76.021500 99547.500000
83.990200 554856.900000
85.039600 159516.000000
86.005900 4965777.500000
103.032400 1844315.100000

>ms2peaks
55.029100 112409.600000
56.979300 215187.500000
57.987200 281726.600000
58.052500 38133.300000
58.995000 2567261.000000
59.990300 14082939.000000
69.044700 113469.400000
70.052500 535201.200000
74.005900 168042.800000
76.021600 33850.500000
83.990300 726537.900000
85.039700 84917.100000
86.005900 2058304.600000
103.032500 258440.000000

