>compound EQ74121486
>parentmass 364.0962
>ionization [M+H]+
>formula C16H17N3O5S
>rt 144.000000
>profile orbitrap
#smiles_iso CC1=C(N2C(C(C2=O)NC(=O)C(C3=CC=C(C=C3)O)N)SC1)C(=O)O
#smiles_can CC1=C(N2C(C(C2=O)NC(=O)C(C3=CC=C(C=C3)O)N)SC1)C(=O)O
#inchikey BOEGTKLJZSQCCD-UHFFFAOYSA-N
#pubchem_id 2610
#mb_accession EQ366201,EQ366202,EQ366203,EQ366204,EQ366205,EQ366206,EQ366207,EQ366208,EQ366209

>ms2peaks
68.049500 130162.200000
86.005800 35078.000000
114.000800 14294341.000000
122.060100 64007.000000
126.055200 58512.400000
134.036300 31371.900000
140.034300 1159872.500000
150.055000 30274.500000
158.027100 3047206.200000
162.091300 37017.000000
170.027200 28010.300000
180.047800 196341.800000
181.061000 91513.800000
190.049900 1243115.100000
194.027200 122992.800000
206.027100 90110.800000
207.035000 675965.300000
208.042800 19012258.000000
213.032800 90852.900000
253.027800 332009.800000
256.060600 480419.800000
301.064300 140887.400000
303.080100 57385.600000
313.081700 44941.700000
319.074800 240562.500000
347.069800 680086.312500

>ms2peaks
58.995000 41875.900000
68.049500 2016131.900000
70.065100 31608.300000
86.005900 188993.800000
98.060100 32251.500000
102.000900 32808.400000
107.049100 55868.000000
114.000900 28516710.000000
122.060100 172850.900000
126.055100 140948.000000
133.028500 31827.600000
134.036300 877894.900000
134.060100 400942.100000
135.044100 30483.800000
135.055500 31744.100000
137.005600 41042.900000
137.071100 84547.300000
138.055000 38948.800000
139.021500 52701.700000
140.016500 120443.800000
140.034300 1789585.400000
150.055300 30931.500000
158.027100 2359506.000000
162.054800 46339.000000
162.091600 51806.100000
163.021400 37665.800000
166.032400 74466.800000
170.027000 53443.100000
180.047900 348980.900000
181.043200 56804.600000
181.060700 56450.100000
190.050000 1003457.900000
194.027200 349844.800000
206.027200 112661.400000
207.035000 1260637.100000
208.042900 1241320.800000
213.032800 55904.200000
230.063500 30309.300000
234.022200 33789.900000
253.027900 98433.700000
256.060500 357995.400000
258.022100 39980.100000
273.069200 37254.800000
301.063900 45074.400000
303.079900 110674.600000
319.074800 57924.800000

>ms2peaks
58.995000 116269.400000
68.049500 3375198.200000
69.033500 27870.200000
70.065200 83045.300000
74.005900 37114.100000
86.005900 1100548.600000
94.065100 49345.100000
97.028500 53764.000000
98.060100 50956.700000
102.000900 41088.400000
106.041400 25177.300000
106.065200 43275.000000
107.049200 195831.400000
109.076100 40319.300000
112.021700 73316.000000
114.000900 23385666.000000
119.049200 51072.100000
122.060100 190578.600000
126.037200 36953.600000
126.054900 40398.100000
133.028500 82829.600000
133.052400 99842.400000
134.036300 2234722.500000
134.060100 1243706.800000
135.044100 121155.400000
135.055300 37328.700000
137.005500 94790.500000
137.071000 39566.400000
138.054900 49319.700000
139.021400 216790.400000
140.016500 134859.100000
140.034300 430804.000000
146.060300 48083.200000
150.054800 44899.700000
151.021300 31230.500000
152.016700 39219.000000
153.036900 37381.700000
158.027200 1417636.100000
162.054900 59704.700000
163.021200 136073.800000
166.032200 241990.800000
170.027100 30748.100000
178.032200 84320.100000
180.047900 172143.400000
190.049900 243712.400000
194.027200 169655.000000
206.026700 51422.100000
207.034900 134365.500000
214.062500 48170.500000
228.065500 53945.200000
230.063600 38344.300000
241.037200 41424.700000
256.060600 80195.800000
303.079500 32042.700000

>ms2peaks
53.002200 26308.700000
58.995000 434888.200000
68.049500 3655547.500000
69.033500 62568.100000
70.065100 107530.900000
74.005900 73747.500000
78.046400 43175.800000
80.049500 27856.300000
81.033600 25748.500000
82.041200 45820.000000
82.065100 26942.200000
86.005900 4404811.500000
91.054300 40905.800000
94.065200 60507.900000
95.049100 90849.200000
97.028500 76568.700000
98.060100 37670.800000
102.000800 62670.200000
105.033500 61302.400000
106.041300 325538.700000
106.065200 189759.000000
107.049100 444275.700000
108.044500 24753.400000
109.076100 34479.500000
112.021600 150023.600000
114.000800 18875466.000000
116.049400 34048.800000
119.049100 118421.500000
120.044400 29289.700000
120.057000 32482.700000
122.060100 247793.300000
126.037200 37769.700000
133.028500 131449.000000
133.052200 254117.000000
134.036300 2537664.500000
134.060100 1543366.600000
135.044000 81287.100000
135.055300 47104.200000
137.005600 120151.600000
137.071100 28118.200000
138.031300 37403.700000
138.054900 50770.700000
139.021300 552617.500000
140.016500 59406.400000
140.034200 78976.600000
144.055900 34079.000000
146.060300 83353.100000
151.021400 29731.000000
152.016500 31864.300000
153.037000 36646.600000
158.027100 674082.700000
162.054900 50148.500000
163.021300 166184.100000
166.032200 118939.800000
178.032200 96295.600000
180.047800 40566.900000
190.049600 29832.600000
194.027100 57387.000000
214.062500 59312.700000
228.065600 24964.400000
241.037300 28811.900000

>ms2peaks
53.002200 45371.600000
53.038600 23611.600000
54.046500 26247.900000
56.049400 13484.500000
57.987200 33103.500000
58.995000 1080132.900000
65.038600 27122.500000
66.033900 22339.700000
68.049500 2919754.800000
68.979300 47291.900000
68.997200 11313.100000
69.033500 63713.300000
69.044700 15461.600000
69.992300 11583.600000
70.028800 12200.700000
70.065100 81718.400000
74.005900 51770.900000
77.038500 38430.200000
78.046400 230495.900000
79.054200 105591.700000
80.049500 29404.400000
81.033500 33885.300000
82.041400 116611.500000
82.065200 40563.900000
84.044400 28197.000000
85.010700 11228.400000
86.005900 7472384.500000
86.989900 39658.800000
89.038600 23440.100000
91.054300 120847.300000
92.049600 38550.300000
94.065200 65089.900000
95.049200 219647.100000
96.044400 11191.200000
97.010700 28549.600000
97.028500 49574.300000
99.985300 12155.100000
102.000900 87769.900000
105.033600 198976.200000
105.044800 47095.700000
106.041400 902574.700000
106.065200 314434.200000
107.049200 771025.900000
108.044400 12882.800000
109.010600 13137.200000
109.028500 25105.400000
109.076300 47383.800000
110.036400 11014.600000
110.060100 25294.500000
112.021600 86371.800000
114.000900 10378327.000000
116.049400 77279.800000
117.057400 45690.300000
119.049200 130869.100000
120.044400 12753.000000
120.057200 45972.200000
121.028500 28682.800000
122.060100 202900.600000
126.037200 30191.100000
129.070100 12017.200000
131.049200 12429.200000
133.028500 77895.500000
133.052300 388781.600000
134.036300 1405223.000000
134.060100 1064223.200000
135.044000 38185.800000
135.055300 29474.000000
137.005700 163564.500000
137.023400 13883.600000
138.031400 124251.000000
138.054800 10852.700000
139.021300 539998.800000
144.055900 114352.900000
146.060300 85068.500000
147.067800 13392.100000
152.016600 12672.800000
158.027200 168549.600000
162.055000 32432.800000
163.021400 89942.900000
173.029700 11005.300000
178.032200 94347.500000
190.032000 12041.800000
214.062900 12080.900000

>ms2peaks
50.015100 12229.000000
51.022900 14646.200000
53.002200 51782.100000
53.038600 92555.300000
53.997500 15430.000000
54.033800 12865.900000
54.046500 11265.400000
55.017900 13280.200000
56.013200 14031.200000
56.049500 34163.900000
57.987200 73205.200000
58.995000 2292767.200000
65.038600 97750.000000
66.033900 28860.300000
68.049500 1952114.200000
68.979400 148514.900000
68.997100 11084.100000
69.033500 35926.800000
69.044700 23029.600000
69.992400 38863.700000
70.028800 44472.400000
70.065100 51057.200000
74.005900 44555.200000
77.038500 81587.400000
78.046400 798166.900000
79.054200 235716.800000
80.049400 48473.900000
81.033500 59729.100000
82.041400 160736.900000
82.065200 26166.200000
84.044500 27340.300000
85.010700 32175.900000
86.005900 9566315.000000
86.990100 51139.900000
89.038700 82963.300000
91.054300 210784.400000
92.049400 43801.900000
93.057500 13349.100000
94.065100 46419.400000
95.049200 464129.100000
96.044400 9826.400000
97.010700 25690.900000
97.028500 40528.600000
102.000900 38291.000000
102.046400 11388.700000
104.049400 14282.100000
105.033600 625962.600000
105.044800 152592.100000
106.041400 1103700.600000
106.065200 331976.800000
107.049200 1104984.200000
109.010700 40416.500000
109.028500 29582.900000
109.076200 15568.700000
110.036300 29567.700000
110.060200 13084.300000
112.021700 25752.600000
114.000900 4954998.500000
116.049500 115169.200000
117.057400 68272.400000
118.065300 25806.100000
119.049100 107400.900000
120.044500 24416.400000
120.057000 76401.000000
122.060100 142067.500000
126.037300 12524.600000
130.065000 12463.800000
132.044400 9863.800000
133.028400 41214.900000
133.052300 402586.700000
134.036300 535502.100000
134.060100 639997.000000
135.055300 13210.100000
136.021600 10661.200000
137.005700 220136.000000
137.023600 25879.000000
138.031300 222924.800000
139.021300 298329.000000
144.044600 14308.100000
144.055800 136235.500000
145.065000 14731.300000
146.060200 72164.400000
151.021400 11276.500000
158.027200 35012.100000
162.055000 14222.200000
163.021200 37695.700000
170.060200 13295.500000
173.029700 12781.600000
178.032500 75553.300000
189.024400 24632.100000
212.034200 34238.500000

>ms2peaks
50.015100 64255.500000
51.023000 112540.300000
52.030800 24905.400000
53.002300 85374.100000
53.038600 256292.300000
53.997500 19983.600000
54.033900 34333.900000
55.017900 56190.300000
56.013200 24806.300000
56.049500 34618.200000
57.987200 245044.500000
58.995000 3384316.200000
59.966500 37426.500000
59.990300 14127.600000
63.023000 40350.600000
65.038600 229808.300000
66.033800 10571.800000
66.046400 11363.300000
67.041700 29796.700000
67.054300 9808.700000
68.049500 583973.400000
68.979400 292651.400000
69.044700 39534.200000
69.992300 62559.700000
70.028700 25783.000000
70.065200 8136.000000
74.006000 7169.300000
77.038600 226020.000000
78.046400 1401819.000000
79.017900 13874.000000
79.054200 254650.300000
80.049600 49329.600000
81.033500 48106.800000
82.041400 45422.000000
82.065100 7187.800000
84.044400 13161.600000
85.010800 8420.900000
86.005900 5010356.000000
86.989900 29905.300000
89.038600 214800.700000
90.046500 8565.700000
91.054300 239455.600000
92.049500 25356.000000
93.057500 8923.600000
94.041400 26294.400000
94.065200 10847.500000
95.049200 917862.400000
96.044400 25715.700000
97.010600 7668.800000
102.046300 12396.300000
103.054300 22338.700000
104.049500 77565.800000
105.033600 1054336.200000
105.044800 490159.000000
105.057300 62914.400000
106.041400 324426.600000
106.065200 117574.100000
107.049200 867716.200000
109.010700 34760.100000
111.044100 6381.400000
114.000900 578601.800000
115.054300 45002.600000
116.049700 79874.600000
117.057400 119720.700000
118.065100 27754.100000
119.049400 49381.800000
120.044400 13085.000000
120.057100 13248.700000
121.028500 12105.600000
122.060000 32617.500000
128.049400 8054.000000
128.062100 24971.800000
129.069800 7585.100000
131.049200 10143.000000
132.044400 10810.900000
133.052300 199886.300000
134.036300 30898.600000
134.060200 114044.000000
137.005700 136932.500000
138.031200 99520.100000
139.021300 31749.700000
144.055700 67544.100000
146.060200 36656.400000
173.029800 10546.400000
178.032300 12947.500000
189.024400 9839.200000

>ms2peaks
50.015200 200326.600000
51.023000 442805.200000
52.018200 6547.800000
52.030800 104149.200000
53.002200 86254.900000
53.038600 447023.500000
53.997500 25985.900000
54.033900 23402.100000
55.017900 99426.000000
56.013200 24591.500000
56.049600 12594.000000
56.979300 12922.300000
57.987200 536879.800000
58.995000 3389598.800000
59.966500 67391.300000
59.990300 13626.200000
62.015100 21893.600000
63.023000 161792.000000
65.038600 299658.400000
66.046400 22664.900000
67.041700 43273.300000
67.054300 26839.000000
68.049500 163253.100000
68.979400 333263.700000
69.044700 26994.600000
69.992400 70113.400000
70.028900 12706.400000
75.023000 28017.800000
76.030700 26177.300000
77.038600 498231.400000
78.046400 1176866.500000
79.017900 28278.500000
79.041600 30370.600000
79.054200 171996.600000
80.049600 40533.600000
81.033600 65979.400000
85.010600 6910.700000
86.005900 2083831.000000
89.038600 316769.000000
90.046500 64922.900000
91.054300 157046.800000
92.049400 6693.100000
94.041400 13222.200000
95.049200 1276806.800000
96.044500 11546.400000
97.010900 7936.000000
102.046500 33775.200000
103.054400 9859.500000
104.049500 143373.400000
105.033600 646583.600000
105.044800 900340.700000
105.057300 46233.700000
106.041400 59000.200000
106.065200 26013.500000
107.049200 359336.400000
109.010700 49181.900000
114.001000 52238.400000
115.054300 45089.800000
116.049600 29688.800000
117.057400 88204.000000
119.049000 9203.900000
120.044500 30131.200000
128.049500 9719.700000
128.062000 25005.100000
132.044500 25898.600000
133.052300 62890.500000
134.060100 26570.500000
137.005700 61054.800000
144.055500 8083.400000

>ms2peaks
50.015200 395609.500000
51.023000 929915.500000
52.018300 24788.500000
52.030800 167040.000000
53.002200 98340.200000
53.038600 361947.400000
53.997500 29131.600000
54.033900 9061.200000
55.017900 106403.800000
56.013100 7415.100000
56.049500 8503.100000
56.979300 28847.200000
57.987200 692305.000000
58.995000 2037594.800000
59.966400 82495.500000
59.990300 9612.300000
62.015100 39700.300000
63.022900 232094.700000
65.038600 244424.700000
66.046500 23156.400000
67.041600 19539.100000
68.049500 32776.200000
68.979400 288856.200000
69.992300 49622.400000
75.022900 39758.900000
76.030800 35452.700000
77.038500 477774.900000
78.046400 502740.300000
79.017900 20559.300000
79.041700 9861.500000
79.054200 41992.400000
80.049600 21846.200000
81.033500 57625.400000
86.005900 581408.900000
89.038600 244388.500000
90.046500 40412.300000
91.054200 80509.300000
94.041400 8024.800000
95.049200 917099.800000
96.044500 20200.500000
102.046600 22508.200000
104.049500 100732.300000
105.033600 148062.400000
105.044800 634419.700000
106.041600 10128.800000
107.049100 76143.400000
109.010800 9494.700000
115.054600 25254.600000
117.057600 40162.700000
119.049500 6605.500000
128.062600 5840.800000
132.044500 8348.500000
133.052300 12188.300000

