>compound EQ75723986
>parentmass 282.1601
>ionization [M+H]+
>formula C17H19N3O
>rt 252.000000
>profile orbitrap
#smiles_iso CN1CCN2C(C1)C3=CC=CC=C3CC4=C2N=CC(=C4)O
#smiles_can CN1CCN2C(C1)C3=CC=CC=C3CC4=C2N=CC(=C4)O
#inchikey DAWYIZBOUQIVNX-UHFFFAOYSA-N
#pubchem_id 11500131
#mb_accession EQ371201,EQ371202,EQ371203,EQ371204,EQ371205,EQ371206,EQ371207,EQ371208,EQ371209

>ms2
72.080700 9573718.000000
211.086500 6531391.500000
225.101900 1239458.400000
282.159700 655854592.000000

>ms2
58.065000 619594.400000
70.065000 1647052.000000
72.080700 117708504.000000
210.078600 410077.700000
211.086400 98110416.000000
225.102000 18505480.000000
239.117700 8076080.000000
251.117700 7499408.500000
253.133300 458864.300000
280.144300 7005267.000000
282.159700 389376096.000000

>ms2
56.049400 394080.000000
58.065000 3273519.500000
70.065000 8752515.000000
72.080700 158979552.000000
85.075800 666899.200000
91.054100 332444.600000
105.069800 542741.800000
115.054000 1514541.800000
117.069900 519732.600000
123.055100 1308167.900000
126.054800 4062840.800000
129.069700 452807.100000
144.080600 1656759.000000
146.096300 563834.300000
147.055000 482578.100000
149.070800 2466250.500000
151.086500 439871.800000
158.096400 469445.000000
159.104200 295052.200000
166.065600 574504.600000
170.096000 680971.200000
196.075600 1998370.600000
198.091400 1410726.500000
208.076000 637335.700000
210.078400 2243744.000000
211.086400 292401664.000000
222.079500 481351.100000
223.086400 1246776.800000
224.094300 907840.000000
225.102000 51734684.000000
234.091400 678463.800000
235.086500 633895.400000
236.094200 1882829.800000
237.102500 684329.400000
239.117600 17010070.000000
249.102000 702371.900000
251.117600 24192660.000000
253.133100 1744630.000000
265.120400 498538.800000
280.144200 8997024.000000
282.159800 54940564.000000

>ms2
53.038500 480810.700000
56.049400 662480.000000
57.057300 508347.100000
58.065100 7809888.000000
68.013000 1998191.500000
70.065000 9613404.000000
72.080700 93915584.000000
80.049300 743498.500000
82.065000 381612.200000
85.076000 611257.600000
91.054100 2170567.000000
94.065000 411151.100000
98.083800 344751.800000
103.054100 413318.400000
105.044600 1352492.100000
105.069700 1763946.100000
108.044300 1257273.000000
109.039500 700589.400000
110.047300 471170.700000
115.054100 5488049.500000
116.049300 719462.100000
117.069800 1697159.800000
121.076000 380382.800000
123.055100 2361091.500000
126.054800 14003593.000000
129.069700 1343887.000000
130.065100 609045.500000
131.072800 1766704.800000
133.088400 869083.800000
135.055300 881383.900000
137.070900 404691.800000
141.069700 832506.200000
144.080600 3702542.000000
146.096400 1101389.200000
147.055100 1354123.200000
149.070900 3008698.500000
151.050000 340501.400000
151.086100 557790.700000
153.069800 337572.500000
156.080600 678792.100000
157.088400 309742.100000
158.096400 1004992.900000
166.065000 10839003.000000
167.072700 1039735.800000
168.080600 599073.200000
169.075800 726922.800000
170.096100 1274177.000000
179.085000 465839.000000
180.080600 887006.600000
181.075200 543424.600000
182.083600 1618033.900000
183.067900 1063354.600000
183.091500 1872033.200000
184.075200 747806.900000
194.083500 1139473.600000
195.067400 816072.100000
195.091500 364869.600000
196.075500 4978339.000000
197.070500 457885.900000
197.083500 437235.600000
197.107000 420820.900000
198.091200 4283428.000000
207.091600 348774.600000
208.075800 1166174.800000
209.070600 417450.200000
210.078600 14489574.000000
211.086400 298348608.000000
221.070700 541274.000000
222.078600 1204370.600000
222.091200 331274.100000
223.086400 3947321.000000
224.094500 1366436.100000
225.102000 37101856.000000
233.083400 402312.600000
234.091300 1242504.600000
235.086400 4208325.000000
236.094200 3278743.500000
237.102100 1709561.900000
239.117700 7987248.500000
249.102100 1939111.500000
250.097100 319509.700000
251.117600 12678853.000000
253.133200 979019.300000
265.120400 767066.000000
280.144000 3455282.000000
282.159800 1919341.900000

>ms2
53.038600 2312285.200000
55.017700 304050.100000
56.049400 1255169.600000
57.057200 642738.600000
58.065100 9692687.000000
68.013000 6809825.000000
70.065000 7539972.000000
72.080700 56759280.000000
78.033700 575016.500000
79.054200 288061.200000
80.049400 3235491.000000
82.028600 375951.400000
82.052500 419297.500000
82.065000 304029.600000
85.075900 460327.000000
91.054100 4532089.000000
94.065000 829962.200000
96.044300 296048.700000
98.083700 525238.200000
103.054100 1441916.100000
104.049400 445673.000000
105.044600 2819228.000000
105.069800 3531949.000000
108.044300 2678973.800000
109.039600 875396.700000
110.047300 1192255.000000
111.055200 403860.300000
112.039200 883134.700000
115.054100 9634002.000000
116.049400 4612637.500000
116.062000 461551.100000
117.057300 589729.700000
117.069700 2537132.000000
118.065100 345340.800000
119.060200 519930.300000
121.075900 453048.300000
122.060000 474309.800000
123.055100 1509653.000000
124.063000 258219.700000
126.054900 16369513.000000
128.061900 866799.500000
129.069700 2942437.200000
130.065000 1924749.800000
131.060100 314749.800000
131.072800 3509456.800000
132.044300 335408.000000
132.080600 852669.600000
133.039400 673369.700000
133.088500 976760.300000
134.047300 621735.400000
134.059900 361861.600000
135.055100 896491.100000
137.070900 522075.600000
139.054000 1388785.200000
141.069800 2739611.000000
142.065000 882509.400000
143.072800 735904.200000
143.085300 342943.100000
144.080600 4696708.500000
145.088500 466814.800000
146.096300 830556.100000
147.055100 2736921.200000
148.063000 326564.700000
149.070900 2264877.500000
151.050000 1814544.600000
152.062000 323723.600000
153.069700 1227457.200000
154.065000 813861.700000
155.060300 250691.200000
155.072700 541309.800000
156.080700 3713559.200000
157.088600 262888.100000
158.096400 1062238.800000
166.065000 39172832.000000
167.072800 6089395.500000
168.068600 634469.400000
168.080600 2073931.900000
169.064500 448465.500000
169.075900 3317505.000000
170.096200 1725718.900000
178.065000 458268.100000
179.085100 247317.300000
180.080500 1749445.800000
181.064800 205419.000000
181.075800 2223905.500000
181.088300 370583.800000
182.060200 624013.100000
182.083700 6823288.000000
183.067800 4989746.000000
183.091500 6185710.500000
184.075600 3377722.000000
191.072400 508312.200000
192.067500 589634.400000
193.075800 1853530.600000
194.060200 1117662.800000
194.083700 4086974.200000
195.067700 4736760.000000
195.091500 952264.100000
196.075600 7939434.000000
197.070800 846373.700000
197.083000 663431.900000
197.107300 592938.600000
198.091300 3423287.800000
204.080500 260208.900000
206.083900 255188.100000
207.091500 776762.400000
208.075700 1763672.600000
208.099300 409638.500000
209.070800 1043645.900000
209.083400 464980.300000
210.078700 54106700.000000
211.086400 192519600.000000
219.091600 394063.400000
221.070900 1423761.000000
221.106800 367996.000000
222.078500 1971214.900000
222.090800 430064.300000
223.086500 5666444.500000
224.094100 1473616.100000
225.102000 14297856.000000
233.083200 619377.600000
234.078800 359615.900000
234.091200 422225.400000
235.086400 8514428.000000
236.094300 2005135.500000
237.102100 1395426.400000
239.117700 2010339.800000
249.101900 1727037.100000
250.097500 1073731.100000
250.109200 203341.000000
251.117700 2469827.800000
253.133400 295052.000000
280.144100 883903.100000

>ms2
50.015100 103276.500000
51.022800 98163.200000
53.038500 4748087.000000
54.033800 128603.700000
55.017800 659178.100000
56.049400 1799413.900000
57.057200 975982.100000
58.065100 8656682.000000
63.022800 642679.200000
65.038400 548938.500000
66.033700 122543.800000
67.041600 396376.700000
67.054200 127536.100000
68.013000 11731127.000000
70.065000 5341570.000000
72.080700 31175048.000000
77.038300 150785.500000
78.033700 1497106.900000
79.017800 255947.600000
79.041500 109601.600000
79.054200 405634.900000
80.049400 5325031.000000
81.033400 353241.900000
82.028700 670319.200000
82.052500 679585.400000
82.065100 281086.200000
83.060300 153954.800000
85.075900 318316.800000
89.038400 464282.200000
90.033700 121057.000000
91.054100 5864823.500000
92.049400 264392.700000
94.028700 495309.600000
94.065000 1422819.000000
95.036500 124014.900000
95.049000 328133.100000
95.060300 325934.600000
96.044300 952805.600000
98.083700 330523.800000
103.054100 2109917.500000
104.049300 645243.400000
104.061800 462065.000000
105.044600 3126277.000000
105.069800 3263499.800000
106.028600 360153.400000
106.052500 97371.200000
107.036600 88796.400000
107.060300 83994.600000
108.044300 2540621.200000
109.039600 674562.500000
110.023600 119472.400000
110.047300 693920.100000
111.055200 157914.400000
112.039100 1677149.500000
115.054100 10900487.000000
116.049400 9677695.000000
116.062000 623118.700000
117.057100 1469415.000000
117.069700 2125097.000000
118.065000 562980.400000
119.060300 984551.200000
120.044200 134739.000000
121.076000 473838.800000
122.059800 409340.300000
123.055100 737775.700000
124.063100 152051.700000
126.054800 9149094.000000
127.054000 127563.400000
128.061900 2759822.500000
129.069700 4851875.000000
130.065000 3599428.000000
131.060300 370423.600000
131.072800 3187231.000000
132.044100 330308.700000
132.080700 946836.100000
133.039500 1063164.000000
133.088400 692441.000000
134.047300 1054884.100000
134.059900 363066.600000
135.055200 1004267.400000
137.070900 262272.800000
139.054100 5369728.500000
140.049300 1038945.500000
140.061800 109308.100000
141.057400 274191.400000
141.069700 4764988.500000
142.064900 1551543.900000
143.072800 1171761.100000
143.085200 316880.400000
144.080600 3876845.200000
145.064700 421834.000000
145.088600 143792.000000
146.059900 249936.300000
146.096200 445290.800000
147.055100 2435475.500000
148.062900 271372.800000
149.070900 1007994.100000
150.054600 148110.700000
151.049900 2257858.200000
152.062000 1045352.500000
153.069700 1989576.400000
154.065000 3719549.500000
155.060200 970588.200000
155.072700 1240082.000000
155.085400 275518.900000
156.080700 6586690.000000
157.088600 323151.900000
158.096400 583835.600000
160.062500 94884.400000
161.070700 83627.500000
165.057100 105373.900000
165.069900 525200.700000
166.065000 41307256.000000
167.072800 10084879.000000
168.068200 2056905.500000
168.080500 2277878.500000
169.064900 709039.900000
169.075800 3551990.800000
170.059900 337249.600000
170.096000 907776.700000
171.055200 81470.500000
171.091500 100913.500000
176.081800 93458.600000
177.057500 84492.500000
178.065200 622647.400000
178.077800 379020.500000
179.060200 140160.100000
179.072900 267043.600000
179.084900 86876.400000
180.080500 2089329.500000
181.075800 6073009.500000
181.088700 307686.100000
182.060100 1152526.900000
182.083700 10417103.000000
183.067800 6496110.500000
183.091500 5125764.000000
184.062800 341664.600000
184.075500 4487477.000000
185.071200 79377.700000
190.064800 394918.800000
191.072900 358326.600000
192.067900 1446707.800000
193.075900 2096160.500000
194.060000 1165290.400000
194.083700 5563339.500000
195.067700 8316044.000000
195.091600 954163.100000
196.063000 562037.400000
196.075500 6538117.500000
197.070900 791807.800000
197.083300 873572.700000
197.107600 137756.800000
198.091300 1296239.500000
204.080800 427454.100000
205.075800 535763.400000
205.088400 124914.100000
206.083500 495458.000000
206.096100 114655.000000
207.067400 525546.700000
207.091600 918835.400000
208.075300 894871.400000
208.099500 343921.900000
209.070800 3637335.000000
209.082600 310258.600000
210.078600 77304024.000000
211.086400 61835168.000000
217.075500 85750.800000
218.084300 112983.500000
219.068200 97302.100000
219.091200 250038.700000
220.075500 335357.500000
221.070700 1980383.000000
221.107000 133531.000000
222.078700 1287637.800000
222.091100 395163.200000
223.086400 3869429.800000
224.094200 856491.300000
225.102000 3140856.000000
232.075800 97758.700000
233.083500 405384.200000
234.078500 1154406.000000
234.090500 220489.400000
235.086400 6813053.000000
236.093200 545718.000000
237.102200 731236.900000
239.118200 240015.700000
247.085700 102366.500000
249.102000 919445.100000
250.097200 781639.700000
251.117600 252280.100000
264.112700 114478.600000
280.143400 84807.000000

>ms2
50.015100 771018.600000
51.022900 708766.300000
52.018100 129841.100000
52.030800 85475.900000
53.038500 8200247.000000
54.033800 577557.500000
55.017800 1818603.200000
55.041600 150437.200000
56.049400 2290718.800000
57.057300 1144060.900000
58.065100 5604268.500000
63.022800 1601849.400000
64.018200 135943.700000
64.030600 59368.600000
65.038500 2902138.200000
66.033800 503869.600000
66.046200 90590.200000
67.017700 423945.500000
67.041600 423146.200000
67.054100 390518.900000
68.013000 14888466.000000
70.065000 3104538.500000
72.080700 9034749.000000
75.022700 109623.900000
76.018000 432690.900000
77.038400 1123786.800000
78.033700 3326398.200000
78.046300 621910.000000
79.017700 714131.200000
79.041500 712486.900000
79.054100 1067196.900000
80.049400 7721560.500000
81.033400 657391.900000
81.044700 364987.500000
82.028700 748560.700000
82.052400 744568.100000
82.065000 75943.800000
83.060200 277614.900000
85.075900 154210.900000
89.038500 4102933.800000
90.033700 370049.500000
90.046300 802897.100000
91.054200 7740451.500000
92.049400 554551.900000
93.008100 99996.600000
93.057300 243880.900000
94.028600 669653.800000
94.065100 816632.600000
95.036500 137283.400000
95.049000 1642692.200000
95.060400 343596.000000
96.044300 1452526.400000
101.038400 69019.200000
102.046200 478289.200000
103.054100 4477118.000000
104.049400 785713.400000
104.061900 610199.100000
105.044600 2463703.800000
105.069800 1276449.600000
106.028600 550139.800000
106.052600 287180.800000
107.036500 151806.400000
108.044200 998297.200000
109.039500 122646.900000
109.052200 104593.200000
110.023600 141627.300000
110.047400 74718.700000
110.059900 141955.300000
112.039200 2083767.400000
113.038500 270769.700000
114.046400 407000.100000
115.054100 18958852.000000
116.049300 8346673.000000
116.061900 801527.800000
117.057200 2448160.200000
117.069700 747820.000000
118.065000 476811.600000
119.060300 878468.300000
120.044300 145782.600000
121.039600 112553.100000
121.075900 84229.100000
122.059900 97161.700000
123.055400 78734.500000
126.046400 364269.300000
126.054900 1201099.100000
127.054100 1761681.800000
128.049400 758840.100000
128.061900 9656537.000000
129.057100 1049651.600000
129.069700 4932413.000000
130.065100 7403142.500000
131.060500 483869.700000
131.072800 1144023.500000
132.044400 92554.600000
132.080600 532366.800000
133.039600 516473.600000
133.052100 69477.600000
134.047400 1114556.500000
134.059900 340573.700000
135.055000 627908.100000
138.046300 86556.700000
139.054100 17524230.000000
140.049300 6980993.000000
140.061700 2344168.800000
141.057300 2110538.200000
141.069700 4878055.000000
142.052600 135378.300000
142.065000 1184226.000000
143.072900 1188074.600000
143.085100 99217.200000
144.044400 116783.200000
144.080600 2326178.800000
145.064600 2277903.800000
146.059900 771375.400000
147.055200 2034941.400000
150.046600 135152.300000
151.049000 750948.687500
151.054500 442554.100000
152.061900 4026555.800000
153.057200 1152365.600000
153.069700 1145374.000000
154.065000 15328645.000000
155.049200 564603.600000
155.060200 5526965.000000
155.072700 2390224.500000
156.080700 2968175.000000
157.088700 82387.200000
158.096100 127248.500000
159.055400 80597.000000
163.054200 267148.200000
164.049400 779781.400000
165.057300 1056375.900000
165.069800 1014423.600000
166.065000 14823070.000000
167.072800 12028224.000000
168.056700 251348.300000
168.068100 3922590.500000
168.080400 2003141.100000
169.064700 1326684.000000
169.075800 1552778.500000
170.060200 634140.300000
170.095700 73068.900000
171.054900 63574.000000
176.062000 134529.600000
177.057200 508583.400000
177.069800 129604.900000
178.065100 1223599.200000
178.077000 488264.200000
179.060200 1106963.800000
179.072400 660938.500000
180.055300 140582.500000
180.068300 210278.000000
180.080500 1978316.200000
181.075800 19177676.000000
182.059900 3939709.200000
182.083700 5832128.000000
183.067700 5969681.500000
183.091300 825424.900000
184.063200 1377245.000000
184.075500 2547011.800000
185.070900 90030.300000
189.056700 73530.100000
189.069600 86114.600000
190.064900 1210828.100000
191.060000 450213.800000
191.072200 433972.000000
192.068000 3200878.500000
192.080700 186486.900000
193.075900 3248879.800000
194.059500 444993.200000
194.083700 3207767.500000
195.055100 355792.000000
195.067700 5956091.000000
195.091600 707002.800000
196.063100 755318.200000
196.075500 3272305.200000
197.071200 371428.900000
197.083100 240341.200000
204.080500 505216.200000
205.075800 1282540.100000
206.059300 80455.700000
206.083600 1072016.900000
207.068100 477278.600000
207.091200 592931.500000
208.063100 1770420.900000
208.075700 442824.800000
209.070800 13823477.000000
210.078600 39805912.000000
211.086500 2325300.200000
216.080700 82973.300000
217.076400 107503.100000
218.083500 537843.500000
219.091800 117244.200000
220.075500 255743.500000
221.070700 1905525.000000
222.078400 826918.000000
223.086500 1288363.200000
224.094200 88469.900000
225.101500 66921.700000
232.076000 126392.300000
233.070700 84998.600000
234.078600 2886187.800000
235.086300 1590152.800000
237.102100 68007.300000
247.086500 97003.600000
249.102100 99855.900000
250.097500 145245.800000

>ms2
50.015000 1543015.100000
51.022900 2171899.500000
52.018100 324116.400000
52.030700 375411.400000
53.002200 875097.400000
53.038600 8537043.000000
53.997400 81752.100000
54.033800 872964.400000
55.017800 1752975.000000
55.041600 94257.900000
56.049400 2441811.500000
57.057200 779843.400000
58.065100 2945776.200000
61.007200 58565.900000
62.015000 419215.900000
63.022800 3392097.800000
64.018100 607029.200000
65.038500 5440491.500000
66.033800 436881.400000
66.046400 260128.800000
67.017700 371441.500000
67.041600 663739.100000
67.054200 284861.600000
68.013000 11467346.000000
70.065000 940579.400000
72.080700 2674533.500000
74.014800 121707.100000
75.022700 758880.500000
76.018000 787550.400000
76.030600 255233.000000
77.038400 2149357.800000
78.033700 3113112.800000
78.046300 1426094.900000
79.017700 862224.000000
79.041500 1112696.900000
79.054100 576412.100000
80.049300 5127901.000000
81.033300 479711.300000
81.044600 390036.600000
82.028600 107428.100000
82.052400 373209.200000
83.060300 141853.500000
85.075900 101419.200000
87.022800 301862.100000
88.030600 238886.200000
89.038500 9047640.000000
90.033800 465415.800000
90.046300 2070632.000000
91.054100 7403156.500000
92.049300 492233.500000
93.008300 93934.200000
93.057300 262791.200000
94.028700 411068.700000
94.040900 83281.100000
94.065100 340226.000000
95.049000 3883023.800000
96.044300 1207846.500000
101.038400 287267.900000
102.046300 2239304.000000
103.054100 4513726.500000
104.049400 691426.900000
104.061900 293738.600000
105.044600 3621866.800000
105.069800 315317.100000
106.028700 114205.500000
106.052400 328141.800000
107.036500 77588.200000
108.044200 241911.300000
109.051900 66570.400000
110.023600 62979.100000
110.059900 83493.500000
112.039100 713835.600000
113.038400 2025021.900000
114.033800 306421.200000
114.046300 1283654.100000
115.054100 23781892.000000
116.049400 3112347.200000
116.061800 654360.900000
117.057200 2353710.800000
117.069700 518900.200000
118.041200 125431.500000
118.065000 135047.400000
119.049300 237874.700000
119.060200 661789.400000
120.044400 121573.900000
121.039800 64202.300000
125.038600 382848.100000
126.046300 2378066.200000
127.054100 5720924.000000
128.049400 2043724.500000
128.061900 11648151.000000
129.044600 1176565.000000
129.057200 1815454.000000
129.069800 1506139.000000
130.065000 5623999.000000
131.049300 60998.600000
131.060400 150201.400000
131.072800 324193.900000
132.044300 77608.100000
132.057000 590032.600000
132.080500 239107.200000
133.052100 85283.400000
134.047200 614101.100000
134.059800 268911.100000
135.055000 314266.000000
137.038500 237342.300000
138.046200 714105.500000
139.054100 20436316.000000
140.049300 10191477.000000
140.061700 3247363.800000
141.057100 1870228.100000
141.069700 2569594.000000
142.052400 389438.800000
142.064900 499866.500000
143.048900 106491.200000
143.073100 619630.900000
144.044300 94993.800000
144.080600 672472.800000
145.064700 4916263.500000
146.059900 1447450.800000
147.055000 915476.000000
149.038600 88627.100000
150.046300 923140.800000
151.041500 73497.900000
151.054300 945390.100000
152.049300 569392.200000
152.061900 5941474.500000
153.057200 3175048.800000
153.069600 919664.100000
154.065000 19914254.000000
155.060200 11597171.000000
155.072700 960662.800000
156.057100 247549.343800
156.080500 518985.700000
157.051900 81522.800000
163.054100 667828.900000
164.049300 2784852.200000
165.045100 89337.300000
165.057300 1398182.900000
165.069400 660155.700000
166.065000 6968932.500000
167.072800 6660453.000000
168.057100 124635.600000
168.068200 1554096.600000
168.080500 872199.600000
169.064600 2172081.000000
169.076000 395862.500000
170.059800 1067560.000000
171.055100 64100.800000
176.062200 548476.500000
177.057100 836591.100000
177.069600 69290.200000
178.064900 1864962.400000
178.077200 96584.500000
179.060200 2983242.800000
180.044100 138541.600000
180.055500 337843.600000
180.068000 836279.900000
180.080500 1039683.600000
181.075800 11973895.000000
182.059900 4690002.500000
182.083700 772308.800000
183.067600 1514104.400000
184.063000 908039.100000
184.075400 1054113.200000
188.049300 139153.800000
189.057200 94100.900000
190.064900 1004639.500000
191.060200 737836.300000
191.072800 332155.400000
192.067900 2893352.800000
193.075900 1593651.400000
194.059900 353635.400000
194.083600 526143.000000
195.055200 355640.500000
195.067700 901230.800000
195.091400 113048.000000
196.063000 148019.500000
196.075500 839124.500000
197.071000 123222.100000
204.080800 109021.200000
205.075900 1574564.200000
206.059800 76908.800000
206.083800 496997.300000
207.067900 268888.400000
207.091600 106178.900000
208.062900 3368806.500000
209.070800 7122104.000000
210.078600 3990563.000000
218.084000 349442.000000
221.070700 967775.600000
222.078300 83016.700000
223.086500 298379.300000
233.070600 275818.700000
234.078500 1221689.400000
235.086700 79805.000000

>ms2
50.015100 3721096.000000
51.022900 4511228.500000
52.018100 606559.600000
52.030800 434781.600000
53.002200 1121416.900000
53.038500 6299212.500000
53.997400 377023.500000
54.033800 938906.600000
55.017800 1088376.500000
55.041600 56675.400000
56.049400 2174733.800000
57.057300 470634.600000
58.065100 876327.900000
61.007200 283811.200000
62.015000 1220685.900000
63.022800 7397609.500000
64.018100 803457.800000
64.030700 272107.000000
65.038500 7095371.000000
66.033800 296163.700000
66.046300 271362.700000
67.017700 292862.400000
67.041600 360623.500000
67.054100 59238.600000
68.013000 7351100.000000
70.065000 311573.100000
72.080600 548728.900000
74.015000 998849.100000
75.022800 2543750.000000
76.018000 1138269.000000
76.030600 1081392.500000
77.038400 3416086.000000
78.033700 1321984.000000
78.046300 2499882.500000
79.017800 348368.600000
79.041500 610994.800000
79.054100 233378.400000
80.049300 2349398.500000
81.033500 481657.600000
81.044700 223738.700000
82.028600 62574.100000
83.060400 55375.300000
86.015000 284577.968800
87.022800 1198114.400000
88.018000 313117.125000
88.030600 911776.300000
89.038500 12847696.000000
90.033700 526721.600000
90.046300 1281521.100000
91.054100 5060025.500000
92.049400 411346.400000
93.057300 97174.900000
94.028700 271448.200000
94.041100 74348.200000
94.064900 53337.000000
95.049000 7273449.500000
96.044300 537481.100000
98.014900 229466.281300
99.022800 547631.125000
101.038500 649856.200000
102.046300 4936094.500000
103.041500 255894.562500
103.054100 4435779.500000
104.049400 560200.100000
104.061900 104588.200000
105.044600 5223798.500000
106.052200 55066.100000
108.044500 75532.400000
112.039200 380101.200000
113.038400 5079157.000000
114.033700 897845.200000
114.046300 1391506.100000
115.054100 17078638.000000
116.049400 1319865.200000
116.061900 307251.400000
117.057200 1180396.500000
117.069900 256466.100000
118.041300 238310.700000
119.049100 738676.800000
119.060300 225085.900000
125.038400 1122622.200000
126.046300 6286776.500000
127.041500 481000.562500
127.054100 7104061.500000
128.049300 2191027.500000
128.061900 7732629.000000
129.044600 2254826.800000
129.057100 961282.900000
129.069700 230833.300000
130.065000 2066232.000000
131.049000 89570.700000
132.044400 88344.900000
132.056900 515892.800000
134.047500 83516.600000
135.055100 76475.500000
137.038500 780032.400000
138.046200 757997.800000
139.054100 17595138.000000
140.049300 7547677.500000
140.061600 1493903.600000
141.057200 723199.800000
141.069700 743130.700000
142.052500 263718.700000
142.065000 254487.000000
143.049100 240008.600000
143.072900 106684.900000
144.080600 104938.600000
145.064600 4547311.500000
146.059800 1194260.800000
147.055200 99077.900000
149.038000 111512.900000
150.046300 2330187.200000
151.041500 328232.800000
151.054000 995547.700000
152.049500 701050.000000
152.061900 3950527.200000
153.057200 3293458.500000
154.065000 7861104.000000
155.060200 10538358.000000
156.080300 59011.200000
157.052100 86292.400000
163.054000 1192452.900000
164.049300 4067514.000000
165.045200 83826.100000
165.057000 700212.800000
165.069600 331509.400000
166.065000 3151292.800000
167.072900 1840631.800000
168.056900 141025.500000
168.068100 141637.600000
169.064600 2465929.800000
170.059800 1469197.200000
176.061600 420493.300000
177.057100 939052.300000
178.064900 1082440.600000
179.060200 2928528.500000
180.044300 94448.900000
180.055700 509447.200000
180.067500 392908.100000
180.080800 112168.700000
181.075800 2320319.500000
182.059900 1293597.100000
182.083900 74575.400000
183.067800 456246.700000
184.062500 63225.700000
184.075400 74670.800000
188.049500 294291.300000
190.064500 564649.400000
191.059900 685851.300000
191.072700 89592.900000
192.068000 1259987.100000
193.075900 562272.100000
194.060100 247646.200000
195.055200 87373.700000
195.067500 100250.300000
196.075600 95380.400000
205.076000 786878.700000
206.060500 86417.700000
207.055100 220786.546900
208.063000 1474778.500000
209.070700 808422.400000
221.070600 228218.900000

