>compound EQ75571050
>parentmass 164.08179999999996
>ionization [M+H]+
>formula C8H9N3O
>rt 324.000000
>profile orbitrap
#smiles_iso COCN1C2=CC=CC=C2N=N1
#smiles_can COCN1C2=CC=CC=C2N=N1
#inchikey QEIXBXXKTUNWDK-UHFFFAOYSA-N
#pubchem_id 542390
#mb_accession EQ318301,EQ318302,EQ318303,EQ318304,EQ318305,EQ318306,EQ318307,EQ318308,EQ318309

>ms2peaks
53.038600 804507.900000
77.038500 2662265.000000
79.054200 854092.600000
91.041600 588319.400000
91.054300 623745.800000
93.057400 1944844.400000
95.049200 2817816.200000
104.049500 51063368.000000
105.044800 1563345.400000
106.065200 2226330.000000
108.080900 816685.800000
118.065200 759799.500000
120.044500 1819702.200000
121.052300 12360417.000000
132.055700 114504280.000000
134.071300 324398400.000000
136.075900 736635.800000
164.082000 193675024.000000

>ms2peaks
51.022800 310425.200000
53.038600 1123167.200000
77.038500 2561240.200000
79.054200 1041461.000000
91.054300 367117.400000
93.057400 1799962.000000
95.049100 2887581.200000
104.049500 48090756.000000
105.044800 1718518.900000
106.065200 2156027.800000
108.080800 754095.100000
109.064700 353059.300000
118.065200 609005.400000
120.044500 2026531.500000
121.052300 11321676.000000
132.055700 107181848.000000
134.071300 302057408.000000
136.075700 1043417.600000
164.082000 179302624.000000

>ms2peaks
51.022900 340332.600000
53.038600 4149213.000000
65.038500 258845.600000
77.038500 8135134.000000
78.046400 556243.100000
79.054200 6839325.500000
81.033500 290067.400000
91.041600 635363.100000
91.054300 680185.200000
93.057300 2274043.500000
95.049200 14240028.000000
104.049500 32099050.000000
105.044800 6769435.500000
106.065200 9256575.000000
120.044500 4881521.000000
121.052300 5545858.000000
132.055700 52027612.000000
134.071300 243472368.000000
164.082000 18801252.000000

>ms2peaks
50.015000 226852.000000
51.022900 877618.100000
53.038600 5966046.000000
55.017800 158099.400000
65.038600 2299741.200000
77.038600 16784132.000000
78.033900 172800.200000
78.046400 2990032.500000
79.054300 19810508.000000
80.049700 140268.900000
81.033500 677861.800000
91.041700 1173602.900000
91.054300 811822.600000
93.057500 1729328.800000
94.041500 692838.300000
95.049200 24804654.000000
96.044400 568772.100000
104.049500 15682396.000000
105.044800 12996833.000000
106.065200 17466582.000000
109.064700 145656.700000
119.047700 154646.900000
120.044500 5477246.000000
121.052400 1864212.900000
132.055800 13931676.000000
134.071400 128884048.000000
164.082200 1083750.000000

>ms2peaks
50.015100 806679.200000
51.023000 3030200.200000
53.038600 9497411.000000
55.017800 502915.900000
65.038600 3495883.000000
66.046400 240399.000000
77.038600 20856548.000000
78.033900 868777.100000
78.046400 5117617.000000
79.054300 22774588.000000
80.049700 184109.100000
81.033500 772815.200000
91.041700 3174421.000000
91.054500 171369.300000
93.057300 1678724.900000
94.041200 209250.500000
95.049200 33149598.000000
96.044500 1031338.400000
104.049500 7488597.000000
105.044800 18229738.000000
106.065200 15192493.000000
119.047500 124627.900000
120.044500 4969097.500000
121.052400 318189.900000
132.055800 2620277.200000
134.071300 56507876.000000
164.081700 181518.800000

>ms2peaks
50.015100 799102.200000
51.023000 5644481.000000
53.038600 10080183.000000
55.017800 199947.200000
64.030700 279617.600000
65.038600 3273529.800000
66.046400 817810.400000
77.038600 24071196.000000
78.033900 1819009.000000
78.046400 5556111.500000
79.054300 15556519.000000
80.049500 513917.600000
81.033600 1044749.800000
91.041700 6067735.000000
93.057400 1115045.500000
94.041300 188284.600000
95.049200 33440130.000000
96.044400 525133.600000
104.049500 2786179.000000
105.044800 17605416.000000
106.065200 7843034.000000
111.044000 112551.100000
120.044500 4750779.000000
132.055700 284203.900000
134.071300 17921224.000000

>ms2peaks
50.015100 2638286.000000
51.023000 16095837.000000
52.018200 273792.900000
53.038600 6547491.500000
54.046500 159758.600000
55.017900 148197.800000
63.022900 1367729.100000
64.030800 1936728.100000
65.026100 867952.500000
65.038600 2652403.200000
66.046400 605394.900000
77.038600 15904059.000000
78.033900 2752861.200000
78.046400 4658811.000000
79.054200 3725821.800000
80.049500 180859.200000
81.033500 768032.800000
91.041700 7513500.000000
92.049500 223104.500000
93.033600 454216.500000
93.057500 844290.200000
94.041300 222256.000000
95.049200 17726948.000000
96.044400 210596.600000
104.049400 615723.100000
105.044800 9842712.000000
106.065300 1016315.500000
111.044100 127340.500000
120.044500 1952084.800000
134.071400 1453573.200000

>ms2peaks
50.015200 5037690.000000
51.023000 21970120.000000
52.018300 1456591.900000
52.030800 244039.000000
53.038600 2193621.800000
54.046400 459178.300000
62.015100 136192.200000
63.023000 4167761.800000
64.030800 2938638.800000
65.026000 1286083.200000
65.038600 2451546.500000
66.046400 287996.000000
75.022900 278566.562500
76.018400 130091.700000
77.038600 8454792.000000
78.033900 1367559.900000
78.046500 2144544.200000
79.054300 464127.500000
80.049400 117111.900000
91.041800 4258733.000000
92.049500 564374.900000
93.033600 143138.900000
95.049200 7404865.500000
96.044700 134576.700000
105.044800 3684823.000000
120.044500 684437.400000

>ms2peaks
50.015200 5281540.500000
51.023000 17672860.000000
52.018300 2014739.200000
52.030700 435816.900000
53.038600 749455.900000
54.046400 111010.500000
62.015100 596338.500000
63.023000 6845796.500000
64.030800 1627232.800000
65.026100 1230900.500000
65.038600 1499204.200000
76.018200 229310.500000
77.038600 2305611.500000
78.033900 266223.200000
78.046400 775014.600000
91.041700 1261830.200000
92.049500 119104.400000
95.049200 1839454.200000
105.044800 1661548.900000

