>compound EQ75462479
>parentmass 302.1099
>ionization [M+H]+
>formula C16H13F2N3O
>rt 516.000000
>profile orbitrap
#smiles_iso C1=CC=C(C(=C1)C(CN2C=NC=N2)(C3=CC=C(C=C3)F)O)F
#smiles_can C1=CC=C(C(=C1)C(CN2C=NC=N2)(C3=CC=C(C=C3)F)O)F
#inchikey JWUCHKBSVLQQCO-UHFFFAOYSA-N
#pubchem_id 91727
#mb_accession EQ371001,EQ371002,EQ371003,EQ371004,EQ371005,EQ371006,EQ371007,EQ371008,EQ371009

>ms2
70.039900 28937966.000000
109.045000 203079.200000
123.024300 458192.400000
137.039700 75806.100000
233.077300 3360853.500000
302.109900 67995352.000000

>ms2
70.039900 64059004.000000
109.044800 3134505.800000
123.024000 6861296.000000
137.039800 1848408.600000
215.066700 322889.900000
233.077300 9072085.000000
284.100000 88125.400000
302.110000 5040154.000000

>ms2
70.039900 57137972.000000
91.054300 111287.200000
109.044800 7961332.000000
123.024100 19788616.000000
137.039800 1566494.500000
165.069900 61614.200000
185.076000 133475.100000
195.060800 156074.100000
215.066800 983391.100000
233.077400 1130796.400000

>ms2
70.039900 52793044.000000
71.029000 82356.300000
75.022800 53490.100000
83.029100 58506.800000
91.054200 109386.400000
95.028900 112222.800000
109.044800 9582897.000000
113.039700 408449.300000
123.024100 23619538.000000
123.035200 1465132.400000
137.039800 354198.800000
165.070000 255476.200000
175.054400 57710.800000
193.064700 85933.400000
194.052700 140307.700000
195.060500 711872.200000
203.060700 57671.900000
214.058800 262254.500000
215.066700 440937.200000

>ms2
50.015100 60859.200000
70.040000 44998268.000000
71.029100 287329.900000
75.022800 206565.200000
79.017800 85048.100000
83.029100 312472.200000
89.038600 52453.100000
91.054300 130590.100000
93.033600 73251.300000
95.029100 291829.200000
99.024100 64817.800000
109.044900 9371037.000000
113.039700 1765947.200000
123.024100 18196810.000000
123.035300 5329069.500000
124.032400 48619.000000
165.070000 402597.800000
175.054500 146934.700000
183.060700 117322.100000
187.055500 49130.100000
193.064900 170849.800000
194.052700 446287.300000
195.060600 376748.800000
203.060300 178114.000000
214.059000 555012.900000
215.066900 84838.000000

>ms2
50.015100 140039.100000
51.022900 87760.200000
57.013500 51704.600000
59.029200 45394.700000
70.040000 39449436.000000
71.029100 639559.100000
74.014900 98489.100000
75.022900 982411.700000
79.017800 202949.400000
83.029100 1115280.900000
89.038600 98493.700000
91.054200 97137.500000
93.033500 152544.800000
95.029100 686749.200000
99.024100 123616.700000
109.044900 8851077.000000
111.044100 86032.900000
113.039700 3533464.200000
123.024100 10481932.000000
123.035300 9926837.000000
124.032500 59067.200000
165.070000 358229.100000
170.052600 59631.300000
174.046600 86898.400000
175.054400 166706.000000
183.060600 195626.900000
187.055300 135633.900000
193.064800 208892.500000
194.052700 607379.900000
195.060900 108950.400000
197.051100 78120.700000
203.060300 154858.200000
214.058900 487488.900000

>ms2
50.015100 214275.400000
51.023000 207253.600000
53.002200 298640.300000
57.013500 342991.500000
59.029200 264019.100000
63.022900 236862.500000
65.038600 111695.500000
69.013500 69701.000000
70.040000 26602828.000000
71.029100 714073.900000
73.008500 39109.200000
74.015100 652459.800000
75.022900 6707453.000000
79.017800 192684.200000
81.013600 41915.000000
83.029200 3625345.800000
89.038600 337621.600000
91.054200 78310.300000
93.033600 212527.000000
95.029200 2096840.500000
99.024100 123049.700000
109.044900 4372948.500000
111.044100 103696.600000
113.039700 4630273.500000
123.024200 1503069.800000
123.035300 10093624.000000
124.032500 63372.300000
125.038700 50447.600000
133.044900 62135.800000
139.054200 62170.300000
149.038600 132086.500000
163.054200 45590.000000
164.062100 53275.300000
165.069900 224159.100000
168.037100 103280.400000
169.044900 54022.100000
170.052800 101299.400000
174.046500 229258.300000
175.054300 48590.100000
183.060600 321045.300000
187.055300 111063.100000
188.043100 82788.800000
193.064600 72745.700000
194.052800 628766.400000
197.051200 79951.200000
214.059100 200776.200000

>ms2
50.015100 136063.500000
51.023000 124089.100000
53.002200 397205.300000
57.013500 1242992.000000
59.029200 407343.400000
62.015100 91938.900000
63.022900 662214.100000
65.038600 147861.000000
69.013500 289701.400000
70.040000 14507559.000000
71.029100 304834.600000
74.015100 3112015.500000
75.022900 14534106.000000
79.017800 118676.100000
81.013500 53590.500000
83.029100 3878474.200000
89.038600 296463.800000
91.054500 18868.700000
93.033600 45394.900000
95.029200 1882260.200000
98.015100 60630.400000
99.023000 121742.000000
107.029100 56777.100000
109.044800 1348508.100000
111.044100 36669.400000
113.039700 2111929.500000
115.054200 17799.400000
120.036900 45292.200000
121.039800 15785.500000
122.015200 42239.500000
123.023300 281910.700000
123.035300 4410950.500000
124.032500 18451.100000
125.038600 41883.200000
126.046600 16168.300000
133.044800 91609.400000
139.054200 44968.800000
144.037200 49964.100000
149.038600 105844.100000
157.044800 34623.900000
163.054200 166331.200000
164.062100 60065.700000
165.070000 79061.300000
167.049500 42613.100000
168.037000 356314.100000
168.057000 18394.600000
170.052600 71108.300000
174.046400 235163.700000
181.045000 45057.600000
183.060500 151557.200000
187.055400 37385.900000
188.043300 76801.200000
192.036900 59362.100000
193.045000 57235.100000
193.065000 14558.600000
194.052800 258262.400000
211.055800 45952.900000
212.043000 64415.700000
221.050300 16462.000000

>ms2
50.015100 179110.100000
51.023000 123129.100000
53.002200 276504.500000
57.013500 2029768.000000
59.029200 377266.900000
62.015100 214766.200000
63.023000 793045.000000
65.002200 55487.700000
65.038600 107678.700000
69.013500 743008.300000
70.040000 7257523.500000
71.029200 77430.100000
74.015100 8662659.000000
75.022900 15811669.000000
79.017900 36170.900000
81.013500 109175.300000
83.029200 2424010.200000
89.038600 171139.900000
93.033600 15888.400000
95.029200 758732.900000
98.015100 186073.200000
99.022900 189743.900000
107.029100 85498.000000
109.044800 286152.300000
113.039700 643860.700000
115.054300 42631.800000
120.037100 92152.500000
122.015100 155152.100000
123.023000 212572.593800
123.035300 1276246.000000
133.044900 82616.900000
139.054300 53130.800000
144.037200 85633.100000
149.038700 47234.000000
157.045000 62845.300000
163.054300 173925.300000
168.037100 289306.500000
174.046500 70325.600000
181.044800 80321.500000
183.060600 58637.500000
192.037200 82602.400000
194.052700 41877.300000
212.043000 46688.800000

