>compound EQ75666060
>parentmass 116.1434
>ionization [M+H]+
>formula C7H17N
>rt 78.000000
>profile orbitrap
#smiles_iso CC(C)NC(C)(C)C
#smiles_can CC(C)NC(C)(C)C
#inchikey ZWXQPERWRDHCMZ-UHFFFAOYSA-N
#pubchem_id 82023
#mb_accession EQ363101,EQ363102,EQ363103,EQ363104,EQ363105,EQ363106,EQ363107,EQ363108,EQ363109

>ms2peaks
53.002200 309830.700000
57.069900 85513648.000000
60.080800 210376592.000000
116.143300 24237380.000000

>ms2peaks
57.069900 92020552.000000
60.080800 223246768.000000
116.143400 26716604.000000

>ms2peaks
53.002200 319945.900000
57.069900 88756072.000000
60.080800 200077264.000000
116.143400 19272680.000000

>ms2peaks
53.002200 1173448.900000
57.069900 109367624.000000
60.080800 119631880.000000
116.143400 2766278.500000

>ms2peaks
53.002300 669230.000000
53.997400 224673.600000
57.069900 87452464.000000
60.080800 48965788.000000

>ms2peaks
53.002200 1804901.100000
57.069900 63251876.000000
60.080800 16575309.000000

>ms2peaks
53.002200 2031724.800000
53.997400 681338.100000
57.069900 19839078.000000
60.080800 2071132.000000

>ms2peaks
53.002200 2140088.500000
53.997500 344227.900000
55.054100 221717.400000
57.069900 4771482.000000
86.968700 162819.718800

>ms2peaks
50.153400 156243.171900
51.624200 165932.687500
53.002200 2704285.800000
53.047100 171034.390600
55.054100 196168.900000
57.069800 933287.900000
58.065100 813094.937500
67.164800 175395.796900
69.306000 215138.078100
79.148200 185284.375000

