>compound EQ75770935
>parentmass 402.1118000000001
>ionization [M+H]+
>formula C19H19N3O5S
>rt 510.000000
>profile orbitrap
#smiles_iso CC1=C(C(=NO1)C2=CC=CC=C2)C(=O)N[C@H]3[C@@H]4N(C3=O)[C@H](C(S4)(C)C)C(=O)O
#smiles_can CC1=C(C(=NO1)C2=CC=CC=C2)C(=O)NC3C4N(C3=O)C(C(S4)(C)C)C(=O)O
#inchikey UWYHMGVUTGAWSP-JKIFEVAISA-N
#pubchem_id 6196
#mb_accession EQ320701,EQ320702,EQ320703,EQ320704,EQ320705,EQ320706,EQ320707,EQ320708,EQ320709

>ms2peaks
69.044600 117780.500000
77.038500 217697.400000
100.021100 196980.400000
114.037100 531071.600000
128.049300 134173.800000
144.044300 1560155.100000
160.042700 87831960.000000
172.075700 194459.900000
186.055000 4600147.000000
215.081600 1303665.200000
243.076400 84566824.000000
374.117100 2935445.200000
402.112100 5893540.000000

>ms2peaks
56.049400 122723.900000
69.044700 255013.500000
70.064900 182844.500000
72.044400 329275.500000
77.038500 462798.200000
87.026200 251312.900000
100.021300 105891.400000
100.039300 1888598.800000
114.037200 11272699.000000
118.065200 210507.900000
126.037200 124870.700000
128.049100 1157239.400000
130.065200 2040359.800000
142.032300 468760.300000
144.044400 25247820.000000
146.060000 114843.300000
157.076200 475353.900000
160.042700 87805168.000000
171.091800 211596.200000
172.075700 16186285.000000
174.058400 112201.900000
184.086800 113813.400000
186.055000 7300619.000000
187.086400 165654.000000
188.070600 3513023.500000
189.069000 104875.700000
197.071100 388202.300000
198.054900 510117.100000
199.086600 3466625.000000
201.065800 619218.700000
215.081600 676245.400000
225.066000 403478.200000
226.097500 623210.400000
243.076500 47478760.000000
374.117000 533796.900000

>ms2peaks
51.022900 117072.900000
53.038500 259254.800000
56.049400 120718.100000
58.994900 109568.400000
69.044700 267242.500000
70.065100 344036.200000
72.044400 624090.400000
77.038200 756677.700000
81.044700 57572.700000
87.026300 1925893.100000
95.049300 297212.700000
96.044400 50381.500000
98.060100 276943.900000
99.044100 53471.200000
100.021500 97746.500000
100.039300 1222021.200000
102.037100 44784.700000
103.054200 482188.700000
104.049500 147780.900000
105.033600 53112.600000
105.044700 276559.200000
109.039700 54717.600000
114.037200 44502380.000000
115.021000 89119.000000
116.049400 571825.100000
118.065100 1057317.400000
126.037200 117231.100000
126.054800 260890.800000
128.049400 4869192.500000
130.065200 15535369.000000
142.032200 2073025.600000
142.065100 688355.500000
144.044400 37760836.000000
146.059900 1621505.800000
154.065300 52813.000000
155.060700 54214.000000
156.068300 103353.400000
157.076100 1368904.400000
160.042700 42005972.000000
169.076500 47876.100000
170.060000 742825.900000
171.091900 198795.300000
172.075700 18271174.000000
173.071100 128109.000000
181.076100 96502.700000
184.087100 275706.200000
186.055000 1190895.500000
187.086100 189626.500000
188.070600 7170672.500000
197.071000 961337.100000
198.055200 219240.100000
199.086600 1987787.600000
201.065900 990587.100000
215.081400 44840.200000
225.066200 257680.800000
226.097600 511045.900000
228.076600 100227.800000
243.076500 3591772.500000

>ms2peaks
50.015000 119928.200000
51.022900 124206.200000
53.038600 1591273.500000
54.033800 176034.800000
55.054200 93112.600000
56.049400 121447.800000
58.995000 477865.400000
69.044700 200501.700000
70.065100 1829331.000000
71.049100 117524.600000
72.044400 258866.900000
75.026300 123499.200000
77.038400 1970563.600000
81.033600 168543.800000
81.044800 351808.500000
85.010600 250660.200000
87.026300 8670960.000000
89.038500 103043.500000
91.054200 137064.700000
95.049200 3601478.800000
96.044400 84564.500000
98.060100 694794.900000
99.044000 270041.400000
100.039200 229428.200000
103.054200 2961424.800000
104.049400 243854.300000
105.033600 100770.400000
105.044700 1907115.400000
109.039600 128793.800000
113.029400 112425.000000
114.037200 60728124.000000
115.021200 88373.500000
116.049500 3692179.800000
117.057300 112811.000000
117.069900 102613.700000
118.065100 1829013.600000
126.037300 105496.300000
126.055100 160471.900000
128.049400 6078064.000000
130.065200 18759098.000000
142.032200 2138744.000000
142.065200 2341890.200000
143.059900 84680.600000
144.044400 34557276.000000
145.076200 153749.100000
146.060000 3387739.800000
155.060600 304376.900000
156.068300 156730.800000
157.076100 1013263.100000
160.042700 10609509.000000
170.060000 1368723.800000
172.075700 3627421.800000
184.087000 357036.700000
186.055000 94704.700000
188.070600 2945297.500000
197.070900 456435.400000
199.086300 464488.500000
201.065900 409044.200000
243.076500 88120.500000

>ms2peaks
50.015100 169250.900000
51.022900 313483.400000
53.038600 3883908.000000
54.033800 199653.500000
55.017800 103254.800000
55.054300 274048.800000
58.995000 1023082.300000
62.005900 121377.400000
68.013100 39102.500000
68.049500 37019.100000
69.044800 267095.000000
70.065100 3680502.200000
71.049100 201225.300000
72.080800 79040.300000
75.026300 99167.400000
77.038500 3549333.000000
78.046400 95256.800000
79.054200 51072.400000
80.049400 40499.500000
81.033500 327627.700000
81.044700 652709.700000
81.057300 123534.500000
82.065100 86589.100000
85.010700 513903.100000
87.026300 13979727.000000
89.038500 569879.200000
91.054300 352157.200000
94.041300 113264.600000
94.065200 42549.900000
95.049200 9158302.000000
98.060100 649881.500000
99.026200 36744.400000
99.044000 282688.900000
100.039300 36877.300000
103.054200 4869069.500000
104.049400 522481.100000
105.044800 5374034.500000
109.039700 92551.900000
113.029300 132126.300000
114.037200 36474696.000000
115.054300 142423.500000
116.049500 5959742.500000
117.057400 189034.900000
118.065100 1304201.100000
126.054900 37644.700000
128.049400 3648486.800000
129.057300 43708.500000
130.065200 7818828.500000
131.073000 41701.400000
133.076000 44998.700000
140.049600 81879.900000
142.032200 750119.900000
142.052700 105493.000000
142.065200 1941500.800000
143.060200 198594.700000
144.044400 16981806.000000
145.076000 125528.200000
146.060000 2468239.000000
155.060500 300246.100000
156.068200 210001.900000
157.076000 240799.300000
160.042700 1384066.500000
169.076100 45676.400000
170.060100 484596.900000
172.075600 255562.000000
184.086900 118122.000000
188.070700 406065.700000
196.086600 87085.900000

>ms2peaks
50.015100 641782.500000
51.022900 646534.900000
52.018200 33860.600000
53.038600 6605200.000000
54.033900 207324.500000
55.017900 243401.100000
55.054200 359667.400000
56.049500 44874.300000
57.987200 39579.200000
58.995000 1787470.600000
59.049100 92909.200000
59.966400 47081.300000
59.990200 19622.700000
62.005900 218274.700000
65.038700 181970.500000
67.054200 31286.100000
68.013100 84981.100000
68.049500 40992.800000
68.997100 25494.500000
69.044700 241211.400000
70.065100 5116486.000000
71.049100 267333.300000
72.080700 43231.500000
73.010600 25417.400000
74.005800 26510.100000
75.026300 131831.200000
77.038500 6066408.000000
78.033900 36990.700000
78.046300 188119.000000
79.029100 26989.400000
79.054400 35029.800000
80.036900 37370.000000
80.049400 211799.900000
81.033500 457001.600000
81.044700 925017.200000
81.057300 145479.200000
82.065100 42134.600000
85.010600 921222.900000
86.005800 34658.300000
87.026300 15160756.000000
89.038600 1603522.600000
90.033800 29123.200000
91.054200 688561.300000
93.044800 39658.600000
93.069600 25409.400000
94.041300 258893.600000
94.065100 110185.400000
95.049200 14958273.000000
96.044400 27315.700000
98.060000 294484.100000
99.026300 43154.400000
99.044100 133290.200000
102.046400 92533.800000
103.054200 4903310.000000
104.049500 536432.900000
105.044800 8606965.000000
107.047700 21815.200000
109.039600 34560.800000
109.064900 42532.400000
112.021500 105185.500000
113.029300 128866.400000
114.037300 19031198.000000
115.054200 153719.900000
116.049500 6130916.000000
117.057400 257028.200000
118.065100 825962.000000
119.049200 37276.900000
119.060500 39692.300000
128.049500 1949788.600000
129.044800 80804.500000
129.057300 104449.000000
130.065200 2827066.800000
131.073000 22763.400000
133.076200 115078.200000
134.059900 25764.100000
140.049700 35945.400000
142.032100 206314.700000
142.052700 208444.800000
142.065200 893152.200000
143.060400 106958.000000
143.073100 26352.900000
144.044400 6796634.000000
145.075900 41302.400000
146.060000 1190184.600000
154.065000 25429.600000
155.060300 260197.800000
156.068000 121053.600000
157.076100 37469.200000
160.042700 103814.600000
169.076300 154337.300000
170.060200 95527.900000
188.070600 44477.500000
196.086900 30586.500000

>ms2peaks
50.015100 1960791.100000
51.023000 4034090.500000
52.018200 174503.500000
53.038600 8111097.500000
53.997500 40139.100000
54.033800 275493.200000
55.017900 254201.200000
55.054300 259455.000000
56.049500 82154.000000
57.987100 89317.800000
58.995000 2610054.800000
59.966500 177725.100000
59.990200 20182.100000
62.005900 252618.400000
63.022900 198154.800000
65.002200 88980.900000
65.038600 484023.600000
66.033800 72581.700000
67.041600 34142.600000
67.054200 103548.500000
67.989300 20689.800000
68.013100 183759.900000
68.049400 37968.000000
68.997000 27681.600000
69.044700 192558.100000
70.065100 3291686.500000
70.994900 29375.800000
71.049100 79897.300000
72.002700 22350.400000
72.080700 31021.600000
73.010600 41223.500000
74.005900 24285.600000
75.022900 38653.500000
75.026300 93973.900000
77.038500 7360493.000000
78.046400 375814.000000
79.029000 35059.500000
79.054100 73515.500000
80.049500 333934.200000
81.033500 422479.100000
81.044700 588718.100000
81.057300 126128.200000
82.064900 27789.900000
85.010600 581888.500000
86.005900 47312.500000
87.026300 4748989.000000
89.038600 2586264.000000
90.033900 124577.500000
90.046500 39239.000000
91.054300 562982.800000
93.044800 85014.200000
94.041300 205644.800000
94.065200 87241.900000
95.049200 15882363.000000
100.021400 67898.600000
102.046400 128157.600000
103.054200 1705880.900000
104.049500 340614.200000
105.044800 9230936.000000
106.039700 30924.200000
107.047700 36516.600000
109.064800 84644.000000
112.021500 102905.900000
113.029500 40269.500000
114.037300 2588457.000000
115.041500 46206.400000
115.054300 210235.500000
116.049500 1606179.800000
117.057300 178626.400000
118.065100 79111.900000
119.060300 96814.200000
128.049400 301559.400000
129.044800 36488.300000
129.057400 28766.900000
130.065200 333981.300000
133.076100 34903.500000
140.049500 85516.700000
142.052600 115131.500000
142.065100 24096.800000
143.060700 38737.000000
144.044500 412864.500000
146.060200 42367.500000
155.060200 91808.300000
156.068300 34779.300000
168.068500 42947.000000
169.075700 30280.200000

>ms2peaks
50.015100 4035946.000000
51.023000 10059036.000000
52.018200 241521.900000
52.030800 29256.900000
53.002200 245054.600000
53.038600 4456690.500000
53.997500 34280.100000
54.033900 270563.300000
55.017900 136725.200000
55.054200 172309.200000
56.049500 73329.900000
57.987200 188602.800000
58.995000 2783903.800000
59.966500 242729.500000
62.005900 139620.500000
62.015100 69978.100000
63.022900 516118.900000
65.002200 231558.500000
65.038600 644690.400000
66.010100 77534.400000
66.033900 42710.700000
67.041700 85726.800000
67.054200 102774.000000
67.989300 18745.200000
68.013100 121885.300000
68.049500 69487.000000
69.044700 108268.000000
70.065100 1082489.100000
70.995000 107945.400000
72.003000 19192.900000
73.010600 103709.900000
74.015000 26910.100000
75.022900 207896.800000
75.026300 24861.200000
76.030800 27792.100000
77.038500 5881655.000000
78.033800 36603.200000
78.046400 213142.800000
79.029000 90289.800000
80.036800 32448.900000
80.049400 290947.200000
81.033500 296328.000000
81.044800 227025.500000
82.065100 21722.500000
85.010600 230439.100000
86.006100 22786.600000
87.026300 727493.400000
89.038600 1783832.600000
90.033900 135439.200000
90.046400 70373.300000
91.054200 386260.200000
92.049500 25729.300000
93.044800 87809.500000
94.041400 143269.100000
94.065100 73535.400000
95.049200 9369284.000000
96.044300 35454.300000
100.021600 137411.600000
102.046400 113123.400000
103.054300 301443.300000
104.049500 122649.300000
105.044800 5112773.000000
106.040100 30099.500000
112.021500 134971.600000
113.029400 28896.200000
114.037200 212418.500000
115.041600 73426.800000
115.054300 154782.100000
116.049500 238268.200000
117.057300 114251.200000
119.060500 27456.100000
128.049400 96768.000000
129.044800 25306.300000
130.065000 33189.900000
140.049500 26033.300000
142.052300 31405.600000

>ms2peaks
50.015100 6336552.000000
51.023000 14807101.000000
52.018200 358593.100000
52.030800 77487.700000
53.002200 326967.100000
53.038600 1745010.200000
53.997500 28469.200000
54.033900 214301.500000
55.017800 64659.900000
55.054300 24551.500000
56.049500 24912.800000
57.987200 346166.000000
58.995000 2235598.000000
59.966400 294404.200000
59.990400 30202.900000
62.005900 86338.200000
62.015100 102306.800000
63.022900 841874.400000
65.002200 458785.700000
65.038600 546642.100000
66.010000 76660.800000
66.033800 20148.200000
67.041700 87114.300000
67.054200 27724.200000
68.013000 75128.500000
68.049500 19005.000000
69.044700 39385.700000
70.065100 181786.100000
70.995000 178005.200000
73.010600 146049.200000
74.015000 154549.900000
75.022900 202929.000000
76.030700 37807.000000
77.038500 2845757.800000
78.033900 27947.900000
78.046400 73813.700000
79.029100 22775.600000
79.054200 18160.400000
80.049400 174992.200000
81.033500 112384.700000
81.044800 70092.200000
85.010600 33050.600000
87.026300 39734.700000
89.038600 748483.400000
90.033900 16761.200000
90.046500 69229.800000
91.054300 102311.500000
92.049700 17680.100000
93.044700 29631.600000
95.049200 3413100.200000
100.021500 84470.200000
102.046300 40529.800000
103.054400 35342.200000
104.049400 43041.000000
105.044800 1950669.200000
112.021400 25712.200000
117.057100 19750.900000
129.044700 33624.400000
140.049500 21246.700000

