>compound EQ76236872
>parentmass 201.06179999999998
>ionization [M+H]+
>formula C6H8N4O4
>rt 138.000000
>profile orbitrap
#smiles_iso CN1C(=CN=C1COC(=O)N)[N+](=O)[O-]
#smiles_can CN1C(=CN=C1COC(=O)N)[N+](=O)[O-]
#inchikey PQFRTXSWDXZRRS-UHFFFAOYSA-N
#pubchem_id 5094
#mb_accession EQ369501,EQ369502,EQ369503,EQ369504,EQ369505,EQ369506,EQ369507,EQ369508,EQ369509

>ms2peaks
53.026000 305152.600000
54.033800 245416.800000
55.041700 4112816.500000
82.052500 198918.000000
110.047600 1684889.400000
140.045500 162356464.000000
201.062000 11174880.000000

>ms2peaks
53.026000 275504.700000
54.033900 555498.800000
55.041700 9508275.000000
71.024000 371024.200000
72.008000 284106.000000
82.052600 651039.000000
94.052400 187589.800000
110.047600 3663026.800000
140.045500 167139040.000000
201.062000 4149491.500000

>ms2peaks
53.026000 159363.800000
54.033900 2774229.500000
55.041700 38091540.000000
67.041600 206710.100000
71.024000 994184.300000
72.008000 713218.900000
81.044800 288472.000000
82.052600 2330693.200000
94.052600 689443.300000
110.047600 6764122.500000
140.045500 78869904.000000
201.062200 92155.100000

>ms2peaks
54.033900 4534252.000000
55.041700 48986076.000000
66.033900 112230.800000
67.041700 1260002.900000
71.024000 653717.400000
72.008000 515815.600000
81.044800 339520.600000
82.052600 1871003.900000
94.052600 2376113.500000
110.047600 3637845.800000
140.045600 17271596.000000

>ms2peaks
53.026000 187721.200000
54.033900 6515384.000000
55.041700 44370932.000000
66.033900 526481.900000
67.041700 3969573.000000
68.036900 107054.600000
71.024100 222454.800000
72.008000 218611.200000
81.044800 191069.500000
82.052600 867245.900000
94.052700 3772047.200000
110.047600 971883.900000
140.045600 2583369.800000

>ms2peaks
52.018200 256409.500000
53.026100 600508.100000
54.033900 6973240.500000
55.041700 34828248.000000
66.033900 1511363.800000
67.041700 5533146.000000
68.036900 82099.000000
72.008100 73608.400000
79.029100 76759.200000
81.044700 155734.200000
82.052700 197827.600000
94.052600 3082743.000000
109.039700 40081.400000
110.047500 207360.800000
140.045500 296949.500000

>ms2peaks
52.018300 920934.900000
53.026100 1638809.800000
54.033900 7286724.500000
55.041700 17463780.000000
56.013100 98953.700000
66.033900 4605902.000000
67.041700 4131343.500000
68.036900 40898.400000
69.044700 79745.900000
79.029100 139368.000000
81.044700 33562.700000
83.060500 26274.700000
94.052600 662443.200000
97.039500 21204.300000

>ms2peaks
52.018300 1966882.500000
53.026100 1709976.200000
54.033900 6322391.000000
55.041700 8572867.000000
56.013100 95886.600000
66.033900 6540189.000000
67.041700 1857910.100000
69.044700 92438.800000
79.029100 87942.200000
81.044800 64581.200000
83.060400 23238.800000
94.052500 41094.200000

>ms2peaks
52.018300 2789496.500000
53.026100 931227.800000
54.033900 4203829.500000
55.041700 3497781.800000
56.013200 38196.300000
66.033900 5708347.000000
67.041700 548435.700000
69.044700 100688.000000
79.029000 20474.400000
81.044700 40094.600000
97.039800 20956.800000

