>compound EQ76645135
>parentmass 254.11489999999998
>ionization [M+H]+
>formula C12H11N7
>rt 270.000000
>profile orbitrap
#smiles_iso C1=CC=C(C=C1)C2=NC3=C(N=C(N=C3N=C2N)N)N
#smiles_can C1=CC=C(C=C1)C2=NC3=C(N=C(N=C3N=C2N)N)N
#inchikey FNYLWPVRPXGIIP-UHFFFAOYSA-N
#pubchem_id 5546
#mb_accession EQ363701,EQ363702,EQ363703,EQ363704,EQ363705,EQ363706,EQ363707,EQ363708,EQ363709

>ms2peaks
254.114900 638295872.000000

>ms2peaks
237.087500 2010490.500000
254.114900 693379392.000000

>ms2peaks
104.049100 688281.800000
195.066500 1606660.100000
210.078000 762755.300000
212.093200 5619357.000000
227.104200 3602869.200000
237.088600 85266008.000000
254.115000 530777216.000000

>ms2peaks
82.040000 441934.900000
92.024300 1952154.400000
104.049500 22873540.000000
107.035200 529706.700000
116.049400 1028544.700000
131.060500 362150.600000
134.046200 1333022.100000
141.044400 473837.800000
142.052600 465488.500000
143.060500 8162196.500000
158.071400 446999.600000
161.070900 652791.100000
168.055700 10488867.000000
170.071500 412793.600000
176.068000 313427.200000
183.066700 2322411.500000
185.082300 3373845.000000
186.066300 459430.000000
193.051100 439051.600000
195.066700 30393388.000000
210.077600 15067029.000000
212.093300 22246684.000000
213.077200 4281508.500000
220.062000 3089735.000000
227.104100 10087574.000000
237.088400 254858640.000000
238.072500 691962.100000
239.091600 274397.700000
252.099100 659630.100000
254.115000 203470240.000000

>ms2peaks
51.022800 154511.600000
55.029100 755586.100000
67.029100 1057892.100000
68.024300 144901.300000
77.038300 976732.400000
80.024300 691539.300000
82.040000 2387401.000000
89.038300 578194.900000
92.024400 8851550.000000
95.049200 879297.100000
103.041600 338127.300000
104.049500 90380648.000000
105.044800 365648.500000
107.035300 1969617.500000
116.049500 12997122.000000
117.057300 458443.400000
128.036800 280442.100000
129.044900 984645.200000
131.060500 2177767.200000
133.076100 299767.900000
134.046200 2631312.500000
134.060100 678998.900000
141.044800 9207792.000000
142.052700 3111287.000000
143.060500 36142560.000000
144.055700 145789.700000
153.044900 837348.800000
158.071500 1247269.100000
161.071100 1584140.000000
166.040100 548359.900000
168.055800 50504832.000000
169.063300 531344.900000
170.071300 889739.700000
171.055500 371751.100000
183.066700 9316523.000000
184.074300 277303.200000
185.082300 8029829.000000
186.066300 2929781.200000
193.051100 4109556.000000
195.066700 58049204.000000
210.077600 27126528.000000
212.093200 16427739.000000
213.077200 4976061.500000
220.062000 8220868.000000
227.104200 5932326.000000
235.073000 370319.800000
236.080600 275940.300000
237.088500 143263024.000000
238.072400 1122268.100000
239.091300 419654.500000
252.099400 662746.100000
254.115100 29563214.000000

>ms2peaks
50.015000 146899.200000
51.022900 301803.400000
53.038600 948814.600000
55.029100 1971736.000000
63.022700 135247.500000
65.013400 728708.300000
67.029100 1444538.500000
68.024300 509715.400000
77.038500 2490104.200000
79.054100 561631.400000
80.024300 2878343.500000
82.040000 3446434.800000
89.038600 2777967.800000
91.054300 303694.000000
92.024400 15597655.000000
95.049200 2860172.500000
103.041700 1897980.500000
104.049500 129539056.000000
105.044800 2024425.100000
106.065100 351272.500000
107.035300 3138939.800000
109.051100 334303.300000
114.033900 617500.100000
116.049500 40903100.000000
117.019900 141577.900000
117.057300 1096104.100000
122.060300 242412.600000
128.037000 1663366.000000
129.044800 3063634.000000
130.040100 352681.600000
131.060500 6137467.000000
132.044600 462555.300000
133.076100 282306.000000
134.046200 1678664.400000
134.060100 2713120.200000
139.029200 140942.700000
141.044800 44849252.000000
142.052700 7238831.500000
143.060500 34081408.000000
144.055800 505643.400000
153.044800 1572501.600000
156.055600 699128.900000
157.039400 212153.500000
158.071400 1198883.200000
159.055400 863872.900000
161.071200 749842.700000
166.040100 1627453.100000
167.048000 298577.400000
168.055700 57959036.000000
169.051100 356944.100000
169.063600 1428636.100000
170.071400 627666.300000
171.055300 637715.600000
183.066700 11427698.000000
184.050500 527799.200000
184.074600 579146.800000
185.082300 5962647.000000
186.066300 2240913.500000
193.051000 6866348.000000
194.046400 318728.200000
194.058700 305612.700000
195.066700 35060204.000000
196.050700 140976.000000
210.077600 15339673.000000
212.093300 4999971.500000
213.077400 1356939.000000
220.062000 5456811.000000
227.104200 1228862.900000
235.072600 131228.000000
237.088500 27923680.000000
238.072600 681690.300000
252.099200 453444.000000
254.115100 2297762.200000

>ms2peaks
50.015100 868870.200000
51.022900 888794.600000
53.038600 3929754.800000
53.997500 674827.500000
55.017900 302349.400000
55.029100 3544498.800000
62.015000 117266.400000
63.022900 1419825.900000
65.013500 4319658.500000
65.038600 451204.600000
66.046400 403682.600000
67.029100 1530146.100000
68.024400 1380395.400000
75.022900 382685.900000
76.018300 106616.000000
76.030700 277842.200000
77.038600 8018927.500000
79.054200 4771360.500000
80.024300 5389200.000000
81.033700 586861.900000
82.040000 1286221.500000
89.038600 38925596.000000
90.008700 1600429.900000
90.033900 802355.600000
90.046500 781048.200000
91.041600 286656.300000
91.054300 897815.300000
92.024400 14441572.000000
94.041300 137938.800000
95.049200 12289599.000000
102.034000 505087.800000
103.041700 7592156.000000
104.049500 97630496.000000
105.044800 8208611.000000
106.065100 534578.400000
107.035300 1100150.600000
114.033900 8236363.500000
115.041800 1506400.900000
116.049500 48720312.000000
117.019600 312725.400000
117.057300 3090999.000000
120.044300 332262.300000
122.060100 139537.100000
126.033900 111332.000000
128.037000 1759389.500000
129.044800 3631271.000000
130.040100 1303414.200000
131.060500 7536510.500000
132.044500 971908.500000
133.052600 211605.200000
134.060100 2418455.200000
139.029100 1558609.600000
141.044800 70498352.000000
142.052700 11686554.000000
143.060500 4058536.200000
144.055900 450693.600000
153.044900 1203953.800000
154.040200 362531.300000
156.055700 588266.100000
157.039900 266567.600000
158.071400 115921.100000
159.055500 1055366.900000
166.040000 2000383.600000
167.047900 732024.300000
168.055800 10242025.000000
169.051100 394656.900000
169.063500 859019.900000
183.066800 1783272.800000
184.050500 508051.600000
184.074200 270286.700000
185.082400 507709.200000
193.051200 1512091.200000
194.046600 131600.800000
195.066700 2366375.500000
210.077600 1174412.400000
235.072400 114464.100000
237.088400 220264.700000

>ms2peaks
50.015100 3394267.500000
51.023000 3303105.000000
52.018100 101601.000000
53.038600 7682452.500000
53.997500 2344641.800000
55.017900 510202.500000
55.029100 3786990.000000
61.007300 133876.400000
62.015100 875698.700000
63.023000 11456656.000000
64.018200 567723.200000
65.013500 8481664.000000
65.038600 1399084.200000
66.021200 366713.800000
66.046400 1619464.100000
67.029100 1252106.400000
68.024300 1590317.800000
75.022900 1171972.000000
76.018100 570786.600000
76.030700 1728630.600000
77.038600 14340013.000000
78.033900 102914.600000
79.054200 6540607.000000
80.024300 3724162.000000
81.033600 940600.800000
82.040000 337126.400000
87.022900 553643.200000
88.018200 1503288.100000
88.030800 580581.200000
89.038600 81979552.000000
90.008700 2735119.500000
90.033900 2028177.800000
90.046500 2164495.800000
91.041800 522243.300000
91.054200 897657.900000
92.024400 7689344.000000
94.041400 554731.200000
95.049200 23775324.000000
99.023000 119987.500000
100.018200 398131.400000
101.026200 271710.800000
102.033900 1084659.600000
103.041700 9060842.000000
104.049500 45201384.000000
105.044800 16534749.000000
106.065200 129438.600000
112.018300 211082.100000
114.033900 15397415.000000
115.041700 4926780.000000
116.049500 18349306.000000
117.057300 2174307.500000
119.036300 87862.100000
120.044300 341700.800000
126.034000 274044.900000
128.037000 635829.200000
129.044800 1455429.500000
130.040100 1730277.600000
131.060500 1742830.500000
132.044500 723659.600000
133.052300 612834.700000
134.060100 845936.400000
139.029100 1417915.200000
140.037000 270241.700000
141.044800 20295992.000000
142.052600 5686017.000000
143.060400 259875.800000
153.044700 122400.000000
154.040000 336512.700000
156.055700 138046.100000
157.039700 230345.300000
159.055300 299277.200000
166.040000 335299.800000
167.047800 387592.000000
168.055500 349657.000000

>ms2peaks
50.015200 7239254.000000
51.023000 9378219.000000
52.018200 121508.100000
52.030700 198144.500000
53.038600 7288388.500000
53.997500 2714416.500000
55.017900 365214.000000
55.029100 1865890.100000
61.007200 862910.300000
62.015100 2923603.800000
63.023000 26542862.000000
64.018200 1717814.900000
65.013500 7058421.000000
65.038600 1534182.800000
66.021300 508988.300000
66.046400 1643371.500000
67.029100 769090.300000
67.054200 67789.300000
68.024400 1837238.000000
74.015100 560561.100000
75.022900 1597803.000000
76.018100 840537.500000
76.030800 3354046.800000
77.038600 14679719.000000
79.054300 2686274.200000
80.024300 1833828.000000
81.033500 782777.900000
87.023000 1395986.600000
88.018200 3452410.800000
88.030800 1848199.600000
89.038600 56218752.000000
90.008800 2366501.000000
90.033900 1554681.800000
90.046500 1769515.800000
91.041700 141259.700000
91.054300 488472.800000
92.024400 2505904.000000
94.041400 557857.200000
95.049200 20519894.000000
99.023000 133379.200000
100.018300 514662.100000
101.026100 84664.200000
102.034100 650445.300000
103.041700 4773300.000000
104.049500 15468313.000000
105.044800 14075357.000000
106.065200 85658.300000
112.018300 364446.300000
114.033900 9540080.000000
115.041700 3600715.200000
116.049500 3051195.800000
117.057200 724522.100000
119.036700 57254.100000
120.044800 92930.700000
127.041600 60285.200000
128.037000 72133.000000
129.044900 280291.700000
130.040100 655926.300000
131.060600 293987.600000
132.044400 270372.500000
133.052200 241345.400000
134.060000 87318.600000
139.029100 370311.000000
140.037000 103777.300000
141.044700 2046923.200000
142.052700 1217235.400000

