>compound EQ76137785
>parentmass 315.0662
>ionization [M+H]+
>formula C10H19O7PS
>rt 426.000000
>profile orbitrap
#smiles_iso CCOC(=O)CC(C(=O)OCC)SP(=O)(OC)OC
#smiles_can CCOC(=O)CC(C(=O)OCC)SP(=O)(OC)OC
#inchikey WSORODGWGUUOBO-UHFFFAOYSA-N
#pubchem_id 15415
#mb_accession EQ371301,EQ371302,EQ371303,EQ371304,EQ371305,EQ371306,EQ371307,EQ371308,EQ371309

>ms2
99.007600 12416488.000000
113.023400 96372.400000
127.038900 82018256.000000
142.992700 11349957.000000
145.049500 245672.000000
171.023900 1096587.800000
173.080900 6254236.500000
269.024300 4156362.750000

>ms2
55.017800 88756.300000
71.012700 252564.600000
99.007600 63837528.000000
110.966400 91993.600000
113.023300 647665.600000
117.018200 910787.600000
124.982100 196986.800000
127.038900 46892072.000000
128.976900 251253.700000
142.992700 8642037.000000
145.049500 1713797.100000
171.023900 828117.500000
173.080900 728503.900000
194.987500 819457.400000

>ms2
53.002100 127073.400000
55.017900 273570.800000
71.012700 1565966.000000
99.007600 86356704.000000
110.966400 476133.700000
113.023300 876796.600000
117.018200 2369424.500000
124.982100 1173968.000000
127.015400 1120591.900000
127.039000 7171172.500000
128.976900 1525804.600000
142.992700 5583958.500000
145.049600 716786.400000
171.023800 237076.400000
194.987500 997580.600000

>ms2
53.002200 546281.600000
55.017900 560736.700000
68.979300 95379.000000
71.012700 6499568.000000
73.028400 91418.600000
78.994300 409839.800000
99.007600 84907960.000000
102.984800 88647.400000
110.966400 861004.600000
113.023300 825276.400000
117.018200 2434484.000000
124.982100 1941145.500000
127.015500 2283583.000000
127.039000 742726.900000
128.976900 2976705.500000
142.992700 4402978.000000
145.049400 126835.300000
194.987600 200857.000000

>ms2
53.002200 1309742.000000
55.017900 448820.300000
62.018400 109170.100000
64.978700 99554.800000
68.979300 162107.700000
71.012700 11520921.000000
73.028300 92976.900000
78.994300 1191444.200000
99.007600 53947448.000000
102.984900 163741.700000
110.966400 585881.800000
113.023300 559968.400000
117.018200 1221534.000000
124.982100 1673345.500000
127.015500 2381001.500000
128.977000 2705823.000000
142.992700 2980953.000000

>ms2
53.002200 2193210.000000
55.017800 415741.600000
58.995000 70174.900000
62.018500 166843.300000
64.978700 209059.100000
68.979300 133006.600000
71.012700 16665835.000000
73.028400 59153.600000
78.994300 2211552.200000
93.009900 48683.600000
97.005000 78929.900000
99.007600 33006792.000000
102.984900 190011.200000
110.966400 381805.000000
113.023300 333264.900000
117.018200 535377.800000
124.982100 935498.800000
127.015500 1924105.800000
128.977000 2119135.500000
142.992700 1876111.500000

>ms2
53.002200 2243041.000000
55.017900 280670.800000
57.987200 23843.500000
58.995000 90585.800000
59.966400 51286.400000
62.018500 117266.300000
62.999400 23379.500000
64.978700 193571.500000
68.979300 92041.000000
71.012700 8731366.000000
73.028400 12666.200000
74.989900 13129.400000
78.994300 1607918.200000
84.974200 43042.600000
93.010100 113220.800000
97.005000 66867.200000
99.007700 5125862.500000
102.984800 62699.900000
110.966500 86638.000000
113.023100 73821.600000
117.018300 44547.300000
124.982100 100598.000000
127.015500 549389.300000
128.977000 587323.800000
142.992800 242677.800000

>ms2
53.002200 1844645.400000
55.017900 199746.700000
56.979400 40511.400000
57.987200 70726.900000
58.995000 177794.000000
59.966500 53681.900000
62.018500 16671.700000
62.945400 11121.300000
62.999400 81950.100000
64.978700 119642.400000
68.979400 85889.500000
71.012800 2376152.800000
74.990000 11858.900000
78.994300 641776.600000
84.974300 61272.400000
93.010000 43962.700000
97.005100 11907.100000
99.007700 480131.100000
110.966500 11737.300000
127.015600 75522.800000
128.976900 100824.400000
142.992800 22153.300000

>ms2
53.002200 1344226.600000
55.017900 67350.600000
56.979300 58305.300000
57.987200 184786.200000
58.995000 179232.000000
59.966400 64801.600000
62.945200 34203.000000
62.999400 51388.400000
64.978700 102744.200000
68.979300 84107.400000
71.012700 603386.200000
78.994300 220572.100000
84.974200 18529.100000
93.010000 12390.600000
99.007600 13708.100000
128.976700 9859.300000

