>compound EQ76365182
>parentmass 340.1061
>ionization [M+H]+
>formula C12H21NO8S
>rt 366.000000
>profile orbitrap
#smiles_iso CC1(OC2COC3(C(C2O1)OC(O3)(C)C)COS(=O)(=O)N)C
#smiles_can CC1(OC2COC3(C(C2O1)OC(O3)(C)C)COS(=O)(=O)N)C
#inchikey KJADKKWYZYXHBB-UHFFFAOYSA-N
#pubchem_id 5514
#mb_accession EQ363501,EQ363502,EQ363503,EQ363504,EQ363505,EQ363506,EQ363507,EQ363508,EQ363509

>ms2
55.017900 44306.400000
57.033400 170959.300000
59.049100 961456.900000
69.033400 72199.000000
71.012700 26909.700000
79.054200 38305.700000
81.033400 55806.100000
84.044400 28846.000000
85.028300 107205.700000
95.049100 161500.600000
96.044300 47863.600000
97.028500 113571.300000
97.064700 31201.800000
98.060100 30208.200000
99.007700 28636.900000
99.044100 324122.700000
101.059700 112644.400000
103.039100 85886.500000
107.049200 201785.400000
109.028500 120475.500000
113.059700 193752.500000
121.064900 41348.200000
124.075800 536279.500000
125.059800 287749.300000
126.054900 174595.800000
127.039100 2507399.500000
137.059800 41260.900000
138.022000 102202.400000
139.075400 48720.500000
140.001200 203475.900000
143.070400 97574.000000
144.065600 94016.100000
145.049600 83526.600000
149.059800 202999.400000
157.086100 47220.100000
164.001100 49271.800000
166.086400 39672.300000
167.070400 2045994.900000
176.001200 92034.000000
178.017000 165265.800000
184.096900 9606489.000000
185.081000 2871286.800000
188.001200 68418.400000
188.985300 221821.000000
204.032700 287224.500000
206.012000 1042909.900000
206.996300 54300.300000
222.042700 29939.600000
224.022500 3186157.000000
246.043300 92648.300000
264.053800 18832058.000000
282.064400 1001982.375000
322.095800 368808.687500

>ms2
53.038600 27103.200000
55.017900 401117.000000
55.054300 32685.700000
56.049500 36423.900000
57.033500 704666.200000
57.069900 35512.800000
58.065100 8917.200000
59.049200 3927677.800000
60.044400 154994.100000
61.028400 74654.400000
67.054000 6957.000000
68.049500 12991.700000
69.033500 420752.200000
70.028700 10455.000000
70.065200 17784.700000
71.012700 216058.600000
71.049100 104515.100000
72.044400 70838.900000
73.028400 146712.500000
74.059900 12124.800000
75.044000 9759.300000
77.038300 8486.600000
79.054200 327920.800000
79.980000 9540.500000
80.049400 87380.300000
81.033500 374578.800000
82.065100 92259.900000
83.012700 9529.300000
83.049100 187399.000000
84.044400 330659.200000
85.028400 553053.400000
86.060000 118494.100000
87.007700 11315.600000
87.044100 41464.500000
93.070000 31384.300000
94.065200 71483.300000
95.049200 558735.100000
96.044400 150780.200000
96.080800 48350.300000
97.028500 642593.000000
97.064900 194427.000000
97.990600 44973.200000
98.023700 67652.400000
98.060100 219952.900000
99.007700 498627.900000
99.044100 1211335.200000
100.039300 8696.600000
101.023400 189906.000000
101.059800 222516.300000
102.054900 12826.300000
103.039000 165384.500000
106.065200 26566.500000
107.049200 404211.900000
108.044300 98514.100000
109.028500 489347.000000
109.064900 78585.200000
110.060200 13543.600000
111.044300 13100.600000
111.080600 48627.700000
112.039300 167825.000000
112.075700 252455.800000
113.059700 562615.900000
114.055000 172762.000000
115.039000 34174.800000
116.070700 53348.000000
120.080500 7586.000000
121.064900 310296.800000
121.990800 53598.200000
123.044000 68171.000000
124.075800 1218452.500000
125.023500 27667.600000
125.059800 482398.600000
126.055000 1341485.400000
127.039000 4682177.500000
129.018100 7787.800000
130.050100 54750.800000
136.075800 44840.200000
137.059900 140719.000000
138.022000 82118.600000
138.091300 61771.500000
139.075400 131892.200000
140.001200 472872.900000
141.054500 28319.700000
142.086300 9685.700000
143.070400 175806.200000
144.065600 339928.300000
145.049600 81882.600000
148.006200 14173.600000
148.075600 49684.500000
148.990600 58282.400000
149.059800 332476.200000
149.985800 10833.600000
154.086300 16126.100000
157.086100 35977.700000
161.985700 30365.100000
164.001200 202296.900000
164.985200 86693.700000
166.086400 131042.500000
167.070400 1933058.600000
176.001300 360948.000000
177.980700 65575.200000
178.017000 92518.200000
179.996200 70224.100000
184.096900 5497964.500000
185.081000 1719888.800000
188.001300 135861.300000
188.985300 953681.900000
204.032700 485803.100000
206.011900 894290.600000
206.996100 147532.400000
222.043500 13365.700000
224.022500 846495.200000
246.043600 70686.800000
264.053800 928461.000000

>ms2
53.002200 6650.000000
53.038600 111770.700000
54.033800 16505.700000
55.017900 751030.600000
55.054300 77964.300000
56.049500 122158.300000
57.033500 866018.300000
57.069900 91123.200000
58.065100 30637.300000
59.049200 4681254.500000
60.044400 96318.800000
61.028400 254523.500000
65.038600 9795.400000
67.054200 40465.300000
68.049500 78207.700000
69.033500 736554.900000
70.028700 51617.900000
70.065200 97587.700000
71.012800 353584.400000
71.049100 206543.400000
72.044400 117063.000000
73.028400 305791.400000
74.060100 9403.600000
75.044100 11946.400000
79.054200 394016.000000
79.980100 119566.500000
80.049500 159590.500000
81.033500 1298572.500000
82.028700 48633.700000
82.065100 110966.800000
83.012800 70856.500000
83.049200 211690.900000
84.044400 467166.400000
85.028400 776834.500000
86.060000 111821.400000
87.007600 69311.500000
87.044100 60282.200000
91.054400 11442.500000
93.070000 61719.300000
94.065200 101576.400000
95.049200 789057.800000
96.044400 250529.500000
96.080800 106957.600000
97.028500 962637.900000
97.064900 212602.800000
97.990700 89152.600000
98.023700 187044.500000
98.060100 280184.100000
99.007700 999832.000000
99.044100 996271.500000
100.039200 16421.900000
101.023400 281363.200000
101.059800 125375.800000
102.055000 16056.100000
103.038900 86501.800000
105.044800 9487.000000
106.065100 14635.800000
107.049200 202124.900000
108.044400 116078.600000
109.028500 756147.900000
109.064900 81295.600000
110.060100 44113.200000
111.044100 36024.500000
111.067900 14279.400000
111.080400 23985.600000
112.039300 169513.000000
112.075700 316693.100000
113.059700 306727.100000
114.055000 237400.200000
115.039000 24579.400000
116.070700 12255.100000
120.080800 12115.000000
121.064900 190637.100000
121.990700 65164.100000
123.044100 167805.500000
124.075800 453491.400000
125.059800 264505.100000
126.055000 798260.900000
127.039000 2107403.200000
129.018100 10411.700000
130.050000 40101.800000
130.979900 12030.500000
136.075900 39074.900000
137.059800 103467.600000
138.022000 11646.300000
138.091500 45434.300000
139.075500 43352.900000
140.001300 160682.400000
141.054800 14902.900000
142.086400 8423.500000
143.070400 55513.100000
144.065600 105327.600000
145.049700 14742.900000
148.006400 8980.900000
148.990400 204186.800000
149.059800 214258.800000
149.985400 9499.300000
161.985600 32831.700000
164.001300 137302.500000
164.985300 137228.300000
166.086500 52797.200000
167.070400 590779.600000
176.001200 155731.900000
177.980600 35318.000000
178.017000 11723.700000
179.996300 78027.300000
184.097000 791575.100000
185.081000 298747.800000
188.001300 73517.700000
188.985300 596311.600000
204.032700 85123.400000
206.012100 127151.900000
206.995800 40526.300000
224.022700 62953.600000
246.043700 9236.300000

>ms2
53.002200 49987.100000
53.038600 279156.600000
54.033900 30421.600000
55.017900 800167.200000
55.054300 95842.000000
56.049500 224276.400000
57.033500 826611.100000
57.070000 64069.300000
58.028800 9935.100000
58.065100 25040.100000
59.049200 4634777.500000
60.044400 77980.800000
61.028400 244325.800000
65.038600 10327.200000
67.054300 110984.700000
68.049500 138253.500000
69.033500 948754.600000
70.028700 63975.400000
70.065100 109652.900000
71.012800 308266.500000
71.049100 199046.900000
72.044400 82246.900000
73.028400 352525.700000
74.060100 11429.700000
75.044100 9556.900000
77.038600 14656.900000
79.054200 279618.800000
79.980100 327971.900000
80.049500 200930.900000
81.033500 1920572.100000
82.028800 61534.000000
82.065200 73505.000000
83.012800 115352.400000
83.049100 187571.600000
84.044400 268201.000000
84.080800 15709.100000
85.028400 631586.900000
86.060100 26732.400000
87.007800 50218.600000
87.044000 62855.000000
91.054300 37677.000000
93.069900 43014.100000
94.065300 92135.500000
95.049200 779778.100000
96.044400 174453.100000
96.057000 12527.700000
96.080900 65855.400000
97.028500 811916.800000
97.064900 112097.500000
97.990700 39887.500000
98.023700 135423.000000
98.060100 142571.500000
99.007700 494291.000000
99.044100 451209.500000
100.039400 24473.700000
101.023400 175353.100000
101.059700 25997.600000
102.055000 9072.700000
103.039100 28497.600000
105.044800 23736.000000
106.065200 13737.500000
107.049200 57646.800000
108.044500 67869.600000
108.057000 14680.000000
109.028500 427666.700000
109.064800 56068.900000
110.060000 7596.500000
111.044100 6463.300000
111.067900 43781.900000
112.039400 62448.000000
112.075700 173433.700000
113.059700 91920.200000
114.055000 142821.500000
115.039100 13407.800000
121.064900 77412.600000
121.990800 46684.700000
123.044100 152583.700000
124.051900 57272.700000
124.075800 127557.500000
125.023600 7543.100000
125.059800 128980.300000
126.055000 193356.600000
127.039100 507293.900000
130.050100 8955.500000
130.980000 37603.100000
136.075600 6903.400000
137.059800 37226.200000
138.091300 7772.500000
140.001100 12796.000000
143.070100 10444.800000
144.065600 25809.100000
145.049300 7939.900000
148.990400 113713.400000
149.059800 111959.900000
164.001400 48246.900000
164.985200 93785.600000
167.070400 109400.300000
176.001300 13469.100000
179.995800 10035.300000
184.096900 65033.300000
185.080800 8238.800000
188.985300 126462.600000

>ms2
51.022900 11311.100000
53.002200 67897.200000
53.038600 529504.200000
53.997500 13001.500000
54.033800 57311.300000
55.017900 800338.800000
55.054300 68502.000000
56.049500 281055.700000
57.033500 655789.400000
57.069900 46786.300000
58.065200 27187.200000
59.049200 4026706.800000
60.044400 49299.300000
61.028400 187229.900000
65.038700 38815.100000
67.054300 162240.800000
68.049500 133430.600000
69.033500 884298.400000
70.028700 43261.900000
70.065100 102226.800000
71.012800 232363.000000
71.049200 119137.300000
72.044400 67513.400000
73.028400 295059.400000
77.038600 24639.800000
79.054200 208745.800000
79.980100 573677.200000
80.049400 126281.400000
81.033500 1704893.000000
82.028800 58040.600000
82.065100 38186.400000
83.012800 74999.500000
83.049200 59784.200000
84.044400 122612.200000
84.080800 7292.400000
85.028400 407352.900000
87.007800 50701.800000
87.044200 38273.500000
91.054300 56421.200000
93.069900 11374.300000
94.065300 67945.500000
95.049200 631807.000000
96.044400 112054.700000
96.057100 12864.000000
96.080800 31551.500000
97.028500 406132.400000
97.064800 49806.000000
98.023700 47249.200000
98.036200 7741.100000
98.060200 59474.300000
99.007700 108340.300000
99.044100 184654.400000
100.039500 7419.400000
101.023300 72415.000000
101.059900 6716.400000
103.038700 7270.500000
105.044700 60437.100000
106.065200 6053.900000
107.049200 31749.100000
108.044400 27768.800000
108.056900 15538.100000
109.028500 165568.500000
109.064900 29840.100000
110.060100 9761.200000
111.043900 6933.400000
111.068000 25816.600000
112.039500 12322.500000
112.075700 55874.500000
114.055000 47120.600000
115.039100 10461.800000
121.064800 42964.600000
121.990700 12741.500000
123.044100 78710.500000
124.051700 10864.500000
124.076000 21579.800000
125.023300 7487.500000
125.059800 47905.500000
126.055000 27253.900000
127.039000 109746.600000
130.979800 14178.500000
137.059500 6623.700000
148.990500 14073.400000
149.059700 31885.600000
164.985400 15157.400000
188.985300 11875.900000

>ms2
51.023000 39872.000000
53.002200 72812.500000
53.038600 651534.800000
53.997500 13765.700000
54.033900 56580.800000
55.017900 638767.100000
55.054300 51637.300000
56.049500 230202.200000
57.033500 509500.500000
58.028900 6123.900000
58.065200 12983.800000
59.049200 3259632.000000
60.044400 36819.800000
61.028500 124826.400000
65.038600 61027.600000
67.054300 142835.200000
67.989300 25268.600000
68.049500 91568.300000
69.033500 771213.200000
70.028700 30633.600000
70.065100 49609.100000
71.012800 186567.400000
71.049200 71827.800000
72.044400 28864.000000
73.028400 179467.400000
77.038600 30798.100000
79.054300 108965.600000
79.980100 803244.600000
80.049500 97314.800000
81.033600 1184826.900000
82.028900 13057.600000
82.065200 46744.700000
83.012800 40831.900000
83.049100 32344.000000
84.044500 53283.500000
85.028500 291180.500000
87.044100 36289.900000
91.054300 41472.800000
93.070000 23699.900000
94.065200 39595.400000
95.049200 513144.400000
96.044400 65425.000000
96.057000 23679.000000
96.080900 8247.700000
97.028500 200678.300000
98.023800 10869.800000
98.036300 9010.500000
98.060100 23743.800000
99.007700 31711.400000
99.044100 68770.000000
101.023300 10075.000000
105.044700 53634.700000
108.044500 9990.400000
108.057300 8416.900000
109.028400 56745.100000
109.064800 9629.300000
112.075700 9143.000000
114.055200 11891.800000
123.044200 22919.400000
124.052100 10347.000000
124.075800 6616.400000
125.059700 9227.000000
127.039100 24689.600000
149.060100 7781.200000

>ms2
50.015100 9353.300000
51.023000 64048.400000
53.002300 78778.100000
53.038600 494862.800000
53.997500 7960.900000
54.033800 34981.500000
55.017900 308023.600000
56.049500 102671.700000
57.033500 171285.400000
59.049200 1448979.000000
61.028400 29454.500000
65.038700 52896.700000
67.054200 73462.100000
68.049400 37768.000000
69.033500 288642.300000
70.065100 6116.900000
71.012800 91158.900000
71.049100 7611.300000
73.028400 33523.800000
77.038500 23829.300000
79.054200 28641.400000
79.980100 911787.100000
81.033600 315604.200000
82.065100 5880.900000
85.028400 66937.900000
91.054300 9728.600000
95.049200 130453.400000
96.044400 12013.700000
97.028500 39585.600000
105.044700 27067.700000

>ms2
50.015100 10949.900000
51.023000 84294.600000
53.002200 86554.200000
53.038600 251592.500000
53.997500 28877.200000
54.033900 12019.800000
55.017900 125977.000000
56.049600 51016.100000
57.033500 57434.200000
59.049200 576822.900000
65.038600 26239.800000
67.054200 13327.700000
67.989300 11819.800000
68.049400 24095.800000
69.033500 99665.500000
71.012800 41206.000000
77.038500 11024.200000
79.980100 864538.100000
81.033500 64843.600000
85.028500 23331.500000
91.054300 7108.800000
95.049200 37127.100000
97.990500 5774.200000
105.044900 11988.200000

>ms2
50.015200 36676.200000
51.023000 69822.100000
53.002200 66710.400000
53.038600 101788.200000
53.997500 8064.800000
55.017900 57107.200000
56.049500 6297.600000
57.033600 10303.800000
59.049200 144137.200000
65.038600 6565.500000
69.033500 25419.500000
71.012700 9574.200000
79.980100 372619.300000
81.033600 8308.800000
95.049200 6665.000000

