>compound EQ76987711
>parentmass 376.14739999999995
>ionization [M+H]+
>formula C21H23ClFNO2
>rt 408.000000
>profile orbitrap
#smiles_iso C1CN(CCC1(C2=CC=C(C=C2)Cl)O)CCCC(=O)C3=CC=C(C=C3)F
#smiles_can C1CN(CCC1(C2=CC=C(C=C2)Cl)O)CCCC(=O)C3=CC=C(C=C3)F
#inchikey LNEPOXFFQSENCJ-UHFFFAOYSA-N
#pubchem_id 3559
#mb_accession EQ356601,EQ356602,EQ356603,EQ356604,EQ356605,EQ356606,EQ356607,EQ356608,EQ356609

>ms2
123.024100 1914791.800000
165.070900 15898870.000000
358.137100 16722168.000000
376.147600 711945792.000000

>ms2
95.028700 1190525.600000
123.024000 28157550.000000
163.055200 907307.100000
165.071000 510307008.000000
194.073200 10108138.000000
194.097600 8547767.000000
206.097600 4136631.200000
212.083800 974960.100000
358.137000 86802600.000000
376.147600 208778192.000000

>ms2
56.049500 1394662.100000
75.022600 613264.600000
95.028900 2500518.800000
109.044800 2840180.800000
113.039700 602271.200000
123.024100 307368576.000000
135.060400 1416728.800000
147.060300 1618632.600000
163.055400 3811797.500000
165.071100 506841664.000000
194.073300 3335586.000000
194.097700 2210561.000000
196.088800 1044218.900000
206.097700 7758101.000000
358.137100 12784845.000000
376.147800 1910966.500000

>ms2
56.049500 923085.900000
71.029100 841230.500000
75.022800 1719987.600000
95.029000 3194961.000000
109.044800 4400493.500000
113.039700 5283170.500000
123.024000 632793472.000000
125.015300 778439.600000
135.060400 3065427.000000
147.060500 1169121.500000
163.055300 1824571.900000
165.071100 181069568.000000
173.051000 1261422.400000
206.073300 759337.400000
206.097700 3741280.200000

>ms2
50.015000 1143930.400000
71.029100 3148139.500000
74.014900 666057.100000
75.022900 4428972.000000
79.017800 1483224.900000
93.033500 1020511.200000
95.029100 5003049.000000
99.024100 973854.400000
109.044800 5138357.500000
113.039700 25581550.000000
115.054200 1118117.100000
123.024100 627552576.000000
123.034900 65610152.000000
125.015300 841791.700000
129.070200 660379.900000
135.060400 1399898.200000
147.060500 720237.100000
165.071100 32851988.000000
173.051100 986540.400000
206.097800 895477.900000

>ms2
50.015100 2234787.000000
51.022900 1270323.600000
53.002200 692926.400000
71.029200 7484932.000000
73.008400 605160.800000
74.015100 1422697.500000
75.022900 12246430.000000
79.017800 3173620.000000
93.033500 2676542.800000
95.029100 9142269.000000
97.044800 784593.000000
99.024100 2215162.500000
109.044900 4381701.000000
111.044100 928725.200000
112.031900 544549.700000
113.039700 56384164.000000
115.054300 1431735.600000
123.024100 400001088.000000
123.035100 137910576.000000
124.032300 1084204.900000
125.015500 799967.100000
129.070100 616982.700000
130.077800 446743.700000
133.044800 424040.700000
135.060500 481421.000000
137.015200 446276.000000
146.052700 622581.900000
165.071100 4037311.200000
173.051200 603164.300000

>ms2
50.015100 3255737.200000
51.022900 2001245.900000
53.002200 4300561.500000
55.017800 647420.500000
57.013500 326050.400000
65.038500 1107361.100000
69.013400 753301.600000
71.029100 17944846.000000
73.008400 1081255.800000
74.015100 12855657.000000
75.022900 93799240.000000
79.017800 5971133.500000
83.029100 1250675.100000
89.038600 550564.700000
93.033500 4766310.500000
95.029200 36929376.000000
97.044800 363293.000000
99.024100 3473233.000000
102.046400 517484.900000
109.044900 3963488.500000
111.044100 2521093.800000
112.032000 734105.700000
113.039700 125592648.000000
115.054300 1667273.000000
123.024200 124524328.000000
123.035200 259997984.000000
124.032400 2056771.000000
125.015500 696503.100000
128.061900 739682.000000
129.044700 473008.000000
129.069900 476601.200000
133.044700 460369.300000
146.052600 1306768.600000

>ms2
50.015100 2986333.800000
51.023000 1269911.800000
53.002200 7668490.500000
55.017900 404844.600000
57.013500 629703.700000
59.029200 443984.700000
61.007200 290729.200000
63.022900 698932.400000
65.038600 1749785.800000
69.013500 3453502.800000
71.029200 12134361.000000
73.008600 744577.600000
74.015100 46844124.000000
75.022900 233882960.000000
79.017800 3665395.000000
83.029100 2206059.800000
89.002200 470423.100000
89.038600 759897.000000
93.033600 2622204.200000
95.029200 44304236.000000
99.024100 2086283.600000
102.046200 594182.400000
109.044900 1942370.100000
111.044100 1897290.900000
112.031900 363851.100000
113.039700 81426384.000000
115.054300 1429154.500000
123.024200 16210988.000000
123.035300 148498784.000000
124.032400 1114928.500000
125.015400 292104.300000
128.062000 678535.100000
129.044700 433616.100000
133.044800 353932.000000
146.052700 852081.200000

>ms2
50.015100 1711585.500000
51.022900 539340.800000
53.002200 6407830.000000
57.013500 1252201.800000
59.029100 633999.800000
61.007200 790689.000000
62.015100 414639.100000
63.023000 1489526.400000
65.038600 1615635.100000
68.005700 574538.000000
69.013500 11774724.000000
71.029200 4905242.500000
74.015100 121732952.000000
75.022900 309847904.000000
76.030600 345844.300000
79.017800 1264458.000000
83.029200 1770096.500000
89.002200 987298.100000
89.038600 940453.600000
93.033600 1019479.100000
95.029200 27524738.000000
99.024200 773685.600000
102.046400 825111.500000
109.044900 620419.300000
111.044200 709533.800000
113.039700 30326780.000000
115.054200 1147692.000000
120.036900 324302.900000
123.035300 58613992.000000
124.032300 393923.200000
128.062200 598824.900000
146.052700 329388.100000

