>compound EQ77111930
>parentmass 152.01649999999998
>ionization [M+H]+
>formula C7H5NOS
>rt 384.000000
>profile orbitrap
#smiles_iso C1=CC=C2C(=C1)NC(=O)S2
#smiles_can C1=CC=C2C(=C1)NC(=O)S2
#inchikey YEDUAINPPJYDJZ-UHFFFAOYSA-N
#pubchem_id 13625
#mb_accession EQ337501,EQ337502,EQ337503,EQ337504,EQ337505,EQ337506,EQ337507,EQ337508,EQ337509

>ms2peaks
92.049500 2908179.800000
109.010600 677389.700000
124.021600 2744137.800000
152.016400 412860768.000000

>ms2peaks
92.049500 2220781.500000
109.010600 608048.100000
124.021600 2851700.000000
152.016400 396487104.000000

>ms2peaks
65.038400 718029.800000
80.049400 1226793.500000
92.049500 17203540.000000
97.010700 425327.200000
109.010700 4958327.000000
119.036600 2817119.500000
124.021600 20964896.000000
152.016400 397119200.000000

>ms2peaks
65.038600 4090947.000000
80.049400 11211231.000000
90.033800 1213608.900000
91.041700 322231.600000
92.049500 47392604.000000
97.010700 3196138.800000
109.010700 17716160.000000
119.036600 16925464.000000
124.021600 60270624.000000
134.005900 852326.800000
146.034600 322086.800000
152.016400 258759872.000000

>ms2peaks
53.038600 369749.900000
63.022800 269720.100000
65.038600 15744116.000000
68.979200 468925.200000
80.049400 38467376.000000
81.033600 368358.700000
90.033900 6393762.500000
91.041700 2389738.800000
92.049500 59018936.000000
97.010700 8060351.000000
108.002700 249911.500000
108.044500 178541.900000
109.010700 33465326.000000
119.036600 38515800.000000
124.021600 75493368.000000
134.005900 4038468.200000
136.039400 390551.400000
146.034800 915032.200000
151.008600 230512.900000
152.016400 129476728.000000

>ms2peaks
51.022800 194699.500000
53.038600 873915.900000
63.022900 1145537.000000
64.018100 106884.300000
64.030600 248994.100000
65.038600 32714400.000000
67.041600 97185.800000
68.979300 1297128.900000
78.046300 74145.300000
80.049400 66971628.000000
81.033500 678472.100000
82.995000 178918.000000
90.033900 13591170.000000
91.041700 10508066.000000
92.049500 40791060.000000
92.979300 91469.000000
97.010700 11801518.000000
106.028700 75858.600000
106.995000 925473.300000
108.002700 678823.800000
108.044300 386966.800000
109.010700 36957060.000000
110.018500 85998.800000
119.036600 43502976.000000
123.013800 194553.400000
124.021600 50573492.000000
132.998000 185338.100000
134.005900 5958605.000000
135.001300 87332.800000
136.039200 274650.700000
146.034900 605826.900000
150.000600 75012.400000
151.008700 95277.100000
152.016500 45171320.000000

>ms2peaks
50.015000 99339.000000
51.022900 102816.800000
52.018100 99134.100000
53.002200 534420.900000
53.038600 6198269.500000
54.046400 594958.200000
56.049500 187542.700000
62.015100 246489.600000
63.022900 9698871.000000
64.018200 2014407.600000
64.030700 2799960.500000
65.038600 59785964.000000
67.041700 622330.400000
67.989200 98948.900000
68.979300 6302270.500000
70.995000 81393.800000
77.038500 213815.000000
78.033800 216211.700000
78.046400 226447.100000
80.049400 79138512.000000
81.033500 1223904.900000
81.987200 91760.100000
82.994900 491557.500000
90.033900 24164840.000000
91.041700 27487790.000000
92.049500 10973641.000000
92.979300 537885.400000
96.002800 612323.800000
96.044300 500098.000000
97.010700 11459696.000000
105.044800 97926.800000
106.028600 82947.900000
106.995000 2685768.500000
108.002800 1917445.600000
108.044300 569405.900000
109.010700 22527002.000000
110.018600 88434.600000
119.036600 21433258.000000
122.006000 104514.400000
123.013700 287393.200000
124.021600 11928977.000000
132.998000 619666.600000
134.005900 4753951.500000
135.001100 211390.500000
146.034700 171481.400000
150.000800 85143.300000
152.016500 4616479.500000

>ms2peaks
50.015100 406230.300000
51.023000 330844.900000
52.018200 391066.700000
53.002200 1177751.500000
53.038600 10880466.000000
53.997500 334946.000000
54.010000 88841.700000
54.033800 192840.200000
54.046400 1094132.900000
55.017900 182705.800000
56.049500 286406.100000
57.987200 226304.300000
58.995000 74023.700000
59.966500 82207.500000
61.007300 224217.400000
62.015100 886680.900000
63.023000 20076636.000000
64.018200 6463731.500000
64.030800 7339162.500000
65.038600 50814604.000000
66.046400 172267.500000
67.041700 741557.500000
67.989300 359392.200000
68.979300 11736767.000000
69.987100 203208.100000
70.995000 369960.300000
74.015100 53059.100000
75.022900 98645.700000
76.018100 83684.000000
76.030700 57180.700000
77.038500 421267.400000
78.033800 175854.100000
78.046400 159889.800000
79.041600 71283.900000
80.049400 49844972.000000
80.979400 69854.000000
81.033500 994845.900000
81.987200 746515.500000
82.995000 643201.100000
90.033900 16950686.000000
91.041700 20284204.000000
92.037000 185656.800000
92.049500 1632239.200000
92.979400 672437.200000
93.974700 72353.000000
94.995100 242179.500000
96.002800 889294.100000
96.044400 640529.100000
97.010700 5590141.500000
105.044700 244763.100000
106.028700 54274.600000
106.995000 1667142.000000
108.002800 2542475.000000
108.044400 211246.000000
109.010700 6513952.000000
119.036600 4554036.500000
122.005800 188790.000000
123.013700 215649.900000
124.021600 1597507.500000
132.998100 712670.600000
134.006000 1160864.900000
152.016500 353246.700000

>ms2peaks
50.015100 912185.400000
51.023000 933289.100000
52.018200 820504.300000
53.002200 2265366.000000
53.038600 12422490.000000
53.997500 370635.200000
54.010000 80870.000000
54.033900 338454.100000
54.046400 1019292.600000
55.017900 499769.000000
56.049500 211860.900000
57.987200 429799.900000
58.995000 170878.000000
59.966500 185192.000000
61.007300 362710.600000
62.015100 2264153.500000
63.023000 23614460.000000
64.018200 10225319.000000
64.030800 6848879.000000
65.038600 27811904.000000
66.046400 159301.100000
67.041700 609533.800000
67.989300 455992.000000
68.979400 16530747.000000
69.987200 536473.600000
70.995000 521994.400000
74.015100 271323.900000
75.022900 192850.900000
76.018200 183701.200000
76.030800 81344.800000
77.038500 472614.600000
78.033800 198773.800000
78.046400 164923.800000
79.041600 66049.000000
80.049500 22435006.000000
80.979300 444731.100000
81.033500 560619.400000
81.987200 1236175.200000
82.995000 504829.600000
90.033900 6306314.000000
91.041700 7563604.500000
92.037100 80935.500000
92.049500 177555.600000
92.979400 1179805.500000
93.974600 215458.800000
94.995000 462201.000000
96.002900 516395.600000
96.044300 280994.600000
97.010700 1701896.200000
105.044900 274617.900000
106.995000 585891.300000
108.002800 1805354.000000
108.044400 157048.200000
109.010700 1353873.200000
119.036600 630900.900000
122.005900 169271.700000
124.021800 56277.400000
132.998000 357180.300000
134.005900 88853.300000

