>compound EQ79296268
>parentmass 212.11819999999994
>ionization [M+H]+
>formula C13H13N3
>rt 162.000000
>profile orbitrap
#smiles_iso C1C2CNCC1C3=CC4=NC=CN=C4C=C23
#smiles_can C1C2CNCC1C3=CC4=NC=CN=C4C=C23
#inchikey JQSHBVHOMNKWFT-UHFFFAOYSA-N
#pubchem_id 170361
#mb_accession EQ363601,EQ363602,EQ363603,EQ363604,EQ363605,EQ363606,EQ363607,EQ363608,EQ363609

>ms2peaks
169.076000 7244700.000000
183.091300 2714190.200000
212.118200 923769152.000000

>ms2peaks
169.076000 28355730.000000
181.076000 942340.800000
183.091700 12175949.000000
195.091200 2299747.200000
212.118200 897882816.000000

>ms2peaks
168.068000 2324286.500000
168.080400 673137.100000
169.076000 147745664.000000
170.084100 941079.100000
171.091500 2997929.500000
180.068300 891388.100000
181.076000 4576468.000000
183.091700 78046328.000000
195.091700 20438598.000000
212.118200 594841728.000000

>ms2peaks
68.049500 222451.200000
115.054000 246377.500000
141.069800 1242477.500000
143.060400 636966.300000
154.065200 412416.600000
156.080600 963301.100000
157.076000 467267.300000
159.080500 632964.600000
167.060100 638425.100000
167.072500 223149.100000
168.068300 23998240.000000
168.080300 7354382.500000
169.076000 194341408.000000
170.084000 2542740.800000
171.091700 7601785.500000
180.068300 6800284.000000
181.076000 8521954.000000
182.084100 1730220.200000
183.091700 134948064.000000
193.075700 1009208.200000
194.084000 953513.100000
195.091800 49952264.000000
212.118300 201653680.000000

>ms2peaks
68.049400 598692.800000
114.046300 213453.900000
115.054200 3611682.200000
118.052400 184031.000000
126.046200 764703.900000
128.049400 519624.800000
128.062000 486073.000000
129.069800 1259582.200000
140.049500 398881.100000
141.069900 8066139.000000
142.065300 1683147.000000
143.060400 3195803.000000
145.075900 655024.200000
146.060000 160764.800000
147.080300 171079.900000
153.057300 1671179.900000
154.065200 2075268.900000
155.060500 1340922.800000
155.072800 693309.100000
156.068400 232663.800000
156.080800 2773051.200000
157.076000 1809637.900000
159.080500 3435591.800000
160.075800 398883.600000
161.070800 220303.100000
166.065200 1269414.800000
167.060500 1774179.200000
167.072900 2280392.000000
168.068300 78909832.000000
169.076000 152283216.000000
170.083900 3147943.200000
171.091600 8783934.000000
179.060600 812775.400000
180.068200 21648346.000000
181.076100 12374269.000000
182.084000 6538028.500000
183.091700 107824920.000000
185.071000 181075.200000
193.076100 2122752.000000
194.084000 3581302.200000
195.091700 47353140.000000
212.118300 42109592.000000

>ms2peaks
63.022700 157028.100000
65.038500 144662.500000
68.049500 169272.500000
90.046500 411003.100000
91.054300 618541.300000
103.054300 203462.000000
114.046200 1257514.800000
115.054200 15298931.000000
116.049500 1107316.900000
117.069900 507923.900000
118.052500 436839.800000
118.065000 174169.300000
126.046400 5130438.500000
127.054100 430922.200000
128.049500 1287616.200000
128.062000 2706617.200000
129.057200 531537.400000
129.069900 2904578.000000
130.065300 684086.600000
132.056900 195325.200000
133.064800 650624.600000
139.054100 199669.000000
140.049600 1564954.200000
140.062000 490162.800000
141.057600 2931255.000000
141.069900 20148322.000000
142.065200 4234797.000000
143.060400 8251078.000000
145.064900 1173683.900000
145.076000 180433.200000
146.060000 659211.400000
147.080500 982349.500000
152.049600 132844.900000
153.057400 4425591.500000
154.065200 3443925.200000
155.060400 3736801.000000
155.073000 1141244.200000
156.068400 832837.200000
156.080800 3925976.500000
157.076100 2682228.800000
159.080500 5859327.000000
160.075600 409234.300000
161.071000 1364947.000000
166.065100 2208573.000000
167.060600 2763665.000000
167.072900 4332545.000000
168.068300 125319112.000000
168.080700 13764910.000000
169.076000 97796208.000000
170.060200 526968.200000
170.083800 2005496.600000
171.091600 7471029.000000
179.060400 2277304.500000
180.068200 31798180.000000
181.076000 13843646.000000
182.083900 11461147.000000
183.091700 50810876.000000
185.070800 132601.100000
192.068100 187974.600000
193.076100 4821397.500000
194.083900 5369442.000000
195.091800 22676236.000000
196.087400 172754.700000
212.118300 5717542.000000

>ms2peaks
50.015000 177625.300000
51.022900 177030.400000
53.038600 170166.200000
62.014900 169956.400000
63.022700 1007703.900000
65.038600 1494333.600000
68.049500 147061.500000
75.022800 163118.600000
76.030800 177785.400000
77.038500 396775.200000
88.030800 493491.800000
89.038600 3181045.800000
90.046500 4134737.500000
91.054300 3649515.800000
92.049500 174960.400000
95.049200 549493.200000
102.033800 472700.100000
102.046500 810789.400000
103.054200 1681247.500000
105.044900 137998.100000
105.069900 159079.600000
113.038500 1671863.200000
114.046500 13426984.000000
115.054300 81279016.000000
116.049500 5236162.500000
117.033600 578399.500000
117.044800 618171.800000
117.057300 762962.300000
117.070000 134514.600000
118.041300 2942576.000000
118.052600 936412.600000
119.049300 161850.600000
120.044500 380663.800000
125.038600 438604.300000
126.046500 40439364.000000
127.041800 211707.100000
127.054300 2937459.000000
128.049500 4181433.000000
128.062100 13531627.000000
129.044700 915511.800000
129.057200 990097.000000
129.069900 3576284.800000
130.040600 121463.400000
130.065200 744662.800000
131.049600 126070.200000
131.060400 150529.100000
132.057000 6241529.000000
133.064700 1325241.200000
134.060100 737951.600000
135.055400 132798.500000
139.054300 3649694.200000
140.049500 7954341.000000
140.062000 3319584.200000
141.057400 15318727.000000
141.069900 19959720.000000
142.052800 2543150.800000
142.065200 4173237.500000
143.060500 12938242.000000
144.056800 175357.300000
145.064900 3141345.500000
146.060100 1347285.400000
147.080600 624300.600000
152.049500 1063526.400000
153.057400 10400283.000000
154.065200 4940416.500000
155.060400 10137268.000000
155.072600 889207.600000
156.068300 1389230.000000
156.080800 1185259.200000
157.052400 604486.300000
157.076100 2203334.500000
159.080500 2941496.000000
160.075900 186069.000000
161.071000 1318564.100000
166.065300 3177620.500000
167.060600 5330899.500000
167.072900 3870504.500000
168.068300 108530752.000000
169.076100 32208468.000000
170.060200 1251318.800000
170.083700 730575.600000
171.091800 2107559.500000
179.060500 2966218.500000
180.055500 915507.100000
180.068200 15656433.000000
181.076100 15307953.000000
182.071300 428003.900000
182.083900 7433960.500000
183.091800 3770956.200000
185.071100 170903.900000
192.068100 1771991.100000
193.076200 7920335.000000
194.084000 2803955.500000
195.091800 1509987.000000

>ms2peaks
50.015000 1108127.800000
51.022900 878083.400000
52.018300 103784.200000
53.002200 154821.200000
53.038600 1156252.100000
61.007200 103904.500000
62.015100 1140249.200000
63.022900 5070003.500000
64.018000 136921.200000
64.030600 181724.800000
65.038600 7132503.000000
66.046400 199185.500000
74.015000 1253201.500000
75.022900 2369726.200000
76.018100 134588.200000
76.030700 2151708.200000
77.038500 2280765.000000
78.033900 146194.700000
78.046400 1095575.900000
86.015000 427696.300000
87.022900 625020.200000
88.030700 4072956.800000
89.038600 17827980.000000
90.033800 1105455.100000
90.046400 9203858.000000
91.054300 7416285.000000
92.025600 797411.600000
92.049400 216215.600000
95.049200 3150531.800000
98.015100 498886.500000
99.022900 943284.900000
100.030700 796261.300000
101.038500 691777.200000
102.033900 1003618.900000
102.046400 3504182.800000
103.041600 682869.200000
103.054200 1638396.200000
104.049400 146623.500000
105.044800 2004902.000000
113.038600 8254092.000000
114.046500 28685246.000000
115.054300 102486352.000000
116.049500 6918002.000000
117.033500 1310989.200000
117.044700 1102085.100000
117.057300 960491.200000
117.069700 204690.200000
118.041300 5839902.000000
119.049100 928716.500000
120.044400 483896.500000
125.038700 1868829.800000
126.046400 66708340.000000
127.041600 1029242.800000
127.054200 5262038.000000
128.049500 4236362.500000
128.062000 18203806.000000
129.044700 3623660.500000
129.057400 732722.200000
129.069700 820212.000000
130.040200 199111.900000
130.065100 856359.700000
131.049200 227292.900000
131.060300 168061.500000
132.057000 13363582.000000
133.052200 206656.100000
133.064700 514748.000000
134.060100 750922.800000
135.055200 388553.200000
138.033900 147791.800000
139.054300 12191733.000000
140.049500 18550652.000000
140.061800 2923104.200000
141.057300 13606158.000000
141.069700 4675748.500000
142.052600 3989107.200000
142.065100 1256149.200000
143.060500 6129570.000000
144.056900 119409.100000
145.064800 4481483.000000
146.060000 1552043.100000
151.041800 150294.400000
152.049500 1482296.100000
153.057300 5527674.500000
154.065100 4747688.500000
155.060400 13356345.000000
156.068100 711283.400000
157.052300 639446.600000
157.075800 210503.600000
159.080400 149251.100000
161.070900 471903.800000
164.049500 369927.900000
165.057400 570708.600000
166.052600 469384.000000
166.065100 2906938.800000
167.060400 6792896.000000
167.072200 1328613.800000
168.068200 32181024.000000
169.076000 7187149.000000
170.060100 1692581.100000
170.083900 205513.000000
171.091300 400460.500000
179.060500 1281589.800000
180.056000 795192.000000
180.068300 2044982.900000
181.076000 8934671.000000
182.071800 218245.500000
182.083800 1387530.500000
183.091600 162859.100000
185.070900 231847.100000
192.068200 3649499.000000
193.076200 4305805.500000
194.083700 180757.300000

>ms2peaks
50.015100 3454388.800000
51.023000 2327023.800000
52.018200 195740.000000
52.030800 172329.400000
53.002200 458078.500000
53.038600 1959612.000000
61.007200 769025.000000
62.015100 4899682.000000
63.022900 18349230.000000
64.018200 520101.200000
64.030700 665391.800000
65.038600 15718319.000000
66.046400 624629.300000
74.015100 7158059.500000
75.022900 8076971.500000
76.018100 679550.100000
76.030700 8656346.000000
77.038500 4169492.800000
78.033800 207413.400000
78.046400 2238927.000000
86.015100 2063623.600000
87.022900 3997291.000000
88.030800 15345090.000000
89.038600 35581520.000000
90.033900 1552937.900000
90.046400 6899182.500000
91.054300 6943686.500000
92.025700 635967.000000
92.049400 102300.200000
95.049200 6221602.500000
98.015100 3438551.000000
99.022900 2143439.500000
100.030700 2989831.800000
101.038600 1396204.100000
102.033800 1250409.000000
102.046400 6934515.000000
103.041700 514088.400000
103.054200 1321076.200000
104.049300 138967.600000
105.044800 3775534.200000
113.038600 24395652.000000
114.033900 3638573.000000
114.046400 23225718.000000
115.054300 69411288.000000
116.049500 3205291.000000
117.033300 693664.300000
117.044700 815985.600000
117.057300 670787.800000
118.041300 4353760.500000
118.052400 405130.000000
119.049200 1163638.000000
120.044500 366032.500000
125.038700 2261291.200000
126.046400 54099952.000000
127.041600 1121621.000000
127.054200 5998944.000000
128.049500 2860669.200000
128.062000 12910662.000000
129.044700 4191848.200000
130.040100 384761.000000
131.048900 171082.800000
132.057000 9824660.000000
133.052100 133060.800000
134.060300 448465.400000
135.055500 192234.900000
138.033800 424077.700000
139.054300 17272118.000000
140.049500 16922246.000000
141.057300 4201731.000000
141.070000 486673.600000
142.052600 2179710.500000
142.065500 471235.000000
143.060400 1569257.600000
145.064800 3173071.800000
146.060100 769430.500000
151.041800 539230.900000
152.049600 743669.800000
153.057300 1602136.500000
154.065100 1879204.100000
155.060400 9511129.000000
156.068000 103659.100000
157.052100 415305.500000
164.049500 1116973.800000
165.057400 971745.200000
166.052400 524087.700000
166.065100 1282142.200000
167.060400 3533753.200000
168.068200 6460165.000000
169.076200 1264395.200000
170.059900 917781.900000
179.060300 527697.000000
180.055500 505337.900000
180.068400 433974.900000
181.076000 2370756.800000
185.071000 164068.300000
192.068200 2831092.200000
193.076100 651722.900000

