>compound EQ79530697
>parentmass 330.9093
>ionization [M+H]+
>formula C10H6Cl4O4
>rt 804.000000
>profile orbitrap
#smiles_iso COC(=O)C1=C(C(=C(C(=C1Cl)Cl)C(=O)OC)Cl)Cl
#smiles_can COC(=O)C1=C(C(=C(C(=C1Cl)Cl)C(=O)OC)Cl)Cl
#inchikey NPOJQCVWMSKXDN-UHFFFAOYSA-N
#pubchem_id 2943
#mb_accession EQ370101,EQ370102,EQ370103,EQ370104,EQ370105,EQ370106,EQ370107,EQ370108,EQ370109

>ms2
80.973600 529.100000
98.984300 165414.500000
240.877900 4142.200000
271.895600 1535.900000
286.919600 6009.400000
298.883300 48018.500000
330.909700 353354.300000

>ms2
79.054200 772.700000
98.984300 754229.100000
192.937700 944.500000
220.896000 2282.700000
227.906800 3271.000000
239.914600 801.900000
240.877800 26997.500000
254.893500 834.700000
270.888100 3788.100000
271.895600 3201.200000
286.919700 5746.700000
298.883500 306807.700000
330.909600 40896.600000

>ms2
55.054300 2741.800000
67.054300 2657.000000
77.015200 881.800000
79.054200 2051.500000
91.054300 1452.200000
98.984300 812187.600000
172.992300 1462.900000
192.937600 2167.200000
220.896100 40144.100000
227.906600 870.500000
240.877900 38417.100000
240.888500 1924.600000
254.893600 1790.300000
255.864800 11948.700000
270.888400 59205.200000
298.883500 192182.600000

>ms2
55.054300 4107.600000
67.054300 4279.500000
77.015300 882.100000
79.054300 3496.400000
83.049300 1886.400000
91.054400 3215.700000
98.984300 784500.600000
152.906400 2877.800000
156.960700 1825.300000
164.906100 2230.700000
178.921900 2205.700000
179.929700 9658.900000
190.922100 839.500000
191.929600 2320.000000
192.937800 1624.700000
206.917200 1501.100000
206.928200 1714.300000
212.882900 2484.300000
214.898400 2159.700000
220.896200 127292.100000
226.898400 1494.200000
227.870200 6071.300000
239.914700 835.700000
240.877900 32899.100000
240.889300 6746.900000
255.865000 31458.100000
270.888400 48546.400000
271.859900 3190.000000
284.867600 2453.100000
298.883400 29121.300000

>ms2
55.054300 5951.800000
67.054300 5570.400000
77.015300 852.200000
79.054300 4824.300000
83.049200 1770.300000
86.963300 2052.500000
91.054400 5158.300000
98.984300 756213.200000
102.958400 1709.300000
117.937200 3253.700000
140.906300 3615.400000
152.906200 7728.900000
156.960900 4566.800000
164.906200 18612.600000
166.921700 3244.200000
172.955800 889.300000
177.914300 1563.500000
178.921500 2603.100000
179.929700 10629.700000
190.922100 2005.800000
191.929900 1540.900000
192.937300 821.900000
193.908900 800.400000
199.875100 1602.200000
206.917100 1464.200000
206.928300 810.000000
212.883000 5687.800000
214.898700 841.600000
220.896200 118123.300000
227.870200 16519.800000
240.877700 11478.100000
240.889300 10201.500000
255.865100 17758.700000
270.888500 10096.900000
271.860300 3376.400000
298.883500 1829.800000

>ms2
53.002200 1873.200000
55.054300 5607.700000
62.963200 801.900000
65.038700 801.000000
67.054300 5062.700000
79.054300 4634.400000
83.049200 911.200000
86.963400 2065.000000
91.054300 5751.800000
95.049200 1890.000000
98.984300 713747.400000
102.958200 838.100000
106.945100 2486.300000
117.937300 5267.600000
129.937300 1476.700000
130.945100 2891.700000
140.906100 4904.300000
141.937300 4072.400000
142.945300 1771.800000
152.906200 13363.300000
156.960900 8098.700000
164.906200 74228.600000
166.921700 4298.600000
172.967300 1972.000000
174.935100 2355.300000
174.979700 753.600000
176.906100 2177.200000
177.914100 4354.200000
178.921700 925.500000
179.929700 6937.100000
190.922000 1714.700000
193.908800 1443.100000
199.875200 1727.800000
204.901300 1449.300000
211.875000 2072.900000
212.882800 5454.000000
220.896100 65766.400000
227.870000 14888.900000
240.877700 3072.300000
240.889100 7903.100000
255.864800 5031.400000
270.888300 1625.500000
271.860000 1523.800000

>ms2
53.002200 1652.000000
53.038700 867.900000
55.054300 3275.100000
62.963100 1932.300000
65.038600 2080.000000
67.054300 1997.600000
72.983900 867.900000
74.015200 769.600000
79.054300 2802.400000
80.973600 1984.300000
82.945000 1478.600000
86.963300 2150.400000
91.054300 4956.300000
94.968400 786.600000
95.049200 2157.600000
96.984200 651.200000
98.984300 613740.400000
105.044800 1930.000000
106.945100 2905.100000
107.976200 1880.200000
108.983900 3754.600000
110.963300 1604.100000
115.054500 1416.800000
117.937400 1803.600000
129.937300 26216.500000
130.945200 4880.400000
140.906000 2988.300000
141.937300 19653.600000
142.945100 6081.100000
152.906000 3381.500000
156.960800 5942.400000
164.906200 133597.600000
166.921700 1475.600000
172.966900 1919.000000
174.935100 1387.300000
176.906100 5018.100000
177.913900 6219.000000
179.929600 658.800000
220.895800 3771.100000
227.869600 751.800000
240.889100 687.700000

>ms2
51.023100 576.900000
53.002200 2087.000000
53.038700 634.600000
55.054300 1503.500000
62.963100 5796.200000
65.038700 2254.400000
67.054300 770.500000
72.984000 3020.000000
74.015300 2496.800000
79.054300 873.500000
80.973700 2434.100000
82.945000 4459.600000
86.963200 1794.700000
91.054400 2812.100000
94.968400 4282.200000
95.049300 2508.200000
95.976200 2637.700000
96.984100 790.500000
98.984300 547834.800000
105.044900 592.800000
105.937100 593.500000
106.945100 3836.500000
107.976200 6895.000000
108.984000 3067.600000
110.963200 2048.700000
115.054300 1671.100000
117.937300 1566.000000
129.937300 78302.600000
130.945200 5058.400000
140.906100 2254.000000
141.937300 29713.700000
142.945100 7689.900000
144.960800 628.500000
156.961200 1435.000000
164.906200 53142.800000
176.906200 1479.200000
177.913900 1746.500000

>ms2
51.023000 1771.200000
53.002300 2320.900000
62.963100 8443.300000
64.978700 1479.600000
65.038600 1657.000000
70.968300 489.300000
72.984000 2906.500000
74.015200 4224.100000
75.023000 1340.900000
80.973700 2832.200000
82.945100 2573.500000
83.976200 2184.800000
86.963400 1445.300000
87.023200 655.800000
91.054300 584.400000
94.968400 21686.000000
95.976200 4705.400000
96.984000 3124.700000
98.984300 436803.400000
105.937200 781.400000
106.945100 2463.800000
107.976200 13388.400000
108.984000 747.000000
110.963400 1910.400000
112.999900 440.900000
115.054300 1433.700000
117.937500 2765.700000
122.963300 1742.600000
129.937300 76896.200000
130.945200 3113.300000
140.906000 2113.100000
141.937300 30835.000000
142.945100 2724.000000
156.960700 449.100000
164.906200 11409.800000

