>compound EQ80171506
>parentmass 284.1194
>ionization [M+H]+
>formula C16H14FN3O
>rt 294.000000
>profile orbitrap
#smiles_iso CN1C(=O)CN=C(C2=C1C=CC(=C2)N)C3=CC=CC=C3F
#smiles_can CN1C(=O)CN=C(C2=C1C=CC(=C2)N)C3=CC=CC=C3F
#inchikey LTCDLGUFORGHGY-UHFFFAOYSA-N
#pubchem_id 92294
#mb_accession EQ371901,EQ371902,EQ371903,EQ371904,EQ371905,EQ371906,EQ371907,EQ371908,EQ371909

>ms2
284.118700 927893952.000000

>ms2
123.023800 3646017.000000
135.091400 13593191.000000
148.062700 3549929.000000
161.070400 1955395.100000
163.086300 12783380.000000
226.089400 1734848.800000
227.097400 8399446.000000
236.117600 3237752.500000
256.124000 18064250.000000
264.112600 12304280.000000
284.118700 760631424.000000

>ms2
93.057100 507877.600000
94.064900 1506464.600000
106.064900 1922496.600000
107.072800 924334.900000
108.080600 842228.800000
109.044600 1098463.500000
120.044300 384959.300000
120.068000 470430.600000
121.075900 1812209.900000
122.039900 2293038.000000
123.023800 18471542.000000
124.055600 346284.800000
131.060200 3980271.500000
132.044200 1961555.500000
132.067800 598720.800000
133.075800 2345331.000000
134.039800 519826.800000
135.091400 149487456.000000
136.055500 496833.800000
145.075700 736706.100000
146.059800 5816799.500000
146.070900 1388907.000000
146.083500 386044.400000
147.078900 2528672.800000
148.062800 35164016.000000
149.070700 451556.900000
160.086600 2258962.200000
161.070700 15286432.000000
161.094300 2352167.500000
162.034800 841123.400000
163.086300 35075212.000000
180.080400 1219024.400000
183.059900 410834.600000
195.091200 2575704.800000
198.070400 664969.100000
200.086700 956050.600000
206.083700 994116.000000
207.091400 11283223.000000
208.099200 6002334.000000
209.107200 1846593.200000
210.071100 3139401.000000
211.078900 2217679.200000
214.066100 367066.200000
215.097600 8119703.000000
219.091200 1865432.000000
220.086300 488504.200000
220.099000 371772.800000
221.094600 680488.300000
225.081900 4321009.000000
226.089700 27045678.000000
227.097600 85789776.000000
229.113200 3433436.000000
234.102500 591464.700000
236.117900 37185564.000000
237.101800 551201.200000
239.097400 2912531.200000
240.092700 10452436.000000
240.105300 2474101.500000
241.100600 9416676.000000
242.108300 1481973.500000
247.086500 465770.800000
249.089400 552352.200000
253.076600 535924.600000
254.108300 12140953.000000
255.092600 1971070.200000
255.116100 2102948.000000
256.124000 75405280.000000
257.107800 508186.300000
264.112700 30959714.000000
268.087300 524156.200000
269.095500 3101226.200000
284.118800 320482496.000000

>ms2
58.028600 1045315.900000
68.049300 570546.200000
77.038200 360423.500000
79.054000 1083102.600000
80.049300 723835.600000
92.049300 715521.400000
93.057200 6054120.000000
94.065000 8746579.000000
95.060200 554528.300000
96.067900 493704.000000
104.049200 2770998.200000
105.044600 376175.600000
105.057100 1361604.400000
106.064900 10086198.000000
107.060100 568243.900000
107.072700 10648598.000000
108.080600 8521424.000000
109.044700 4059949.000000
116.049400 943963.700000
117.057200 1202463.000000
118.064900 2187057.500000
119.060100 1884553.200000
119.072700 480846.300000
120.044300 947631.900000
120.068000 5403667.000000
121.075800 5176150.000000
122.039900 4871522.500000
123.023800 10712982.000000
124.055400 548375.100000
130.039900 802296.000000
131.060200 15848112.000000
132.044200 3139833.800000
132.068000 4470357.500000
133.075800 8541985.000000
134.039800 2396821.200000
134.059900 1434339.900000
134.083500 818610.200000
135.091400 200126352.000000
136.055600 1433128.400000
143.060200 682887.200000
144.055500 427273.400000
145.075800 1079508.200000
146.059800 5420071.500000
146.071000 4994707.500000
146.083400 748261.900000
147.067600 483965.700000
147.078900 4167905.800000
148.062800 37151580.000000
149.070700 2348379.200000
153.069700 505212.800000
158.071100 2010053.200000
160.086600 5094135.500000
161.063500 1789080.200000
161.070600 13722063.000000
161.094400 2636302.500000
162.034900 714707.500000
162.078400 702588.500000
163.086300 9849234.000000
165.069600 472928.100000
166.064900 425066.500000
167.072600 611139.600000
168.080500 860347.700000
174.071100 930638.900000
178.065100 629342.100000
180.080500 7675127.500000
181.088100 2038999.800000
183.060200 4313894.000000
185.063100 615612.700000
186.070600 396623.300000
187.079200 1241828.800000
188.086600 689879.800000
190.065100 1051983.100000
192.067500 379154.200000
192.080400 690971.300000
193.075300 750085.800000
194.083400 742457.700000
195.091400 8794011.000000
198.071000 4190008.500000
199.078900 222090.900000
200.086700 4566433.500000
205.075900 1711924.500000
206.083600 6509391.000000
207.091400 22674204.000000
208.099200 14661424.000000
209.063400 1387394.800000
209.107000 5047328.000000
210.071100 14044701.000000
211.078800 12699843.000000
212.073900 773283.300000
212.086600 1396682.400000
213.081800 584546.100000
214.066000 635625.500000
215.097700 13815812.000000
219.091400 5117230.500000
220.086500 2960844.000000
220.098900 1287987.100000
221.094300 4370247.500000
222.070900 469301.000000
222.102000 335497.300000
223.066000 365552.400000
224.074100 1404423.100000
225.081900 7274808.500000
226.089800 67126800.000000
227.097600 71718328.000000
228.081700 1707485.800000
229.113200 5897384.000000
234.102100 2510503.200000
235.110000 684993.400000
236.117900 23416438.000000
237.082200 356292.300000
237.101900 568114.200000
238.076900 1445251.800000
238.089500 569068.800000
239.085000 522495.700000
239.097400 3893070.200000
240.092700 34917784.000000
240.105200 6904531.500000
241.100600 14764904.000000
242.084600 355692.600000
242.107900 809049.100000
247.086100 607876.200000
249.089400 1640617.900000
250.097200 366179.800000
254.084600 1400361.100000
254.108300 16185630.000000
255.092600 1828702.900000
255.116000 2745649.500000
256.124000 21826754.000000
264.112700 6769208.500000
268.087700 1423812.900000
269.095500 1091230.200000
284.118900 27068912.000000

>ms2
51.022800 182228.600000
53.038500 659246.400000
54.033600 379273.900000
56.049300 122917.100000
58.028600 1351718.400000
65.038400 949270.800000
66.046200 214484.500000
67.041500 216105.700000
67.054200 641180.800000
68.049300 892906.900000
77.038300 1403753.900000
78.033700 224782.800000
78.046200 580088.400000
79.054100 4531164.000000
80.049300 2353655.000000
81.044500 142687.900000
81.057200 147517.900000
81.069700 593017.600000
82.064900 218735.000000
89.038300 341392.200000
90.033700 178335.500000
91.054100 3822712.500000
92.049300 2904161.000000
93.057200 19273468.000000
94.065000 17177880.000000
95.049000 1654696.800000
95.060300 1022073.600000
95.072800 611841.800000
96.044200 155149.700000
96.068000 1264305.500000
97.044700 206380.100000
102.033600 183270.000000
104.049300 14630242.000000
105.044600 1705923.900000
105.057100 4343552.500000
106.065000 20862750.000000
107.072800 22263788.000000
108.080600 17132116.000000
109.044600 6824150.500000
110.059800 668260.600000
115.054100 372589.500000
116.049300 2532109.500000
117.044700 845919.900000
117.057100 3291984.000000
118.052200 195203.500000
118.064900 3858684.200000
119.060200 5955806.000000
119.072800 1726321.400000
120.044200 1234801.800000
120.068000 14916280.000000
121.075800 4543139.500000
122.039900 6641985.000000
123.023800 5343808.000000
123.035100 982447.100000
124.055500 530548.600000
128.049100 196743.800000
129.044500 205680.700000
129.069500 118209.100000
130.039800 2316010.200000
131.060200 15228081.000000
132.044200 2465377.500000
132.068000 9570891.000000
133.044600 535815.800000
133.052100 526489.600000
133.075800 9165344.000000
134.039800 3545026.000000
134.059800 2784390.000000
134.083600 1705120.800000
135.091400 117392880.000000
136.055500 1443024.000000
139.054000 163489.300000
142.065200 137089.000000
143.047400 139637.100000
143.060000 740148.600000
144.055400 2942504.500000
145.063200 742207.600000
145.075700 845031.700000
146.059800 2211240.200000
146.071100 8233845.500000
146.083300 852749.200000
147.055200 376898.600000
147.067700 326496.400000
147.078900 2472006.200000
148.062900 16998164.000000
149.051000 135880.700000
149.070700 1968560.800000
152.061500 330889.500000
153.069600 1782171.800000
154.064700 175886.800000
158.071100 3376092.200000
160.086700 3300101.800000
161.063300 3246075.000000
161.070700 5166299.000000
161.094400 1941127.000000
162.071000 567398.100000
162.078400 505066.100000
163.086300 1094243.100000
165.069700 1506833.800000
166.064900 1695522.200000
167.072600 2126163.000000
168.080500 2075091.200000
170.052500 353427.200000
171.060100 829730.600000
173.063700 128564.600000
173.076100 182008.400000
174.071200 2404418.200000
177.057000 131255.800000
178.065000 1763955.100000
179.060100 118371.300000
179.072700 1526541.900000
180.080500 12363440.000000
181.075500 481251.800000
181.088300 8143430.000000
182.096300 351038.800000
183.060200 11872693.000000
185.063400 2346895.200000
186.071100 642191.000000
187.079000 1754012.100000
188.087000 1456452.500000
190.064900 3290358.800000
191.072700 1463379.500000
192.067800 935984.600000
192.080700 1307638.400000
193.075900 1342335.400000
193.088200 367689.900000
194.059700 182820.000000
194.083600 2145067.200000
195.091400 8562691.000000
196.055400 177235.600000
196.075400 533682.600000
197.063400 201655.900000
198.071100 9909829.000000
199.078800 1026677.200000
200.074600 361628.500000
200.086700 5210380.000000
204.068000 449533.100000
205.075700 4471283.000000
206.083600 10935253.000000
207.091400 12223852.000000
208.055700 929461.600000
208.099300 8454463.000000
209.063300 6180971.500000
209.107100 3436749.000000
210.071100 11374387.000000
211.078900 22315894.000000
212.074000 2086841.500000
212.086600 839005.300000
213.082000 2305592.000000
214.066200 663923.600000
214.089900 781451.600000
215.097700 5303303.500000
217.075700 120175.200000
218.083400 904499.400000
219.079500 475726.200000
219.091300 4670302.500000
220.086700 7099095.000000
220.099000 1698007.800000
221.094500 4536836.500000
222.070900 802436.600000
222.102200 433069.600000
223.066300 1933811.600000
224.074000 2833632.800000
225.082000 6896692.500000
226.089800 61232568.000000
227.097600 18821536.000000
228.081800 1712251.600000
229.113300 1691481.100000
234.102300 2757042.200000
235.109900 582703.300000
236.117900 4551961.000000
237.081900 508029.800000
238.077300 4086775.500000
238.089600 572928.100000
239.084800 774673.900000
239.097500 2352911.200000
240.093000 47545388.000000
240.105100 3876172.800000
241.100600 7870171.000000
248.081300 494181.900000
249.089300 872466.900000
250.096800 470219.600000
253.076900 207077.800000
254.086200 335255.000000
254.108300 6068026.000000
255.093200 292762.500000
255.116300 1770902.400000
256.124100 1691907.500000
264.112900 523511.300000
268.087700 1725312.500000
269.095600 124566.600000
284.119100 760542.400000

>ms2
50.014900 202653.300000
51.022800 215971.900000
53.038500 2027939.100000
54.033700 640570.400000
56.049500 120741.000000
57.013600 94240.900000
58.028600 1496359.500000
63.022800 575760.300000
65.038400 3636607.000000
66.033600 148648.800000
66.046200 799937.400000
67.041500 586524.300000
67.054100 1373272.800000
68.049300 1307206.500000
75.022800 851885.300000
77.038400 3460798.500000
78.033700 603901.800000
78.046300 1562421.000000
79.054100 11021278.000000
80.049300 4797406.500000
81.033400 376636.400000
81.044600 531288.600000
81.057200 330894.900000
81.069700 1397084.100000
82.052400 178014.200000
82.065000 422848.200000
83.029000 842859.600000
89.038300 1779998.100000
90.033700 1310786.400000
90.046300 1246350.200000
91.041500 402442.000000
91.054100 6775174.000000
92.049300 5146854.000000
93.057200 37678916.000000
94.065000 18791358.000000
95.049000 5137611.500000
95.060200 1428361.000000
95.072800 929871.900000
96.044200 856260.600000
96.068000 2325072.200000
97.044600 405007.200000
102.033700 1061234.500000
103.041500 387496.900000
103.054000 127711.900000
104.049300 32403466.000000
105.044600 5657378.000000
105.057100 5184410.500000
106.064900 28624214.000000
107.060300 1498796.100000
107.072800 24313346.000000
108.080600 16239134.000000
109.044600 8548576.000000
109.064700 481009.968800
110.059800 715255.300000
113.039400 425730.900000
114.033600 172042.400000
115.041600 106411.200000
115.054200 598090.000000
116.049300 3300224.800000
117.044600 2180163.000000
117.057100 4593939.500000
118.052500 1288939.500000
118.064900 4098272.200000
119.060200 14958529.000000
119.072600 1216390.500000
120.044200 1505496.200000
120.068000 14553824.000000
121.044500 147247.000000
121.075800 2944179.800000
122.039800 6288024.000000
123.023900 2972085.500000
123.035100 1720922.200000
124.055600 182496.200000
129.044400 735658.600000
129.069600 115468.400000
130.039800 4402894.500000
131.060200 13557194.000000
132.044200 1307062.500000
132.055500 806277.500000
132.068000 10466561.000000
133.044500 1323111.600000
133.052200 387352.900000
133.075800 5972755.000000
134.039900 3044890.200000
134.059800 2371688.200000
134.083500 1498680.200000
135.091400 44842764.000000
136.055500 1338688.400000
137.047200 107144.200000
139.054000 975935.200000
140.049100 835138.900000
142.052500 204187.200000
142.064900 180768.000000
143.048100 138218.300000
143.060200 803873.600000
144.055400 10253469.000000
145.063500 1075800.400000
145.075800 768630.000000
146.059800 784199.000000
146.071000 8962609.000000
146.083700 586807.700000
147.055000 692844.100000
147.060400 301002.300000
147.067600 404987.600000
147.078600 1165198.900000
148.062900 5934026.500000
149.070800 1032393.200000
151.053700 685550.300000
152.061800 3558352.500000
153.069600 4011718.500000
154.064900 853482.300000
155.060100 348386.800000
157.044700 119357.300000
158.071100 1839703.500000
159.060400 526464.800000
160.086600 1988298.900000
161.063300 3474747.500000
161.070700 1368913.400000
161.094300 1231154.400000
162.071400 214204.500000
163.054000 617927.500000
163.086100 145369.300000
164.049600 199010.900000
164.061700 359603.200000
165.057100 118027.100000
165.069700 1942101.600000
166.064900 2916229.500000
167.072700 4084891.200000
168.056800 141262.500000
168.080600 2064566.500000
169.064700 1085011.800000
170.052300 1866541.500000
171.060000 1995226.000000
172.055500 568349.900000
173.063400 390513.100000
173.075800 182048.400000
174.071200 3297825.200000
176.049700 96576.200000
177.056800 1056575.200000
178.064900 3302309.000000
179.061000 700716.000000
179.072700 4030018.800000
180.080500 12286677.000000
181.088300 8689329.000000
182.052300 652093.900000
182.059700 161571.500000
182.096200 179157.700000
183.060200 18518732.000000
184.055300 205296.000000
184.068000 549409.000000
185.063300 3223879.800000
186.047100 145914.100000
186.070900 883449.000000
187.054800 154468.000000
187.079300 876356.100000
188.086800 1072443.600000
189.057100 120924.100000
190.064800 4838318.500000
191.060000 207688.400000
191.072500 1783643.400000
192.067900 1991989.800000
192.080400 908557.400000
193.075800 3084606.200000
193.088400 267260.600000
194.060100 202288.900000
194.083600 3133283.200000
195.091400 4729329.500000
196.055600 560369.700000
196.075600 471677.600000
197.050200 150803.300000
197.063100 784110.000000
198.071000 13303340.000000
199.066400 475936.300000
199.078900 1505691.600000
200.074300 553369.900000
200.086700 2365985.000000
201.057400 171225.200000
201.082200 144293.200000
202.065200 352377.100000
203.060100 647758.500000
204.055200 178286.000000
204.067900 516577.700000
205.075800 8463226.000000
206.083600 9648514.000000
207.091400 4126961.800000
208.055500 2099709.200000
208.099200 2451651.800000
209.063300 9582363.000000
209.107000 994328.000000
210.071100 5820909.000000
211.078900 17650286.000000
212.074100 2513958.500000
212.086600 870864.100000
213.081900 4626967.000000
214.066200 386801.200000
214.089400 155256.700000
215.097800 1309892.600000
216.068200 104969.200000
217.076200 114490.200000
218.072200 185239.600000
218.083800 939941.000000
219.078900 774094.900000
219.091500 2247790.500000
220.086600 12316774.000000
221.071700 621755.800000
221.094500 1846789.400000
222.070600 728863.600000
222.102400 458400.100000
223.066300 4310154.000000
224.074000 3552292.800000
225.081900 9185198.000000
226.089700 27900346.000000
227.085400 535548.375000
227.097600 2911424.000000
228.081300 629295.500000
229.113600 165066.200000
234.102100 1081328.500000
235.110200 119375.100000
236.117900 335882.900000
237.081900 922347.200000
238.077200 5823272.000000
239.061100 204514.100000
239.084900 668728.400000
239.097700 995623.900000
240.092800 37211772.000000
241.100500 1752597.200000
248.081800 148642.200000
249.090000 310918.000000
253.064200 126586.700000
254.085200 112164.300000
254.108400 1001475.300000
255.116300 431955.300000
268.087200 570140.900000

>ms2
50.015000 1653505.100000
51.022800 1219011.800000
52.018100 444159.400000
52.030600 82608.900000
53.038500 5383702.500000
54.033700 1022123.700000
55.017800 449138.700000
56.049400 375570.900000
57.013400 470345.700000
58.028600 1008193.900000
59.029000 157737.600000
62.014800 161657.300000
63.022800 3835537.500000
64.018000 178572.200000
64.030600 96323.700000
65.038500 11196016.000000
66.033700 443057.600000
66.046300 5418462.000000
67.041500 2188219.800000
67.054100 2125722.000000
68.049400 1316688.400000
74.014900 362736.900000
75.022700 3916472.500000
76.018000 938627.400000
76.030600 104434.100000
77.038400 8725900.000000
78.033700 2154278.500000
78.046200 3975613.500000
79.041500 749971.100000
79.054100 11996841.000000
80.049300 6484106.500000
81.033300 567584.700000
81.044500 1604522.000000
81.057100 160951.600000
81.069600 657594.100000
82.052400 521087.700000
82.064900 184070.400000
83.028900 3395346.200000
88.018000 133267.600000
89.038400 8560993.000000
90.033700 7271563.000000
90.046300 2856068.500000
91.041500 1271532.400000
91.054100 6130721.500000
92.049300 9760028.000000
93.057200 47286568.000000
94.065000 7671516.500000
95.049000 13844986.000000
95.060300 971370.700000
96.044200 2225748.000000
96.068000 2848097.800000
97.044600 167332.800000
99.022600 162204.500000
102.033600 3621465.500000
103.041500 637891.600000
103.054000 101006.900000
104.049300 35612008.000000
105.044600 13443208.000000
105.057100 3217725.000000
106.064900 23038640.000000
107.028900 2589429.800000
107.060200 696532.500000
107.072700 8559967.000000
108.044200 743254.500000
108.067900 367703.400000
108.080600 4207155.000000
109.044600 5784143.500000
110.059900 1091669.900000
113.039400 727398.200000
114.033700 783700.600000
114.046300 122042.000000
115.041500 855762.200000
115.054100 1892175.900000
116.049200 2571542.800000
117.044500 6695234.000000
117.057100 3916537.200000
118.052300 1574595.500000
118.064800 2104952.500000
119.060200 17897430.000000
120.044200 1438611.000000
120.068000 3538562.200000
121.031900 143573.800000
121.044500 128149.100000
121.075800 572787.600000
122.039800 3944018.500000
123.023800 475196.100000
123.035100 1383079.200000
126.046100 109005.800000
127.054000 682118.000000
128.049100 160009.700000
128.062000 643401.375000
129.044500 1472514.800000
130.039800 6249804.500000
131.060200 5989276.000000
132.044200 480338.800000
132.055500 590948.800000
132.068000 4702706.500000
133.044600 4672638.000000
133.052100 463858.900000
133.075700 2584714.000000
134.039800 936358.900000
134.052600 194784.500000
134.059700 1084707.200000
134.083600 412441.900000
135.047500 525079.400000
135.055000 3602529.000000
135.091400 2962895.000000
136.055500 412081.900000
139.054000 3634982.000000
140.049300 2478324.500000
140.061700 560194.100000
141.057100 140161.200000
141.069500 599461.600000
142.052200 84587.400000
143.048000 174167.500000
143.060200 168098.400000
144.055400 9186900.000000
145.044400 151313.100000
145.064100 910799.600000
145.075900 184768.100000
146.052400 1318123.800000
146.059900 372380.300000
146.071000 4039930.800000
147.055000 333706.200000
147.060200 169919.000000
148.062900 422080.800000
149.038400 390809.400000
149.070500 112422.200000
150.046200 861131.500000
151.053900 2471855.000000
152.061800 10187161.000000
153.057000 594025.900000
153.069600 2531432.000000
154.064800 984007.000000
155.060000 1303966.000000
157.044600 2096166.400000
158.039800 460481.400000
158.052300 404506.600000
158.070900 87301.100000
159.060300 849694.400000
160.086700 201884.500000
161.063300 1208953.800000
161.070500 162294.300000
163.053900 4118624.800000
164.049300 2067250.400000
164.061400 925332.200000
165.044700 140170.900000
165.057400 699688.500000
165.069600 1985492.200000
166.064900 6853319.500000
167.072700 4447548.500000
168.036200 132670.800000
168.056500 423733.200000
168.080500 799798.000000
169.044700 319041.600000
169.064500 4407286.500000
170.052400 5540108.000000
170.059700 611830.100000
171.047800 117603.300000
171.060100 2256209.500000
172.055100 1129866.900000
173.050600 592320.400000
173.063100 118802.100000
174.071100 1711678.200000
175.041500 140458.100000
176.049100 528658.800000
176.061000 109931.900000
177.057000 3087818.800000
178.064900 5838907.000000
179.060200 2592391.200000
179.072600 3124754.500000
180.055500 324674.300000
180.080500 4991092.500000
181.044500 2210036.500000
181.075700 382638.900000
181.088200 2036547.000000
182.052400 2321838.000000
182.060000 201678.700000
183.060200 13906649.000000
184.055300 1400766.400000
184.067800 103778.400000
184.075200 137255.400000
185.063300 3127878.500000
186.047200 704847.800000
186.071000 964019.300000
187.055400 808239.700000
187.079000 189240.600000
188.049400 420684.700000
189.056800 365074.500000
190.064800 5229529.500000
191.060000 1589043.900000
191.072600 1631076.900000
192.067800 3696241.800000
192.081000 324402.700000
193.075700 3650461.500000
194.052100 208227.900000
194.059800 1847108.500000
194.083500 1132192.900000
195.047200 1054042.000000
195.091400 695443.100000
196.055600 1575432.500000
196.075500 402384.300000
197.050800 639839.900000
197.063000 1566627.500000
198.071000 10477202.000000
199.066100 411288.900000
199.079100 120375.300000
200.074000 199685.100000
200.086400 152255.800000
201.056600 313919.200000
202.052000 209458.000000
203.060000 2034180.800000
204.055300 1700390.100000
204.067700 435124.700000
205.075700 7545187.500000
206.083500 1753591.200000
207.091100 687541.100000
208.055400 3528554.200000
209.063200 4776658.000000
210.058400 501947.300000
210.070900 1393926.000000
211.078900 2401359.200000
212.050300 123123.200000
212.074200 1020773.400000
213.082000 2586167.200000
214.042300 399288.800000
214.065700 358720.700000
217.063200 819199.400000
218.071100 880778.600000
218.084000 425709.300000
219.078800 433459.600000
219.091100 603112.800000
220.086600 5583044.500000
221.050600 370717.600000
221.070800 1462405.800000
222.045800 143168.000000
222.071100 416566.600000
223.066200 3396953.500000
224.074200 1439754.600000
225.081800 3084257.200000
226.089800 1831985.500000
229.051900 141889.500000
237.082000 119662.400000
238.077100 2465436.500000
239.061300 723001.500000
239.084800 168051.400000
240.092600 3281923.200000
248.080900 99753.100000

>ms2
50.015000 4063189.200000
51.022800 3869248.000000
52.018100 765910.800000
52.030700 199765.000000
53.002100 926166.200000
53.038500 6853747.500000
54.033700 2295115.500000
55.017700 325173.400000
56.049400 393514.100000
57.013400 1814319.900000
58.028600 548062.400000
59.029100 553794.100000
61.007200 156653.500000
62.014900 1283138.400000
63.022800 13140884.000000
64.018000 720168.200000
64.030600 760287.100000
65.038500 18894050.000000
66.033700 878548.800000
66.046300 12468903.000000
67.041500 3228489.000000
67.054100 1425978.000000
68.049400 1636638.100000
74.014900 1741181.100000
75.022700 10028352.000000
76.018000 1966249.400000
76.030600 597639.400000
77.038400 11898158.000000
78.033700 4278798.500000
78.046300 4238813.000000
79.028900 438626.300000
79.041500 1004328.900000
79.054100 6196724.000000
80.049300 5304932.000000
81.013400 498321.300000
81.033300 743603.200000
81.044600 2211199.500000
81.069800 125896.800000
82.052400 201787.000000
83.029000 5899592.500000
86.015000 125396.400000
87.022800 526514.700000
88.018100 442361.800000
88.030600 158384.700000
89.038400 11672224.000000
90.033700 10664074.000000
90.046300 2390781.800000
91.041500 2552745.500000
91.054100 3303970.000000
92.049300 11330655.000000
93.057200 32131722.000000
94.065000 1780972.600000
95.049000 18786864.000000
96.036900 187765.400000
96.044200 2482132.500000
96.068000 1037040.700000
99.022800 882042.600000
100.017900 85805.700000
101.038300 159759.100000
102.033700 3922996.800000
102.046300 432596.700000
103.041400 477107.600000
104.049300 23638916.000000
105.044600 16418519.000000
105.057100 1433521.200000
106.064900 13222436.000000
107.029000 3317892.500000
107.072700 1531946.400000
108.036700 338112.200000
108.044200 888026.600000
108.067800 143773.300000
108.080600 712829.500000
109.044600 3288914.800000
110.059900 1122400.900000
111.022700 123333.100000
113.038400 1444766.500000
114.033700 1011080.900000
114.046200 360603.600000
115.041500 621795.200000
115.054000 3459509.000000
116.036800 116958.700000
116.049300 1619825.900000
117.044500 4046470.500000
117.057100 2017436.400000
118.052300 1172147.900000
118.064800 735029.400000
119.060200 8999919.000000
120.036900 408368.900000
120.044200 1113805.400000
120.067900 588665.600000
121.032100 203714.000000
122.039800 863869.100000
123.022700 550655.500000
123.035000 1083221.900000
125.038400 1729837.900000
126.033700 144064.700000
126.046300 1531182.800000
127.041200 170516.400000
127.053900 918650.700000
128.049300 705442.400000
128.061900 701201.700000
129.044400 1623542.500000
130.039800 4590254.000000
131.029000 199606.600000
131.060200 2882108.800000
132.055800 140925.400000
132.068000 1414185.000000
133.044600 8307501.000000
133.075900 761127.200000
134.039700 178364.000000
134.052300 99239.100000
134.060000 334947.800000
134.083300 89631.500000
135.047700 374472.500000
135.055100 1273292.400000
137.038200 778704.600000
138.033800 334699.600000
138.046200 945687.400000
139.054000 8777895.000000
140.049200 6176841.500000
140.061800 512467.300000
141.057100 146317.600000
141.069700 137808.200000
142.052400 99292.400000
143.048800 384839.800000
144.036800 486780.200000
144.055400 1657389.600000
145.044700 185696.200000
145.064500 845659.300000
146.052500 2068460.500000
146.058700 156460.800000
146.071000 918305.200000
147.055000 133654.300000
148.030100 100713.100000
149.038200 1498391.000000
150.046200 5165865.500000
151.041600 327025.000000
151.054000 3147083.000000
152.049400 868255.100000
152.061800 9264749.000000
153.044600 508409.000000
153.057100 890679.300000
153.069600 681007.000000
154.039700 131048.200000
154.064800 517457.200000
155.060100 1455987.900000
156.036400 86637.600000
156.056200 105255.800000
157.044600 5023137.000000
158.039800 1089569.600000
158.052500 312520.000000
159.060200 735561.900000
161.038500 355596.031300
161.063500 303510.000000
162.046200 632409.300000
163.042000 337681.300000
163.054000 6296422.500000
164.049200 6026729.500000
165.044800 686528.100000
165.057200 1116736.200000
165.069500 1199086.000000
166.064900 5192916.000000
167.048900 371764.900000
167.072700 2552256.800000
168.037000 1068442.900000
168.043900 136180.900000
168.080300 126961.200000
169.044500 497351.700000
169.064500 6387519.500000
170.052400 8979847.000000
170.059700 1007250.200000
171.047700 347490.600000
171.060100 1405073.000000
172.055500 934619.100000
173.050600 922850.100000
174.046000 389718.600000
174.071200 356709.600000
175.041400 1385129.600000
176.049200 945440.200000
176.061500 102241.400000
177.044400 397552.200000
177.057000 4658160.000000
178.064900 3949197.000000
179.060100 3657464.000000
179.072100 982782.300000
180.055300 349746.700000
180.080500 1264032.000000
181.044500 5608127.000000
182.039500 416456.800000
182.052600 1770646.500000
183.060200 5931053.000000
184.055400 2132654.000000
185.063400 2193480.000000
186.047100 549848.700000
186.071300 142913.700000
187.055100 1629873.000000
188.049200 1453135.900000
189.044900 188655.700000
189.057100 658246.000000
190.064700 2773869.500000
191.060100 1418032.400000
191.072500 552182.800000
192.067800 3501330.800000
193.076000 1270751.500000
194.052200 347415.000000
194.059900 1995736.200000
194.083700 124128.700000
195.047600 1625582.800000
196.055600 1166867.100000
196.075600 109811.100000
197.050700 1296055.000000
197.063200 1138181.800000
198.071000 2773411.800000
199.066700 98812.400000
201.057200 370654.300000
202.052200 660143.300000
203.060000 1126355.400000
204.055300 2017652.600000
205.075700 2327341.200000
206.083500 162297.800000
207.048300 89267.500000
208.055300 2591580.200000
209.063000 1304812.200000
210.058500 627049.900000
210.070900 167830.100000
212.050200 321743.700000
212.074300 426914.900000
214.042100 190946.000000
216.067700 97010.600000
217.063400 566633.900000
218.071000 178979.700000
219.079600 108140.300000
220.086600 141943.300000
221.050200 121467.100000
221.070800 104474.800000
222.046000 423932.900000
223.066200 1272169.500000
224.074100 320660.400000
225.082000 335030.900000
229.052700 153021.900000
238.077300 425270.500000
240.092300 90880.800000

>ms2
50.015000 8021997.500000
51.022800 8370031.500000
52.018100 1850693.200000
52.030700 512427.600000
53.002100 948507.000000
53.038500 5938983.500000
54.033700 3029602.000000
55.017800 373987.100000
56.049400 273944.700000
57.013400 3689545.500000
58.028600 342342.400000
59.029100 440873.800000
61.007200 611613.600000
62.015000 2658883.200000
63.022800 22314702.000000
64.018000 1924926.600000
64.030600 876930.500000
65.038500 22889182.000000
66.033700 753106.400000
66.046300 13108098.000000
67.041500 3068964.500000
67.054200 584046.800000
68.049400 858238.600000
74.014900 5325328.500000
75.022700 14770303.000000
76.018000 3982936.000000
76.030600 1120153.200000
77.038400 10482023.000000
78.033700 4193022.200000
78.046200 2892857.000000
79.028900 496216.800000
79.041500 685875.900000
79.054000 2868113.800000
80.049300 3497850.200000
81.013300 1196062.900000
81.033400 500840.200000
81.044600 1231042.900000
81.057000 94314.400000
82.052400 115459.600000
83.029000 6467251.000000
86.015000 738542.700000
87.022700 1966358.200000
88.018000 993532.400000
88.030500 799543.600000
89.038400 12030231.000000
90.033700 5701202.500000
90.046300 1260274.800000
91.041500 2421130.800000
91.054100 1779055.500000
92.049300 8753397.000000
93.057200 13865079.000000
94.064900 567717.000000
95.049000 15143986.000000
96.036800 398011.800000
96.044200 2266001.000000
98.014900 1251083.625000
99.022700 3566634.800000
100.017900 690590.200000
100.030600 357555.562500
101.038500 534132.000000
102.033600 2354147.500000
102.046300 883301.500000
103.054000 157694.500000
104.049300 10346281.000000
105.044600 12349051.000000
106.064900 6805629.500000
107.028900 4503760.500000
108.036800 418134.600000
108.044100 543267.900000
109.044700 1161283.500000
110.014800 366383.875000
110.059900 523294.200000
111.022700 472453.600000
113.038400 3670833.800000
114.033700 1232315.600000
114.046100 573683.800000
115.041500 366010.700000
115.054000 3277540.500000
116.036700 110920.300000
116.049300 969482.200000
117.044500 987655.200000
117.057100 952424.900000
118.052300 921401.800000
119.060200 2825861.800000
120.036900 1071371.100000
120.043900 598229.600000
122.014900 483756.468800
122.039900 197504.600000
123.022600 1987761.500000
123.035100 641127.400000
124.018000 452789.687500
125.038400 2790874.200000
126.033700 196812.000000
126.046200 2729799.000000
127.041500 320616.900000
127.054000 931645.200000
128.049300 570073.800000
128.061900 191393.800000
129.044400 1171786.900000
130.039800 2154189.500000
131.029000 1293181.100000
131.060200 1449581.600000
132.036700 369317.500000
132.068100 452132.500000
133.044500 6062747.500000
134.039900 178331.000000
135.047600 102783.800000
135.055100 303447.700000
137.038300 2526487.000000
138.033700 853259.600000
138.046100 1240579.900000
139.054000 8197317.500000
140.049200 5614260.500000
140.061600 321463.500000
141.056900 103269.100000
143.049000 379340.500000
144.036800 1394180.200000
144.055400 311329.800000
145.044600 462152.100000
145.064700 320259.800000
146.052400 1217239.100000
146.058300 101801.100000
146.060300 97766.000000
147.054900 84004.200000
148.030600 112451.800000
149.038400 2673635.200000
150.046200 8985662.000000
151.041700 570935.500000
151.054000 1771747.800000
152.049400 693509.800000
152.061800 5380685.000000
153.044600 508973.800000
153.057100 431834.800000
154.039600 179973.400000
154.064800 147827.300000
155.060000 945375.000000
156.036900 195591.500000
156.056400 87170.600000
157.044600 5290200.500000
158.039900 1322482.800000
159.060400 158808.400000
161.038400 1057818.625000
162.046000 1170095.000000
163.041700 372617.400000
163.054000 4958144.500000
164.049200 6880468.000000
164.062000 424170.812500
165.044600 527617.100000
165.057300 685968.400000
165.069700 401514.200000
166.064900 1984900.900000
167.048900 436078.600000
167.072900 822528.900000
168.036700 2252777.000000
168.043800 174974.800000
169.044500 462176.200000
169.064500 4579302.500000
170.052400 7017895.000000
170.059500 505400.700000
171.047600 153121.700000
171.060300 291387.900000
172.055400 165284.600000
173.050700 746829.800000
174.046200 283327.800000
175.041300 2147436.500000
176.049400 438412.200000
177.045000 277811.100000
177.056900 2903176.000000
178.064900 1244948.500000
179.060100 1823049.100000
179.072400 110122.900000
180.036400 571140.250000
180.055800 172729.500000
180.080500 136396.500000
181.044500 6697631.500000
182.039900 503724.300000
182.052200 779231.100000
183.060200 1776397.900000
184.055400 1530581.900000
185.063100 531139.400000
186.047200 155471.900000
187.055100 1597330.500000
188.049200 1435039.900000
189.044600 376219.300000
189.057000 444115.200000
190.064700 844799.200000
191.060100 1156052.900000
192.067800 1539004.200000
194.059800 984270.400000
195.047600 1396811.900000
196.055700 719920.200000
196.075900 103089.400000
197.050500 973019.400000
197.063400 113410.800000
198.071300 389507.200000
201.057700 89731.400000
202.052300 373436.500000
203.060200 502148.200000
204.055800 614282.900000
204.067600 164124.300000
205.075700 498514.200000
207.048200 309874.100000
208.055500 691043.300000
209.063300 138705.300000
210.058500 327535.100000
212.050500 130848.600000
217.063200 135447.600000
218.071700 89310.700000
222.046300 101214.600000
223.066600 405793.700000

