>compound EQ80891191
>parentmass 296.1257
>ionization [M+H]+
>formula C16H16F3NO
>rt 522.000000
>profile orbitrap
#smiles_iso C1=CC=C(C=C1)C(CCN)OC2=CC=C(C=C2)C(F)(F)F
#smiles_can C1=CC=C(C=C1)C(CCN)OC2=CC=C(C=C2)C(F)(F)F
#inchikey WIQRCHMSJFFONW-UHFFFAOYSA-N
#pubchem_id 4541
#mb_accession EQ033501,EQ033502,EQ033503,EQ033504,EQ033505,EQ033506,EQ033507,EQ033508,EQ033509

>ms2peaks
105.069800 481533.300000
134.096500 36025604.000000

>ms2peaks
105.069900 732477.200000
134.096500 1292466.200000
259.093100 86444.600000

>ms2peaks
105.070000 1042812.100000
259.093000 63809.000000

>ms2peaks
105.070000 959413.100000

>ms2peaks
79.054200 109967.600000
91.054300 63924.000000
105.070000 776682.400000

>ms2peaks
79.054200 96269.600000
91.054300 305905.400000
105.070000 531858.200000

>ms2peaks
77.038500 56231.600000
79.054200 238592.700000
91.054200 241828.800000
95.049100 98477.800000
105.069900 130618.000000
115.054300 99182.100000

>ms2peaks
51.023000 76278.900000
65.038600 291738.600000
75.022900 250478.800000
91.054300 388859.200000
95.049200 122128.400000
115.054300 297147.000000

>ms2peaks
50.015100 239728.281300
51.023000 504083.200000
63.022900 124364.734400
65.038600 677089.600000
74.015100 285781.781300
75.004000 110298.257800
75.023000 689359.400000
77.038500 65478.700000
89.038600 86225.812500
91.054300 698031.100000
95.049300 137760.400000
115.054300 412812.300000
152.062200 107507.640600

