>compound EQ82449688
>parentmass 267.0877
>ionization [M+H]+
>formula C14H10N4O2
>rt 408.000000
>profile orbitrap
#smiles_iso C1=CC=C(C(=C1)C2=CC=C(C=C2)C(=O)O)C3=NNN=N3
#smiles_can C1=CC=C(C(=C1)C2=CC=C(C=C2)C(=O)O)C3=NNN=N3
#inchikey USAWIVMZUYOXCF-UHFFFAOYSA-N
#pubchem_id 19388302
#mb_accession EQ279501,EQ279502,EQ279503,EQ279504,EQ279505,EQ279506,EQ279507,EQ279508,EQ279509

>ms2
152.061700 216020.900000
178.064500 301123.000000
180.080700 561393.200000
192.067900 330909.700000
193.076100 2442074.000000
206.059900 197620960.000000
221.070800 6293747.000000
223.097700 354498.000000
224.070500 8652484.000000
239.081100 323091.600000
240.065200 292210.100000
249.077000 109897184.000000
267.087400 199809104.000000

>ms2
166.065100 3502786.200000
177.056800 904106.500000
178.065200 703577.100000
180.080700 2303894.500000
184.075500 740863.100000
192.068200 937264.100000
193.076000 16552272.000000
196.075500 1067804.100000
206.059900 417851808.000000
221.070900 27639254.000000
223.097500 533842.800000
224.070400 2281749.500000
239.080500 634715.500000
240.065200 1078386.100000
249.077000 40301768.000000
267.087500 18769444.000000

>ms2
139.054100 726190.600000
151.053800 1241847.800000
165.069800 446786.800000
166.065100 12046811.000000
169.064900 952872.800000
170.059600 406981.100000
177.056800 1376260.000000
178.065000 19013982.000000
179.059900 575133.400000
180.080700 6990510.000000
181.052300 640307.500000
184.075600 2944102.500000
192.068100 6630847.000000
193.076000 14490487.000000
194.071600 543922.900000
196.075600 12734158.000000
206.060000 404636032.000000
221.070800 7861695.500000
224.070300 804095.100000
240.065100 1217077.900000
249.076800 1437511.000000

>ms2
77.038200 407498.100000
95.049000 318200.400000
127.054100 366352.200000
139.054100 3582454.800000
140.049400 928847.200000
145.064600 493261.100000
150.046200 273304.700000
151.054100 8658451.000000
152.061800 592256.600000
153.069800 325431.500000
154.064900 549543.100000
155.048800 224100.300000
155.060200 704218.900000
164.061700 491936.800000
165.069700 676371.700000
166.065100 12161277.000000
167.072800 221403.600000
168.080700 945966.800000
169.064700 15963791.000000
170.059600 511299.300000
177.057200 6526128.500000
178.065000 132908600.000000
179.060300 12228846.000000
180.080600 13961991.000000
184.075600 1770524.100000
192.068100 10347379.000000
193.076000 3984802.500000
194.060300 628092.100000
194.070700 530018.600000
194.083900 293851.000000
196.075600 59944332.000000
204.055200 396086.100000
206.060100 192201328.000000
206.070800 29413526.000000
207.068100 244179.500000
221.070600 498670.500000
224.070300 1022747.200000

>ms2
51.022900 250209.100000
53.038500 561582.300000
77.038400 1625458.000000
95.049100 2502969.500000
105.044700 1377062.900000
115.054200 625251.100000
127.054200 1334478.500000
139.054200 6593905.000000
140.049400 2959310.200000
141.069800 314009.600000
145.064800 1580370.100000
150.045900 771653.800000
151.054200 41495664.000000
152.049600 307242.600000
152.062000 2429837.500000
153.069800 1602185.600000
154.065200 290309.000000
155.049300 1245357.800000
155.060300 2508031.500000
164.061800 361999.400000
165.057300 525929.800000
165.069900 898266.200000
166.065100 7403241.000000
167.072900 624149.600000
168.056800 472599.200000
168.080700 383266.000000
169.064800 84014840.000000
170.060000 1852969.600000
176.049600 569276.700000
177.057300 38087432.000000
178.065000 159719712.000000
179.060300 49648984.000000
180.080600 15326271.000000
183.080200 659998.600000
184.075600 760983.100000
191.060400 809273.000000
192.068100 9233864.000000
193.075900 877002.500000
194.060000 1912950.800000
194.083900 351918.900000
196.075700 44863560.000000
204.055700 2109713.200000
206.060000 38095064.000000
206.071100 12329362.000000
224.070300 417394.600000

>ms2
50.015000 398500.800000
51.022800 669788.800000
53.038600 1217409.600000
63.022700 165860.300000
75.022800 214668.700000
77.038500 3743736.000000
81.033400 256178.400000
95.049100 5593807.500000
103.054100 379329.200000
105.044700 3133913.800000
115.054100 839437.100000
116.049500 251208.100000
125.038400 458359.500000
127.054200 1840703.000000
130.040000 273189.700000
139.054200 6656818.000000
140.049400 4563692.000000
141.069400 459667.800000
145.064800 2279107.200000
149.038300 329330.200000
150.046400 4205538.500000
151.054200 61241168.000000
152.049300 840540.300000
152.062000 6245510.000000
153.069800 2165912.200000
154.065100 321016.100000
155.049300 1748788.800000
155.060200 4204876.500000
163.054000 265320.700000
164.049500 563733.200000
164.062300 209299.000000
165.057400 988417.300000
165.069900 957413.800000
166.065100 2504729.800000
167.049100 223369.700000
167.073000 431141.300000
168.057000 481024.300000
169.064700 137244064.000000
170.060000 3403224.000000
175.042000 197157.700000
176.049200 985945.900000
177.057300 72274216.000000
178.065000 59016100.000000
179.060300 63038136.000000
180.055900 931529.700000
180.080600 8429591.000000
183.067800 296125.100000
183.080400 1362915.900000
191.060200 1646879.900000
192.068000 5517364.000000
193.075800 385823.200000
194.060000 3638694.500000
196.075600 10204588.000000
204.055700 3219586.000000
206.060000 3623741.200000
206.071100 1622518.600000

>ms2
50.015100 2675898.000000
51.022900 1836141.000000
53.038600 2727189.500000
63.022700 383989.700000
65.002200 113775.700000
65.038500 114821.500000
74.015000 266676.700000
75.022800 1590268.800000
76.018000 202240.100000
77.038500 6835443.000000
81.033400 351336.000000
88.018100 126107.400000
89.038400 780917.200000
91.054100 220578.300000
95.049100 9298229.000000
98.014900 240175.200000
99.022900 1280024.600000
101.038500 393775.500000
102.033700 413954.600000
102.046400 232819.700000
103.054200 432139.000000
105.044700 5514486.500000
113.038500 1387885.500000
114.046400 302467.600000
115.054200 2450639.500000
116.049300 273131.300000
119.049000 376054.400000
123.022900 263539.800000
125.038500 9138677.000000
126.046400 1347138.100000
127.041400 274697.800000
127.054100 3200614.500000
128.049400 317088.500000
128.061900 257575.900000
129.044600 1061227.900000
130.039900 378039.800000
137.038200 105523.500000
138.046300 597099.400000
139.054200 5422650.000000
140.049400 4297821.500000
141.069800 226048.000000
143.049100 1037677.300000
145.064700 2136824.200000
149.038500 3364466.200000
150.046400 73204400.000000
151.054200 43090808.000000
152.049400 2525792.200000
152.062000 13276951.000000
153.044600 688113.300000
153.057100 393393.500000
153.069900 631103.200000
155.049600 1058645.600000
155.060200 4340050.500000
163.054000 508863.100000
164.049500 2448849.500000
164.061900 301324.600000
165.044900 209020.700000
165.057300 521464.100000
165.070000 680438.000000
166.065200 693570.400000
167.049100 1261975.600000
167.072900 214075.900000
168.056800 1023538.900000
169.064700 103161328.000000
170.059900 5297963.000000
175.041600 1625165.600000
176.049300 1238894.000000
177.057200 90043584.000000
178.065000 3105412.200000
179.060300 39326384.000000
180.055700 1745818.800000
180.080600 596292.000000
183.080300 1102397.000000
185.059700 923727.400000
191.060300 1397480.200000
192.068000 846675.200000
194.060000 4203955.000000
196.075700 307851.600000
204.055600 4009344.500000

>ms2
50.015100 6027200.000000
51.022900 4857491.000000
53.038600 3519808.500000
61.007200 210257.900000
62.015000 228666.500000
63.022900 1394293.500000
65.002200 269873.200000
65.038500 525597.800000
74.015000 2444852.000000
75.022900 10569993.000000
76.018100 428883.400000
76.030600 1428743.100000
77.038500 9271121.000000
78.046400 1299973.500000
81.033500 506417.300000
86.014900 210409.300000
87.022900 936535.400000
88.018100 216102.500000
89.038500 1843766.900000
90.046400 278367.300000
91.054200 370393.900000
94.041300 253286.400000
95.049100 13631581.000000
98.015100 2087824.800000
99.022900 9862713.000000
100.018200 414507.200000
100.030700 1051963.400000
101.038600 1383556.800000
102.033900 526908.700000
102.046400 2426522.800000
105.044700 8157943.500000
110.015100 356456.700000
111.022900 527259.800000
113.038500 2475382.500000
114.034000 369016.100000
115.054200 3476234.200000
119.049200 1089086.800000
122.015100 500952.200000
123.022900 1930892.900000
124.017900 247386.800000
124.030700 1623151.100000
125.038600 16496958.000000
126.046400 5827753.500000
127.041600 2214264.500000
127.054200 2204601.800000
128.062000 312083.700000
129.044700 2735678.800000
130.039900 556343.800000
137.038600 607489.900000
138.046300 408425.200000
139.054200 3183729.000000
140.049400 2092900.200000
143.049100 2876100.000000
145.064800 943083.400000
148.030800 203195.200000
149.038600 5694188.000000
150.046400 138189280.000000
151.041600 5125909.500000
151.054200 10672683.000000
152.049500 1352723.400000
152.062000 11348977.000000
153.033900 180998.900000
153.044600 1967243.400000
153.057200 217487.800000
154.040000 199146.200000
155.049000 284319.600000
155.060300 2093635.500000
163.054200 755419.400000
164.049400 2368651.000000
165.044800 255245.000000
167.049100 2064780.400000
168.044300 220537.100000
168.056900 854007.900000
169.064800 27752356.000000
170.060000 1547175.200000
175.041600 4234682.500000
176.049400 1616867.100000
177.057300 34030260.000000
178.065200 400078.300000
179.060300 9879310.000000
180.055800 436930.200000
183.080300 212661.300000
185.059700 1625074.400000
191.060200 321711.500000
194.060000 4406386.000000
195.055100 230951.700000
204.055700 4156391.500000

>ms2
50.015100 10856629.000000
51.022900 7787586.000000
53.038600 3351586.200000
55.017800 299796.700000
61.007200 540092.600000
62.015000 695762.500000
63.022900 3709524.800000
65.002200 898473.700000
65.038500 883339.400000
66.046400 371263.600000
74.015000 11122663.000000
75.022900 22882744.000000
76.018100 1046881.200000
76.030700 6297333.000000
77.038500 8569772.000000
78.046400 2491225.000000
81.033500 508278.700000
86.015000 1235914.000000
87.022900 3132015.800000
88.018200 474526.200000
88.030700 297685.300000
89.038600 2223456.000000
90.033700 96494.300000
90.046400 515325.800000
91.054300 262560.100000
94.041300 314103.000000
95.049100 11407425.000000
98.015100 12466510.000000
99.022900 20819726.000000
100.018100 1115956.000000
100.030700 4696324.000000
101.038600 1224606.800000
102.033800 527971.500000
102.046400 4331711.500000
103.041500 310377.700000
105.044700 6153002.000000
110.015100 1898315.600000
111.022900 2203047.000000
113.038500 2134535.200000
114.033900 479333.200000
114.046100 84553.700000
115.054200 1809921.500000
119.049100 774414.500000
122.015000 2903160.500000
123.022900 4041604.200000
124.018300 492227.700000
124.030700 5000830.500000
125.038600 8791050.000000
126.046400 8231743.500000
127.041700 2792379.000000
127.054100 523622.800000
128.061900 120574.400000
129.044700 1685477.100000
130.039800 398116.600000
137.038500 931394.400000
138.033700 351541.600000
138.046200 171702.200000
139.054200 1746929.900000
140.049400 816049.200000
143.049200 1388686.500000
145.064900 209563.800000
148.030600 618946.600000
149.038600 6888503.000000
150.046400 83359480.000000
151.041600 5154779.500000
151.054200 2224247.000000
152.062000 4331588.000000
153.033700 336328.200000
153.044600 835250.800000
153.057400 105259.000000
155.060400 491473.700000
163.054200 495283.200000
164.049400 1286702.900000
167.049100 2346036.000000
168.044400 84009.700000
168.056800 229108.100000
169.064700 6736361.500000
170.060000 113205.400000
175.041600 4808505.500000
176.049400 840319.400000
177.057200 5021848.500000
179.060300 2019643.400000
185.059700 1706183.500000
194.060100 2359737.800000
195.055000 303536.300000
204.055700 1800990.900000

