>compound EQ83463303
>parentmass 507.97819999999996
>ionization [M+H]+
>formula C14H14IN5O6S
>rt 558.000000
>profile orbitrap
#smiles_iso CC1=NC(=NC(=N1)OC)NC(=O)NS(=O)(=O)C2=C(C=CC(=C2)I)C(=O)OC
#smiles_can CC1=NC(=NC(=N1)OC)NC(=O)NS(=O)(=O)C2=C(C=CC(=C2)I)C(=O)OC
#inchikey VWGAYSCWLXQJBQ-UHFFFAOYSA-N
#pubchem_id 11027582
#mb_accession EQ348701,EQ348702,EQ348703,EQ348704,EQ348705,EQ348706,EQ348707,EQ348708,EQ348709

>ms2
58.028600 1095918.500000
141.077100 16524199.000000
167.056300 369043840.000000
324.902700 12331134.000000
475.951900 7845772.500000

>ms2
56.049500 3958753.000000
57.044700 350306.300000
58.028500 1414600.800000
69.008000 2253944.800000
83.023900 2147985.200000
141.077100 30470002.000000
167.056400 342893056.000000
260.940800 4920633.500000
309.902800 1779686.500000
324.902800 22418828.000000
335.882400 4015184.800000

>ms2
56.049500 23789158.000000
57.044800 2220994.500000
58.028800 8547414.000000
67.029100 844260.900000
69.008300 7385836.500000
78.046400 573125.500000
78.984800 611802.600000
83.024000 16224630.000000
85.039700 672607.600000
100.050600 1039725.500000
106.041400 388767.400000
110.035000 718400.500000
119.036600 297236.200000
125.034600 230606.100000
134.036300 4127083.500000
141.077200 24820834.000000
145.016000 612086.100000
166.026200 2503876.800000
167.056500 208276720.000000
177.005900 379262.300000
215.930400 585047.900000
217.922300 598816.100000
230.941500 418445.000000
245.917700 519199.000000
245.941300 1189624.000000
246.925300 328862.800000
260.941000 15780449.000000
263.927700 632853.700000
271.920400 2234311.500000
309.903200 1581845.400000
324.902900 6695457.500000
335.882400 3105199.800000

>ms2
56.049500 41195064.000000
57.044800 4526984.500000
58.028800 25600586.000000
67.029100 1815003.600000
68.024400 319410.800000
69.008400 19007990.000000
73.076100 77052.500000
76.030700 991577.700000
78.046400 2186048.800000
78.984800 916125.100000
82.040000 167696.600000
83.024000 30526686.000000
84.055700 247417.700000
85.039700 1197410.200000
91.017900 174444.500000
91.041700 334222.700000
94.041400 708046.700000
100.050600 1424779.500000
101.026100 292779.400000
104.025800 85429.700000
105.033600 767124.800000
106.041300 523687.300000
110.034900 585649.600000
117.021000 534483.100000
119.012800 323269.800000
119.036700 1614026.000000
120.020500 80172.500000
125.034800 231606.900000
134.036300 10352306.000000
141.077200 11707456.000000
145.016000 2207382.000000
151.026400 552656.900000
166.026200 7094056.000000
167.056500 75171608.000000
177.005700 1772863.200000
215.930700 2696666.200000
217.922600 3061248.500000
217.945700 284085.800000
220.945900 587659.700000
230.930100 362531.500000
230.941500 1207040.400000
232.945500 88337.000000
245.917500 664735.500000
245.941200 985559.700000
246.925400 432795.000000
255.936600 387974.200000
260.940900 7000048.500000
263.927800 629884.300000
271.920500 1597927.900000
309.903500 305140.900000
324.902600 631679.700000
335.882300 463940.700000

>ms2
50.015200 274649.000000
51.023000 46726.500000
52.030700 52771.800000
53.038600 62995.500000
55.029100 184966.600000
56.049500 33794120.000000
57.044800 5401878.000000
58.028800 34663112.000000
62.015100 244337.400000
63.023000 768052.800000
64.030800 156989.900000
66.010100 89873.000000
67.029100 2023727.100000
68.024300 547588.800000
69.008300 30038984.000000
75.010200 36059.900000
76.030700 4122318.200000
77.038600 155578.200000
78.046400 3524179.000000
78.984800 705848.600000
79.017800 79031.300000
79.041500 42454.200000
80.025400 41183.700000
81.033500 453176.400000
82.040000 190475.900000
83.024000 26163846.000000
84.055700 228999.600000
85.039600 974788.400000
89.026000 449265.000000
91.017800 465866.800000
91.041700 1199857.200000
92.025700 74022.900000
94.041300 1038996.400000
95.049100 259564.300000
100.050600 1180051.500000
101.026100 1042611.100000
104.025700 341062.400000
105.033600 1834963.800000
105.044900 200761.000000
106.041400 213082.500000
107.012500 40210.500000
110.034800 291726.100000
117.020900 1806899.600000
119.012800 988559.700000
119.036600 1611408.200000
120.020700 187583.300000
125.034600 160987.000000
126.029900 47330.100000
133.028300 71687.800000
134.036300 8358087.000000
136.015700 150312.500000
141.077100 3595348.200000
145.016000 1915122.000000
151.026500 874083.600000
152.010400 66283.000000
164.919800 52763.500000
166.026200 5940807.000000
167.056500 15250486.000000
177.005700 1661906.900000
202.935200 229323.500000
215.930700 3793043.200000
217.922500 4188807.000000
220.946100 435031.900000
230.930200 261796.700000
230.941600 999852.700000
245.917600 185658.400000
245.941200 294245.100000
246.924700 159802.100000
255.936500 211427.000000
260.941000 1260239.900000
263.928600 327055.500000
271.920300 322226.600000

>ms2
50.015100 659233.600000
51.023000 244202.200000
52.030900 138514.800000
53.002200 162071.500000
53.038600 272760.200000
55.029100 383219.400000
56.013100 1466234.100000
56.049500 27130638.000000
57.044800 4654023.000000
58.028800 32940154.000000
61.007300 66802.600000
62.015100 1194115.000000
63.023000 2524870.000000
64.030800 254487.600000
65.026000 137932.000000
66.010100 313709.900000
66.046500 139230.900000
67.029100 1566559.100000
68.024300 842630.600000
69.008400 35811444.000000
69.992400 71348.300000
74.015200 40420.800000
75.010300 160504.200000
76.030700 8101048.000000
77.038500 333807.400000
78.046400 4169856.500000
78.984900 303842.100000
79.017900 238270.500000
79.041700 130331.200000
80.025600 45939.700000
81.033600 878136.200000
82.040000 200135.100000
83.024000 17681530.000000
84.055800 138940.100000
85.039700 723991.600000
88.018200 286489.400000
89.026000 1623779.100000
91.017900 1438762.600000
91.041700 1444160.200000
92.025700 193317.200000
94.003600 84601.000000
94.041400 929280.600000
95.049200 539825.600000
100.050600 541273.700000
101.026100 1692452.000000
104.025700 561566.200000
105.033600 2296596.200000
105.044900 324712.400000
106.041400 61803.500000
107.012700 68949.200000
107.036400 37419.900000
110.034900 85850.300000
117.021000 2717901.800000
119.012900 1062355.500000
119.023900 259080.400000
119.036700 1196724.500000
120.020900 64229.800000
133.028500 75193.400000
134.036300 3813521.800000
136.015600 207117.000000
140.919600 46941.800000
141.077200 750833.800000
145.016000 1080481.100000
151.026400 474531.200000
152.010500 145265.700000
154.898800 86686.400000
164.919600 227160.300000
166.026200 3294592.000000
167.056500 2696399.000000
177.005700 959964.000000
188.919500 76072.200000
215.930700 3404822.500000
217.922600 3696370.200000
220.945800 242509.300000
230.930800 72564.200000
230.941500 485130.000000
245.940800 56301.300000
255.936100 67842.400000
263.927500 41073.200000

>ms2
50.015100 2962018.000000
51.023000 449691.800000
52.018200 152908.700000
52.030800 352811.100000
53.002200 673142.400000
53.038600 379526.600000
54.046400 80078.900000
55.029100 360451.200000
56.013100 1469780.600000
56.049500 14389097.000000
57.044700 2623226.800000
58.028800 18718732.000000
61.007200 550708.900000
62.015100 5265894.000000
63.023000 7426456.500000
64.030800 547585.200000
65.002200 211206.400000
65.026000 167665.600000
66.010100 441119.500000
66.046400 198899.600000
67.029100 1069073.000000
68.024300 1134810.800000
69.008300 43506024.000000
69.992300 71752.400000
74.015100 387722.300000
75.010300 991226.000000
75.022900 204899.800000
76.030700 9738531.000000
77.038500 659839.400000
78.046400 2239742.200000
78.984800 56490.500000
79.017800 330060.100000
79.041700 252878.000000
81.033500 784318.100000
83.024000 7154936.000000
85.039700 200834.500000
88.018200 939950.900000
89.026000 2734980.000000
90.033900 54395.600000
91.017900 1910150.900000
91.041700 864130.900000
92.025600 79771.800000
94.003600 281624.100000
94.041400 309423.100000
95.049300 550652.300000
100.018000 46563.900000
100.050600 72304.400000
101.026000 1583689.400000
104.025600 242622.400000
105.033500 894969.700000
105.044800 372081.100000
107.036600 63195.300000
117.021000 946969.200000
119.012800 466539.600000
119.024000 278026.300000
119.036500 312585.100000
126.903800 48575.900000
134.036300 489750.400000
136.015300 60024.100000
140.919600 214531.800000
145.016000 77877.100000
151.026600 127642.600000
152.010600 43938.400000
154.898900 73539.700000
164.919700 429571.400000
166.026200 555989.300000
177.005900 119544.400000
188.919300 79473.400000
215.930700 871296.200000
217.922500 891931.000000
220.946000 48687.700000
230.941000 133376.500000

>ms2
50.015200 4897375.000000
51.023000 546942.100000
52.018200 222885.700000
52.030800 306615.600000
53.002200 1270061.600000
53.038600 275450.900000
53.997400 128642.000000
54.046400 54353.600000
55.029100 277858.600000
56.013100 1027111.000000
56.049500 7830550.500000
57.044800 1507145.200000
58.028800 8631087.000000
61.007300 1887687.600000
62.015100 10696699.000000
63.023000 11480079.000000
64.018200 54689.300000
64.030800 459385.900000
65.002200 720243.400000
65.026100 106784.400000
65.038600 148482.300000
66.008700 193747.600000
66.010200 230712.700000
66.046500 74301.700000
67.029100 569447.100000
68.024400 957833.100000
69.008300 44784552.000000
69.992300 166638.900000
74.015100 729516.600000
75.010400 1908143.500000
75.022900 610767.600000
76.030700 6389248.500000
77.013500 46189.300000
77.038500 424850.400000
78.010000 142373.800000
78.046500 810014.400000
79.017800 492135.000000
79.041700 45938.000000
81.033600 311616.800000
83.024000 2374845.000000
87.010400 128622.800000
88.018200 1570632.100000
89.026000 1423314.000000
89.038500 168522.100000
91.017900 1242587.500000
91.041600 205312.400000
94.003600 321364.900000
95.049200 468205.200000
100.018200 60746.400000
101.026100 634062.700000
105.033400 182046.600000
105.045000 348032.600000
107.012800 50393.900000
117.020800 195819.000000
119.012800 68190.800000
119.024000 124689.500000
126.903700 77962.900000
140.919600 246959.200000
164.919600 289700.800000
215.930200 150657.900000
217.922000 54379.900000

>ms2
50.015200 6322324.000000
51.023000 910071.300000
52.018200 381277.800000
52.030800 265155.000000
53.002200 1657516.600000
53.038600 118881.500000
53.997500 153859.700000
55.029100 139905.800000
56.013100 353861.400000
56.049500 3054874.200000
57.044800 635678.700000
58.028800 2500285.800000
61.007300 3928618.200000
62.015100 11570263.000000
63.023000 9776226.000000
64.018300 56296.500000
64.030800 192336.200000
65.002200 855797.900000
65.026100 51885.000000
65.038700 224880.200000
66.008600 234399.200000
66.010100 176508.900000
67.029100 350174.700000
68.024300 781754.900000
69.008300 33088330.000000
69.992300 142124.000000
74.015100 1753124.500000
75.010300 1763203.400000
75.022900 956707.700000
76.030700 2293527.000000
77.002200 124706.300000
77.013500 66349.000000
77.038500 184910.500000
78.010100 239856.000000
78.046300 177486.900000
79.017800 485357.400000
81.033400 60002.400000
83.024000 490261.900000
87.010300 225559.300000
88.018200 1542405.000000
89.026000 414240.600000
89.038700 40470.900000
90.034000 37951.600000
91.017900 307194.500000
91.041600 66404.200000
94.003600 171285.300000
95.049100 183412.500000
99.010200 44260.900000
101.026200 73371.600000
105.033600 39244.600000
105.044800 47007.200000
126.903900 163191.900000
140.919500 119036.600000
164.919600 125677.800000

