>compound EQ83252230
>parentmass 219.14920000000004
>ionization [M+H]+
>formula C13H18N2O
>rt 240.000000
>profile orbitrap
#smiles_iso C1CCNC(C1)C(C2=CC=CC=C2)C(=O)N
#smiles_can C1CCNC(C1)C(C2=CC=CC=C2)C(=O)N
#inchikey LJLMNWPXAYKPGV-UHFFFAOYSA-N
#pubchem_id 86862
#mb_accession EQ358401,EQ358402,EQ358403,EQ358404,EQ358405,EQ358406,EQ358407,EQ358408,EQ358409

>ms2peaks
56.049300 1468202.900000
84.080700 613136192.000000
136.075700 9465142.000000
202.122600 4285259.000000
219.149200 512047616.000000

>ms2peaks
56.049400 2212595.500000
84.080700 826353536.000000
136.075700 10832555.000000
202.122600 5333555.000000
219.149300 186161248.000000

>ms2peaks
56.049500 8599311.000000
84.080700 1000178944.000000
91.054100 1740520.100000
119.049200 1106460.400000
136.075700 7611315.500000
174.127800 1243009.400000
202.122600 1847416.000000
219.149200 9299592.000000

>ms2peaks
55.054300 2290385.200000
56.049500 24880408.000000
67.054200 2508220.200000
84.080700 949265536.000000
91.054200 3824995.000000
119.049100 1608972.000000
136.075700 3205404.200000
174.127800 1217782.600000

>ms2peaks
55.054200 5239107.000000
56.049500 52491124.000000
67.054200 4740852.000000
69.057300 922169.800000
82.065300 1701665.000000
84.080700 820230016.000000
91.054200 5902145.500000
174.127500 898037.800000

>ms2peaks
55.054200 10629875.000000
56.049500 99162376.000000
57.069900 1208090.200000
65.038600 737889.600000
67.054200 8431189.000000
69.057300 1793526.000000
82.065200 2794497.500000
84.080700 664437248.000000
91.054200 6389481.500000
129.069600 683021.900000

>ms2peaks
54.033900 762072.800000
55.054300 23169990.000000
56.049500 180299360.000000
57.069900 1697228.200000
65.038600 2947661.800000
67.054200 15809383.000000
68.049500 1568384.500000
69.057300 6413715.500000
82.065100 4786206.500000
84.080700 342908800.000000
91.054200 6552249.000000
115.054200 723382.100000
128.062000 644833.900000

>ms2peaks
53.002200 972018.400000
53.038600 1293270.600000
54.033800 2026511.000000
55.054300 24969012.000000
56.049500 169490640.000000
57.069900 1352746.600000
65.038600 6124718.500000
67.054200 12380608.000000
68.049500 4611394.000000
69.057300 9663636.000000
80.049400 612005.000000
82.065100 4192650.800000
84.080800 115949296.000000
91.054200 5998401.500000
115.054200 1396749.200000
128.061900 794901.300000

>ms2peaks
53.002200 752591.700000
53.038600 1021397.400000
54.033900 3565608.500000
55.054300 12325709.000000
56.049500 85407184.000000
57.069900 560198.600000
63.022900 210890.900000
65.038600 6276382.500000
67.041600 883488.750000
67.054200 4696746.000000
68.049500 5960168.500000
69.057300 6073187.500000
80.049400 382986.200000
82.065100 1839339.400000
84.080800 23537106.000000
91.054200 2677582.500000
115.054300 1298613.000000
128.062000 715044.800000

