>compound EQ83706823
>parentmass 313.1434
>ionization [M+H]+
>formula C19H20O4
>rt 852.000000
>profile orbitrap
#smiles_iso CCCCOC(=O)C1=CC=CC=C1C(=O)OCC2=CC=CC=C2
#smiles_can CCCCOC(=O)C1=CC=CC=C1C(=O)OCC2=CC=CC=C2
#inchikey IRIAEXORFWYRCZ-UHFFFAOYSA-N
#pubchem_id 2347
#mb_accession EQ359701,EQ359702,EQ359703,EQ359704,EQ359705,EQ359706,EQ359707,EQ359708,EQ359709

>ms2peaks
51.022800 193030.700000
57.069700 545352.900000
65.038300 453553.200000
91.054200 117153968.000000
149.023200 76602944.000000
163.038900 182632.600000
181.049600 191044.600000
205.085900 19704786.000000

>ms2peaks
51.022900 195915.800000
57.069800 1566354.000000
65.038400 755162.900000
91.054200 159537024.000000
149.023300 68266880.000000
163.038800 161687.500000
205.085700 215428.700000

>ms2peaks
57.069800 1678229.200000
65.038500 1942939.000000
91.054200 170566832.000000
121.028500 365112.500000
149.023300 50010464.000000

>ms2peaks
51.022800 193327.500000
57.069800 994147.200000
65.038500 5735134.000000
91.054200 164836496.000000
93.033500 274173.200000
121.028400 3708175.000000
121.039600 638690.800000
149.023300 32096792.000000

>ms2peaks
51.022800 185692.100000
57.069800 554876.400000
63.022900 345594.100000
65.038500 14699824.000000
91.054200 149209808.000000
93.033500 909626.100000
111.043900 475726.700000
121.028400 6500926.500000
121.039600 2587493.500000
149.023300 13658874.000000

>ms2peaks
50.015100 170600.700000
51.022900 197907.900000
53.002200 274748.600000
57.069800 258241.400000
62.015100 205357.400000
63.022900 1332775.800000
65.038500 37088532.000000
89.038300 170033.000000
90.046200 149315.700000
91.054200 147534784.000000
93.033400 1201734.000000
111.044000 949154.600000
121.028400 4637268.500000
121.039600 3262259.200000
149.023300 4595411.500000

>ms2peaks
50.015100 598753.100000
51.022900 651802.400000
53.002200 1113836.100000
53.997400 226066.400000
61.007200 144652.500000
62.015100 535372.300000
63.022900 3344082.200000
65.038500 55664672.000000
67.989200 250158.900000
89.038500 264358.200000
90.046400 72968.400000
91.054200 68465680.000000
93.033500 299656.100000
111.044000 326031.800000
121.028500 459817.900000
121.039600 643468.300000
149.023200 160958.600000

>ms2peaks
50.015100 1563909.800000
51.022900 1641803.800000
53.002200 1801374.100000
53.997400 430991.100000
54.010000 64792.600000
61.007200 496857.300000
62.015100 1673200.600000
63.022900 5358304.500000
64.030600 57616.100000
65.038500 52330016.000000
67.989200 297142.300000
74.015100 115946.300000
79.017900 54957.600000
89.038500 255978.400000
91.054200 26319658.000000

>ms2peaks
50.015100 2299604.800000
51.022900 2285552.800000
53.002200 2035185.000000
53.997400 452303.300000
54.010000 25902.900000
61.007200 840346.000000
62.015100 2340963.000000
63.022900 4819106.500000
64.030600 47331.800000
65.038600 25412372.000000
67.989200 326967.300000
74.015000 145853.300000
75.022700 29079.500000
79.017700 102787.400000
89.038500 208979.800000
90.046300 39011.700000
91.054200 6725966.000000

