>compound EQ83706465
>parentmass 137.07089999999997
>ionization [M+H]+
>formula C7H8N2O
>rt 384.000000
>profile orbitrap
#smiles_iso CN(C1=CC=CC=C1)N=O
#smiles_can CN(C1=CC=CC=C1)N=O
#inchikey MAXCWSIJKVASQC-UHFFFAOYSA-N
#pubchem_id 11957
#mb_accession EQ335701,EQ335702,EQ335703,EQ335704,EQ335705,EQ335706

>ms2
59.024000 382275.300000
65.038500 97080.100000
66.046400 21471968.000000
77.038200 233212.800000
80.062000 725733.800000
93.069900 68400.400000
95.049100 302039.600000
105.044700 175723.600000
106.065200 369678.800000
107.073000 44231060.000000
137.071000 38738828.000000

>ms2
59.024000 369748.900000
65.038600 99073.100000
66.046400 22004110.000000
77.038300 189549.800000
80.062000 858156.900000
93.070000 90678.700000
95.049100 351523.900000
105.044800 179408.200000
106.065100 299348.200000
107.073000 45797376.000000
137.071000 40290120.000000

>ms2
53.038600 148700.100000
59.024000 327626.000000
65.038700 146906.400000
66.046400 36588852.000000
77.038400 186317.900000
80.062000 747432.900000
92.049400 57583.200000
93.069900 60708.000000
95.049200 1061497.500000
105.044700 339916.600000
106.065100 444410.900000
107.072900 37295264.000000
137.071000 18797538.000000

>ms2
51.022900 69484.100000
53.038600 354075.200000
59.024000 327648.900000
65.038600 517444.400000
66.046400 57671236.000000
77.038500 464047.500000
79.054200 77326.000000
80.062000 422267.900000
81.033500 58959.500000
92.049500 138185.400000
93.069900 70442.300000
95.049100 3590104.200000
105.044700 1062908.500000
106.065100 579297.800000
107.072900 16670331.000000
137.071000 3973759.500000

>ms2
50.015100 139068.500000
51.022900 184766.000000
53.038600 860039.800000
55.017800 68609.500000
59.024000 185765.000000
65.038600 1461873.200000
66.046400 62950696.000000
77.038500 1432810.000000
79.054200 91513.400000
80.062000 160141.000000
81.033500 127693.700000
91.054200 67287.000000
92.049500 406856.900000
95.049100 7113311.000000
105.044800 2071216.600000
106.065100 645487.600000
107.073000 4894238.500000
137.071000 760117.800000

>ms2
50.015100 275693.600000
51.023000 533089.900000
53.038600 1234404.500000
55.017900 88419.200000
59.024000 144883.400000
65.038600 3022300.500000
66.046400 56426488.000000
77.038600 1856885.000000
79.054200 170058.100000
80.062000 67851.400000
81.033500 149936.700000
81.057300 63671.900000
92.049500 928897.700000
94.041300 72825.700000
95.049200 9138409.000000
105.044800 2649368.800000
106.065200 480435.200000
107.073000 1057051.600000
137.071100 130998.800000

