>compound EQ84545347
>parentmass 167.9936
>ionization [M+H]+
>formula C7H5NS2
>rt 402.000000
>profile orbitrap
#smiles_iso C1=CC=C2C(=C1)NC(=S)S2
#smiles_can C1=CC=C2C(=C1)NC(=S)S2
#inchikey YXIWHUQXZSMYRE-UHFFFAOYSA-N
#pubchem_id 697993
#mb_accession EQ319001,EQ319002,EQ319003,EQ319004,EQ319005,EQ319006,EQ319007,EQ319008,EQ319009

>ms2peaks
92.049500 726247.900000
109.010600 670164.400000
124.021600 578295.200000
135.013700 783745.300000
136.021700 956526.900000
167.993500 467309664.000000

>ms2peaks
92.049400 579909.400000
109.010600 537224.300000
124.021500 601029.900000
135.013600 1131574.400000
136.021600 867595.100000
167.993500 462521280.000000

>ms2peaks
65.038400 532282.800000
92.049500 9896487.000000
104.049500 795145.200000
109.010600 6319882.000000
110.018500 2533533.500000
124.021600 12702572.000000
135.013700 13620053.000000
136.021600 11378766.000000
140.982600 1202596.000000
167.993500 423693536.000000

>ms2peaks
65.038600 4070351.500000
77.038200 446467.300000
80.049400 749278.100000
92.049500 29728196.000000
104.049400 1878692.900000
109.010700 22239300.000000
110.018500 10056931.000000
124.021600 37784016.000000
134.005900 799631.900000
135.013700 56540544.000000
136.021600 30161042.000000
140.982700 3213169.800000
152.016200 309153.000000
166.985800 465246.400000
167.993600 251409328.000000

>ms2peaks
51.022900 224513.100000
53.038600 280004.100000
65.038600 17527318.000000
66.046400 464637.700000
68.979100 546053.100000
77.038400 1260928.000000
80.049400 4434920.000000
84.002800 205105.400000
90.033900 875528.200000
91.041700 268704.400000
92.049500 37915280.000000
95.049100 1277456.750000
97.010700 428258.300000
104.049500 1581154.200000
105.044800 699337.500000
106.995000 223023.000000
108.002800 1243891.900000
109.010700 40938392.000000
110.018500 17685608.000000
124.021600 55757236.000000
134.005900 3505359.500000
135.013700 109879392.000000
136.021600 38542300.000000
140.982700 3235609.500000
150.001000 290980.500000
152.016300 564819.700000
166.985700 622241.200000
167.993600 116089048.000000

>ms2peaks
51.022900 213937.700000
53.038600 1557292.200000
63.022900 720920.400000
65.038600 39738404.000000
66.046400 1766382.000000
68.979300 1453759.900000
77.038500 3771114.500000
80.049400 12551745.000000
81.033500 263031.200000
84.002800 664593.200000
90.033900 3708910.200000
91.041700 1486221.200000
92.049500 28886146.000000
95.049100 5761005.000000
97.010700 1202522.400000
104.049500 948859.400000
105.044800 3186494.200000
106.995000 1165116.500000
108.002800 6013348.000000
109.010700 47942444.000000
110.018500 18345646.000000
124.021600 42853420.000000
132.998100 223076.000000
134.005900 6471219.500000
135.013700 125677904.000000
136.021500 36009408.000000
140.982700 2032779.800000
150.001000 434900.500000
152.016500 710026.400000
166.985700 743901.400000
167.993600 37215200.000000

>ms2peaks
50.015100 802688.000000
51.022800 587683.700000
53.002200 562225.800000
53.038600 5300092.000000
55.017900 345098.200000
56.049400 71425.400000
57.987200 792558.400000
59.990300 88360.900000
62.015000 77100.100000
63.022900 6200008.500000
64.018200 983889.100000
64.030700 245438.600000
65.038600 70675184.000000
66.033800 343163.400000
66.046400 5801113.000000
67.041700 91745.300000
68.979300 8366279.000000
75.022800 88189.400000
77.038500 12178894.000000
78.046400 82251.600000
80.049400 24320216.000000
81.033500 1059500.000000
81.987100 2506249.500000
82.994900 758551.600000
84.002800 1704301.100000
90.033900 13216635.000000
91.041700 6124642.000000
92.049500 7366727.500000
92.979400 744545.400000
94.041300 219051.800000
95.049200 21536186.000000
96.002800 80807.000000
97.010700 2234640.800000
103.041700 235867.300000
104.049500 198990.700000
105.044800 10391643.000000
106.995000 3149561.000000
108.002800 27396844.000000
109.010700 34882624.000000
110.018500 8723462.000000
123.013800 238518.600000
124.021600 11608028.000000
132.998100 755547.400000
134.005900 5316612.500000
135.013700 59794980.000000
136.021600 19148978.000000
140.982900 415689.400000
150.000900 221320.700000
152.016500 226623.000000
166.985700 465915.300000
167.993600 2044974.000000

>ms2peaks
50.015100 3245261.000000
51.023000 2632975.800000
52.018200 80583.700000
53.002200 1629786.000000
53.038600 6066290.000000
53.997500 350427.400000
54.046400 73620.500000
55.017800 543051.200000
56.049500 165644.700000
57.987200 2349599.800000
59.966500 57648.700000
59.990200 73541.500000
61.007300 63922.900000
62.015100 605207.600000
63.023000 12249790.000000
64.018200 3298781.000000
64.030700 873328.900000
65.038600 54377928.000000
66.033900 342390.300000
66.046400 5221468.500000
67.041700 228750.100000
68.979300 21058194.000000
70.995000 221830.800000
74.015000 96414.600000
75.022800 354541.300000
76.017900 70744.200000
76.030600 168660.000000
77.038500 12056241.000000
78.008700 54480.400000
78.046400 177398.100000
80.049400 16055981.000000
80.979300 239544.000000
81.033500 1019240.400000
81.987200 7126515.000000
82.995000 732533.400000
83.990300 191766.600000
84.002800 1279913.000000
90.033900 10444890.000000
91.041700 4942276.000000
92.049400 1044767.400000
92.979400 1923933.600000
93.974500 61606.100000
94.041300 196719.700000
95.049200 18371032.000000
96.002700 163057.100000
96.044400 93265.500000
97.010700 1229175.200000
103.041800 94603.000000
105.044800 9270779.000000
106.995000 2166434.000000
108.002800 26652552.000000
109.010700 14633327.000000
110.018500 1846748.500000
123.013700 251918.400000
124.021600 1392809.000000
132.998100 688164.900000
134.005900 1094300.600000
135.013700 10614566.000000
136.021600 5236612.000000
166.985800 62700.000000

>ms2peaks
50.015100 5191796.000000
51.023000 4826890.500000
52.018200 459264.400000
53.002200 2458583.200000
53.038600 4497286.000000
53.997500 522675.000000
54.010000 89032.600000
54.046500 208326.800000
55.017900 567222.900000
57.987200 3550461.800000
59.966500 180292.600000
59.990300 242870.400000
61.007300 332912.700000
62.015100 1886060.100000
63.023000 15067215.000000
64.018200 7026841.000000
64.030700 1326270.200000
65.038600 33896132.000000
66.033900 237955.600000
66.046400 3502433.500000
67.041700 216673.000000
68.979400 36985100.000000
70.995000 305809.800000
74.015100 418681.800000
75.022900 535007.200000
76.018100 236110.800000
76.030700 196248.500000
77.038600 8391312.000000
78.008500 66900.500000
78.046400 76172.500000
80.049500 7821804.000000
80.979400 808475.900000
81.033500 395838.400000
81.987200 12054236.000000
82.994900 396157.700000
83.990300 73402.400000
84.002900 719963.200000
90.033900 5161231.000000
91.041700 2743040.500000
92.049500 85405.000000
92.979400 3836812.500000
93.974700 271619.200000
94.041300 63218.400000
96.002800 165905.800000
96.044500 61953.900000
97.010700 507516.900000
103.041700 56435.000000
105.044800 4777025.000000
106.995000 1552540.600000
108.002800 15836983.000000
109.010700 5444692.000000
110.018500 279598.300000
132.998200 463195.900000
134.005900 397702.400000
135.013800 1396373.600000
136.021600 977877.200000

