>compound EQ84770332
>parentmass 262.07099999999997
>ionization [M+H]+
>formula C13H11NO5
>rt 54.000000
>profile orbitrap
#smiles_iso CCN1C=C(C(=O)C2=CC3=C(C=C21)OCO3)C(=O)O
#smiles_can CCN1C=C(C(=O)C2=CC3=C(C=C21)OCO3)C(=O)O
#inchikey KYGZCKSPAKDVKC-UHFFFAOYSA-N
#pubchem_id 4628
#mb_accession EQ360901,EQ360902,EQ360903,EQ360904,EQ360905,EQ360906,EQ360907,EQ360908,EQ360909

>ms2peaks
244.060400 4810490.000000
262.070900 26910634.000000

>ms2peaks
244.060500 9651086.000000
262.070900 23181370.000000

>ms2peaks
118.065100 33092.000000
146.060000 45251.700000
148.039200 66103.400000
158.060100 90942.400000
160.039000 26028.300000
172.039100 38616.400000
176.070700 46115.100000
186.054700 23358.200000
188.034500 23622.300000
188.070500 54612.400000
200.070500 113047.900000
201.042100 28606.300000
215.020600 66183.800000
216.029200 243409.700000
216.065500 278993.900000
229.037400 23858.600000
234.039800 488435.400000
244.060500 10574267.000000
262.070900 21296172.000000

>ms2peaks
103.054100 16527.200000
106.028800 14036.800000
115.054200 31937.300000
117.057300 14128.400000
118.065100 355947.400000
130.065200 416871.000000
132.080800 47206.400000
133.028200 16266.800000
142.065100 157381.900000
143.049100 27003.100000
146.060000 375970.800000
148.039300 665218.300000
158.023700 157043.000000
158.060100 1087781.200000
160.039300 626737.800000
163.026500 23720.000000
170.060100 134403.200000
172.039300 507272.200000
173.047200 122086.200000
174.055100 18142.000000
176.034200 101212.800000
176.070700 282521.100000
177.042000 15477.600000
177.065700 17186.500000
186.018500 18526.100000
186.055000 280334.400000
187.026500 79876.500000
187.062700 104626.400000
188.034300 590067.700000
188.070600 382740.100000
198.055000 20832.300000
199.063000 13819.000000
200.070600 509782.100000
201.042100 248933.500000
204.029300 13836.900000
214.013400 84151.900000
214.049600 51640.900000
215.021400 528521.300000
216.029300 1286347.400000
216.065600 1109682.000000
229.037100 266493.000000
232.060300 18162.700000
233.032000 306773.600000
234.039800 3103214.000000
242.044600 30864.900000
244.060500 6533647.000000
247.047000 24527.800000
248.055600 21214.400000
262.071000 11274754.000000

>ms2peaks
51.022800 6649.200000
52.018000 10486.200000
53.002200 21377.600000
53.038600 19216.200000
55.017800 17116.600000
62.015000 4160.700000
63.022700 6321.100000
65.038500 107415.400000
68.013200 3916.200000
68.997100 19368.900000
75.022800 13678.100000
77.038300 28866.300000
79.054200 44486.500000
80.049500 13547.700000
81.033400 6189.600000
87.022700 4832.500000
89.038600 20135.800000
90.033900 4543.900000
91.041600 4450.500000
91.054200 75789.200000
92.049400 5502.600000
95.012900 12418.500000
95.049200 30476.800000
96.044500 13521.700000
102.033700 25444.900000
103.054200 160212.700000
104.049400 155391.000000
105.033600 24761.400000
105.044700 18644.000000
105.070000 14649.800000
106.028700 62220.200000
106.065000 31070.500000
107.012700 7239.100000
107.036500 5487.000000
109.028500 29285.200000
114.033900 28061.700000
115.054200 110849.000000
116.049400 16545.400000
117.033500 7003.100000
117.057200 76005.900000
118.065100 780661.700000
119.049100 5520.300000
120.020500 7621.600000
120.044400 26852.000000
121.028400 47184.400000
121.052200 12154.500000
128.049200 17563.400000
129.057500 3767.100000
130.028800 158228.600000
130.065200 1648012.900000
131.036500 14397.400000
131.049200 26129.800000
131.073000 42157.900000
132.044400 94680.200000
132.080800 127453.000000
133.028400 229578.000000
134.023500 27132.800000
135.031500 4440.500000
136.039300 55593.300000
137.023500 37776.900000
139.039100 26676.500000
140.049600 13741.700000
142.028800 32952.900000
142.065200 312840.300000
143.049400 24874.600000
143.072900 7070.900000
144.044400 24544.700000
144.081000 4966.600000
145.052300 17845.100000
146.060000 503355.200000
148.039300 1387424.900000
149.023300 14349.200000
149.034600 71745.100000
149.047300 12877.600000
156.044400 7056.100000
157.051900 7181.200000
158.023700 785821.400000
158.060100 1929828.500000
159.031400 15451.100000
159.067900 43402.500000
160.039300 3456824.500000
161.023200 23953.900000
161.046900 15512.300000
161.059900 4582.700000
163.026400 71955.200000
164.034000 34134.400000
167.070500 11999.000000
170.060100 194881.500000
171.031900 4639.600000
172.039300 1738912.600000
173.047200 517661.800000
174.018300 6592.100000
174.055000 50656.500000
175.026600 5976.600000
176.034200 378105.400000
176.070600 243166.600000
177.042100 54526.400000
177.065800 38096.000000
185.046900 4487.100000
186.018500 165578.200000
186.055000 402121.900000
187.026400 318136.500000
187.062800 275982.500000
188.034200 1208082.600000
188.070600 402864.800000
189.042200 19996.600000
190.050100 15049.000000
198.055300 23863.400000
199.026500 3722.900000
199.062900 21299.000000
200.070600 502813.900000
201.042100 321038.600000
203.021900 4612.300000
204.029400 39689.100000
204.065900 19024.300000
205.036800 11863.100000
206.044600 4822.200000
214.013600 441712.500000
214.049800 66084.900000
215.021400 1128906.100000
216.029300 1173167.000000
216.065600 802457.100000
226.050300 4998.200000
228.029300 22088.600000
229.037100 452367.400000
232.024000 39584.700000
232.060600 14768.400000
233.032000 663040.100000
234.039800 3142747.800000
242.044600 40607.200000
244.060500 1805627.500000
247.047700 44475.300000
248.055300 17570.500000
260.056100 4558.100000
262.071100 2559065.800000

>ms2peaks
50.014900 21191.900000
51.022800 28683.400000
52.018100 20520.100000
53.002100 31259.800000
53.038600 68332.000000
55.017900 55608.500000
62.014900 5394.300000
63.022700 31014.300000
65.038600 542689.100000
68.013000 35885.700000
68.997100 38911.900000
74.014700 5048.200000
75.022800 73157.600000
76.030600 5794.500000
77.038500 162983.000000
78.033800 32121.500000
79.054200 62981.400000
80.012900 10952.100000
80.049400 12151.800000
81.033500 17722.600000
87.022800 21970.200000
89.038500 64730.200000
90.033700 20986.300000
91.041600 15816.500000
91.054200 231685.200000
92.025700 4954.500000
92.049400 22385.100000
93.033500 6584.900000
93.069900 6604.100000
95.012700 35072.200000
95.049100 191223.300000
96.044400 93261.400000
101.025900 28519.400000
102.033800 206644.400000
102.046400 18618.700000
103.017800 32666.400000
103.041600 42814.800000
103.054200 551698.600000
104.049400 533804.000000
105.033500 149740.600000
105.044700 144220.000000
105.069700 18875.900000
106.028800 51996.100000
106.065100 36566.900000
107.012700 12848.100000
107.036500 15110.100000
108.044500 5568.900000
109.028400 45698.700000
111.043900 5586.900000
114.033800 152866.400000
115.041600 12821.500000
115.054200 173820.400000
116.049500 57612.900000
117.033600 14190.400000
117.057300 217211.300000
118.065100 811659.600000
119.036500 14213.900000
119.049200 17402.200000
120.020600 57551.400000
120.044400 39040.200000
121.028300 107456.600000
121.039500 7126.700000
121.052100 14287.100000
125.023300 11794.800000
128.049500 47419.300000
129.021100 27997.000000
129.057500 26180.200000
130.028800 512654.500000
130.065200 2133400.200000
131.036500 54902.900000
131.049100 35720.500000
131.073000 94015.600000
132.020700 21060.100000
132.044400 318984.500000
132.080800 110863.300000
133.028400 878112.200000
134.023500 15582.600000
134.060100 11722.200000
136.039400 49313.000000
137.023300 37214.200000
139.039000 50923.300000
140.049600 11043.900000
141.057300 19712.600000
142.028800 122473.600000
142.065200 211158.200000
143.036600 17548.600000
143.049300 12369.900000
143.072600 11511.500000
144.044600 36573.300000
144.080700 6323.600000
145.028500 13138.300000
145.052200 31878.200000
146.060000 295810.000000
147.031700 25496.700000
148.039300 1045423.200000
149.023400 13244.000000
149.034600 231701.400000
149.047200 13065.200000
156.007900 6185.000000
156.044400 11530.000000
157.015800 19048.000000
157.052000 21222.300000
158.023700 906646.400000
158.060100 1078001.400000
159.031500 66691.700000
159.067900 49438.200000
160.039300 4607183.500000
161.023100 14471.500000
161.047000 17430.200000
161.059400 7351.100000
162.018700 13623.000000
163.026400 64214.900000
164.034200 22980.200000
167.070200 6423.400000
170.060000 91897.200000
171.031700 7127.100000
172.039300 2247954.200000
173.047200 684514.800000
174.018400 13137.600000
174.055400 29372.500000
176.034200 344692.800000
176.070500 59743.900000
177.042200 50308.300000
177.065700 32895.100000
185.047300 11858.800000
186.018600 618794.400000
186.055000 170905.300000
187.026400 371310.100000
187.062700 238832.200000
188.011200 36468.100000
188.034200 715987.200000
188.070600 131766.200000
189.041900 6930.300000
190.013500 14805.200000
190.049800 17120.200000
198.054800 14576.600000
199.026600 6278.800000
200.033900 21364.600000
200.070600 179260.300000
201.042000 114092.700000
203.021600 6491.000000
204.029500 21932.600000
204.065700 6078.500000
205.037000 27025.500000
206.044400 5659.900000
214.013500 1062956.400000
215.021300 704869.200000
216.029200 340352.400000
216.065500 167040.900000
228.029400 29795.100000
229.037000 228417.700000
232.024000 145244.900000
233.031900 432083.300000
234.039700 991623.200000
242.045000 10983.100000
244.060500 191836.400000
247.047800 24114.000000
262.071000 256886.500000

>ms2peaks
50.015100 141085.700000
51.010300 12692.100000
51.022900 82849.800000
52.018200 202280.000000
52.030700 10609.700000
53.002200 113725.600000
53.038600 217216.200000
54.033800 17087.100000
55.017900 65505.400000
61.007200 3261.500000
62.015000 25318.800000
63.022900 207929.800000
64.018200 12394.000000
64.030700 17713.800000
65.038600 1662014.800000
66.033800 21781.400000
66.046400 55281.800000
67.017800 12970.000000
67.054200 11391.800000
68.013100 116859.000000
68.997100 57260.900000
74.015000 85348.200000
75.022900 787369.700000
76.018100 64660.100000
76.030700 125197.000000
77.038500 685457.600000
78.033800 127620.000000
78.046400 18087.300000
79.017800 14318.000000
79.041600 13491.100000
79.054200 36315.600000
80.013100 29392.900000
80.049500 17906.400000
81.033500 51216.700000
87.022900 186575.100000
88.018200 47324.100000
88.030700 17930.000000
89.038600 323787.600000
90.033900 49309.400000
90.046500 75707.100000
91.041700 72919.100000
91.054200 399748.800000
92.025700 23606.600000
92.049400 34147.800000
93.033500 15418.200000
93.070000 5578.100000
94.041300 16862.400000
95.049100 701225.200000
96.044400 310017.700000
100.018100 17419.200000
101.026000 345950.100000
102.033800 957572.200000
102.046400 110242.300000
103.017800 97132.900000
103.041600 175442.200000
103.054200 895892.600000
104.049400 719698.100000
105.033500 374726.300000
105.044700 486735.000000
106.028600 31032.500000
106.041500 4972.900000
106.065200 11331.200000
107.036700 3084.900000
108.044300 5793.300000
109.028400 18492.300000
111.044100 15190.400000
113.038500 20551.500000
114.033900 770142.700000
115.041700 91976.600000
115.054200 174992.000000
116.049500 152563.200000
117.057300 375677.400000
118.028800 65773.300000
118.065100 319509.800000
119.012800 57839.500000
119.036600 66417.700000
119.049200 12045.700000
120.020600 178236.400000
120.044400 100856.700000
121.028500 91335.800000
121.039800 6483.800000
125.023600 6044.400000
127.041800 6607.200000
128.049500 113231.300000
129.020900 73059.900000
129.044700 35769.700000
129.057400 48446.300000
130.028800 605594.300000
130.040000 263875.100000
130.065200 829414.800000
131.036700 56871.400000
131.049200 16450.900000
131.073000 87349.400000
132.020600 58410.000000
132.044400 439487.800000
133.028400 1251547.900000
134.023500 4378.100000
134.060100 27264.600000
135.031500 4587.100000
136.039400 16431.900000
137.023400 5217.000000
139.038900 32270.800000
140.049400 25457.200000
141.057200 29679.400000
142.028800 196461.800000
142.065100 40782.200000
143.036500 21222.600000
144.044400 52103.300000
145.028500 24030.000000
145.052500 20181.600000
146.036200 33093.100000
146.060100 48602.600000
147.031600 50261.500000
148.039200 130323.000000
149.034600 145516.400000
151.026300 20779.200000
156.007900 15412.700000
156.044400 6721.400000
157.016000 33386.900000
157.052300 16638.400000
158.023700 255922.700000
158.060000 98293.100000
159.031500 66577.600000
159.068000 14456.600000
160.039300 1002285.400000
161.047200 13389.200000
162.018500 14179.800000
163.026000 5108.400000
164.010200 21772.000000
164.034200 5350.100000
170.034900 67144.400000
170.060100 4352.500000
171.031500 6416.400000
172.039300 1313899.600000
173.047100 128190.100000
174.018700 13476.700000
174.054800 4970.800000
175.027100 4309.000000
176.034300 43923.100000
177.042400 13127.300000
186.018600 948642.700000
187.026500 58173.800000
187.062700 32959.900000
188.010400 10773.800000
188.034400 41095.700000
188.070800 3231.200000
190.013500 4461.600000
200.034200 21040.900000
200.070300 3669.800000
203.021100 3474.600000
204.029400 13792.400000
205.036500 10604.400000
214.013500 583686.100000
215.021300 42422.500000
216.029100 3475.300000
228.028900 5495.600000
232.024100 82350.400000
233.032100 21665.400000
234.039800 19118.800000

>ms2peaks
50.015100 339408.100000
51.023000 221117.500000
52.018200 448430.000000
53.002200 194844.100000
53.038600 175023.800000
53.997500 4494.700000
54.033800 25092.000000
55.017900 43447.100000
56.049500 12317.100000
61.007300 34124.300000
62.015100 134661.300000
63.022900 537783.100000
64.018100 35734.200000
64.030800 26066.800000
65.038600 1231684.800000
66.010000 11795.100000
66.033900 15459.000000
66.046400 68656.700000
67.017900 5718.800000
67.041700 4958.600000
67.054200 4936.700000
68.013100 161377.900000
68.997100 40865.300000
74.015100 420205.100000
75.010300 241609.000000
75.022900 1916017.900000
76.018100 253312.100000
76.030700 292402.900000
77.002200 45098.800000
77.038500 511940.900000
78.033800 155244.600000
78.046400 35862.700000
79.017800 20387.300000
79.041700 5461.500000
79.054300 12031.600000
80.013100 33675.300000
80.049400 6421.700000
81.033500 45487.600000
86.015100 24833.900000
87.022900 384505.100000
88.018200 184449.700000
88.030700 72582.700000
89.038600 474195.200000
90.033900 38957.200000
90.046400 86545.200000
91.017900 17394.000000
91.041600 45147.100000
91.054200 253802.400000
92.025600 14120.600000
92.049500 19539.300000
93.033600 2961.500000
94.041400 28250.300000
95.049200 626074.200000
96.044400 239341.400000
99.010200 10363.400000
100.018200 42703.800000
101.026000 423857.700000
102.033800 677499.800000
102.046400 128633.900000
103.017800 104177.000000
103.041700 94498.700000
103.054200 335679.200000
104.013000 12187.400000
104.049500 219021.400000
105.033500 134687.300000
105.044700 445358.600000
106.028800 15268.100000
106.041700 4019.400000
108.044300 2612.000000
113.038500 20661.600000
114.033900 783906.800000
115.041700 63883.900000
115.054200 80435.900000
116.049500 128658.900000
117.057300 217537.800000
118.028700 32165.400000
118.065100 60827.900000
119.012800 160208.700000
119.036600 57797.400000
119.049500 11073.200000
120.020600 122357.700000
120.044400 44854.400000
121.028500 22143.200000
121.039800 2879.000000
127.041600 3936.600000
128.013100 13392.800000
128.049500 72381.600000
129.020900 13576.100000
129.044800 52237.300000
129.057300 16759.900000
130.028800 220930.700000
130.040000 175177.600000
130.065100 180440.000000
131.036700 11818.100000
131.072900 12420.200000
132.020600 55047.400000
132.044400 180054.100000
133.028400 416739.400000
134.060100 13786.200000
135.031400 10560.200000
136.039400 3506.800000
139.038900 4165.900000
140.049500 10603.100000
141.057300 14549.700000
142.028800 55049.100000
142.065300 12637.100000
143.036600 5176.600000
144.044400 25040.600000
145.028400 3430.100000
146.036400 12137.600000
146.060200 21232.500000
148.039400 5923.800000
149.034600 24489.200000
151.026500 12593.200000
156.008200 6170.300000
157.015700 11694.600000
158.023700 45080.100000
158.060200 6393.900000
159.031700 6449.700000
160.039300 66331.700000
161.047300 4083.000000
164.010500 26208.900000
170.035000 29724.500000
172.039300 271174.100000
173.047100 4439.500000
176.033700 3296.500000
186.018600 185298.200000
200.034500 2905.100000
214.013600 47230.900000
232.023800 3658.900000

>ms2peaks
50.015100 609099.300000
51.010400 25286.400000
51.023000 402692.700000
52.018200 587026.800000
53.002200 311647.500000
53.038600 115697.100000
53.997500 5231.800000
54.033900 22532.200000
55.017900 23024.800000
56.049500 2703.200000
61.007300 114369.700000
62.015100 324204.600000
63.023000 806381.400000
64.018200 48795.600000
64.030800 23333.400000
65.038600 657641.000000
66.010100 22154.400000
66.033800 4742.900000
66.046500 46566.900000
67.041700 4505.400000
68.013100 151501.600000
68.997100 45567.200000
74.015100 1154610.900000
75.010300 552947.100000
75.022900 2233516.800000
76.018100 468811.500000
76.030700 242542.000000
77.002100 75421.300000
77.038500 254686.900000
78.033800 136310.300000
78.046400 31274.600000
79.017900 23224.000000
79.054100 3242.000000
80.013100 17919.800000
80.049400 10123.700000
81.033500 22514.600000
86.015100 103197.200000
87.023000 365852.900000
88.018200 260830.500000
88.030700 62509.500000
89.038600 394770.400000
90.034000 25229.300000
90.046400 75112.800000
91.017900 6370.700000
91.041700 20674.200000
91.054200 96494.300000
92.025700 9449.500000
92.049400 3554.700000
94.041300 11143.300000
95.049200 331966.100000
96.044400 101031.800000
99.010300 31493.100000
100.018200 63699.000000
101.026100 144217.100000
102.033800 218041.600000
102.046400 69259.800000
103.017800 44356.800000
103.041600 22550.800000
103.054200 78776.100000
104.013100 10481.700000
104.049500 43961.900000
105.033600 29027.700000
105.044800 261677.700000
106.028700 5845.200000
113.038600 13927.000000
114.033900 304675.800000
115.041600 31603.400000
115.054300 23284.600000
116.049400 38741.600000
117.057300 90933.300000
118.028600 3710.700000
118.065200 3886.900000
119.012800 196652.300000
119.036500 11917.300000
120.020600 51231.900000
120.044600 19745.300000
128.013100 5573.800000
128.049500 22562.300000
129.044700 24088.900000
129.057100 3233.100000
130.028900 42035.600000
130.040000 50367.400000
130.065200 42073.400000
131.036500 3726.800000
132.020500 14528.400000
132.044600 31321.600000
133.028400 77827.600000
134.060200 4165.000000
140.049300 3502.000000
142.028800 4989.400000
146.060300 3405.000000
149.034700 3595.000000
151.026100 2920.400000
158.023900 3297.700000
164.010500 9480.200000
172.039400 25486.300000
186.018200 11860.100000

