>compound EQ85046098
>parentmass 375.9614000000001
>ionization [M+H]+
>formula C13H12BrCl2N3O
>rt 654.000000
>profile orbitrap
#smiles_iso C1C(COC1(CN2C=NC=N2)C3=C(C=C(C=C3)Cl)Cl)Br
#smiles_can C1C(COC1(CN2C=NC=N2)C3=C(C=C(C=C3)Cl)Cl)Br
#inchikey HJJVPARKXDDIQD-UHFFFAOYSA-N
#pubchem_id 3444
#mb_accession EQ370001,EQ370002,EQ370003,EQ370004,EQ370005,EQ370006,EQ370007,EQ370008,EQ370009

>ms2peaks
70.040000 292764.100000
158.976000 328019.800000
172.954800 21775.000000
227.002700 76273.700000
306.928800 85113.300000
375.961600 9447042.000000

>ms2peaks
70.040000 2224453.200000
158.976400 5358054.500000
162.023100 6712.600000
164.038600 7692.200000
172.955700 373560.500000
184.992200 19374.700000
186.971200 22916.700000
196.992200 70640.500000
199.007700 82535.100000
208.991800 16102.200000
227.002700 307940.300000
296.035400 29511.800000
306.928900 225181.600000
375.961700 1958334.200000

>ms2peaks
70.040000 1992445.000000
118.949200 10811.500000
122.999400 9663.700000
129.069600 10165.300000
158.976400 8208147.000000
162.023200 38461.500000
163.030800 21411.200000
164.038800 75866.600000
172.955800 782135.500000
184.992100 28405.500000
186.971000 10612.000000
192.033400 12322.300000
196.992200 52269.900000
199.007700 57059.800000
208.992200 20422.600000
227.002700 29139.000000
306.928900 10231.300000
375.961700 28041.500000

>ms2peaks
70.040000 1420774.000000
89.038300 10460.100000
118.949200 17243.900000
122.999700 63520.500000
124.007400 13317.200000
128.062300 16042.500000
129.070000 70133.800000
150.023000 17525.400000
158.976400 7955020.000000
162.023200 63918.100000
163.030800 21079.600000
164.038700 75440.900000
172.955800 719400.300000
172.966600 66367.000000
184.991800 10534.900000
192.033500 8741.600000
196.992100 11945.700000
199.007400 13391.100000
208.992000 16729.900000

>ms2peaks
70.040000 1236332.600000
72.983800 9572.100000
84.984000 15026.600000
86.963300 7683.500000
89.038600 44790.100000
98.999700 66871.800000
108.983900 16754.900000
115.054500 9774.800000
118.949300 21804.200000
122.999700 438141.700000
124.007600 113843.300000
126.994500 12100.600000
128.002400 18424.400000
128.062300 28874.800000
129.070000 123784.400000
132.960700 46908.400000
144.960600 20103.100000
149.015700 10145.700000
150.023000 14716.000000
155.061000 8055.200000
158.976400 7300317.000000
162.023200 57619.600000
162.971000 21153.900000
163.030400 9806.200000
164.038600 26814.900000
172.955800 440342.700000
172.967000 254404.000000
175.031200 11898.400000
182.975800 7474.500000

>ms2peaks
63.022800 15331.300000
65.038600 12528.500000
68.025800 6790.000000
70.040000 1007859.300000
72.983900 50808.800000
74.015000 12230.400000
84.984000 18678.500000
86.963300 32433.700000
89.038600 265021.200000
92.933500 11134.000000
96.984100 18668.400000
98.999700 281512.500000
100.007500 11324.300000
108.984100 97899.900000
115.054300 16244.000000
118.949300 21173.800000
120.960500 8210.500000
122.999700 1240257.400000
124.007600 385770.200000
126.994700 18354.900000
128.002400 22496.300000
128.062200 63298.100000
129.070000 134671.700000
132.960700 165780.400000
144.960700 46963.700000
149.015600 15599.700000
150.022900 7379.300000
155.060800 17164.800000
155.997100 7562.000000
158.976400 5863560.000000
162.023200 52203.400000
162.971200 42469.200000
164.038400 7593.200000
172.955800 174377.600000
172.967000 353758.200000
175.031000 6851.600000
182.976000 8245.400000

>ms2peaks
53.038700 1962.600000
61.007300 5037.300000
62.015100 22832.600000
63.023000 120681.200000
64.030800 5053.400000
65.038700 18759.000000
68.025800 9086.800000
70.040000 650729.600000
72.984000 405065.000000
74.015100 120077.600000
74.999700 24014.800000
75.022900 16704.800000
76.030900 2315.700000
82.040000 7151.300000
82.945000 20644.700000
84.984100 13763.800000
86.963400 79386.300000
87.023100 17020.000000
88.030800 37360.500000
89.038600 1604137.100000
92.025800 6213.900000
92.933600 15172.900000
93.033600 10523.700000
95.049300 5123.900000
96.984100 165905.900000
98.999700 723944.100000
100.007500 18780.700000
102.046500 8401.300000
103.054300 2042.800000
106.945100 11076.600000
106.948800 1793.500000
108.984100 333957.800000
109.991800 13199.400000
112.979100 2120.700000
113.015500 4111.300000
115.054400 30091.900000
118.949400 8608.100000
120.020800 20724.700000
120.960700 4752.200000
121.028600 5710.200000
122.999700 1756451.800000
124.007600 600149.000000
126.046600 13818.200000
126.994700 8654.000000
127.054300 14630.800000
128.002500 9364.400000
128.062200 129257.600000
129.070000 43597.200000
132.960800 333215.700000
139.054400 12105.800000
144.960800 44883.500000
145.065000 15692.500000
149.015500 19341.900000
152.002400 2096.300000
155.060600 32011.400000
155.997300 16508.900000
158.976500 1455284.800000
162.023300 17419.000000
162.971300 14163.400000
172.956200 11032.500000
172.967000 131744.200000
182.976400 4353.300000

>ms2peaks
50.015100 3786.800000
53.002300 7355.200000
53.038600 4969.300000
61.007300 18456.200000
62.015200 121936.300000
63.023000 389061.600000
64.030800 8911.600000
65.038600 9239.800000
66.046500 4197.800000
70.040000 351025.900000
72.984000 972311.700000
74.015100 364293.400000
74.999700 26571.100000
75.023000 50971.400000
76.030800 7198.100000
78.046400 6296.700000
79.017800 10781.200000
82.040000 5712.500000
82.945000 69612.800000
83.976300 6566.100000
84.984100 15252.600000
86.015100 7485.200000
86.963400 33583.100000
87.023100 42830.000000
88.030900 86620.700000
89.038600 2333744.200000
92.933600 14663.200000
93.033700 4122.900000
95.049200 12936.500000
96.984100 320194.900000
98.999700 547965.800000
100.007500 5780.600000
102.046500 18724.900000
103.054300 5211.600000
105.044900 7011.200000
106.945100 22083.200000
108.984100 271576.900000
109.991900 15887.000000
113.038600 7883.800000
115.054400 31578.000000
118.949300 3661.200000
120.020700 44787.200000
121.028500 3687.400000
122.999700 787234.900000
124.007600 205688.800000
126.046600 20593.000000
127.054300 21198.400000
128.062200 123481.000000
129.070100 6765.800000
132.057100 4345.900000
132.960800 201070.200000
139.054300 12555.700000
144.960800 9806.400000
145.064900 14694.800000
149.015500 11238.600000
155.060600 25866.600000
155.997200 7769.200000
158.976500 171470.700000
172.967000 19935.000000

>ms2peaks
50.015100 9415.400000
53.002300 15785.800000
53.038600 6621.600000
61.007300 57324.800000
62.015200 315527.000000
63.023000 825973.200000
64.030800 7910.300000
65.038600 8607.900000
66.046500 3410.700000
70.040000 166143.300000
72.984000 1185468.600000
74.015100 571506.800000
74.999700 14682.900000
75.023000 98169.600000
76.030800 12554.600000
77.038500 6074.300000
78.046500 12271.100000
79.017900 35750.800000
82.040000 3978.000000
82.945000 109181.500000
83.976200 14710.700000
84.984000 16867.100000
86.015200 27889.900000
86.963400 5507.000000
87.023100 60166.300000
88.030900 90700.900000
89.038600 1817294.200000
92.933500 19611.900000
95.049200 17180.000000
96.984100 276319.300000
98.015300 4992.400000
98.999700 230807.700000
102.046500 29951.300000
105.044900 11932.700000
106.945100 34114.200000
106.948700 2045.500000
108.984100 100949.800000
109.991900 7258.300000
113.038700 14338.300000
114.046400 2056.600000
115.054300 21396.100000
120.020700 32686.400000
122.999700 207048.600000
124.007600 29191.500000
126.046600 13982.400000
127.054300 13139.000000
128.062200 67712.100000
129.044900 3269.500000
132.057100 3413.400000
132.960800 63623.400000
139.054400 6414.000000
145.064900 8936.800000
149.015500 4731.000000
155.060400 14338.900000
158.976500 15402.700000

