>compound EQ85563208
>parentmass 453.2748000000001
>ionization [M+H]+
>formula C27H36N2O4
>rt 582.000000
>profile orbitrap
#smiles_iso CCOC1=C(C=CC(=C1)CC(=O)NC(CC(C)C)C2=CC=CC=C2N3CCCCC3)C(=O)O
#smiles_can CCOC1=C(C=CC(=C1)CC(=O)NC(CC(C)C)C2=CC=CC=C2N3CCCCC3)C(=O)O
#inchikey FAEKWTJYAYMJKF-UHFFFAOYSA-N
#pubchem_id 4547
#mb_accession EQ334901,EQ334902,EQ334903,EQ334904,EQ334905,EQ334906,EQ334907,EQ334908,EQ334909

>ms2peaks
86.096300 9274069.000000
162.127700 93637656.000000
230.190200 60411940.000000
292.154300 26384028.000000
453.274700 1247676928.000000

>ms2peaks
86.096400 276054016.000000
162.127700 198997184.000000
174.127800 4178142.000000
179.070100 2011472.500000
189.054600 1530227.100000
207.065200 4541517.500000
230.190300 619611456.000000
231.193800 667684.100000
292.154400 30843476.000000
453.274900 36871720.000000

>ms2peaks
69.069900 1242987.000000
86.096400 236713616.000000
91.054200 1101152.400000
106.065100 4283761.000000
117.057300 770357.300000
118.065000 2847777.500000
120.080800 939358.800000
130.065000 1292541.000000
131.073000 856500.100000
132.080800 2444090.200000
144.080600 991402.500000
145.088500 779875.600000
146.096500 14001785.000000
158.096200 1417909.200000
159.104200 1225398.500000
160.112200 1949176.900000
162.127700 106274528.000000
172.112100 4767923.500000
173.120000 2381576.200000
174.127800 101814584.000000
179.070300 8268655.500000
186.127700 1419984.800000
187.135600 768983.600000
188.143500 1558950.500000
189.054600 5464282.000000
202.159100 4935298.000000
207.065300 857911.300000
228.175400 1322582.600000
230.190300 744232640.000000
231.193800 1042560.100000

>ms2peaks
55.054200 1982436.500000
57.069900 1410348.200000
65.038600 476344.100000
67.054200 1332107.800000
69.069900 7285080.000000
77.038300 454972.100000
79.054100 751559.500000
86.096400 119973016.000000
91.054100 6086207.500000
94.065200 1356493.900000
95.085500 736421.300000
105.033500 1920294.900000
105.070000 1193523.600000
106.065100 26650118.000000
107.049100 864129.100000
108.080700 940455.600000
117.057200 3817550.500000
118.065100 39443808.000000
119.073000 513068.900000
120.080800 10623818.000000
123.044000 735208.600000
129.069900 716479.600000
130.065200 12926032.000000
131.073000 12620481.000000
132.080800 25528850.000000
133.064800 891097.800000
133.088600 1792846.000000
134.096600 892584.700000
144.080800 15230356.000000
145.088600 8546238.000000
146.096500 104942672.000000
151.039200 1391874.400000
158.096500 14469424.000000
159.104300 11859757.000000
160.112100 11248554.000000
161.023300 540533.900000
161.059700 1617186.200000
161.120000 1146879.900000
162.127700 62659740.000000
172.112100 47166976.000000
173.120000 10825790.000000
174.127800 263642016.000000
179.070200 7789275.000000
184.112300 814362.600000
186.127700 9943251.000000
187.135700 2948612.200000
188.143400 5565258.500000
189.054600 2704979.000000
200.143200 1020426.200000
202.159100 11514819.000000
228.174900 2342690.500000
230.190400 355510112.000000
231.194100 462553.700000

>ms2peaks
51.022800 436403.300000
53.002300 1090607.200000
53.038600 498920.800000
55.054200 4269830.500000
56.049600 199068.000000
57.069900 2226046.800000
65.038500 1832384.600000
67.054200 3232084.800000
67.989300 267471.500000
68.049600 175449.000000
69.069900 8340191.000000
71.085600 209790.100000
77.038400 976343.400000
79.054300 2535243.200000
80.049500 180435.800000
81.069800 440709.600000
82.065100 764312.300000
84.080800 574206.600000
86.096400 41060216.000000
89.038400 273685.100000
90.046400 163451.200000
91.054200 24593606.000000
92.062100 168274.500000
93.057300 1097078.000000
93.069900 677472.900000
94.065200 2918751.800000
95.049100 984581.200000
95.085600 920212.100000
103.054300 911976.200000
104.049400 1521922.100000
104.062100 248309.300000
105.033500 7296711.500000
105.070000 4708059.000000
106.065200 46515080.000000
107.049100 1533142.400000
107.072900 573434.700000
108.080700 926235.800000
109.065000 1280557.200000
115.054400 1208755.800000
117.057300 21760418.000000
117.069800 1727390.800000
118.065100 99719680.000000
119.060500 979190.100000
119.072900 1664224.500000
119.085500 466115.500000
120.080800 19805124.000000
123.044000 1544642.100000
128.062200 533730.400000
129.069900 2658659.800000
130.065200 48039436.000000
131.073000 44425172.000000
132.080800 46891480.000000
133.064900 771189.500000
133.088600 2904302.500000
134.096500 1228553.100000
135.044100 465454.200000
142.077700 763873.600000
143.072900 1562285.600000
144.080900 50104652.000000
145.088700 17471704.000000
146.096500 131437872.000000
151.039000 1831991.400000
156.080900 280331.300000
157.088500 1616624.600000
158.096500 39392184.000000
159.104300 21608024.000000
160.112100 13100011.000000
161.023400 2095529.100000
161.059800 1119916.000000
161.120100 1011251.800000
162.127700 25337430.000000
170.096300 990886.900000
171.104200 747496.500000
172.112100 110149952.000000
173.120000 8750121.000000
174.127800 147194512.000000
179.070400 2149498.500000
184.112000 2120481.500000
186.127800 19536848.000000
187.135700 1494718.900000
188.143400 3723499.500000
189.055200 453984.300000
200.143400 1109999.900000
202.159000 4254043.000000
214.158800 896455.800000
215.167700 147787.500000
228.174800 1674305.500000
230.190400 66109084.000000

>ms2peaks
50.015000 228770.100000
51.022800 308144.300000
52.018300 125557.700000
53.002200 1438280.000000
53.038600 585826.700000
53.997500 130906.300000
54.033800 237782.300000
55.054300 4661697.000000
56.049500 246734.100000
57.069900 1480549.800000
63.022700 383605.700000
65.038600 4273001.000000
67.041600 195061.500000
67.054200 3039659.200000
67.989200 242304.200000
68.049400 130995.700000
69.069900 5256088.500000
70.065100 118843.600000
77.038400 2514568.000000
78.046400 182355.400000
79.054200 4990800.500000
80.049500 522251.800000
81.069900 138779.700000
82.065100 956356.700000
84.080800 667322.100000
86.096400 10682682.000000
89.038500 824752.200000
90.046400 547679.000000
91.054300 56759664.000000
92.049600 152578.000000
92.062200 454352.500000
93.057300 1747072.100000
93.070000 933291.200000
94.065200 1861506.900000
95.049200 2942074.800000
95.085600 192455.200000
101.038300 139093.400000
103.054300 2501753.500000
104.049500 2423277.000000
104.062200 942573.800000
105.033600 12032988.000000
105.044700 1537501.400000
105.069900 6825842.500000
106.065200 44774240.000000
107.049300 1679274.500000
107.073000 699238.200000
108.080800 809483.900000
109.065000 2180606.200000
115.054300 3524477.000000
116.049600 521318.100000
116.062000 592878.700000
117.057300 52804804.000000
117.069700 2875255.500000
118.065100 108156656.000000
119.060500 1759176.200000
119.073000 1987178.100000
119.085400 536126.900000
120.080800 17539872.000000
123.044100 2439250.800000
128.049400 524385.100000
128.062200 1633147.000000
129.057000 222589.500000
129.069800 3587206.800000
130.065200 97383720.000000
131.073000 61341184.000000
132.080800 40250308.000000
133.064800 225948.900000
133.088700 1750337.200000
134.096400 791857.200000
141.070200 222233.200000
142.065000 156303.600000
142.077700 918229.100000
143.073000 5264352.000000
144.080900 83468384.000000
145.088700 13990110.000000
146.096500 66700892.000000
151.038900 259632.400000
155.060500 596155.900000
156.080800 1105340.600000
157.088600 2765686.200000
158.096500 49810648.000000
159.104300 14128433.000000
160.112100 5678948.000000
161.023300 1290442.900000
161.120000 200699.500000
162.127800 6320298.000000
168.080800 166321.700000
170.096200 1917498.800000
171.104300 1433774.100000
172.112100 110356368.000000
173.120100 2335480.000000
174.127800 36908748.000000
179.070200 491535.000000
184.112100 2157323.500000
185.120000 178783.000000
186.127800 17850662.000000
187.135700 474596.100000
188.143400 822147.800000
200.143100 851394.200000
202.158800 887869.000000
214.159200 676579.300000
230.190400 5759325.000000

>ms2peaks
50.015100 1090444.100000
51.022800 1233618.500000
53.002200 2199500.000000
53.038600 3665761.000000
53.997400 438779.800000
54.033800 273906.400000
55.054300 5112945.000000
56.049500 578397.500000
57.069900 511355.800000
63.022800 1108134.800000
65.038600 21926902.000000
66.046400 1505612.000000
67.041700 551328.400000
67.054200 2999662.500000
67.989300 261331.900000
68.049500 219574.500000
69.069900 906598.700000
77.038500 7888466.500000
78.046400 1517923.000000
79.054200 11608902.000000
80.049400 760131.500000
81.033500 483274.800000
82.065100 750025.600000
84.080800 443770.300000
86.096400 950498.900000
89.038600 5442422.000000
90.046500 13884694.000000
91.054300 120747280.000000
92.049500 222940.300000
92.062100 885607.900000
93.057400 2670135.200000
93.069900 788844.500000
94.065300 1060332.100000
95.049200 13877204.000000
96.044300 547027.900000
102.046400 699841.000000
103.054300 15489191.000000
104.049500 3971582.500000
104.062100 1952011.500000
105.033500 10399479.000000
105.044800 7939289.500000
105.069900 7903798.500000
106.065200 27534110.000000
107.049400 892498.500000
107.072900 568802.600000
109.064900 2161391.800000
115.054300 16313041.000000
116.049500 1919846.000000
116.062000 2132620.000000
117.057300 95907544.000000
117.069800 8847376.000000
118.065100 62496912.000000
119.060400 1139220.000000
119.072900 1316003.100000
120.080800 4878975.000000
123.044100 748231.400000
127.054100 851822.100000
128.049500 3398417.800000
128.062100 2952053.200000
129.057500 997038.200000
129.069800 2724720.200000
130.065200 189938960.000000
131.073000 37289600.000000
132.080800 16183125.000000
141.070000 925354.200000
142.065100 1860729.100000
142.077500 228089.500000
143.073000 24443562.000000
144.080800 100994136.000000
145.065000 1157869.900000
145.088700 3857703.800000
146.059900 1950302.500000
146.096500 6864609.500000
154.065100 263343.300000
155.060500 2497941.500000
155.072800 196980.300000
156.080800 4340996.500000
157.088700 5208253.000000
158.096500 39122736.000000
159.104300 1321353.000000
160.075800 196805.100000
160.112100 911357.600000
168.080700 464168.600000
170.096500 4426976.500000
171.104400 1394524.000000
172.112100 34982992.000000
174.127700 1286435.900000
184.112200 1392340.900000
186.127800 4425925.500000

>ms2peaks
50.015100 4202807.000000
51.022900 3065354.000000
53.002200 2611609.200000
53.038600 9281541.000000
53.997500 504397.600000
54.033900 516686.900000
55.017900 587082.100000
55.054200 2558164.000000
56.049500 714689.600000
62.015100 854973.800000
63.022900 3664715.500000
64.030700 1346885.600000
65.038600 49686244.000000
66.046400 4165463.000000
67.041700 917746.400000
67.054200 1311418.600000
67.989300 195776.600000
68.025700 195199.100000
75.022900 485809.600000
76.030700 160985.300000
77.038500 13947387.000000
78.033800 558470.000000
78.046400 3475100.200000
79.054200 9026843.000000
80.049400 768269.000000
81.033500 1057868.000000
84.080700 284493.900000
89.038600 33116058.000000
90.046500 38290592.000000
91.054300 127221128.000000
92.049500 560820.800000
93.057300 2841815.000000
93.070000 184797.300000
94.041400 871161.100000
94.065300 159716.000000
95.049200 35289228.000000
96.044400 982628.800000
102.046500 3820983.200000
103.054300 39515196.000000
104.049500 3713167.500000
104.062100 1655139.200000
105.033600 2920469.800000
105.044800 20705360.000000
105.069900 3699326.500000
106.065200 9804308.000000
109.064900 754568.100000
115.054300 33284292.000000
116.049600 4397531.500000
116.062100 5154777.500000
117.057300 76766240.000000
117.069800 8699543.000000
118.065100 23449692.000000
119.060400 512805.300000
119.073200 476058.800000
120.080800 1149579.600000
121.028500 269868.400000
122.036400 199091.000000
126.046600 218096.800000
127.054200 2021880.200000
128.049500 9662655.000000
128.062100 4752521.500000
129.044900 1272551.000000
129.057300 2759587.800000
129.069900 2318514.500000
130.065200 155731952.000000
131.073000 9675291.000000
132.080800 3701891.800000
134.060100 251471.900000
140.049600 458233.500000
141.070000 664149.400000
142.065200 6061090.500000
143.073000 32435750.000000
144.080900 47829008.000000
145.064900 2161794.200000
145.088700 619725.000000
146.060000 4146610.500000
146.096400 636617.600000
152.062300 233395.100000
154.065200 964926.200000
155.060500 4187952.500000
155.073200 697618.000000
156.080800 6186600.000000
157.088700 3791405.000000
158.096500 9330803.000000
160.075900 555459.500000
161.047100 183202.000000
167.072900 270732.600000
168.080900 786062.200000
170.096400 3458270.800000
171.104300 421327.600000
172.112100 4239684.500000
184.112300 251046.800000
186.127900 583867.200000

>ms2peaks
50.015100 8787288.000000
51.023000 6294362.000000
52.018100 179570.600000
53.002200 3273142.000000
53.038600 14424562.000000
53.997500 947111.900000
54.033900 230235.100000
55.017900 829375.400000
55.054300 1039823.400000
56.049500 269384.300000
62.015100 2128965.000000
63.022900 11936746.000000
64.030800 3516485.000000
65.038600 68591088.000000
66.046400 4194909.500000
67.041700 1000826.100000
67.054300 633394.600000
67.989400 184642.300000
68.025700 219125.700000
68.997000 210062.300000
75.022900 2623746.200000
76.030700 830036.600000
77.038500 19566314.000000
78.033800 842452.900000
78.046400 3791287.000000
79.054200 5511478.500000
80.049400 760834.900000
81.033500 2155589.500000
82.065100 241871.200000
89.038600 79604224.000000
90.046500 41953228.000000
91.054300 88869120.000000
92.049500 435043.700000
93.057400 1625154.500000
94.041300 1187703.500000
95.049200 54808716.000000
96.044400 693983.100000
101.038600 540553.400000
102.046400 8504883.000000
103.054300 41335232.000000
104.049500 2437673.500000
104.062000 639175.900000
105.044800 30184526.000000
106.065200 3695787.000000
109.064800 159346.600000
115.054300 41931704.000000
116.049600 4240191.000000
116.062100 4798262.000000
117.057300 38603148.000000
117.069800 3874787.800000
118.065100 6070561.000000
119.049200 863797.000000
119.072900 122899.700000
120.080900 114616.100000
121.028500 146944.600000
122.036300 161027.800000
126.046400 806837.800000
127.054300 1678870.900000
128.049500 10370019.000000
128.062100 5279228.000000
129.044800 2959076.200000
129.057300 3665271.200000
129.069900 1582668.200000
130.065200 81313104.000000
131.073000 2203081.000000
132.080900 270204.600000
134.060100 280385.300000
140.049400 680721.400000
141.069900 279640.300000
142.065200 6838728.000000
143.073000 15849867.000000
144.080800 11178058.000000
145.065000 1161249.400000
146.060100 3609200.000000
152.062200 153475.100000
154.065200 1606292.900000
155.060500 2412056.800000
155.073100 535727.800000
156.080900 3656077.200000
157.088400 1008465.800000
158.096500 1541722.500000
160.075800 166947.800000
161.047600 105441.200000
167.072800 557210.000000
168.080800 604896.800000
170.096500 1171363.600000
172.112000 182911.400000

