>compound EQ85160372
>parentmass 319.09650000000005
>ionization [M+H]+
>formula C20H14O4
>rt 774.000000
>profile orbitrap
#smiles_iso C1=CC=C(C=C1)OC(=O)C2=CC=CC=C2C(=O)OC3=CC=CC=C3
#smiles_can C1=CC=C(C=C1)OC(=O)C2=CC=CC=C2C(=O)OC3=CC=CC=C3
#inchikey DWNAQMUDCDVSLT-UHFFFAOYSA-N
#pubchem_id 6778
#mb_accession EQ367401,EQ367402,EQ367403,EQ367404,EQ367405,EQ367406,EQ367407,EQ367408,EQ367409

>ms2peaks
77.038500 1506017.800000
225.054500 127343976.000000

>ms2peaks
53.038600 437764.700000
77.038100 1786848.750000
95.049100 1244202.600000
105.044700 842385.600000
153.069800 1523332.900000
181.064600 273987.500000
183.044300 309775.400000
197.059600 724953.600000
225.054600 103893360.000000

>ms2peaks
50.015000 161203.600000
51.022900 647184.400000
53.038600 4553365.500000
55.017800 309466.500000
77.038500 9177007.000000
81.033500 502291.300000
94.041300 315440.300000
95.049100 13430963.000000
105.033500 1169846.600000
105.044700 9676188.000000
106.041700 78252.500000
141.069800 538522.900000
152.062000 601702.900000
153.069900 7521740.000000
169.064700 1130103.800000
179.048800 81381.300000
181.064700 1138314.200000
183.044100 1084637.100000
197.059700 4010705.800000
207.043900 165289.800000
225.054600 54510332.000000

>ms2peaks
50.015100 626542.700000
51.022900 1524060.100000
53.038600 7098839.500000
55.017800 491233.300000
65.002200 24800.300000
67.054200 32771.200000
68.997100 42037.300000
77.038500 13454234.000000
81.033500 833942.500000
81.069900 80183.200000
93.069900 23608.300000
94.041300 442035.800000
95.049100 21141258.000000
105.033500 2377053.200000
105.044700 15707092.000000
106.041800 164134.800000
109.064800 78187.200000
115.054200 225881.400000
119.012900 85473.100000
121.028500 79737.800000
127.054300 92035.900000
141.069800 2680404.800000
145.064500 39014.600000
151.054200 345761.100000
152.062000 2560540.800000
153.069900 5534090.000000
155.049300 44208.000000
155.060400 82723.200000
168.056900 43266.600000
169.064700 1860981.500000
179.049400 191613.400000
179.060600 154340.400000
181.064800 424092.100000
183.044000 782994.000000
197.059700 3464783.200000
207.044100 239867.800000
225.054600 9340178.000000

>ms2peaks
50.015100 1740136.600000
51.022900 3310969.500000
53.038600 7874368.500000
55.017800 540012.100000
63.022700 25060.600000
65.002200 43927.400000
67.054200 84748.900000
68.997100 88985.000000
75.022800 23706.000000
77.038500 16855242.000000
79.054100 38917.900000
80.025700 23904.800000
81.033500 912548.600000
94.041300 499654.300000
95.049100 23417220.000000
105.033500 2089892.000000
105.044700 17260384.000000
106.041700 111366.200000
109.064800 97211.900000
115.054200 1220203.500000
119.012900 91309.200000
121.028300 195663.000000
127.053900 143207.000000
141.069800 4383036.500000
145.064800 84608.400000
149.023400 36571.400000
151.054100 606017.500000
152.062000 4330824.500000
153.069900 2000056.500000
155.049100 110923.600000
155.060500 247229.300000
168.057000 146319.900000
169.064800 1239179.900000
179.049000 142650.900000
179.060300 253214.900000
181.064800 83389.700000
183.044100 509356.600000
197.059600 1453192.000000
207.043700 26258.200000
225.054500 699859.300000

>ms2peaks
50.015100 2731530.500000
51.023000 6021965.500000
53.038600 6409917.000000
55.017900 410652.200000
65.002200 163633.700000
65.038600 78293.100000
67.054200 73039.600000
68.997100 29659.100000
75.022800 41506.200000
77.038500 14215240.000000
79.054100 24089.600000
80.025500 21690.000000
81.033500 714125.100000
91.054200 100010.700000
93.069800 19413.600000
94.041300 342849.400000
95.049100 17615622.000000
105.033500 817741.000000
105.044700 12968540.000000
106.041700 123034.400000
109.064800 74567.900000
115.054200 2675793.800000
119.012700 36743.000000
121.028500 213564.000000
121.039600 25700.900000
127.054200 138915.400000
139.053900 27494.800000
141.069800 2618450.200000
145.064800 116393.700000
149.023300 25501.000000
150.046100 30941.800000
151.054200 441989.200000
152.062100 3543068.200000
153.069900 447304.900000
155.049400 43642.700000
155.060300 298851.800000
168.056900 155500.300000
169.064800 512848.500000
179.060200 222599.500000
183.044000 167269.200000
197.059800 299016.300000
225.054300 35331.900000

>ms2peaks
50.015100 5690795.500000
51.023000 15102517.000000
52.030700 26131.700000
53.038600 3496684.800000
55.017800 189817.800000
63.022900 96881.300000
65.002200 398832.800000
65.038600 312849.500000
66.010000 85315.500000
66.046300 80418.300000
67.054200 88648.400000
68.997000 24612.700000
74.015000 45060.300000
75.022900 141679.500000
76.030700 93531.700000
77.038500 10752047.000000
78.046400 21023.100000
81.033500 301074.000000
81.069900 19586.300000
89.038600 175481.900000
91.054300 244005.200000
94.041300 226079.500000
95.049100 9804847.000000
102.046500 36714.100000
104.025600 20176.300000
105.044700 7079172.500000
106.041800 72484.800000
109.064700 40380.600000
115.054200 4157054.500000
121.028400 91042.200000
121.039600 36387.700000
125.038500 30968.300000
126.046400 90468.100000
127.054200 179184.200000
139.054200 269745.900000
141.069900 399687.100000
145.065000 29744.500000
150.046400 424661.700000
151.054300 269104.000000
152.062100 2733485.000000
155.060300 164639.800000
168.056800 43157.400000
169.064800 476791.400000
179.060200 183895.300000

>ms2peaks
50.015100 8127539.500000
51.023000 19211008.000000
52.018200 30659.700000
52.030700 75865.600000
53.002200 181600.900000
53.038600 1076026.900000
55.017800 37202.700000
62.015100 32812.900000
63.022900 214401.600000
65.002200 654841.600000
65.038600 494684.600000
66.010000 131744.300000
66.046300 95323.700000
74.015100 156495.500000
75.022900 295121.200000
76.030700 125283.600000
77.038500 4124917.800000
78.046300 67593.300000
81.033400 145337.300000
89.038600 575985.200000
91.054200 195576.700000
94.041200 76048.600000
95.049100 2934624.500000
99.022700 41968.000000
102.046300 119518.700000
105.044700 2425364.800000
115.054200 2534154.200000
125.038400 41041.500000
126.046400 293399.400000
127.054200 74775.800000
139.054200 388913.100000
141.069800 20697.800000
145.064300 20768.400000
150.046400 505463.300000
151.054000 131568.200000
152.062100 822709.900000
155.060200 41084.900000
169.064800 379979.100000
179.060300 116321.200000

>ms2peaks
50.015100 11783856.000000
51.023000 20712958.000000
52.018200 30217.500000
52.030800 109815.700000
53.002200 299363.600000
53.038600 437449.300000
62.015100 141820.600000
63.022900 528873.900000
65.002200 1096989.800000
65.038600 576239.800000
66.010000 210823.800000
66.046300 31029.000000
74.015000 443478.300000
75.022900 386876.900000
76.030700 204645.400000
77.038500 1353628.100000
78.046300 39759.900000
81.033500 23753.900000
89.038500 776356.100000
91.054000 95250.900000
95.049100 940073.600000
99.022600 81234.300000
102.046400 126474.500000
105.044700 674151.700000
115.054200 743419.100000
126.046500 308522.500000
139.054200 272305.000000
150.046400 335151.100000
152.062200 183405.000000
169.064600 164555.500000

