>compound EQ86263503
>parentmass 362.21149999999994
>ionization [M+H]+
>formula C24H27NO2
>rt 1032.000000
>profile orbitrap
#smiles_iso CCCC[C@@H](CC)COC(=O)C(=C(C1=CC=CC=C1)C2=CC=CC=C2)C#N
#smiles_can CCCCC(CC)COC(=O)C(=C(C1=CC=CC=C1)C2=CC=CC=C2)C#N
#inchikey FMJSMJQBSVNSBF-LJQANCHMSA-N
#pubchem_id 40424580
#mb_accession EQ022901,EQ022902,EQ022903,EQ022904,EQ022905,EQ022906,EQ022907,EQ022908,EQ022909

>ms2peaks
57.069900 3966543.500000
71.085500 7429694.000000
77.038400 354439.000000
105.033400 345596.300000
113.132500 1140771.500000
157.028300 647285.900000
178.077000 486569.300000
203.073300 282033.500000
232.075700 22784268.000000
250.086300 241684064.000000

>ms2peaks
57.069900 7881077.500000
71.085500 8382470.500000
77.038600 705052.600000
104.049400 835423.200000
105.033500 6175421.000000
129.033500 669052.200000
147.044100 1638627.800000
157.028500 3158409.200000
175.038900 603462.800000
182.096400 2046819.800000
183.080400 567409.400000
203.072400 645720.400000
204.080900 3489831.200000
206.096600 1478692.400000
207.080500 969567.400000
222.091300 429535.100000
232.075700 175197536.000000
250.086300 61598092.000000
264.101700 492501.500000

>ms2peaks
57.069900 9150826.000000
68.997100 277017.800000
71.085500 7605323.000000
77.038500 802663.800000
95.049100 378293.600000
104.049500 2341977.200000
105.033500 43775380.000000
128.049400 249377.700000
129.033600 1175213.400000
147.044100 2114205.500000
154.028600 196054.100000
157.028500 2597281.200000
165.070100 503822.000000
175.039300 508763.000000
176.061300 404629.900000
177.070000 2787797.000000
178.077800 805554.500000
179.085600 1364830.100000
182.096500 2169577.200000
183.080400 696437.100000
195.080600 806198.200000
203.072800 3045684.500000
204.081000 46288408.000000
205.076000 1598381.200000
206.096500 2406747.000000
207.080500 1327575.600000
222.091500 2297373.200000
232.075800 136738512.000000
236.107100 274989.700000
250.086400 13588936.000000
264.102600 249382.500000

>ms2peaks
51.022800 111554.200000
53.002200 201883.600000
53.038600 773468.700000
57.069900 7342212.500000
68.997200 666063.000000
71.085500 3353521.800000
77.038400 1304219.900000
95.049200 2210618.200000
103.054300 368242.900000
104.049500 4132281.200000
105.033600 42641436.000000
116.049400 71551.800000
128.049400 835323.200000
129.033500 1773601.400000
130.028900 252310.100000
146.060000 84407.100000
147.044000 779867.900000
151.054200 202668.800000
153.069900 579876.300000
154.028800 720542.800000
157.028500 1355325.100000
165.070200 758195.400000
169.064900 365523.900000
175.038900 218587.600000
176.062100 4635544.000000
177.070000 18213680.000000
178.077800 3482264.200000
179.060500 73306.600000
179.085600 1222411.000000
181.065000 611613.500000
182.096500 1123093.600000
183.080500 104578.100000
195.080600 2156920.800000
196.076000 257902.100000
201.057100 210469.700000
202.065300 907099.100000
203.073000 18167344.000000
204.081000 63583432.000000
205.065500 411237.300000
205.076100 5527579.000000
206.096600 1968835.200000
207.080200 214425.900000
208.076100 68476.300000
220.075500 589315.800000
222.091700 864461.100000
231.067200 64901.300000
232.075900 41002680.000000
236.106800 109628.400000
250.086300 1977628.900000
264.102700 70865.100000

>ms2peaks
50.015100 94637.100000
53.002200 304965.100000
53.038600 2579089.800000
53.997500 43780.600000
55.017900 103953.500000
55.054200 106790.800000
57.069900 5514367.000000
67.989300 86293.500000
68.997100 880298.600000
71.085500 1573776.000000
75.022900 255377.000000
77.038500 3198067.800000
81.033500 113741.100000
91.054300 189315.400000
94.041400 103495.900000
95.049200 7439682.500000
101.038600 183222.300000
103.054200 299197.900000
104.049500 6077739.500000
105.033500 30159366.000000
105.044700 4451334.500000
116.049600 92055.200000
119.049200 237134.200000
128.049500 1509103.800000
129.033500 2671851.800000
129.044600 880726.800000
130.028800 234571.400000
146.060000 188914.000000
147.044200 101263.000000
151.054300 1492686.100000
152.062200 281798.700000
153.069900 882742.500000
154.028900 678085.400000
154.039700 354153.800000
157.028500 640203.000000
164.061900 227077.900000
165.069800 826101.400000
169.064900 3436716.000000
174.046800 71393.300000
175.039200 100272.200000
175.054500 287989.900000
176.062100 25563546.000000
177.069900 28852108.000000
178.077700 7133381.000000
179.060200 981054.800000
179.085600 390937.800000
181.065100 488862.200000
182.096600 342854.900000
189.069100 82796.300000
193.065100 282351.500000
195.080600 1673041.500000
196.075800 485454.300000
201.057300 560442.100000
202.065300 1422282.800000
203.073000 40714916.000000
204.080900 34910692.000000
205.065600 298572.100000
205.076100 4405998.500000
206.096600 821881.300000
220.075600 1211832.500000
222.091200 90556.500000
232.075800 7709371.500000
250.086000 106834.700000

>ms2peaks
50.015100 346498.700000
51.023000 1377808.200000
53.002200 312056.600000
53.038600 3265717.000000
55.017900 289091.100000
55.054300 83895.300000
57.069900 3199390.000000
67.989300 79609.800000
68.997100 636436.800000
71.085600 430353.400000
75.022900 883043.800000
77.038500 4833874.500000
81.033500 297871.400000
91.054300 196110.200000
94.041300 203458.500000
95.049200 12489855.000000
101.038600 417175.400000
102.046400 62184.600000
103.054300 302986.600000
104.049500 5985549.000000
105.033600 13219503.000000
105.044800 6646101.500000
116.049700 62555.500000
119.049200 398295.400000
126.033700 216761.800000
128.049500 1455576.600000
129.033600 2320444.200000
129.044700 1511527.600000
130.028500 48327.100000
130.039900 243320.400000
146.060200 75543.100000
150.046300 244332.000000
151.054300 3287130.500000
152.062100 1441392.800000
153.057600 69323.000000
153.070000 384329.100000
154.028900 404617.800000
154.039900 625448.200000
155.060300 189831.500000
157.028800 197312.900000
163.053800 214973.300000
164.062000 231976.800000
165.069900 1011602.100000
168.057100 108138.800000
169.064900 8832748.000000
175.054400 617840.300000
176.062100 41560720.000000
177.069900 13413483.000000
178.077700 8299597.500000
179.060400 2853778.000000
181.064900 220784.200000
182.096500 91122.200000
183.080700 94984.100000
190.064700 95734.100000
193.064800 662146.600000
194.059900 169817.800000
195.080600 533909.700000
196.075700 238230.100000
201.057400 1515917.000000
202.065200 2536594.000000
203.073000 43646988.000000
204.080900 8939677.000000
205.076100 1261926.800000
206.096200 100631.800000
220.075800 2457757.200000
232.075700 631489.400000

>ms2peaks
50.015100 1623136.000000
51.023000 5138921.500000
53.002200 470407.600000
53.038600 4097056.800000
55.017800 253983.300000
55.054300 193920.700000
57.069900 814749.200000
63.022800 51263.400000
65.002200 54022.500000
67.989300 57967.300000
68.997100 480152.800000
74.015100 196851.500000
75.022900 3940435.500000
77.038500 6670990.500000
81.033500 474045.800000
89.038600 259508.600000
91.054200 105824.400000
94.041400 280004.800000
95.049200 14876135.000000
99.023000 226234.800000
100.018100 289771.700000
101.038700 567162.800000
102.046500 301591.700000
103.054300 178311.100000
104.049500 2678699.000000
105.033500 1599244.900000
105.044800 8643607.000000
113.038700 48660.200000
115.054100 260070.100000
119.049200 348776.800000
125.038700 550537.900000
126.034000 155597.700000
126.046200 482834.800000
127.054300 504055.000000
128.049500 355801.200000
128.062100 536265.600000
129.033500 1214664.000000
129.044700 1133328.000000
130.040200 51325.800000
139.054200 353563.300000
140.049600 71280.300000
143.049300 71139.600000
145.064900 312820.100000
149.038700 495792.300000
150.046500 6380821.000000
151.054300 4467420.000000
152.062100 5976643.500000
153.057300 369495.400000
154.040000 173555.700000
155.060300 478826.300000
163.054300 828669.300000
164.049200 97737.800000
164.061800 104476.300000
165.069700 629641.800000
167.049200 58770.300000
168.057000 85205.500000
169.064900 13545978.000000
170.060300 63267.700000
174.046400 862791.900000
175.041700 111283.300000
175.054200 1686313.500000
176.062100 38171388.000000
177.057400 5836019.000000
177.069600 2427871.800000
178.077700 4344316.500000
179.060400 4609363.500000
183.080800 72822.800000
185.059300 105372.600000
188.049700 65789.800000
193.064900 2118756.200000
194.060100 611452.800000
201.057400 4794987.000000
202.065200 5180453.000000
203.060900 793530.600000
203.073000 13422217.000000
204.055700 551368.200000
204.081000 262473.300000
220.075800 4121972.200000

>ms2peaks
50.015100 3110892.000000
51.023000 9479098.000000
52.018300 55705.700000
52.030900 42065.000000
53.002200 317577.500000
53.038600 2350761.800000
53.997500 94534.200000
55.017900 48098.800000
55.054200 45241.700000
57.069900 50779.700000
63.023000 293024.500000
65.002200 246201.900000
65.038600 83098.200000
68.997100 214527.200000
74.015000 1064385.500000
75.022900 4243573.000000
76.018100 107727.200000
76.030700 512690.100000
77.038500 4711790.500000
78.046400 362923.900000
81.033500 226110.200000
87.022900 214396.000000
89.038600 463910.800000
91.054200 42910.300000
94.041300 80412.700000
95.049200 7492999.500000
98.015000 657634.400000
99.022900 805910.400000
100.018100 376401.000000
100.030700 104057.400000
101.038600 215680.500000
102.046400 1168168.600000
103.054400 70027.000000
104.049400 447316.200000
105.044700 4522321.000000
110.015200 50039.300000
111.023000 74084.700000
113.038600 77677.600000
115.054300 745477.900000
119.049300 272296.300000
122.015300 85556.700000
123.022900 232643.600000
124.031000 179646.100000
125.038700 943931.900000
126.046500 1688212.400000
127.041600 231999.500000
127.054200 247913.600000
128.062100 855113.200000
129.033400 305668.400000
129.044800 505812.400000
137.038600 97259.200000
139.054300 533573.600000
140.049500 170003.800000
143.049000 202188.300000
145.065000 237395.200000
149.038700 1105951.800000
150.046500 15414468.000000
151.041800 230436.300000
151.054200 1800972.400000
152.062100 3980996.200000
153.057200 338761.600000
155.060300 389231.200000
162.046600 61670.400000
163.054300 747130.100000
164.049500 234045.000000
164.062400 66310.500000
165.069900 277112.300000
167.049500 397438.000000
168.057200 81253.100000
169.064800 5625726.000000
170.059900 66109.200000
174.046400 2579304.500000
175.042000 784292.900000
175.054100 1719427.400000
176.062100 14749119.000000
177.057400 2420825.500000
177.069500 829229.800000
178.077600 549897.500000
179.049100 231308.800000
179.060400 1913999.500000
185.059600 489911.300000
188.049600 74391.100000
193.064800 2623651.000000
194.060200 812003.200000
201.057300 4214733.000000
202.065100 1063089.000000
203.060400 1120514.500000
203.073000 629424.900000
204.055700 566681.700000
220.075700 748222.700000

>ms2peaks
50.015100 5965743.000000
51.023000 13280479.000000
52.018200 65168.400000
52.030800 187797.300000
53.002200 435933.100000
53.038600 1314516.600000
53.997400 85965.800000
61.007300 179858.156300
62.015100 192588.906300
63.023000 848236.100000
65.002200 351405.800000
65.038500 202260.500000
68.997000 89801.400000
74.015100 3329110.800000
75.022900 4631067.500000
76.018100 236347.200000
76.030700 1377365.900000
77.038500 3467540.500000
78.046400 665570.600000
81.033400 51237.900000
86.015000 417439.500000
87.022900 822325.200000
89.038600 502832.200000
91.054400 41892.500000
95.049200 4193314.200000
98.015200 2754611.800000
99.010300 212578.671900
99.022900 1747232.100000
100.018100 233185.800000
100.030800 657976.700000
101.038500 75832.100000
102.046400 1883559.000000
105.044800 2472576.200000
110.015400 391547.200000
111.022800 345024.700000
113.038600 202409.800000
115.054400 519486.600000
122.015100 590793.900000
123.022900 870816.600000
124.030800 451974.100000
125.038700 831647.200000
126.046400 2735077.200000
127.041700 173352.800000
127.054200 248095.900000
128.062100 517017.600000
129.034000 45596.300000
129.044700 278519.200000
137.038700 211677.600000
139.054200 593347.200000
140.049800 53687.400000
145.065100 65278.400000
149.038700 1143383.500000
150.046500 12903378.000000
151.041900 340300.600000
151.054300 697890.600000
152.062100 1255282.400000
153.057200 66062.300000
155.060200 215062.200000
162.046500 99797.500000
163.054300 617317.800000
164.050100 63411.200000
167.049100 639581.200000
169.064800 2453490.800000
173.038700 160106.906300
174.046500 3812309.800000
175.041900 862439.300000
175.054000 657347.400000
176.062100 4366221.000000
177.057400 483585.700000
177.069500 69693.000000
179.048700 69263.200000
179.060500 813379.800000
185.059900 634738.800000
193.064800 1485112.400000
194.060200 382098.200000
201.057400 1606593.100000
202.064700 44733.200000
203.060500 470399.000000
204.055700 394754.600000

