>compound EQ86054410
>parentmass 315.2319
>ionization [M+H]+
>formula C21H30O2
>rt 1068.000000
>profile orbitrap
#smiles_iso CCCCCC1=CC(=C2C3C=C(CCC3C(OC2=C1)(C)C)C)O
#smiles_can CCCCCC1=CC(=C2C3C=C(CCC3C(OC2=C1)(C)C)C)O
#inchikey CYQFCXCEBYINGO-UHFFFAOYSA-N
#pubchem_id 2978
#mb_accession EQ362901,EQ362902,EQ362903,EQ362904,EQ362905,EQ362906,EQ362907,EQ362908,EQ362909

>ms2peaks
69.070000 88480.800000
81.069900 232614.500000
93.069900 123771.400000
109.101300 66399.600000
135.116900 247147.500000
181.122400 173204.300000
185.117300 411387.600000
193.122400 442192.700000
207.137900 47330.100000
219.138000 56620.200000
221.153800 283421.500000
233.153800 211636.100000
235.169000 83772.300000
259.170400 296260.800000
315.232000 41636188.000000

>ms2peaks
55.054100 63258.600000
57.069900 55343.700000
67.054200 59706.800000
69.069900 354480.800000
71.085500 111178.600000
79.054200 97421.600000
81.069900 1793205.500000
83.049100 39034.200000
83.085600 82871.500000
91.054200 80331.000000
93.070000 2306150.200000
95.085600 119716.200000
97.064900 41232.400000
97.101200 141966.200000
101.059800 21965.900000
105.069700 18955.600000
107.085600 753030.400000
109.101300 1016702.600000
111.044100 246363.300000
111.116900 186618.200000
119.085500 27557.600000
121.064800 35784.500000
121.101200 377956.600000
123.044100 167089.500000
123.116900 746736.900000
125.096100 24062.100000
129.054700 25270.100000
131.085500 33279.600000
133.101300 23931.600000
135.116900 3771293.800000
136.124900 43544.500000
137.059800 69290.700000
139.111800 881294.400000
147.116900 20602.900000
149.059600 39026.900000
149.096200 121344.100000
151.075400 77619.000000
157.122400 174533.900000
163.075600 43624.200000
165.091200 131030.200000
167.106800 108995.900000
171.080600 26456.300000
175.075400 20536.500000
177.091500 27238.100000
177.127500 142331.100000
179.106900 44633.600000
181.122400 1341376.800000
185.117400 380265.400000
189.090700 51519.200000
193.122500 6056126.000000
199.148500 33038.000000
205.122500 78825.200000
205.158900 21310.300000
207.138200 918319.900000
215.143400 21799.400000
217.122500 340261.800000
217.158100 42750.400000
219.138200 311212.000000
221.153800 1638391.900000
227.143100 153363.300000
229.159300 51857.300000
231.138200 749404.300000
231.174600 41001.900000
233.153800 1791685.500000
235.169400 1857301.800000
241.159000 101629.100000
245.153900 340068.000000
245.189600 36533.400000
247.169500 600519.100000
255.173900 42273.200000
257.190000 22655.200000
259.169500 3911262.800000
269.226600 30454.400000
273.185100 406106.400000
287.237400 77386.600000
297.221600 438288.000000
315.232100 16698046.000000

>ms2peaks
53.002200 33874.400000
53.038500 39818.200000
55.017900 32332.300000
55.054300 322577.300000
57.033500 12280.700000
57.069900 142626.600000
59.049200 9383.700000
65.038500 18511.200000
67.054300 430147.300000
69.069900 1581876.500000
71.085500 426990.200000
77.038300 37373.500000
79.054300 583614.200000
81.069900 2102687.500000
83.049200 215423.600000
83.085500 88647.400000
85.064800 20196.100000
91.054300 274693.200000
93.070000 3629783.500000
95.049300 120791.800000
95.085600 369760.000000
97.028500 25529.600000
97.064900 166905.800000
97.101300 286205.400000
99.080500 11651.200000
101.059900 37944.500000
105.044700 37460.700000
105.070000 123471.600000
107.049200 109936.400000
107.085600 1933001.100000
109.064900 184263.200000
109.101300 1203277.400000
111.044100 398446.200000
111.116900 123243.400000
117.070000 11816.100000
119.049200 11928.900000
119.060600 12072.500000
119.085700 220091.400000
120.093500 27400.100000
121.064900 305883.800000
121.101300 674227.000000
123.044100 2625666.200000
123.116900 661549.700000
124.052100 10252.500000
125.059900 45606.800000
125.096200 27047.900000
129.054700 10163.900000
129.070100 18108.000000
131.085600 115328.000000
133.065000 39825.600000
133.101200 78722.800000
135.116900 2720000.000000
136.124900 79499.000000
137.059800 546628.300000
139.111800 556751.500000
143.085600 46316.500000
145.065100 50582.000000
145.101200 51044.600000
147.044200 59871.500000
147.080600 85406.900000
147.091600 9704.600000
147.117000 52813.100000
149.059900 166836.000000
149.096300 124577.300000
149.132500 37782.600000
151.075500 376725.500000
157.101400 45485.300000
157.122500 11705.000000
159.080600 149729.800000
159.117300 35669.000000
161.059900 97669.200000
161.096300 118384.100000
161.132700 23908.700000
163.075400 306157.600000
163.112100 24237.700000
165.091200 659265.100000
167.106800 28650.100000
171.080700 134902.600000
171.116700 31133.400000
173.096400 19840.200000
173.132600 23534.500000
175.075500 72021.500000
175.112000 82013.800000
177.091200 297060.500000
177.127600 408552.400000
179.106900 83973.200000
181.122400 571152.700000
185.096500 57260.600000
185.117400 12202.700000
187.111800 25018.000000
188.083400 40685.700000
189.091200 254904.300000
189.127800 50535.700000
191.106600 25269.100000
191.143300 68872.600000
193.122500 8976725.000000
199.112100 19799.200000
199.148100 41745.700000
201.090500 11658.200000
203.106900 81812.700000
203.143400 37708.800000
205.122500 125420.900000
205.159000 76756.400000
207.138200 843803.100000
213.163800 32998.800000
215.143300 41389.900000
217.122600 657786.800000
217.159000 53386.200000
218.130100 30607.600000
219.138100 190806.200000
219.174200 38185.200000
221.153900 704221.700000
225.127000 11193.000000
226.135700 50005.500000
227.143200 127671.500000
229.122600 27919.200000
229.159000 75177.000000
231.138200 1071427.500000
231.174600 125616.500000
233.153900 1078754.200000
235.169500 1018001.800000
241.158700 164439.200000
244.145500 34944.500000
245.153800 288421.800000
245.189800 41079.000000
247.169500 782147.300000
255.174800 68249.700000
259.169500 2609539.000000
269.226800 20114.800000
272.177300 37205.600000
273.185100 210099.700000
287.237000 24493.400000
297.221400 113671.800000
315.232100 700735.200000

>ms2peaks
51.022700 12160.600000
53.002300 89871.800000
53.038600 113723.500000
53.997500 10419.800000
55.017900 117173.800000
55.054300 651602.500000
57.033500 45635.300000
57.069900 246366.700000
59.049100 21405.100000
65.038600 68684.200000
67.054300 889332.100000
67.989300 21956.800000
69.033500 109316.100000
69.069900 2077549.900000
71.049100 32805.100000
71.085500 277211.100000
73.064900 8982.100000
77.038500 88073.000000
79.054300 1034177.700000
80.062000 7568.100000
81.069900 1927126.200000
83.012800 72567.100000
83.049200 285105.400000
83.085500 75814.000000
85.028400 7260.700000
85.064800 6922.800000
91.054300 801983.500000
92.062100 23018.900000
93.070000 3032225.500000
94.077800 9072.600000
95.049200 501991.800000
95.085600 513293.900000
97.028400 42699.300000
97.064800 138082.200000
97.101200 169452.400000
99.080400 19757.800000
101.059800 25697.400000
103.054300 32645.300000
105.044800 132622.100000
105.070000 423101.300000
107.049200 380067.300000
107.085600 1832386.600000
108.056900 6344.900000
109.028600 35023.600000
109.064900 533556.100000
109.101300 669414.100000
111.044100 274863.200000
111.116800 32747.800000
115.054100 22925.700000
117.069900 83359.000000
119.049300 48198.300000
119.060500 53614.200000
119.085600 352768.100000
120.093400 45859.500000
121.064900 447206.900000
121.101300 441064.700000
123.044100 5850199.000000
124.052000 40736.100000
125.059800 83457.300000
128.062100 10722.300000
129.069800 47174.600000
131.049300 20296.400000
131.085600 145917.800000
133.028500 7243.500000
133.064900 126197.000000
133.101300 105098.500000
135.044200 170687.500000
135.080500 151241.900000
135.116900 730008.200000
136.051700 45390.700000
136.124800 26756.600000
137.059800 800296.900000
139.111900 78435.300000
142.077700 25068.000000
143.085700 89631.800000
144.093600 6523.300000
145.064900 86865.300000
145.101200 63432.100000
147.044200 114099.100000
147.080500 126255.600000
147.091700 9020.500000
147.117000 81354.000000
148.051900 9918.400000
149.059900 145130.000000
149.096200 103242.500000
149.132500 30000.800000
151.075500 170569.700000
155.070500 6365.000000
155.085800 7612.200000
156.093900 6326.700000
157.065000 18284.500000
157.101400 54655.500000
159.080600 172200.700000
159.117200 50900.400000
160.051800 49278.400000
160.088600 9736.600000
161.059900 256016.500000
161.096200 138611.000000
162.067700 28567.900000
163.075500 170191.500000
163.111600 54991.400000
165.091200 379245.400000
165.127500 47170.600000
170.072800 8695.600000
171.080500 128930.500000
171.116900 9587.000000
172.088200 9389.700000
173.059300 9763.300000
173.096400 30277.000000
173.132600 8699.300000
174.067800 90271.700000
175.075600 133252.600000
175.112000 71823.000000
176.083500 9487.700000
177.091200 163154.200000
177.127600 356352.200000
179.106700 22671.200000
181.122400 83885.800000
184.088500 25477.300000
185.096300 65247.200000
187.075300 23909.600000
187.111300 8896.900000
188.083400 78005.700000
189.091200 162156.200000
189.127500 48395.900000
191.106600 23447.100000
191.143100 48231.600000
193.122500 3824370.000000
197.096000 9219.100000
199.112100 10914.300000
199.148400 26226.600000
201.091100 30276.300000
201.127600 5973.400000
202.099000 55195.200000
203.106800 31127.300000
203.143200 23841.100000
205.122500 56343.100000
205.158900 32712.800000
207.138200 219158.200000
211.111700 30620.600000
213.163500 7783.900000
215.107000 5989.800000
215.142900 20822.400000
217.122500 453313.100000
218.130200 11038.300000
219.138100 35048.800000
221.154000 59575.500000
225.127500 9329.000000
226.135800 36148.600000
227.143100 32062.100000
229.122000 27301.800000
229.158600 29027.100000
231.138200 664559.600000
231.174800 34616.900000
233.153700 175027.100000
235.169400 89809.700000
241.158800 89676.900000
243.138300 8348.300000
244.145900 48120.000000
245.153800 94003.600000
247.169500 114041.400000
255.174400 24132.200000
259.169500 465012.600000
315.231900 8363.100000

>ms2peaks
50.015200 21063.100000
51.022900 10908.500000
52.018200 6080.800000
52.030600 5856.900000
53.002300 138223.100000
53.038600 240224.400000
53.997500 32167.200000
55.017900 318824.100000
55.054300 887269.600000
57.033500 29950.300000
57.069900 269372.200000
59.049200 37868.400000
65.038600 191891.900000
67.054300 1615053.000000
67.989400 28475.700000
69.033600 169848.300000
69.069900 1991879.600000
71.049200 24331.700000
71.085600 91731.700000
73.064900 18275.600000
77.038500 187096.000000
78.046400 9493.400000
79.054300 1342718.200000
80.062100 30931.700000
81.033500 142070.600000
81.069900 1867355.500000
83.012800 96113.900000
83.049200 212506.400000
83.085600 28351.800000
85.028500 6866.200000
85.064800 8401.000000
91.054300 1670537.100000
92.062200 22837.200000
93.070000 2233776.200000
94.041500 16713.800000
94.077800 26313.400000
95.049200 1216785.400000
95.085600 442480.500000
97.028600 31287.400000
97.064900 104891.600000
97.101300 53835.200000
103.054300 72199.500000
105.044900 368494.200000
105.070000 725059.400000
106.077900 7344.700000
107.049200 623782.300000
107.085600 1054836.000000
108.057100 40261.400000
109.028600 83190.500000
109.064900 670790.800000
109.101300 272283.100000
111.044100 173170.600000
115.054100 55943.200000
116.062200 26793.100000
117.069900 129568.400000
119.049300 46849.000000
119.060500 112153.600000
119.085700 312331.200000
120.057200 7532.000000
120.093400 49949.100000
121.064900 452428.400000
121.101300 266354.400000
123.044100 5256357.500000
124.052000 40776.800000
125.059900 34200.000000
128.062300 64302.300000
129.070000 90666.900000
130.077900 10378.300000
131.049200 43054.600000
131.085600 151515.800000
132.057100 9782.300000
133.028500 6967.000000
133.064900 130040.900000
133.101300 79242.500000
135.044100 109618.700000
135.080500 106990.700000
135.116900 110061.000000
136.052000 178773.400000
137.059900 635353.300000
139.111600 17524.700000
141.069900 49246.400000
142.077900 42334.700000
143.085700 88307.700000
144.057400 25459.100000
144.093600 8927.500000
145.064800 57700.100000
145.101200 70126.400000
146.072700 40072.000000
147.044200 122895.500000
147.080500 88085.700000
147.117100 28874.100000
148.052000 32165.300000
149.059800 65536.000000
149.096200 53822.400000
151.075600 52166.800000
152.062500 6763.400000
153.069900 6153.000000
155.060600 19329.200000
155.085600 27041.600000
156.093500 23469.500000
157.065100 25284.600000
157.101300 43083.300000
158.072800 25391.100000
159.080600 118709.200000
159.117300 31370.100000
160.052100 123592.300000
160.088500 7984.300000
161.059900 287712.700000
161.096300 47798.400000
162.067400 31991.900000
163.075600 48460.900000
163.111900 18172.100000
165.070200 7087.300000
165.091200 113473.400000
165.127500 17558.800000
169.065000 21410.800000
169.076000 10852.400000
169.101400 8303.500000
170.072500 8664.900000
171.080500 79418.700000
171.117100 7571.600000
172.088600 5595.400000
173.059900 43161.800000
173.096500 22631.900000
174.067700 263884.800000
175.075600 150181.600000
175.111900 29361.700000
177.091300 33114.100000
177.127600 155290.200000
183.080800 31270.400000
184.088300 56660.200000
185.096300 20342.300000
187.075500 95654.700000
188.083400 73687.700000
189.091000 28598.400000
189.127800 22095.700000
191.143300 9153.600000
193.122500 970373.800000
197.096300 19670.800000
201.091200 39450.400000
202.098900 81900.200000
203.107400 7088.600000
203.143300 10862.500000
205.122600 10310.100000
207.138200 26320.500000
211.112300 10634.400000
215.106800 6220.200000
215.143500 8637.300000
217.122600 126155.600000
225.127200 8004.800000
229.122300 21710.300000
231.138300 203702.600000
233.154100 8022.500000
241.158900 21834.200000
243.138400 23907.300000
244.145700 22843.000000
245.153000 19043.500000
259.169500 67628.800000

>ms2peaks
50.015100 29700.800000
51.022900 46437.600000
52.030700 4267.500000
53.002300 165069.600000
53.038600 415477.200000
53.997500 35098.400000
55.017900 475640.000000
55.054300 894458.800000
57.033500 26910.500000
57.069900 181126.000000
59.049200 24898.200000
65.038600 396255.200000
66.046500 20970.700000
67.054300 2016230.100000
67.989300 45247.300000
69.033500 186143.000000
69.069900 1194183.000000
71.049100 9752.600000
71.085500 18779.700000
73.064800 19698.700000
77.038600 264338.600000
78.046400 24909.300000
79.054200 1545277.500000
80.062100 61850.500000
81.033600 174904.000000
81.069900 1432139.200000
83.012800 99084.300000
83.049100 140571.200000
83.085500 22846.500000
89.038500 5765.100000
90.046500 5837.500000
91.054300 2158788.000000
92.062100 27808.300000
93.070000 1289743.900000
94.041400 52536.400000
94.077800 25127.000000
95.049200 1692524.400000
95.085600 251162.000000
97.028400 18243.400000
97.064900 55930.400000
97.101300 8102.100000
103.054300 138517.200000
104.062200 30961.300000
105.044800 626911.700000
105.070000 762340.100000
106.041700 6020.300000
107.049200 611753.200000
107.085600 426370.200000
108.057000 138962.400000
109.028600 34787.700000
109.064900 458662.800000
109.101300 102971.200000
110.036400 7729.700000
111.044200 105185.800000
115.054300 135994.300000
116.062100 51031.900000
117.069900 155565.900000
119.049300 54081.100000
119.060600 100037.700000
119.085700 171035.700000
120.057300 10101.100000
120.093600 23422.500000
121.039600 18353.000000
121.064900 236409.500000
121.101300 105400.900000
123.044100 2794647.500000
124.052000 31805.100000
125.059700 7019.200000
128.062100 116341.100000
129.070000 128844.900000
130.077800 26068.700000
131.049200 72814.800000
131.085600 106359.300000
132.057100 33431.800000
133.064900 95976.900000
133.101500 38185.600000
135.044100 57481.100000
135.080400 34888.400000
135.117000 23586.500000
136.052100 193983.900000
137.059800 267878.700000
141.070000 88935.900000
142.077900 60103.600000
143.085600 56588.400000
144.057100 58546.800000
144.093600 7261.000000
145.064900 97219.600000
145.101200 26117.000000
146.072900 33463.900000
147.044200 154012.000000
147.080500 45063.700000
148.052100 29689.500000
149.059900 30694.000000
149.095900 7188.700000
152.062100 6568.300000
153.070000 19767.500000
154.077600 9775.100000
155.060400 18890.700000
155.085700 38404.100000
156.093400 19366.800000
157.064900 26005.700000
157.101300 23295.200000
158.072500 25862.600000
159.044200 17757.800000
159.080600 60812.800000
160.052000 157386.200000
161.059800 224262.400000
161.095800 13056.100000
162.067500 18308.800000
163.075600 8077.900000
165.069900 20748.200000
165.091200 10932.300000
169.064900 19809.700000
169.076000 7189.500000
169.101400 15479.600000
170.072600 8524.400000
171.080200 34617.100000
172.088000 6933.300000
173.059900 103472.200000
173.096100 18865.600000
174.067700 257558.300000
175.075600 79065.900000
175.111700 5034.300000
177.127600 44085.200000
178.078000 5094.000000
181.064900 4747.300000
183.080500 17851.400000
184.088400 45553.300000
185.096000 7239.800000
186.067300 8846.600000
187.075500 160761.100000
188.083100 35501.900000
193.122400 149577.800000
197.096200 10401.100000
201.091400 8698.100000
202.098900 48123.300000
215.106900 8058.400000
217.122600 26760.600000
231.138200 40543.300000
243.138300 23844.200000

>ms2peaks
50.015100 91121.500000
51.023000 176754.300000
53.002300 238208.700000
53.038600 619368.500000
53.997500 52749.900000
55.017900 592469.800000
55.054300 621514.800000
57.070000 39612.100000
59.049100 8236.400000
63.022900 6203.000000
65.038600 941395.300000
66.046400 50593.300000
67.054300 1325369.600000
67.989300 44860.500000
68.997200 60650.600000
69.033600 96163.800000
69.069900 288056.600000
77.038600 415320.000000
78.046500 93392.400000
79.054300 1427793.600000
80.062100 55233.900000
81.033600 142174.800000
81.069900 474446.800000
83.012800 59576.600000
83.049100 30102.700000
89.038600 28862.200000
90.046600 30915.400000
91.054300 2104841.500000
92.062100 29288.000000
93.070000 294365.500000
94.041500 75284.900000
94.077800 3856.700000
95.049200 1500037.400000
97.064800 16857.100000
102.046500 23554.100000
103.054300 238585.800000
104.062200 39092.700000
105.044800 817815.000000
105.070000 459412.200000
106.041600 7461.100000
106.077600 7796.900000
107.049200 405938.200000
107.085400 31625.900000
108.057000 133672.500000
109.028900 5258.500000
109.064900 75720.600000
109.101200 5456.700000
111.044200 31404.300000
115.054300 345461.900000
116.062100 89025.200000
117.069900 112947.000000
119.049400 20935.700000
119.060400 40185.400000
119.085600 41630.500000
120.057200 6063.400000
121.039800 5937.100000
121.064900 55370.100000
121.101500 5212.500000
123.044100 368945.200000
124.052400 5526.900000
127.054500 22593.000000
128.062100 190998.600000
129.069900 100577.500000
130.078000 7481.700000
131.049300 151363.200000
131.085700 29903.800000
132.057000 17868.700000
133.064900 27521.200000
135.044300 6677.200000
136.051900 59177.300000
137.059800 16670.200000
139.054200 5985.800000
141.070000 133738.500000
142.077800 44539.800000
143.085900 7215.600000
144.057000 54111.300000
145.064900 106282.000000
146.072900 8321.300000
147.044100 94525.500000
147.080500 4840.200000
152.062000 29418.800000
153.070200 36055.700000
154.077800 20469.900000
155.060500 52166.400000
155.085700 21008.500000
157.065000 31768.900000
158.072600 7393.500000
159.044300 16911.000000
159.080700 9771.600000
160.052100 78752.700000
161.059800 89802.900000
165.070100 40846.400000
168.057600 7655.700000
169.065100 17672.700000
171.080400 4744.400000
173.059900 92490.600000
174.067800 62714.300000
175.075600 16524.000000
178.077900 7733.500000
181.064900 19850.200000
186.067800 26655.300000
187.075500 71832.500000

>ms2peaks
50.015200 193133.200000
51.023000 515468.500000
53.002300 235227.800000
53.038600 589881.600000
53.997500 76955.500000
55.017900 357703.400000
55.054300 235175.700000
57.033600 4241.900000
59.049200 4433.500000
62.015100 4959.400000
63.022900 50741.600000
65.038600 1163245.600000
66.046400 62777.700000
67.054300 459642.000000
67.989300 31209.300000
68.997200 48398.500000
69.033600 37819.100000
69.069900 49247.600000
75.022800 7117.800000
76.030700 4987.700000
77.038600 471953.100000
78.046400 166658.900000
79.054300 908994.600000
80.062100 22183.100000
81.033600 87339.600000
81.069900 112335.500000
83.012800 20607.400000
83.049100 5584.600000
89.038600 104717.900000
90.046500 34939.600000
91.054300 1385408.500000
92.062100 18024.900000
93.070000 45853.300000
94.041400 68868.300000
95.049200 1176522.200000
102.046500 41699.900000
103.054300 216381.800000
104.062200 19607.300000
105.044800 793889.800000
105.070000 171266.900000
106.041700 4762.400000
107.049200 225994.300000
108.057000 33761.700000
109.065000 8595.800000
110.036200 5106.300000
111.044500 4346.200000
115.054300 548459.200000
116.062100 61991.000000
117.069900 61009.800000
119.049100 12907.200000
119.085500 7159.500000
121.064900 7030.900000
123.044100 47503.800000
126.046500 15484.400000
127.054400 26743.700000
128.062200 243756.200000
129.070000 64480.400000
131.049200 109426.700000
132.057200 7618.900000
139.054000 29431.700000
141.070000 91346.000000
142.077500 5380.000000
144.057000 17199.500000
145.064900 56617.500000
147.044000 40886.200000
152.062300 54646.400000
153.070100 35214.100000
154.077900 4378.700000
155.060400 62774.000000
157.065100 18851.100000
159.044300 3610.300000
160.052000 23405.700000
161.059900 15308.600000
165.070000 18344.900000
168.057000 6933.800000
169.065100 4584.300000
173.059800 18507.000000
178.077900 7974.900000
181.065000 15665.200000
186.067600 7373.100000
187.075300 5922.400000

>ms2peaks
50.015200 317938.300000
51.023000 912499.900000
52.018300 6431.900000
52.030800 30026.000000
53.002300 294059.500000
53.038600 516008.400000
53.997500 68268.300000
55.017900 173123.600000
55.054300 105225.800000
59.049200 3766.400000
62.015100 23913.000000
63.023000 110854.800000
65.038600 1066761.100000
66.046400 53094.400000
67.054300 125495.600000
67.989300 32043.700000
68.997200 39862.500000
69.033500 5863.300000
69.069900 5091.400000
75.022900 29670.400000
76.030700 8208.300000
77.038600 426056.500000
78.046400 175853.600000
79.054200 421140.900000
80.062200 4848.900000
81.033600 46882.500000
81.070000 17789.400000
83.012800 7674.900000
89.038600 140405.000000
90.046500 9073.400000
91.054300 812630.200000
94.041400 43532.700000
95.049200 774303.900000
102.046500 90283.400000
103.054300 143114.300000
104.062100 17113.000000
105.044800 612335.800000
105.070000 38269.400000
107.049200 100670.600000
115.054300 530757.600000
116.062300 24653.100000
117.069900 13544.800000
123.044300 3863.900000
126.046400 27212.400000
127.054300 34816.600000
128.062100 213090.400000
129.070000 26606.000000
131.049300 45084.300000
139.054300 41321.400000
141.070100 31794.300000
145.064900 25109.500000
147.044500 5478.900000
152.062200 57330.700000
153.069900 8706.300000
155.060500 52601.300000
157.065000 5509.700000
160.052200 5656.100000
165.070000 24891.000000
169.065100 6069.500000

