>compound EQ86182915
>parentmass 142.0418
>ionization [M+H]+
>formula C7H8ClN
>rt 300.000000
>profile orbitrap
#smiles_iso CNC1=CC=C(C=C1)Cl
#smiles_can CNC1=CC=C(C=C1)Cl
#inchikey XCEYKKJMLOFDSS-UHFFFAOYSA-N
#pubchem_id 70272
#mb_accession EQ347801,EQ347802,EQ347803,EQ347804,EQ347805,EQ347806,EQ347807,EQ347808,EQ347809

>ms2
65.038300 569510.000000
107.072800 14324267.000000
126.010400 488071.900000
127.018200 306817536.000000
142.041700 447634432.000000

>ms2
107.072800 14883068.000000
127.018200 301306816.000000
142.041700 451820064.000000

>ms2
106.065000 475891.800000
107.072800 16565598.000000
127.018200 473139616.000000
142.041700 263718784.000000

>ms2
106.065100 962483.700000
107.072900 16914950.000000
126.010500 1255237.800000
127.018200 705303616.000000
142.041700 91665016.000000

>ms2
65.038400 1138201.200000
91.041700 755817.800000
92.049400 3522860.500000
100.007400 4975107.000000
106.065100 2888297.800000
107.072900 9091795.000000
126.010700 961004.600000
127.018200 668178560.000000
142.041800 17836694.000000

>ms2
65.038500 6862136.000000
91.041600 2634335.500000
92.049400 21134046.000000
98.999500 705694.400000
100.007400 23561094.000000
106.065100 5246003.000000
107.072900 5878811.000000
110.060000 1267879.600000
126.010800 1249597.600000
127.018200 676121216.000000
142.041700 3737627.500000

>ms2
63.022800 1504205.200000
64.030700 2295273.200000
65.038500 71382136.000000
66.033900 603932.900000
67.041600 1475563.600000
75.022800 974904.100000
87.994800 527833.600000
90.033800 467404.800000
91.041600 11959274.000000
92.049400 88479168.000000
98.999600 3582419.800000
100.007400 83922856.000000
101.002600 613345.600000
106.065100 5990356.500000
107.072800 1023627.900000
110.060000 5861688.500000
126.010500 3817732.500000
127.018300 411066016.000000

>ms2
50.015100 472621.000000
51.022900 207056.600000
52.018100 1072341.600000
53.002200 1309052.100000
53.997400 253703.800000
54.046400 534473.700000
56.049400 477510.400000
63.022900 5099774.500000
64.030700 4700063.500000
65.038500 190051568.000000
66.033800 2034197.600000
67.041600 1749830.900000
72.983900 1332720.200000
74.015100 809483.100000
75.022900 2732510.200000
76.018100 781646.300000
77.038500 215718.500000
79.054200 939337.400000
84.983900 219816.800000
87.994800 1296841.500000
90.033800 1136805.900000
91.041600 11420148.000000
92.049400 88113120.000000
95.049000 255467.800000
98.999600 9142650.000000
100.007400 69562608.000000
101.002600 705717.700000
105.044700 427393.900000
106.065100 4045603.000000
110.060000 5945595.500000
111.994800 749550.100000
126.010500 3473261.000000
127.018300 139851712.000000

>ms2
50.015100 872327.200000
51.022900 844929.500000
52.018200 2172991.200000
53.002200 4456091.500000
53.997400 800327.300000
54.033800 435922.900000
54.046400 422353.300000
56.049400 809508.400000
62.015100 600185.100000
63.022900 8916997.000000
64.030700 5006789.500000
65.038500 199987680.000000
66.033800 3336957.200000
67.041700 1229515.600000
72.983900 3989340.800000
74.015000 4052639.200000
75.022900 6147657.500000
76.018100 1093630.600000
77.038500 698824.300000
79.054200 403305.100000
84.983900 977281.400000
87.994800 1272817.000000
89.038500 211773.400000
90.033800 924654.900000
91.041600 5588134.500000
92.049400 40072576.000000
95.049100 618841.200000
98.999600 10762433.000000
100.007400 30319124.000000
101.002600 553274.900000
105.044800 491206.200000
106.065100 1225552.800000
110.060000 2658693.000000
111.995000 378546.400000
126.010400 1675975.800000
127.018300 31020110.000000

