>compound EQ86128909
>parentmass 455.0373
>ionization [M+H]+
>formula C14H14N8O4S3
>rt 270.000000
>profile orbitrap
#smiles_iso CC1=NN=C(S1)SCC2=C(N3C(C(C3=O)NC(=O)CN4C=NN=N4)SC2)C(=O)O
#smiles_can CC1=NN=C(S1)SCC2=C(N3C(C(C3=O)NC(=O)CN4C=NN=N4)SC2)C(=O)O
#inchikey MLYYVTUWGNIJIB-UHFFFAOYSA-N
#pubchem_id 2618
#mb_accession EQ366301,EQ366302,EQ366303,EQ366304,EQ366305,EQ366306,EQ366307,EQ366308,EQ366309

>ms2
55.029300 41633.700000
57.044800 24805.000000
68.049400 63926.600000
69.044700 26657.100000
71.035300 263804.200000
72.055600 32096.000000
80.049500 36813.800000
84.055600 43680.600000
85.010600 78073.100000
85.039700 75188.100000
96.055700 196473.700000
100.021600 191588.200000
100.050600 1015577.800000
107.060300 79712.900000
111.055300 86156.600000
112.021600 205516.300000
112.039300 167245.900000
112.050600 80295.500000
113.016700 48439.700000
113.029400 86213.100000
120.068100 44751.200000
124.021700 258968.800000
124.050700 254688.300000
125.005700 27245.700000
126.001100 26042.400000
126.037300 230264.300000
128.027800 123021.000000
132.989000 1671839.200000
136.087000 26480.200000
138.066100 25179.000000
139.032700 116061.900000
140.016500 27026.800000
140.045500 314924.300000
141.011600 51734.100000
141.048200 135701.300000
144.011500 88564.500000
147.079300 26318.800000
149.082400 26179.100000
151.032600 96952.000000
152.016600 560352.600000
152.045500 36334.900000
153.048300 1192892.600000
156.011500 13936744.000000
157.019400 119300.200000
157.030300 70061.700000
158.027100 83268.100000
161.082200 104913.100000
162.066300 254253.000000
162.090400 47697.100000
163.032500 56212.700000
164.082200 28642.900000
166.043500 404908.300000
167.027500 41133.500000
168.011500 81425.800000
168.022900 25156.400000
168.051900 228520.000000
168.059100 41624.800000
177.077300 28292.900000
178.043500 540353.500000
180.059100 165045.100000
181.043300 80602.700000
183.022500 33006.900000
189.077300 67001.300000
190.061200 36022.600000
190.085000 130576.500000
194.038400 61189.400000
195.022300 60505.500000
195.070200 212037.500000
196.054300 78709.600000
197.038000 38900.200000
205.072500 32562.400000
206.038500 422983.300000
207.022500 53532.700000
208.054300 98167.900000
210.033600 53678.800000
221.049500 72347.900000
223.065000 433100.900000
224.049100 36772.800000
233.067100 56898.400000
239.060400 53737.100000
249.044200 93886.200000
251.071200 47655.000000
252.043900 548945.800000
267.055000 142152.400000
270.000400 88973.800000
280.039100 24125.200000
295.061200 5572888.000000
323.055900 22885486.000000

>ms2
53.038500 9611.300000
54.033800 7875.400000
55.029100 78808.000000
56.049400 9407.900000
57.044800 239105.500000
58.995000 9228.000000
59.990300 11219.300000
62.005900 7685.100000
65.038700 12716.400000
66.033800 9246.800000
68.049500 180843.700000
69.044800 254677.900000
70.065000 7877.600000
71.035300 268185.200000
72.055600 104310.700000
73.039600 33244.300000
74.005900 45597.000000
80.049500 197287.800000
81.044800 43678.800000
81.057300 8322.000000
82.028800 12487.700000
82.065100 22135.900000
83.024000 22814.600000
84.055700 344308.200000
84.974300 30230.800000
85.010700 483787.000000
85.039700 396464.200000
86.005900 65604.700000
87.026300 7370.800000
89.016900 8201.500000
92.049500 25541.600000
93.044900 9732.800000
93.057600 11836.400000
94.040100 31896.600000
94.065200 12473.300000
95.060500 115176.700000
96.055700 811404.800000
97.010700 214321.100000
97.039700 120425.000000
98.006000 30456.700000
98.023700 61291.800000
98.035000 52331.900000
98.047600 47651.800000
99.001500 9410.000000
99.013800 27671.900000
99.026300 32024.700000
100.021600 503064.000000
100.050600 1638107.500000
101.016900 52366.500000
102.000900 23270.900000
102.037200 10351.400000
105.044700 12678.000000
106.052700 52484.000000
107.060500 482154.200000
108.044400 33558.700000
108.055700 26518.000000
108.068300 209655.800000
109.050900 11485.700000
109.076200 59508.000000
110.005900 10304.400000
110.035000 86630.300000
110.060200 7952.200000
111.001300 24806.400000
111.042700 30694.400000
111.055400 108383.800000
111.066700 13695.000000
112.021600 1040599.000000
112.039400 487212.700000
112.050600 293055.400000
113.005600 8976.500000
113.016900 109831.600000
113.029500 114939.300000
113.058500 43337.800000
114.000800 8897.900000
114.012200 9010.300000
114.024700 44249.500000
114.037300 131998.400000
116.027800 27296.600000
117.011700 12363.300000
118.052600 9756.900000
119.060500 187668.300000
120.068300 593697.900000
121.076200 44300.400000
122.005900 67350.200000
122.035000 28856.600000
122.071400 38750.100000
123.013700 12306.200000
124.021700 1802536.800000
124.050700 592381.400000
125.005700 29035.900000
125.017000 22185.100000
126.001000 137013.800000
126.012100 88368.800000
126.037300 361956.800000
126.996200 9036.900000
127.020000 134568.500000
127.032600 32110.900000
128.016700 32812.800000
128.027800 627661.100000
129.000600 82134.800000
129.011700 148593.200000
129.035400 42040.400000
130.019600 62712.800000
132.055800 50674.300000
132.989000 2358701.500000
134.071300 163034.800000
135.055300 34089.500000
135.079300 10006.300000
136.021800 76843.500000
136.039300 11601.200000
136.050700 33130.300000
136.087000 55109.300000
137.017100 40041.000000
137.034700 8075.900000
138.037400 27862.500000
138.066300 33996.300000
139.032600 1273334.800000
140.016600 171223.800000
140.028000 71538.600000
140.040300 33428.500000
140.045400 196822.800000
141.011800 36045.200000
141.048200 524479.300000
142.031900 8496.900000
144.011500 232579.800000
145.063500 34804.600000
146.071600 52017.000000
147.055500 12538.200000
147.066700 25768.700000
147.079300 162087.000000
148.050500 7552.500000
148.063200 10361.100000
148.074400 32449.200000
149.082400 110180.100000
150.001000 12842.800000
150.024500 22289.400000
150.066200 43514.300000
151.032600 816052.600000
151.050200 55671.200000
152.016600 643330.100000
152.045600 38639.000000
153.048300 2919362.800000
154.007100 104717.400000
154.032000 13516.500000
154.043300 36421.200000
155.014900 29096.800000
155.027500 10332.100000
156.011500 7249316.000000
156.022400 424479.687500
157.019400 343233.700000
157.030400 269996.700000
158.027200 392240.900000
159.022400 9904.000000
160.050700 8174.300000
161.082300 377609.800000
162.066400 267355.800000
162.090200 226336.500000
163.032600 259359.000000
164.016700 13238.400000
164.028200 28859.100000
164.082100 53802.400000
165.035600 10286.300000
166.043600 1841737.500000
167.027600 207602.500000
168.011600 287525.800000
168.022500 88937.300000
168.051700 21057.800000
168.059100 115715.700000
169.043300 59893.200000
170.027300 40097.600000
173.058400 29456.600000
175.061700 13605.900000
176.045600 7930.400000
177.077400 60111.300000
178.043500 1474285.200000
179.027600 461713.400000
180.059200 420678.600000
181.043100 174327.300000
182.038400 46403.300000
183.022500 57682.500000
184.018000 85106.100000
185.038000 115643.700000
189.077300 111357.500000
190.061200 13173.800000
190.085000 206216.300000
192.022700 123878.700000
193.006600 63132.100000
193.054500 287362.600000
193.072200 38264.300000
194.038500 123337.200000
195.022400 358095.000000
195.070100 222841.500000
196.054100 120529.300000
197.038200 203304.300000
205.072400 77467.700000
206.038500 586909.300000
207.022500 252738.100000
208.054100 331299.800000
209.037900 11087.600000
210.033400 258984.700000
221.049400 233681.200000
222.033200 55733.300000
223.065000 334129.800000
224.049000 52959.100000
225.033000 106709.600000
233.067100 60726.000000
234.034100 11705.600000
234.074500 11835.800000
239.059700 42702.400000
249.044300 82652.600000
250.028600 20200.300000
251.070800 19627.600000
252.044000 1779692.500000
267.055100 125241.900000
270.000100 22977.700000
295.061100 1089306.900000
323.056100 120475.600000

>ms2
53.038500 47227.000000
54.033800 51923.500000
55.029100 327341.100000
56.013100 5948.800000
56.049600 45551.600000
57.044800 484752.500000
57.987100 22742.200000
58.995000 58346.200000
59.990200 45074.700000
62.005900 33629.800000
65.038600 75092.400000
66.033900 63870.600000
66.046400 8681.200000
67.029100 9241.500000
67.041700 24596.900000
68.049500 495461.700000
69.044800 572172.600000
69.974700 28155.600000
70.028700 8666.400000
70.065200 25135.100000
70.995000 45068.200000
71.035200 162209.400000
71.990300 75781.900000
72.055600 150783.700000
72.998000 57810.100000
73.010700 31803.300000
73.039700 21791.500000
74.005900 142480.900000
75.013700 10091.000000
78.033900 11851.400000
80.049500 617023.000000
81.044800 107315.600000
81.057300 40877.500000
82.028800 50302.900000
82.040000 26123.800000
82.052600 64861.200000
82.065100 47656.600000
82.995100 29728.400000
83.024000 36827.100000
83.047800 10797.400000
83.060400 7399.200000
84.002900 28755.400000
84.031800 32440.400000
84.044400 41563.100000
84.055700 520973.700000
84.974300 60479.100000
85.010700 827383.300000
85.039700 406270.200000
86.005900 136247.500000
87.013800 34361.100000
87.026400 22565.300000
90.033800 39270.000000
91.041700 11902.200000
91.962300 12389.800000
92.049500 63536.400000
93.044800 75166.400000
93.057300 50993.800000
94.028500 10221.300000
94.040100 66484.500000
94.052700 10467.100000
94.065200 37799.400000
95.024000 27717.400000
95.060500 244628.200000
96.044500 122714.900000
96.055700 1185822.200000
97.010800 976118.900000
97.039700 152950.200000
98.006000 91075.800000
98.023700 41930.800000
98.035000 33576.100000
98.047600 95942.600000
99.001200 124122.100000
99.013800 257742.200000
99.026400 99799.400000
100.009100 88889.800000
100.021600 586595.500000
100.050600 1059494.200000
101.005700 43763.400000
101.016900 146577.200000
102.000900 13590.400000
102.037300 21401.200000
105.044900 97662.000000
106.028900 12723.800000
106.052600 193237.200000
107.060500 943855.600000
108.044500 47816.500000
108.055800 83093.100000
108.068300 702736.400000
109.010600 29586.700000
109.051000 9779.100000
109.076100 77712.800000
110.005900 68393.700000
110.035000 118039.500000
110.060200 43646.700000
110.071300 10393.100000
111.001200 49330.500000
111.013800 11088.900000
111.026400 11349.100000
111.042800 51176.700000
111.055300 65878.900000
111.066600 45092.600000
112.021600 1567533.600000
112.039400 879648.500000
112.050600 263819.900000
113.005600 26919.600000
113.016900 183102.000000
113.029400 104418.300000
113.058400 27857.400000
114.001000 13341.000000
114.011900 21267.000000
114.024700 48497.500000
114.037300 133518.700000
116.027600 8571.000000
117.011800 7700.700000
117.044900 6037.400000
118.052500 68225.100000
119.060500 521451.700000
120.056100 67360.900000
120.068300 1325594.600000
121.039800 10532.800000
121.063300 20627.400000
121.076100 56313.100000
122.006000 336109.900000
122.035000 28448.000000
122.071400 80699.400000
123.013800 76678.300000
123.055400 24053.900000
124.021700 2708303.000000
124.050700 371628.000000
125.005700 34155.500000
125.017000 39761.300000
125.029400 33585.400000
126.000900 163674.400000
126.012100 121889.600000
126.024800 37004.500000
126.037300 366349.000000
126.996100 29302.700000
127.020000 387694.200000
127.032500 43305.100000
128.016800 83015.200000
128.027800 870162.200000
129.000700 77577.200000
129.011800 78114.300000
129.035400 49320.900000
130.019700 132720.600000
132.055700 114916.800000
132.989000 3120874.200000
133.063500 178555.800000
134.071300 241194.700000
135.055400 45975.700000
135.079000 24231.600000
136.021700 170248.000000
136.039500 28197.800000
136.050500 23436.100000
136.087000 37754.400000
137.017000 109106.900000
137.034500 14085.500000
138.012000 10952.200000
138.024700 13183.100000
138.037200 20892.500000
138.066200 12350.700000
139.032600 2238851.200000
140.004100 23435.300000
140.016500 202337.400000
140.027700 123082.800000
140.040300 44370.200000
140.045600 63853.600000
141.011800 29235.400000
141.048200 487869.500000
142.032300 51059.700000
144.011500 227251.800000
145.063700 75720.800000
146.071500 99839.600000
147.066700 71441.100000
147.079200 190534.000000
148.050800 41327.200000
148.063200 34910.800000
148.074500 36958.000000
149.017100 78250.400000
149.082400 86123.600000
150.001100 11301.500000
150.024600 42900.800000
150.066300 29393.600000
151.032600 1294616.000000
151.050100 83974.800000
152.016600 391519.400000
153.048200 1609865.000000
154.007200 65611.700000
154.032500 25293.200000
154.043300 42459.700000
155.014800 43112.300000
155.027500 30957.600000
156.011500 4257910.500000
157.019400 288040.800000
157.030300 140076.100000
158.027200 189422.000000
159.022100 8193.500000
159.066600 10768.100000
160.050700 24641.100000
160.074300 9979.500000
161.082300 343264.200000
162.066300 142978.000000
162.090200 140825.000000
163.032600 183781.700000
163.074100 37844.400000
164.016600 24094.300000
164.027800 111310.700000
164.058300 28852.700000
164.082000 22783.600000
165.011700 41200.200000
165.035700 42549.100000
166.043500 1014810.600000
167.027600 310501.900000
168.011500 211497.500000
168.022800 31137.300000
168.059100 53163.100000
169.043100 31710.000000
170.027100 11154.200000
172.050700 11859.200000
173.058500 30485.400000
175.061500 13863.300000
176.045700 6069.000000
176.069200 5588.300000
177.011900 28580.300000
177.076900 25311.100000
178.043500 764851.000000
179.027500 207941.400000
180.059100 279346.200000
181.043100 70182.800000
182.038500 48326.400000
183.022200 31570.200000
184.018000 11299.800000
185.037900 30850.300000
189.077300 64928.600000
190.085000 60976.600000
192.022800 125594.500000
193.006900 95860.200000
193.054500 113231.700000
194.038300 47872.400000
195.022500 192485.600000
195.069900 12476.000000
196.054100 30580.100000
197.038200 92358.600000
205.072000 35005.400000
206.028400 8820.800000
206.038500 155480.200000
207.022400 111683.600000
208.054100 101697.100000
210.033400 134307.500000
221.049200 38652.800000
222.033600 13415.400000
223.064700 23744.300000
224.048800 10640.800000
225.032700 5941.100000
233.066800 20593.700000
234.034000 7088.000000
252.044000 200702.900000

>ms2
50.015000 5303.700000
51.022900 9300.500000
52.018200 5073.900000
53.038600 117602.700000
54.033800 86925.000000
55.029100 558181.200000
56.049500 70055.000000
57.044800 488579.000000
57.974600 7085.600000
57.987200 29624.200000
58.028800 21590.300000
58.995000 97680.900000
59.966500 10783.500000
59.990300 90312.700000
62.005900 34503.400000
65.038600 119781.400000
66.033900 204106.700000
67.029100 10674.900000
67.041700 50154.300000
67.054300 22802.700000
68.049500 625249.900000
68.979400 30387.800000
69.044800 547830.200000
69.974600 29421.900000
70.028800 30298.200000
70.040100 5469.400000
70.065200 11474.400000
70.995000 103837.900000
71.035300 107004.900000
71.990300 100602.800000
72.055700 109506.700000
72.998100 210331.600000
73.010700 58961.500000
74.005900 204957.900000
75.013800 39242.000000
78.033900 76745.200000
79.029000 5677.200000
79.041700 22759.900000
80.049500 1170306.600000
81.044800 146534.300000
81.057300 98690.600000
82.028800 75155.600000
82.040000 39214.900000
82.052600 110697.300000
82.065200 55047.800000
82.995000 41326.700000
83.024000 12889.800000
83.047800 43475.600000
83.060500 12415.200000
83.990300 49431.300000
84.002900 119093.500000
84.031900 35582.200000
84.044500 95009.700000
84.055700 472122.100000
84.974400 68623.300000
85.010700 935864.900000
85.039700 239658.900000
86.005900 186810.700000
87.013900 37752.500000
87.026300 21715.200000
89.016900 7842.100000
90.034000 111953.400000
91.041700 33864.600000
91.962400 69704.900000
92.049600 81802.000000
93.044800 164225.100000
93.057400 95392.800000
94.040100 53636.700000
94.052800 8096.600000
94.065300 34730.000000
94.995300 19396.000000
95.024100 23522.000000
95.060500 377466.100000
96.044500 198273.500000
96.055700 990719.800000
97.010800 1588363.600000
97.039800 116173.000000
97.993400 10286.300000
98.005900 123896.800000
98.018500 28030.400000
98.023800 36614.800000
98.035000 10200.500000
98.047600 58073.700000
99.001200 351832.700000
99.013800 366953.100000
99.026300 134143.000000
100.009000 144784.300000
100.021600 376551.900000
100.050600 457105.900000
101.005700 67257.900000
101.016900 185230.200000
102.000800 11294.200000
102.024800 10338.000000
102.037300 9285.600000
105.044800 164826.800000
106.028800 22002.900000
106.052600 307590.200000
107.060500 1018790.600000
108.055800 71567.800000
108.068300 873440.100000
109.010800 36076.600000
109.076200 123782.800000
110.005900 156057.400000
110.035000 47403.100000
110.060200 49667.600000
110.071300 11601.500000
110.990100 6689.400000
111.001200 49823.600000
111.013800 23692.400000
111.026500 9612.600000
111.042900 38183.200000
111.055400 32238.600000
111.066500 26471.500000
112.021600 1315698.100000
112.039400 1284881.600000
112.050400 132261.600000
113.005600 19368.100000
113.016900 161285.900000
113.029400 69276.200000
114.001400 8923.500000
114.024700 23765.600000
114.037400 100325.900000
117.044800 10825.600000
118.052600 106746.800000
119.060500 849645.100000
120.055900 114396.600000
120.068300 1148749.600000
121.039900 19390.500000
121.063800 19001.300000
121.076200 45433.400000
122.006000 463793.200000
122.071500 64552.400000
123.013800 128472.300000
123.055500 35259.100000
124.021700 1726417.900000
124.039400 92277.700000
124.050700 127093.100000
125.005800 22066.400000
125.016900 70886.600000
125.029500 37030.000000
126.000900 89088.000000
126.012200 83480.800000
126.024800 47017.600000
126.037300 191390.600000
126.996100 29330.000000
127.020000 356811.300000
127.032600 24913.500000
128.016800 76778.900000
128.027800 536587.900000
129.000600 53047.900000
129.011900 41640.500000
129.035600 9157.200000
130.019700 89843.100000
132.055800 135633.100000
132.989000 2311777.200000
133.063600 197618.800000
134.006100 11982.000000
134.047500 9287.900000
134.071400 182048.300000
135.055300 50927.200000
135.079200 27492.000000
136.021700 132043.700000
136.039400 19720.800000
136.050700 11378.300000
136.087100 12929.600000
137.016900 154783.200000
137.034500 12779.600000
138.012200 23710.900000
138.024800 41394.800000
139.032600 1320775.600000
140.003800 9629.900000
140.016500 129386.400000
140.027800 63885.500000
140.040400 44055.100000
140.045300 12493.400000
141.011900 28410.500000
141.048200 172213.600000
142.032400 48163.100000
144.011500 128857.500000
144.055900 23495.100000
145.063700 47968.100000
146.071400 76100.100000
147.055200 7553.700000
147.066600 49801.000000
147.079100 80994.200000
148.050800 30481.500000
148.063100 11538.800000
148.074300 26375.100000
149.017100 59272.100000
149.082200 23379.300000
150.000900 22253.200000
150.024900 51809.700000
150.066400 11853.000000
151.032600 755701.200000
151.050100 56770.100000
152.016600 181393.200000
153.048200 470634.800000
154.006900 10465.700000
154.043400 12101.400000
155.014900 36406.600000
155.027300 5419.700000
156.011500 1939029.000000
157.019400 135422.400000
157.030600 29708.800000
158.027300 48934.800000
160.074400 6697.100000
161.017000 10176.200000
161.082300 177364.000000
162.066300 50930.200000
162.090300 46859.500000
163.032600 75407.900000
163.074100 9867.500000
164.027800 97607.200000
164.057900 11632.400000
164.082000 6512.300000
165.011800 33318.700000
165.035700 37110.700000
166.043500 282345.800000
167.027600 207114.600000
168.011600 79153.600000
168.022900 7482.500000
168.059400 12876.500000
169.043600 7737.400000
172.050800 6807.100000
177.012000 7006.600000
177.077100 6017.300000
178.043500 232268.800000
179.027400 65468.200000
180.058800 38294.000000
181.044100 8042.700000
182.038600 27234.300000
189.077100 29178.500000
192.022700 32225.100000
193.006800 46155.500000
193.054100 11252.000000
195.022800 61657.700000
196.053100 5957.500000
206.026900 6082.700000
206.038600 19827.000000
208.053400 7741.100000
210.033700 13097.000000

>ms2
51.022900 12025.900000
52.018100 9002.900000
53.038600 308702.300000
54.033900 137542.900000
55.029100 791099.600000
56.013100 9933.500000
56.049500 82825.100000
56.979300 54080.500000
57.044800 425753.500000
57.974600 31362.100000
57.987200 102594.500000
58.028700 25284.100000
58.995000 171615.000000
59.966500 30961.400000
59.990300 135417.600000
62.005900 45331.600000
63.023000 23040.300000
65.038600 274640.200000
66.033900 523712.800000
66.046400 34419.900000
67.029100 42937.100000
67.041700 107101.400000
67.054300 9471.700000
68.049500 776088.400000
68.979400 78673.300000
69.044800 622384.700000
69.974600 72744.600000
70.028800 28313.300000
70.040000 6433.000000
70.065100 12272.000000
70.995000 245665.400000
71.035300 59662.200000
71.990300 136363.300000
72.002900 7614.700000
72.055600 92959.100000
72.998100 334809.900000
73.010700 76018.300000
74.005900 279296.400000
75.013700 69620.700000
78.033900 165879.200000
79.029100 7235.500000
79.041600 35235.900000
80.049500 1588343.500000
81.044800 170507.800000
81.057400 130835.900000
82.028800 53361.400000
82.040000 48594.100000
82.052600 257601.000000
82.065200 59835.800000
82.995000 74116.300000
83.024000 24305.600000
83.036700 8836.000000
83.047800 75068.600000
83.060200 12514.300000
83.990300 73364.100000
84.002900 130475.200000
84.031900 37507.900000
84.044400 166307.600000
84.055700 437108.600000
85.010700 1062815.900000
85.039700 160391.000000
86.005900 243353.900000
87.013800 37771.400000
87.026400 11074.500000
89.017000 5555.700000
90.033900 139700.300000
91.041700 58607.200000
91.962400 119032.800000
92.036900 11535.500000
92.049600 105268.500000
93.044800 273005.200000
93.057400 94172.900000
94.028800 10930.900000
94.040100 27764.400000
94.052700 20803.000000
94.065200 29672.200000
94.995100 51469.800000
95.060500 485410.500000
96.044500 238939.600000
96.055700 813486.800000
97.010800 1886944.200000
97.993400 44450.000000
98.006000 148744.800000
98.018600 36984.400000
98.047500 43061.600000
99.001200 688390.500000
99.013800 497272.200000
99.026400 116799.200000
100.009000 196799.600000
100.021600 282686.800000
100.050600 228454.800000
101.005700 65567.400000
101.016900 165430.500000
102.000900 11369.200000
102.024700 6508.100000
105.044800 200291.100000
106.052600 404625.100000
107.060500 1096477.600000
108.055800 64602.300000
108.068300 780305.100000
108.998400 7165.400000
109.010700 62299.600000
109.051300 6563.800000
109.076100 120713.200000
110.006000 265321.600000
110.035000 20255.000000
110.060200 49473.200000
110.989900 6743.500000
111.001200 72914.900000
111.013800 35881.200000
111.042900 20783.200000
111.055300 37189.000000
111.066800 12316.500000
112.021600 1075210.100000
112.039400 1368472.100000
112.050400 75489.900000
113.005600 25707.100000
113.016800 123672.800000
113.029400 37876.600000
114.001000 9662.800000
114.024700 9971.100000
114.037300 49257.200000
115.032600 6672.300000
116.027700 5717.700000
117.044700 25536.400000
118.052600 177892.200000
119.060500 1184352.200000
120.055900 74659.100000
120.068300 606523.900000
121.039700 22281.500000
121.063700 22714.500000
121.076100 49551.400000
122.006000 473401.300000
122.071400 38572.300000
123.013800 148902.300000
123.055300 10779.200000
124.021700 867374.400000
124.039500 61932.600000
125.005600 7399.100000
125.017000 56852.400000
125.029400 7509.700000
126.001100 51480.500000
126.012200 60217.000000
126.024700 41349.300000
126.037300 104492.300000
126.996000 9031.700000
127.019900 175831.200000
127.032700 20256.100000
128.016600 108587.200000
128.027800 281468.700000
129.000600 25189.900000
129.011700 10166.800000
130.019700 36721.200000
132.055800 85775.300000
132.989000 1517688.800000
133.063600 156545.800000
134.047500 26134.600000
134.071400 153104.600000
135.055400 34357.300000
135.079400 24332.400000
136.021700 92908.200000
136.039400 21350.000000
137.016900 160015.100000
137.034400 11781.400000
138.012300 10807.000000
138.024500 29238.900000
139.032600 593845.400000
140.016600 52565.900000
140.027700 32407.400000
140.045600 5173.500000
141.011600 9663.000000
141.048100 63121.400000
142.032300 27972.900000
144.011600 84110.900000
144.055900 22668.900000
145.063500 39998.600000
146.071400 61376.500000
147.066800 41714.900000
147.079400 20061.300000
148.050500 10991.700000
149.017000 63853.100000
149.082100 6417.700000
150.024900 38707.100000
150.065800 8414.300000
151.032600 272931.000000
151.050300 32103.300000
152.016600 74670.100000
153.048200 118279.200000
154.043000 6022.500000
155.014900 8771.800000
156.011500 759067.500000
157.019600 45118.800000
161.082400 109138.800000
162.066500 23108.700000
162.090200 6773.100000
163.032500 25001.900000
164.027900 37303.600000
164.058200 7580.900000
165.012100 18986.000000
165.035700 11782.300000
166.043700 60636.300000
167.027500 103527.800000
168.011500 32189.700000
178.043500 54781.700000
195.022600 24565.700000

>ms2
50.015100 24521.700000
51.022900 38802.200000
52.018200 11337.600000
53.002200 21568.800000
53.038600 417335.700000
54.033900 158758.800000
55.029100 775671.200000
56.013100 9961.600000
56.037000 8041.300000
56.049500 117222.500000
56.979300 48884.900000
57.044800 371526.400000
57.974600 67160.900000
57.987200 155200.800000
58.028800 27829.200000
58.982400 12498.000000
58.995000 217028.200000
59.966400 35117.100000
59.990300 167176.500000
62.005900 23407.000000
63.022900 36074.900000
64.018100 12584.100000
64.030800 9718.500000
65.038600 266868.400000
66.033900 688162.100000
66.046400 41239.000000
67.029100 53132.000000
67.041700 127242.100000
67.054200 9500.400000
68.037000 56075.500000
68.049500 660269.800000
68.979400 127958.700000
69.044800 512128.500000
69.974600 87234.600000
70.028800 23731.500000
70.065200 9464.600000
70.995000 325411.400000
71.035200 44620.400000
71.990300 166127.800000
72.002800 32565.200000
72.055600 23597.900000
72.998100 471920.900000
73.010700 79521.200000
74.005900 258688.600000
75.013700 61151.000000
78.033900 252570.200000
79.029100 12305.900000
79.041700 57322.800000
80.049500 1530143.100000
81.044800 150756.500000
81.057300 92308.400000
82.028800 48075.400000
82.040000 34548.200000
82.052600 339295.600000
82.065200 38153.100000
82.995000 71384.000000
83.024000 27842.600000
83.036700 7301.200000
83.047800 53095.400000
83.060400 10874.900000
83.990300 73615.900000
84.002900 139392.300000
84.031900 51506.700000
84.044400 221922.200000
84.055700 304740.100000
84.974200 37428.100000
85.010700 747491.500000
85.039600 66114.400000
86.005900 228248.000000
87.013800 35880.000000
87.026500 8577.000000
90.033900 163582.100000
91.041700 75878.700000
91.962400 149859.600000
92.036900 19848.200000
92.049500 107970.200000
93.044800 291057.400000
93.057400 108017.500000
94.028900 6499.700000
94.040100 48542.700000
94.052600 31016.100000
94.065200 12486.000000
94.995200 60909.300000
95.060500 326685.900000
95.990400 27483.200000
96.044500 212402.600000
96.055700 487508.500000
97.010800 1405242.500000
97.993300 50527.100000
98.006000 101794.900000
98.018600 21698.600000
98.047600 11629.900000
99.001200 589607.600000
99.013800 390239.400000
99.026300 47327.500000
100.009000 187001.500000
100.021600 197362.600000
100.050600 85443.300000
101.005700 31809.700000
101.016900 102619.400000
102.001000 5965.600000
105.044800 208111.300000
106.052600 368706.500000
107.060500 1175121.000000
108.044300 28632.100000
108.055800 34738.000000
108.068200 469741.500000
108.998100 5405.800000
109.010600 53507.400000
109.076200 73033.100000
110.006000 242643.800000
110.060100 43134.100000
111.001200 50897.500000
111.013800 22137.800000
111.031700 7968.000000
111.055400 9605.500000
112.021600 645083.000000
112.039400 926833.600000
113.005600 9152.200000
113.016900 59710.700000
113.029400 7350.600000
114.024900 5693.500000
114.037300 25182.500000
115.032600 7464.100000
117.044700 28175.700000
118.052600 118066.100000
119.060500 1061002.400000
120.055700 52070.500000
120.068300 262551.900000
121.039600 6931.100000
121.063700 8424.000000
121.076000 39139.900000
122.006000 379476.700000
122.071300 30571.600000
123.013800 145729.000000
123.055300 9594.900000
124.009200 48238.900000
124.021700 315957.900000
124.039400 42706.200000
125.017000 45297.300000
125.029400 11848.800000
126.000900 20426.100000
126.012100 32351.000000
126.024800 22725.900000
126.037200 37048.500000
127.020000 65265.100000
127.032500 19521.500000
128.016800 37722.100000
128.027800 122153.600000
130.019600 5043.700000
132.055700 53673.700000
132.989000 636789.100000
133.063500 71176.400000
134.006100 8296.400000
134.047800 8382.200000
134.071400 94710.300000
135.055600 10089.300000
136.021700 31967.400000
137.016900 68077.000000
138.012200 11426.700000
138.024700 19168.700000
139.032600 189620.900000
140.016600 11111.100000
140.027600 11275.500000
141.048200 11896.100000
144.011500 28337.500000
144.055700 21103.200000
145.063700 8080.500000
146.071500 30088.600000
147.066600 22616.000000
149.016900 29215.600000
150.024800 30848.500000
151.032600 96834.900000
151.050500 7136.700000
152.016700 10847.500000
153.048400 12516.900000
156.011500 190517.800000
157.019400 11359.800000
159.066300 5843.200000
161.017000 5041.500000
161.082200 58968.300000
164.027900 31384.600000
165.012100 6401.800000
166.043100 9199.400000
168.011700 6140.200000
172.050600 5994.100000

>ms2
50.015200 58331.600000
51.023000 125598.900000
52.018300 40122.800000
52.030900 20887.500000
53.002300 50978.000000
53.038600 712919.200000
53.997500 22161.800000
54.033900 247417.100000
55.029100 787871.600000
56.013100 10706.600000
56.037000 18906.000000
56.049500 98307.100000
56.979400 116513.300000
57.044800 229180.500000
57.974700 171177.000000
57.987200 341255.200000
58.982500 63061.800000
58.995100 366488.600000
59.966500 92352.900000
59.990300 192183.800000
62.005900 24358.000000
63.023000 90156.000000
63.943700 9581.400000
64.018200 51795.900000
64.030800 18501.500000
65.038600 272808.700000
66.033900 781260.400000
66.046400 50943.400000
67.029200 82196.500000
67.041700 155797.900000
68.037000 66248.800000
68.049500 357148.000000
68.979400 225979.000000
69.044800 428248.600000
69.974700 112134.800000
69.987200 8301.300000
70.028800 24934.900000
70.065200 5919.200000
70.982400 49419.500000
70.995100 424116.400000
71.035300 29231.400000
71.990300 172671.300000
72.002900 66115.000000
72.998100 424524.200000
73.010700 39408.600000
74.005900 125846.800000
75.013800 39466.700000
76.018200 8853.500000
78.033900 286926.800000
79.029200 9307.600000
79.041700 112976.600000
80.049500 1048144.100000
81.044800 172428.300000
81.057400 41706.400000
82.052600 320928.200000
82.065200 22229.600000
82.995000 81571.100000
83.024000 40400.900000
83.047800 38634.800000
83.990300 73849.200000
84.002900 77845.000000
84.031900 116004.100000
84.044500 134879.100000
84.055700 131814.400000
85.010700 424274.200000
86.005900 162495.800000
87.013700 6540.000000
90.033800 67026.300000
91.041800 84663.100000
91.962400 77169.800000
92.036900 36544.000000
92.049600 102851.300000
93.044900 236883.400000
93.057400 54763.700000
94.028600 5219.600000
94.040300 21541.100000
94.052700 16594.800000
94.995200 51556.800000
95.060500 193742.900000
95.990400 24953.100000
96.044500 277901.900000
96.055700 166236.200000
97.010800 622735.100000
97.039800 45298.000000
97.993400 56723.800000
98.006000 62556.200000
99.001200 227822.300000
99.013800 204733.200000
100.009100 83552.500000
100.021600 42660.000000
101.005700 22970.000000
101.016900 56498.200000
105.044900 194296.500000
106.052700 265700.200000
107.060500 958102.100000
108.055600 7303.200000
108.068300 101583.700000
108.998100 8773.900000
109.010800 8112.100000
109.076400 16210.400000
110.006000 188587.700000
110.060200 20343.300000
111.001200 31147.400000
111.013900 5561.500000
111.031600 18624.000000
112.021700 150696.600000
112.039400 179022.400000
113.016900 11583.200000
117.044800 5501.000000
118.052700 52334.000000
119.060500 649232.400000
120.056300 16242.600000
120.068300 24100.600000
121.039700 7461.900000
122.006000 130104.800000
123.013800 58840.900000
124.009100 21422.400000
124.021800 36337.000000
124.039500 5292.100000
125.016900 9473.200000
126.012400 7164.900000
126.037500 7252.000000
128.016000 5213.900000
128.027700 8117.400000
132.055800 25593.200000
132.989100 73444.400000
133.063600 10014.700000
134.005900 5656.100000
134.071500 27013.000000
135.055600 7206.800000
137.017100 30191.100000
138.025100 6247.900000
139.032700 22206.200000
164.028500 4929.300000

>ms2
50.015200 88146.500000
51.023000 204142.800000
52.018300 89795.700000
52.030800 34193.100000
53.002300 59596.000000
53.038600 481130.700000
53.997500 32878.000000
54.033900 199010.300000
55.029200 556944.700000
56.013100 17131.600000
56.049500 56359.000000
56.979400 120936.400000
57.044800 111498.500000
57.974700 151699.400000
57.987200 372443.800000
58.982500 79140.700000
58.995100 380040.600000
59.966500 87978.800000
59.990300 202690.000000
62.005900 5656.400000
62.015100 10358.800000
63.023000 78451.800000
63.943600 33257.500000
64.018200 52624.500000
64.030800 19667.500000
65.025900 21916.300000
65.038600 155209.000000
66.033900 384709.200000
66.046400 22341.100000
67.029100 80969.700000
67.041700 111309.300000
68.036900 54482.800000
68.049500 144561.800000
68.979400 217266.400000
69.044800 258826.800000
69.974700 138494.000000
69.987200 43598.800000
70.028700 8592.900000
70.982500 64596.900000
70.995100 264023.100000
71.990300 97345.000000
72.002900 44456.900000
72.998100 229511.000000
73.010600 17380.100000
74.005900 37055.100000
76.018200 9230.600000
78.033900 203972.200000
79.029100 6340.100000
79.041700 61745.500000
80.049500 522864.400000
81.044800 168204.000000
81.987300 22416.600000
82.052600 153980.000000
82.995100 34939.700000
83.024000 28537.900000
83.047700 9468.700000
83.990400 45749.400000
84.002900 53217.900000
84.031900 104588.400000
84.044500 33915.800000
84.055700 35851.200000
84.985400 19991.800000
85.010800 131747.500000
86.006000 108043.700000
90.033900 26797.600000
91.041700 47269.400000
91.962500 8040.300000
92.037000 7622.100000
92.049500 29119.000000
93.044900 169091.600000
93.057400 17193.500000
94.995100 49873.500000
95.036800 5248.300000
95.060500 78035.300000
95.990300 18317.100000
96.044500 190030.100000
96.055600 27696.500000
97.010800 186529.100000
97.039700 21906.700000
97.993500 9445.900000
98.006000 22382.300000
99.001200 39374.600000
99.013800 60218.600000
100.009000 31193.400000
100.021700 4720.200000
101.016700 15868.900000
105.044900 94939.500000
106.052700 137007.700000
107.060500 448242.800000
108.068200 18590.600000
110.006000 68833.900000
110.060100 8093.700000
111.031600 6875.800000
112.021600 26892.300000
112.039400 18927.700000
117.044700 5531.800000
118.052800 10230.600000
119.060500 247496.100000
122.006000 28278.100000
123.013600 19007.100000
137.016800 5677.500000

>ms2
50.015200 150261.300000
51.023000 269828.200000
52.018300 122343.800000
52.030800 46867.900000
53.002300 91202.700000
53.038700 359436.300000
53.997600 38498.100000
54.033900 147833.600000
55.029200 395454.000000
56.013200 17261.900000
56.036900 5402.300000
56.049500 29910.100000
56.979400 159412.800000
57.044800 61479.700000
57.974700 150600.500000
57.987200 437355.100000
58.982500 113963.400000
58.995100 449412.800000
59.966500 181945.800000
59.990300 192421.100000
62.015200 20160.700000
63.023000 86045.900000
63.943700 56387.000000
64.018200 69806.800000
64.030800 6888.200000
65.026100 20147.300000
65.038600 94802.500000
66.033900 183367.400000
66.046500 10004.700000
67.029100 72996.100000
67.041700 60195.900000
68.037000 40682.700000
68.049600 50328.800000
68.979400 246811.300000
69.044800 197484.500000
69.974600 167190.900000
69.987200 24971.500000
70.982500 64410.600000
70.995100 179654.700000
71.990300 66031.700000
72.002900 23957.400000
72.998100 126225.800000
74.005900 8180.400000
76.018200 19995.200000
78.033900 135050.500000
79.041700 37422.100000
80.049500 305806.200000
81.044800 118561.600000
81.987300 15864.100000
82.052600 59128.900000
82.995000 22294.700000
83.024000 26775.400000
83.990400 32369.500000
84.002900 18658.400000
84.031900 93889.200000
84.044400 6446.800000
84.055700 6520.800000
84.985600 15821.400000
85.010700 42122.800000
86.005900 60423.300000
90.033900 4639.900000
91.041700 7522.600000
92.036900 9951.300000
92.049600 16038.400000
93.044900 96884.700000
94.995100 23957.700000
95.036700 7421.800000
95.060500 23634.200000
95.990400 6279.700000
96.044500 114764.000000
97.010800 55887.200000
97.039800 5188.800000
105.044800 56827.200000
106.052700 65271.700000
107.060500 152735.200000
110.005900 30913.900000
111.031700 6608.100000
112.021800 8101.800000
118.052400 4616.800000
119.060500 63492.600000
122.006300 7696.900000

