>compound EQ86378769
>parentmass 223.09650000000005
>ionization [M+H]+
>formula C12H14O4
>rt 522.000000
>profile orbitrap
#smiles_iso CCOC(=O)C1=CC=CC=C1C(=O)OCC
#smiles_can CCOC(=O)C1=CC=CC=C1C(=O)OCC
#inchikey FLKPEMZONWLCSK-UHFFFAOYSA-N
#pubchem_id 6781
#mb_accession EQ367201,EQ367202,EQ367203,EQ367204,EQ367205,EQ367206,EQ367207,EQ367208,EQ367209

>ms2
65.038500 463279.100000
149.023300 201326432.000000
163.039100 285262.800000
167.033800 352417.400000
177.054500 245873216.000000
181.049500 300836.300000

>ms2
65.038500 756753.600000
149.023300 364370112.000000
163.038800 646942.300000
167.034000 852826.400000
177.054600 106057368.000000
181.049500 692229.900000

>ms2
121.028400 3134365.800000
149.023300 415390912.000000
163.038600 795240.000000
167.034100 868017.000000
177.054700 5929245.500000
181.049500 843535.600000

>ms2
65.038500 4322676.500000
93.033500 3490093.000000
111.044100 1061497.200000
121.028400 38615944.000000
121.039600 7067357.000000
149.023300 394373440.000000
163.038900 803539.700000
167.034300 785797.400000
181.049700 715282.600000

>ms2
51.022800 240917.500000
55.017800 324921.900000
65.038600 29799488.000000
80.025600 954088.700000
93.033500 12717250.000000
98.036200 568183.500000
111.044100 7242948.000000
121.028400 90472024.000000
121.039600 30432874.000000
149.023300 225392064.000000
163.038700 451870.700000
167.033900 363115.500000
181.049600 313618.300000

>ms2
51.022700 100995.100000
53.002100 443704.200000
53.997400 133214.400000
55.017900 721891.400000
63.022700 243313.500000
65.038500 92559712.000000
67.989300 129190.700000
68.997000 428409.200000
79.017800 276485.800000
80.025600 1504043.100000
93.033500 20874446.000000
98.036100 765063.600000
111.044000 14457872.000000
121.028400 82430496.000000
121.039600 49192952.000000
122.036600 314611.300000
149.023300 87531952.000000
167.033700 233168.800000

>ms2
53.002200 1888302.200000
53.997500 473857.000000
55.017800 396564.400000
65.038600 153507136.000000
67.989200 609878.100000
80.025500 424660.800000
93.033500 6584571.000000
98.036200 302747.800000
111.044000 8192834.000000
121.028400 13047220.000000
121.039600 19105920.000000
149.023400 4877874.500000

>ms2
51.022900 237940.200000
53.002200 4402356.000000
53.997500 980806.200000
54.010000 242204.000000
63.022900 293367.500000
65.038600 81351584.000000
67.989300 1096282.600000
68.997100 82985.200000
75.022900 264221.000000
92.025800 254465.700000
93.033500 717456.000000
111.044000 1036380.600000
121.028400 670986.600000
121.039600 1903848.500000
149.023500 118212.800000

>ms2
50.015100 496491.700000
51.023000 655988.400000
52.018100 48506.000000
53.002200 5246173.500000
53.997500 1129559.900000
54.010000 175537.700000
63.022900 535605.500000
64.030800 196717.700000
65.038600 24183968.000000
67.989300 1256590.800000
74.015100 483527.468800
75.022900 419048.900000
92.025800 169697.100000
111.044000 79221.000000
121.039800 195428.000000

