>compound EQ86714510
>parentmass 279.1591
>ionization [M+H]+
>formula C16H22O4
>rt 852.000000
>profile orbitrap
#smiles_iso CCCCOC(=O)C1=CC=CC=C1C(=O)OCCCC
#smiles_can CCCCOC(=O)C1=CC=CC=C1C(=O)OCCCC
#inchikey DOIRQSBPFJWKBE-UHFFFAOYSA-N
#pubchem_id 3026
#mb_accession EQ367001,EQ367002,EQ367003,EQ367004,EQ367005,EQ367006,EQ367007,EQ367008,EQ367009

>ms2peaks
57.069900 18880412.000000
65.038600 3158498.200000
149.023500 1530818304.000000
150.026400 2105917.200000
163.038900 2720874.800000
167.034100 3450407.000000
181.050100 3615756.200000
205.086200 212329952.000000

>ms2peaks
57.069900 63941992.000000
65.038500 3904547.800000
149.023400 1762206464.000000
163.039100 3104457.200000
167.034400 3210736.800000
181.049900 4379533.000000
205.086000 4861354.500000

>ms2peaks
57.069900 81689792.000000
65.038400 4579695.500000
121.028500 15006987.000000
121.039800 1771784.500000
149.023500 1531067264.000000
163.039100 3253026.800000
167.034300 3826557.500000
181.049900 2819992.800000

>ms2peaks
53.002200 2423660.800000
57.069900 66972880.000000
65.038600 22907222.000000
80.025600 1372580.500000
93.033600 12528714.000000
111.044200 5550506.000000
121.028500 156645776.000000
121.039700 28293974.000000
149.023500 1360857344.000000
163.039000 4284343.000000
167.034200 3965798.200000
181.049900 3429250.800000

>ms2peaks
53.002200 2269896.200000
55.017900 1942547.800000
57.069900 33268184.000000
65.038600 117857384.000000
80.025700 3780700.200000
93.033600 51352000.000000
98.036400 1684766.500000
111.044200 25421238.000000
121.028500 324297760.000000
121.039700 113256280.000000
149.023500 688119360.000000
163.039100 1622947.000000
167.034200 1202601.000000
181.049700 1243464.800000

>ms2peaks
50.015100 490006.800000
53.002300 3464445.800000
53.997500 544035.200000
55.017900 4376919.500000
57.069900 16312755.000000
62.015000 359052.300000
63.022900 384371.900000
65.038600 348640192.000000
67.989300 1414430.800000
68.997200 1080590.600000
69.033600 459595.100000
79.017900 556585.400000
80.025700 6195457.500000
83.012800 440918.400000
93.033600 70169376.000000
98.036400 3247882.500000
110.036300 491244.700000
111.044200 50828368.000000
121.028600 265884544.000000
121.039700 171197152.000000
122.036800 455634.800000
149.023500 265988064.000000
167.033900 473329.400000

>ms2peaks
53.002300 9539655.000000
53.997500 2019690.900000
55.017900 1881377.100000
57.069900 2175015.500000
65.038600 478011712.000000
67.989300 1891247.000000
68.997200 505031.900000
80.025700 997352.100000
93.033600 17283244.000000
98.036300 522525.100000
111.044200 20556984.000000
121.028500 33695400.000000
121.039800 52191532.000000
149.023500 10939265.000000

>ms2peaks
50.015100 419624.200000
51.023000 1665264.900000
52.018300 398399.500000
53.002300 21470910.000000
53.997500 4630461.500000
54.010000 764268.100000
55.017900 859628.100000
62.015100 297388.900000
63.023000 1479665.400000
65.038600 261043984.000000
67.989300 4412853.000000
68.997200 352998.700000
74.015100 412300.100000
75.023000 504910.500000
92.025800 377469.600000
93.033700 1496027.800000
111.044100 2260024.200000
121.028600 2196348.500000
121.039800 5641928.500000

>ms2peaks
50.015200 2355263.800000
51.023000 1756009.900000
52.018200 375640.400000
53.002300 24041586.000000
53.997500 5423816.500000
54.010100 414389.300000
55.017900 344810.400000
62.015200 806893.900000
63.023000 1940705.900000
65.038700 70917112.000000
67.989300 3239151.800000
68.997200 222654.800000
74.015200 2371496.500000
75.023000 1566822.500000
92.025800 392149.100000

