>compound EQ86549686
>parentmass 215.04849999999996
>ionization [M+H]+
>formula C8H10N2O3S
>rt 498.000000
>profile orbitrap
#smiles_iso CC1=CC=C(C=C1)S(=O)(=O)N(C)N=O
#smiles_can CC1=CC=C(C=C1)S(=O)(=O)N(C)N=O
#inchikey FFKZOUIEAHOBHW-UHFFFAOYSA-N
#pubchem_id 6628
#mb_accession EQ345901,EQ345902,EQ345903,EQ345904,EQ345905,EQ345906

>ms2peaks
57.033400 268.600000
57.069900 1872.900000
67.054200 1126.100000
69.069900 4192.100000
71.049100 281.900000
71.085500 818.200000
81.069900 1662.500000
83.085400 891.500000
85.064700 1192.000000
87.043900 199.900000
88.075600 232.700000
91.054200 354.700000
93.069800 233.700000
95.049100 1037.200000
95.085500 5900.300000
97.064800 819.100000
99.043900 725.500000
99.080400 1385.700000
101.059800 2617.400000
103.075300 438.500000
105.069900 278.100000
107.085400 444.100000
109.064800 441.400000
111.044000 2089.400000
111.080400 222.000000
113.059500 324.200000
116.052800 493.400000
121.028400 3057.300000
123.080300 286.000000
125.059400 352.400000
127.075300 1041.700000
129.054600 6813.200000
141.000500 6552.100000
142.003900 9034.200000
145.051100 271.100000
147.065300 5381.600000
155.070200 1026.500000
158.027100 9323.100000
159.030500 12205.600000
169.027300 232.400000
183.022300 450.300000
189.017000 469.300000

>ms2peaks
53.038600 248.200000
55.017800 248.600000
55.054200 1745.000000
57.069900 3366.400000
59.049100 517.200000
67.054200 1232.600000
69.069900 7111.600000
71.049100 977.400000
71.085500 1221.500000
73.064700 222.400000
81.069900 2660.800000
83.049000 1456.000000
83.085400 1016.800000
85.064800 969.900000
87.044000 391.200000
91.054200 482.200000
93.069800 489.800000
95.049200 3294.300000
95.085500 6887.800000
96.052500 3106.200000
97.064800 785.300000
99.044000 531.500000
99.080400 923.300000
101.059700 5953.900000
103.075300 375.300000
105.044600 489.500000
105.069800 828.900000
106.048000 413.700000
107.085500 862.900000
109.064800 1314.600000
111.044100 4647.500000
111.080400 409.900000
113.059700 396.300000
116.052800 355.500000
121.028400 5986.200000
123.080500 900.200000
125.059800 399.900000
127.075200 445.300000
129.054600 7096.300000
137.059800 255.900000
141.000500 9478.800000
142.003900 11863.100000
147.065300 4654.500000
155.070200 1339.600000
158.027100 5228.800000
159.030500 8412.300000
169.027200 247.900000
183.022400 286.800000
189.016900 994.700000

>ms2peaks
53.038600 1908.000000
55.054200 4099.700000
57.033500 437.200000
57.069900 3866.500000
59.049100 433.700000
65.038500 279.500000
67.054200 2895.100000
69.069900 6931.000000
71.049100 1052.500000
71.085500 1184.300000
72.044400 452.300000
73.064800 319.700000
77.038500 425.000000
79.054200 815.900000
81.033500 969.300000
81.069900 2576.700000
83.049100 4922.700000
83.085500 2801.700000
85.064800 840.400000
87.044000 340.900000
88.021600 293.500000
91.054200 1649.000000
93.069900 1124.400000
95.049200 10328.800000
95.085600 5458.300000
96.052500 8850.900000
97.064900 640.400000
99.044100 1007.200000
99.080500 315.500000
101.059700 7310.200000
103.075300 200.100000
105.044700 1707.400000
105.069900 261.600000
106.048100 3411.200000
107.085500 999.700000
109.064800 1236.400000
111.044100 2440.000000
111.080500 304.200000
113.059700 288.000000
116.052800 213.400000
121.028500 8320.700000
123.080400 515.200000
127.075500 340.800000
129.054600 4979.800000
130.982000 274.000000
137.059900 302.700000
141.000500 5096.100000
142.003900 7384.700000
145.051100 788.000000
147.065300 782.200000
155.070300 382.000000
158.027100 421.000000
169.027400 446.900000
171.026600 198.400000
173.022300 979.400000
189.017100 1375.100000

>ms2peaks
53.038600 2661.900000
55.017800 1379.600000
55.054200 9165.100000
57.033500 405.100000
57.069900 2533.900000
59.049100 1500.700000
65.038600 810.000000
67.054200 4413.900000
68.997100 272.000000
69.033500 438.600000
69.069900 5023.000000
71.049100 878.700000
71.085500 250.600000
72.044500 295.600000
77.038500 320.900000
79.054200 2065.200000
81.033500 314.400000
81.069900 3210.900000
83.049100 4759.400000
83.085500 1675.000000
85.064800 1098.600000
88.021500 253.600000
88.075600 327.600000
91.054200 3306.400000
93.069900 1417.800000
95.049200 12438.000000
95.085500 4536.000000
96.052500 11036.300000
101.059700 4019.500000
105.044800 2986.100000
105.070000 1949.300000
106.048100 2651.000000
107.085400 789.900000
109.064800 1304.100000
111.044000 2022.100000
121.028400 9049.200000
121.039700 489.000000
123.080300 366.800000
125.059800 246.500000
129.054600 2637.900000
130.981800 323.000000
141.000600 1028.900000
142.003800 1347.700000
145.051100 258.600000
155.011600 307.800000
169.027200 281.000000
171.026600 217.300000
173.022100 3023.000000
175.001300 906.900000
179.060300 1704.200000
189.017000 325.200000
198.049900 6091.400000

>ms2peaks
51.023000 775.200000
53.002200 324.900000
53.038600 2982.900000
55.017800 939.200000
55.054200 11209.900000
57.033500 437.800000
57.069900 1500.900000
59.049100 2393.400000
65.038600 1397.600000
67.054200 4798.600000
69.069900 3072.400000
71.049100 851.400000
72.044400 312.300000
77.038500 919.500000
79.054200 2407.300000
81.033500 776.800000
81.069900 2284.800000
83.049100 4800.400000
83.085400 862.900000
88.021500 351.200000
91.054300 5009.900000
93.069900 1087.500000
95.049200 11829.300000
95.085500 2161.300000
96.052500 12083.600000
97.007700 337.900000
99.080500 240.500000
101.059800 1166.900000
103.054300 272.200000
105.044800 3175.900000
105.069900 1956.000000
106.048100 2887.800000
109.064900 466.900000
111.044000 1852.500000
121.028400 5179.700000
121.039600 886.200000
123.080600 384.100000
129.054600 393.300000
130.981900 433.400000
142.003700 224.000000
153.057400 352.200000
155.011600 387.900000
173.022200 4496.500000
175.001400 1012.200000
179.060500 5989.700000
189.017100 353.200000

>ms2peaks
51.022900 1242.200000
53.002200 848.500000
53.038600 2806.700000
55.017800 840.700000
55.054200 11091.100000
57.033500 282.000000
57.069800 440.200000
59.049100 1141.400000
65.038600 5022.600000
67.054300 3280.300000
68.997000 415.300000
69.033500 225.500000
69.069900 1426.400000
71.049000 250.100000
72.044300 255.800000
77.038500 1378.200000
79.054200 2521.100000
81.033500 415.000000
81.069900 1864.000000
83.049100 2060.200000
83.085500 326.900000
88.021500 218.300000
91.054300 4531.200000
93.069900 829.000000
95.049200 12199.000000
95.085500 976.500000
96.052500 10324.500000
97.007700 316.700000
103.054200 347.500000
105.044800 2766.700000
105.069900 1652.300000
106.048100 3452.200000
111.044100 2128.300000
121.028500 2036.600000
121.039600 874.600000
153.057300 557.000000
155.011600 203.200000
171.026700 282.700000
173.022200 3607.300000
175.001600 1179.000000
179.060400 4464.200000
198.050000 1122.100000

