>compound EQ87252076
>parentmass 192.07680000000002
>ionization [M+H]+
>formula C9H9N3O2
>rt 192.000000
>profile orbitrap
#smiles_iso COC(=O)NC1=NC2=CC=CC=C2N1
#smiles_can COC(=O)NC1=NC2=CC=CC=C2N1
#inchikey TWFZGCMQGLPBSX-UHFFFAOYSA-N
#pubchem_id 25429
#mb_accession EQ027801,EQ027802,EQ027803,EQ027804,EQ027805,EQ027806,EQ027807,EQ027808,EQ027809

>ms2peaks
59.012700 892157.500000
160.050600 380561728.000000
192.076700 649470464.000000

>ms2peaks
59.012800 784198.200000
160.050500 559238400.000000
192.076700 510872224.000000

>ms2peaks
132.055500 1827275.400000
133.063100 1635182.500000
160.050500 978128000.000000
192.076800 96174240.000000

>ms2peaks
65.038300 1030303.100000
92.049500 2525045.200000
105.044700 1677595.900000
132.055700 30009698.000000
133.063400 6325398.000000
135.055300 3745782.500000
160.050500 937605376.000000
192.076800 8262388.000000

>ms2peaks
65.038500 3978603.200000
90.033800 3889996.800000
92.049500 19688480.000000
105.044700 16366452.000000
107.060300 1399144.500000
117.044800 1587768.600000
132.055600 123206360.000000
133.039400 885595.700000
133.063400 13545024.000000
135.055300 18682600.000000
159.042500 1117998.000000
160.050500 690097024.000000

>ms2peaks
63.022900 683891.800000
65.038600 21127316.000000
78.033700 749130.500000
80.049400 1950811.600000
81.033600 900866.400000
90.033900 19415000.000000
92.049500 58367632.000000
105.044800 74619184.000000
106.028700 641843.000000
106.052600 4021464.200000
107.060400 1935104.500000
117.044800 4454923.500000
118.052500 2452488.800000
132.055700 226289920.000000
133.039600 2325103.500000
133.063400 19394296.000000
134.071200 862315.900000
135.055300 42187340.000000
159.042600 1537823.100000
160.050500 443232416.000000

>ms2peaks
50.015100 739187.400000
51.022900 426004.000000
52.018000 183357.300000
53.002200 409369.700000
53.038600 787923.000000
62.015000 179355.400000
63.023000 6975642.000000
64.018200 2950468.500000
65.038600 113257704.000000
66.033800 183691.000000
78.033800 8870048.000000
79.041600 4353434.500000
80.049400 5056467.500000
81.033500 4788002.500000
90.033900 89661192.000000
91.041600 1669382.900000
92.049500 72558512.000000
93.057500 836872.700000
95.036500 483221.200000
95.049300 172729.400000
96.044400 2145494.500000
97.052100 372773.900000
104.037000 630431.100000
105.044800 167330096.000000
106.028700 2697179.000000
106.052600 9702219.000000
107.060400 1797731.500000
108.044400 1040196.600000
110.060100 667363.700000
117.044800 6777276.500000
118.052500 3658920.000000
119.036500 426595.800000
131.047800 1390611.600000
132.055700 125349088.000000
133.039700 2258984.000000
133.063500 11562802.000000
134.071100 686018.600000
135.055300 33633628.000000
159.042800 1595464.900000
160.050600 69424344.000000

>ms2peaks
50.015100 2933828.000000
51.022900 3085522.000000
52.018200 514391.000000
52.030800 628903.100000
53.002200 1901640.800000
53.038600 2368742.200000
53.997500 479494.000000
54.033900 385059.200000
55.017800 182443.400000
61.007300 166534.200000
62.015100 663839.600000
63.023000 19270096.000000
64.018200 10472861.000000
64.030700 802687.400000
65.038600 137883968.000000
66.033800 518332.500000
67.989300 526583.300000
68.049400 166586.000000
69.008300 190061.000000
76.018100 162672.100000
77.025900 1002633.900000
77.038500 148679.000000
78.033800 24484974.000000
79.041600 6627581.000000
80.049500 5918399.000000
81.033500 4520551.500000
90.033900 80281088.000000
91.041700 3831683.800000
92.049500 25190814.000000
93.057300 887126.200000
95.036600 850549.700000
95.049000 157242.100000
96.044400 5937776.000000
97.052300 658919.400000
104.036900 1258903.900000
105.044800 102671136.000000
106.028700 1528363.900000
106.052600 5281032.500000
107.060500 185764.800000
108.044500 913438.500000
116.037000 472144.300000
117.044700 2004475.200000
118.052500 3069878.500000
131.047800 910489.200000
132.055700 19338022.000000
133.039600 578299.400000
133.063500 2209487.800000
134.071400 144550.700000
135.055300 6821072.500000
159.042700 655249.900000
160.050600 5102626.500000

>ms2peaks
50.015100 7415765.500000
51.023000 10541559.000000
52.018200 1608189.800000
52.030800 2561886.000000
53.002200 3900732.000000
53.038600 3153076.200000
53.997500 1095603.600000
54.010000 112516.400000
54.033900 780286.900000
54.046400 346476.700000
55.017800 773939.400000
61.007200 175040.600000
62.015100 1908134.400000
63.023000 26082606.000000
64.018200 22475318.000000
64.030800 2260923.800000
65.038600 104932184.000000
66.033900 444244.400000
66.046400 401341.900000
67.989300 856718.100000
68.049500 173281.000000
69.008300 826633.200000
76.018100 1255743.800000
77.025900 1767214.400000
78.033800 31366636.000000
79.041600 6318669.000000
80.049400 5669498.000000
81.033500 2390263.800000
90.033900 39740144.000000
91.041700 4613174.500000
92.049500 5751561.000000
93.057300 535805.600000
95.036600 616918.800000
96.044400 6628597.000000
97.052300 421714.700000
104.036900 1103973.100000
105.044800 44554312.000000
106.028800 744092.200000
106.052500 1986874.900000
107.060400 113323.400000
108.044300 143213.700000
110.060000 148324.900000
111.031400 194910.800000
116.037100 349727.100000
117.044700 566693.600000
118.052500 1330771.100000
131.047900 677404.800000
132.055700 2382511.200000
133.063500 173373.000000
135.055400 1011222.900000
160.050600 137228.200000

