>compound EQ87067545
>parentmass 282.0873000000001
>ionization [M+H]+
>formula C15H11N3O3
>rt 462.000000
>profile orbitrap
#smiles_iso C1C(=O)NC2=C(C=C(C=C2)[N+](=O)[O-])C(=N1)C3=CC=CC=C3
#smiles_can C1C(=O)NC2=C(C=C(C=C2)[N+](=O)[O-])C(=N1)C3=CC=CC=C3
#inchikey KJONHKAYOJNZEC-UHFFFAOYSA-N
#pubchem_id 4506
#mb_accession EQ368301,EQ368302,EQ368303,EQ368304,EQ368305,EQ368306,EQ368307,EQ368308,EQ368309

>ms2
282.087200 973652032.000000

>ms2
91.054100 2197099.800000
158.047700 1083650.500000
176.045500 2662936.000000
196.075900 2218378.500000
204.040500 2836143.000000
208.099200 1407979.600000
235.086700 5135355.500000
236.094400 65663876.000000
251.081100 2445770.800000
254.092400 8298701.000000
268.084300 20654346.000000
282.087200 977000768.000000

>ms2
80.049400 893821.400000
91.054200 12006489.000000
93.057200 730062.600000
104.049400 641856.800000
105.033400 1270710.600000
105.044600 627908.200000
106.065000 590423.900000
116.049400 547032.800000
118.065100 1086262.900000
130.052600 2116817.200000
133.052300 943000.200000
144.044400 496785.500000
146.047400 564782.800000
151.050100 3150284.800000
158.047400 9818682.000000
176.045500 18074358.000000
177.029500 1280056.200000
179.045600 880781.600000
179.073100 1483641.900000
180.080700 15676811.000000
181.088300 618026.600000
187.037600 3641273.000000
191.073100 1296073.900000
192.080600 987453.800000
193.088700 1563796.000000
194.084200 504391.200000
195.068000 1696153.500000
195.091600 1263320.500000
196.075700 11366785.000000
196.099700 1700502.600000
204.040400 5667756.500000
206.084000 478259.000000
207.091800 14534324.000000
208.099500 21904572.000000
209.083900 1544249.000000
211.086500 1588452.800000
218.083900 983726.400000
223.086800 2272667.500000
224.094600 2660838.800000
225.065900 1036441.100000
235.086700 24601894.000000
236.094400 455826624.000000
237.065900 4213569.500000
237.089300 1634274.200000
238.073500 621807.200000
239.081500 3154172.500000
240.089100 4188106.800000
251.081400 15389252.000000
253.084500 2636802.200000
254.092400 19066424.000000
265.084100 981912.300000
268.084300 162851408.000000
270.088300 790369.900000
282.087200 324061824.000000

>ms2
78.046300 512798.100000
79.041600 699391.100000
80.025600 526357.100000
80.049400 1828914.000000
91.054200 14130643.000000
93.057300 2290695.500000
103.041600 1707165.200000
104.049400 5678940.500000
105.033500 2008193.800000
105.044800 891772.600000
105.057300 5984608.000000
106.052600 465356.000000
106.065100 677905.400000
108.044300 399785.600000
116.049400 1520201.400000
118.052600 1461108.000000
118.065000 571740.400000
129.044700 1144712.100000
130.052600 14460503.000000
131.060400 446837.200000
133.039500 613334.600000
133.052200 3354458.000000
144.044600 589172.400000
146.047200 790375.100000
148.063200 392587.200000
151.050000 1232991.900000
152.062000 1952076.400000
153.069900 439764.100000
156.080700 589459.300000
157.039300 343204.300000
158.047500 7085581.500000
159.055300 947271.300000
162.042000 1238680.400000
164.062000 1749307.400000
165.042100 631280.100000
165.069800 1878326.500000
166.077700 573740.200000
167.072700 1237692.100000
167.085300 803342.100000
168.057000 629242.400000
168.068400 1437180.600000
168.080700 1960917.000000
176.045500 10496925.000000
177.029500 803232.000000
178.065100 427209.100000
179.072900 10262171.000000
180.080700 133711680.000000
181.076200 342852.100000
181.088500 2408051.500000
183.091700 505947.800000
187.037700 3110337.800000
190.065000 6135645.000000
191.072900 7615079.000000
192.080600 6683429.500000
193.076000 1664556.400000
193.088600 4287002.000000
194.083900 3428497.000000
194.096400 4546533.500000
195.067900 1607790.200000
195.091700 4100393.200000
196.075700 8916902.000000
196.099400 1522901.400000
204.040400 595792.800000
205.075900 576248.500000
206.060500 825329.400000
206.083900 3639331.200000
207.091700 130431432.000000
208.099600 42219784.000000
209.083700 669218.800000
210.079400 450011.000000
211.086700 2108146.800000
217.076200 1209120.000000
218.083900 1594960.100000
219.067600 687503.600000
222.079200 478514.000000
223.063100 885649.000000
223.086600 7503395.500000
224.094300 1112325.400000
225.065800 676413.200000
235.086600 33339190.000000
236.094400 320201664.000000
237.065900 1367476.800000
237.089800 621089.900000
239.081100 2314052.800000
240.089300 5785117.000000
251.081400 7695197.500000
252.076800 907351.100000
253.084300 1063944.600000
254.092400 2491253.000000
268.084300 117328904.000000
270.088500 566562.300000
282.087200 17711010.000000

>ms2
53.038500 489872.800000
65.038600 540352.500000
66.046300 558057.400000
77.038200 781134.800000
78.033800 392403.700000
78.046400 2190630.200000
79.041600 1995284.100000
80.025500 872352.300000
80.049400 1327108.800000
89.038600 358396.400000
90.046400 479859.000000
91.054200 15354902.000000
93.057300 2612378.200000
95.049100 574346.400000
103.041600 7992507.500000
104.049400 20919110.000000
105.033500 1560834.400000
105.044800 1439089.600000
105.057300 8676062.000000
106.052400 511139.300000
106.065200 1007873.000000
115.054200 381112.400000
116.049400 3322166.800000
117.057300 866868.300000
118.052500 1800590.600000
118.065000 765348.000000
128.062000 422780.100000
129.044700 5509946.000000
130.052600 21647070.000000
131.036500 627386.200000
131.060400 1642643.400000
133.039700 1068226.000000
133.052200 2864970.200000
137.047200 547544.900000
140.062000 453251.300000
141.069800 417474.600000
143.073100 491749.400000
144.044500 445295.800000
146.047400 506998.100000
152.062000 8559724.000000
153.069900 4979504.000000
154.065100 674022.900000
154.077800 400639.300000
156.080800 1431981.900000
157.039700 1275821.200000
158.047400 2473904.800000
159.055100 1329474.400000
162.042500 2253009.200000
163.054000 392929.700000
164.062000 4812174.000000
165.042100 600911.900000
165.069900 6912171.000000
166.065200 1040771.200000
166.077700 1374638.800000
167.073000 4267798.000000
167.085400 2928163.800000
168.057300 1484825.200000
168.068400 4526438.500000
168.080700 5581129.000000
175.050300 475765.500000
176.045400 2147708.500000
178.065200 2929025.000000
179.073000 16241624.000000
180.080700 243271760.000000
181.065100 360104.900000
181.075900 619186.500000
181.088600 2258296.200000
182.083700 490770.500000
185.046000 661649.700000
187.037600 734473.300000
190.065100 36470020.000000
191.072900 15122497.000000
192.068200 1529079.900000
192.080700 12380553.000000
193.076000 4202528.500000
193.088600 5857948.000000
194.060100 524541.600000
194.083900 4313540.500000
194.096400 6345541.000000
195.067700 718236.900000
195.091700 6031945.500000
196.075600 5425046.000000
205.076000 2372724.200000
206.060500 1575520.200000
206.083900 21560570.000000
207.091700 216752480.000000
208.099500 24461010.000000
211.086800 710858.400000
217.076300 2484685.200000
218.083700 762415.500000
219.068000 570629.300000
219.092100 402629.200000
221.070800 855855.100000
223.062700 630933.500000
223.086600 5826357.500000
234.078600 792814.100000
235.086600 24644916.000000
236.094400 72481352.000000
238.073400 388142.100000
239.080900 775580.800000
240.089200 3711699.000000
251.081600 1525044.100000
252.076700 487066.600000
268.084200 27678592.000000
282.086900 533303.100000

>ms2
51.022900 432774.200000
53.038600 1612678.000000
64.030800 662929.800000
65.038600 1609602.200000
66.046400 978556.700000
76.030600 937532.100000
77.038400 3583300.800000
78.033800 661627.800000
78.046400 4152351.800000
79.041600 3855828.800000
80.025600 537809.900000
80.049400 846681.800000
89.038500 1409884.100000
90.046400 1232172.900000
91.054200 18045502.000000
92.049500 422482.100000
93.057300 2406092.800000
95.049100 3745748.800000
96.044300 561565.600000
103.041600 13548132.000000
104.049400 37186304.000000
105.033400 780056.800000
105.044700 3900610.000000
105.057300 6054219.500000
106.065000 1031074.300000
115.054200 1100299.900000
116.049400 5657960.500000
117.020900 793954.100000
117.057300 1889102.500000
118.052600 1393422.900000
118.065200 424186.300000
128.062000 1544942.200000
129.044700 14463659.000000
130.052600 16648141.000000
131.060400 2156534.800000
133.039700 695874.800000
133.052300 886983.800000
134.047300 429070.200000
135.031500 376265.300000
139.054000 655295.900000
140.049600 1093124.000000
140.062000 1265907.500000
141.069800 1428969.100000
143.072900 447582.500000
151.054400 1150016.500000
152.062100 26788668.000000
153.069900 27957222.000000
154.065200 2844140.200000
155.060100 690383.400000
155.072900 692090.000000
156.080900 1689909.900000
157.039600 1480979.100000
158.047400 526133.900000
159.055300 1042814.600000
162.042500 1679352.500000
163.054200 2464841.800000
164.062000 7409998.500000
165.069900 15768383.000000
166.065200 3320619.800000
166.077400 894235.100000
167.073000 10615738.000000
167.085000 2825314.000000
168.057200 2345440.800000
168.068400 3965920.000000
168.080700 6917113.000000
169.064900 2018026.900000
170.059900 408444.900000
176.045900 342587.000000
177.057700 863195.200000
178.065200 8795147.000000
179.072900 17844106.000000
180.080700 262148176.000000
181.076000 1270440.400000
181.088700 1320793.900000
182.059900 345002.300000
182.083500 375108.000000
190.065100 76229464.000000
191.072900 20569208.000000
192.068100 4743004.500000
192.080700 12139443.000000
193.076000 4198383.500000
193.088600 5585135.000000
194.059900 885107.600000
194.083900 3142575.500000
194.096400 2849924.000000
195.091700 4564583.500000
196.052000 443196.300000
196.075600 3629851.500000
205.076100 9769345.000000
206.084000 49924116.000000
207.091700 135966528.000000
208.076000 1182302.800000
208.099500 5352829.000000
211.062700 606146.600000
216.068300 452158.600000
217.076100 2424579.500000
218.083900 436852.200000
221.070900 976796.600000
223.086500 2117218.000000
234.078600 1138856.600000
235.086600 7477024.000000
236.094400 6506447.500000
238.073300 516513.800000
240.089400 588484.200000
268.084300 2488352.800000

>ms2
50.015100 2795085.200000
51.022900 1955150.200000
52.018200 661089.100000
52.030700 587764.200000
53.038600 6416160.500000
54.033800 225741.000000
55.017800 468657.600000
62.015100 1572868.800000
63.022800 1528938.800000
64.030700 608517.400000
65.038600 5792753.000000
66.010000 164299.400000
66.046400 3069416.500000
67.041600 177400.200000
74.014900 165264.500000
75.022900 1624259.500000
76.018100 384011.600000
76.030700 7101916.500000
77.038500 14767289.000000
78.033800 2623119.500000
78.046400 6442627.000000
79.017800 176832.300000
79.041600 3387557.800000
79.054200 533612.700000
80.013200 234339.100000
80.049500 381284.500000
81.033500 1083256.600000
89.025800 774026.200000
89.038500 6426606.000000
90.033900 1110207.100000
90.046500 1475851.800000
91.041700 839054.100000
91.054200 16054865.000000
92.025600 201632.300000
92.036900 531401.200000
92.049400 847550.300000
93.057300 1227829.900000
94.041300 632901.100000
95.049100 20732292.000000
96.044400 4128110.800000
102.033800 2842406.800000
102.046300 736377.800000
103.041600 14110867.000000
103.054200 1414829.900000
104.049400 36791364.000000
105.044700 14707229.000000
105.057100 877465.300000
106.065000 222285.800000
113.038400 357368.000000
114.033900 157390.300000
114.046400 590013.200000
115.054200 6204587.000000
116.049500 5136539.500000
116.062000 568718.600000
117.057300 3678549.000000
118.052500 456827.800000
120.044500 1383732.800000
121.039500 723233.100000
125.038600 584043.200000
126.046500 1627083.800000
127.054200 2803419.200000
128.049400 867951.600000
128.062000 6295425.000000
129.044700 22218042.000000
130.040000 6943512.500000
130.052600 3701276.500000
130.065200 700141.800000
131.060500 1121542.000000
132.057100 125574.500000
133.039500 117637.900000
134.060000 136843.500000
135.031500 689360.900000
138.046400 409420.300000
139.054200 6805859.500000
140.049500 10584510.000000
140.061900 2815301.800000
141.057400 1256365.500000
141.069800 2155749.200000
142.065200 194513.200000
143.072900 811674.000000
145.064800 2724043.000000
146.060200 437795.700000
147.055400 379463.800000
150.046500 1246328.000000
151.054200 7904032.000000
152.062100 110341168.000000
153.057300 4393523.500000
153.069900 52226340.000000
154.065100 9685648.000000
155.060300 8819931.000000
155.072900 1017209.800000
156.080800 786690.800000
157.039800 599749.600000
163.054200 21604534.000000
164.049900 2668689.000000
164.062000 8251507.500000
165.057700 1667150.200000
165.069900 25461366.000000
166.065100 7703255.500000
166.077700 540917.900000
167.072900 13001504.000000
168.057000 3200709.500000
168.068100 1836731.900000
168.080700 1843839.000000
169.064800 15821347.000000
170.060000 1729359.100000
176.062300 458418.700000
177.057300 4775000.500000
178.065100 19706244.000000
179.060700 9375947.000000
179.072900 26531064.000000
180.080700 91931344.000000
181.075800 1107274.400000
182.060000 1038617.800000
183.068000 1408939.800000
183.080100 129434.000000
184.075500 118460.800000
185.046800 169961.400000
188.049400 560767.900000
189.057300 2256842.800000
190.065100 72737664.000000
191.060900 711088.900000
191.072900 13331158.000000
192.068100 8863045.000000
192.080800 3174583.500000
193.052200 661232.500000
193.076200 1406884.500000
193.088700 1590903.100000
194.060100 1453473.900000
194.083900 492778.200000
195.092000 776803.900000
196.051700 572630.600000
196.075600 1444040.200000
204.055500 364968.400000
205.076100 39547004.000000
206.083900 26170754.000000
207.091700 10924660.000000
208.075800 221336.800000
211.062900 1977529.100000
215.059600 148246.100000
216.068300 609244.900000
217.076200 215492.700000
221.046600 213108.500000
221.070900 417549.000000

>ms2
50.015100 6866558.500000
51.022900 5229978.000000
52.018200 1429494.400000
52.030800 792185.600000
53.038600 7422847.500000
54.033800 599374.900000
55.017800 604577.600000
61.007300 427290.600000
62.015100 3387153.200000
63.022900 4197728.500000
64.018100 401218.200000
64.030700 617213.100000
65.002100 509680.200000
65.038600 9745201.000000
66.046400 2917212.000000
67.041700 400446.900000
74.015000 1185416.000000
75.022900 8015930.000000
76.018100 2082442.000000
76.030700 10736892.000000
77.038500 17268538.000000
78.033800 4020338.200000
78.046400 5310443.500000
79.041600 1246245.900000
79.054200 389089.600000
80.049400 163063.700000
81.033500 1357416.400000
86.014900 200041.500000
87.022700 696039.800000
88.018100 695771.200000
88.030700 470615.700000
89.038600 10617365.000000
90.033900 1364888.100000
90.046400 2285963.200000
91.041600 428699.600000
91.054200 8562331.000000
92.036900 188683.300000
92.049500 616268.200000
93.057300 432920.100000
94.041300 828429.400000
95.049100 22577066.000000
96.044400 4079241.200000
99.022900 582746.800000
101.038500 523736.400000
102.033800 5911383.500000
102.046400 3547124.000000
103.041600 4754655.500000
103.054200 1687229.500000
104.049400 15175629.000000
105.044700 15570197.000000
111.023000 149300.700000
113.038600 5519939.000000
114.033900 1091760.500000
114.046400 1485845.800000
115.054200 13868607.000000
116.049500 2385665.000000
116.062000 599413.800000
117.057300 2248222.200000
119.049200 468369.900000
120.044400 1648390.400000
121.039600 369486.900000
125.038600 3317467.500000
126.046400 9629783.000000
127.041600 550102.500000
127.054200 8410186.000000
128.049500 1989161.900000
128.062000 9933366.000000
129.044700 8402952.000000
130.040000 6729159.500000
130.065100 705597.900000
131.060500 164925.200000
132.057000 368901.300000
135.031700 475938.800000
137.038600 1536542.100000
138.034000 138478.900000
138.046400 1162459.800000
139.054200 18145450.000000
140.049500 18192074.000000
140.061800 2427019.200000
141.057400 1234317.400000
141.069600 848506.600000
143.049300 394575.600000
145.064800 5321024.000000
146.059900 918378.300000
149.038800 700981.400000
150.046500 12450912.000000
151.054200 15217399.000000
152.062000 136117040.000000
153.057300 6112449.000000
153.069900 12212762.000000
154.065100 6122297.500000
155.060300 14826147.000000
157.052300 188287.500000
161.038600 164712.200000
162.046400 2631525.200000
163.054200 39981396.000000
164.049600 11426353.000000
164.061900 8640356.000000
165.058500 1687113.375000
165.069900 13032812.000000
166.065200 5709246.500000
167.073000 4394296.500000
168.057000 3383033.500000
168.068000 246377.300000
169.064800 33124394.000000
170.060000 2559636.500000
175.041600 503650.900000
176.049600 227353.400000
176.062200 180288.400000
177.057300 12679344.000000
178.065100 24747788.000000
179.060400 16160009.000000
179.073000 12885496.000000
180.055900 921901.400000
180.080700 8973124.000000
181.075700 363129.000000
182.060100 531954.900000
183.068100 804420.300000
183.080600 397310.100000
185.047300 525529.100000
188.049500 4747263.500000
189.057300 3128162.000000
190.065100 21397838.000000
191.060300 1412509.800000
191.072900 3358169.200000
192.068100 2624150.500000
192.081000 597208.100000
193.052200 981956.200000
193.075800 445549.000000
194.035900 341533.700000
194.060300 891842.400000
196.052200 1038459.800000
196.075700 1160381.200000
203.060200 340307.300000
204.055500 736385.600000
204.068500 222788.500000
205.076100 25882726.000000
206.083900 2076819.600000
207.068100 413344.900000
211.062800 1001655.100000
221.047400 654108.300000

>ms2
50.015100 14220751.000000
51.022900 7774551.000000
52.018200 2112010.000000
52.030700 646888.800000
53.002200 829543.687500
53.038600 6132296.500000
54.033900 480226.200000
55.017800 562161.800000
61.007200 1414228.600000
62.015100 5334581.500000
63.022900 13812103.000000
64.018200 917741.800000
64.030700 397773.900000
65.002200 1465302.800000
65.038600 10667795.000000
66.009900 370748.400000
66.046400 1545533.500000
67.041600 137072.500000
74.015100 5071091.500000
75.022900 15809264.000000
76.018100 4309437.500000
76.030700 9585318.000000
77.038500 15528687.000000
78.033800 2655133.500000
78.046400 6154191.500000
79.017900 377572.100000
79.041600 491692.200000
79.054200 139580.200000
80.049400 130002.400000
81.033500 1391717.200000
86.015000 1117538.200000
87.022900 4222138.500000
88.018200 1467639.500000
88.030700 1318339.000000
89.038500 16797506.000000
90.033900 950509.600000
90.046400 2235772.000000
91.054200 3813111.800000
92.049500 144977.200000
94.041300 698969.900000
95.049100 18712678.000000
96.044400 1802387.600000
98.015000 1885802.000000
99.022900 3798279.800000
100.030700 1048300.900000
101.038600 1313749.800000
102.033800 4065290.200000
102.046400 9427031.000000
103.041700 1006555.000000
103.054200 1745463.400000
104.049400 4461809.000000
105.044700 13758517.000000
111.022900 743488.600000
113.038500 13797199.000000
114.033800 2586518.500000
114.046400 1673340.400000
115.054200 15015044.000000
116.049400 1477269.800000
117.057200 883289.100000
119.049200 1046224.800000
120.044400 698370.600000
121.039800 356483.500000
124.030800 461113.700000
125.038600 6078559.500000
126.046400 21867548.000000
127.041700 1129249.200000
127.054200 8942809.000000
128.049400 1467686.400000
128.062000 7460426.500000
129.044700 5048440.000000
130.040100 2447113.000000
132.044300 184076.500000
132.057200 120120.700000
137.038600 5331853.000000
138.034000 1097264.500000
138.046400 2338026.500000
139.054200 18616054.000000
140.049400 13050108.000000
141.057400 214190.400000
141.069800 170479.800000
143.049300 1058792.100000
145.064800 3884694.800000
146.060000 534102.600000
149.038600 1621041.000000
150.046400 36139008.000000
151.041700 1367860.750000
151.054200 17020578.000000
152.062000 82287656.000000
153.057300 3844361.200000
153.069700 1333145.000000
154.065100 1985601.200000
155.060300 9592579.000000
157.052300 122906.000000
161.038600 2245794.800000
162.046400 6513435.000000
163.054200 30479406.000000
164.049400 11357128.000000
164.061600 3561070.800000
165.057500 545016.000000
165.069900 3761602.200000
166.065200 2623657.000000
167.073000 742959.000000
168.056900 1533950.800000
169.064800 36786352.000000
170.060000 2196796.800000
175.041400 843681.400000
176.049400 314065.000000
177.057300 14953093.000000
178.065100 11168163.000000
179.060400 16376913.000000
179.071800 1392131.000000
180.055900 602950.300000
180.080900 389326.000000
183.068300 125064.300000
183.080000 208516.100000
188.049400 6166516.000000
189.057300 1139836.900000
190.065100 3120309.500000
191.060200 499905.300000
191.073000 821595.600000
192.067900 447686.800000
193.052000 384314.200000
194.036300 1398976.800000
194.060000 1270503.800000
196.051900 455845.700000
196.075900 378385.600000
203.060700 151682.100000
204.055500 1121748.800000
204.068100 512230.200000
205.076100 5239574.000000
207.067800 117771.600000
211.062900 113097.400000
221.047200 357992.100000

