>compound EQ88026555
>parentmass 329.14170000000007
>ionization [M+H]+
>formula C16H24O5S
>rt 648.000000
>profile orbitrap
#smiles_iso C1=CC(=CC=C1CCCCCCCCCC(=O)O)S(=O)(=O)O
#smiles_can C1=CC(=CC=C1CCCCCCCCCC(=O)O)S(=O)(=O)O
#inchikey VCKAUONIDRWIGP-UHFFFAOYSA-N
#pubchem_id 100942782
#mb_accession EQ357001,EQ357002,EQ357003,EQ357004,EQ357005,EQ357006,EQ357007,EQ357008,EQ357009

>ms2
57.069900 214830.300000
71.085500 143773.200000
85.101200 87245.800000
105.069900 13595.000000
107.049400 24798.500000
117.070000 18627.600000
131.085500 43755.600000
145.101200 63764.300000
159.116800 29711.800000
169.031800 20948.600000
171.010200 37626.800000
185.026700 302530.100000
195.047400 59809.000000
199.042400 375496.800000
201.163700 69416.000000
209.063300 74156.900000
213.058100 472952.000000
223.079100 18459.300000
227.073700 466564.200000
231.068500 25262.500000
241.089400 195380.500000
245.084300 23192.600000
247.114800 43336.300000
251.000200 695446.000000
259.099900 12736.600000
265.125900 49119.100000
283.136400 144044.600000
293.120700 28986.400000
301.146700 13378.100000
311.131100 2548579.500000
329.141800 10371811.000000

>ms2
55.017800 3072.300000
55.054200 15082.600000
57.069900 1044328.300000
67.054200 34770.200000
69.069900 19291.000000
71.085500 440268.100000
77.038400 3264.000000
81.069800 43106.800000
83.085500 21493.900000
85.101200 268163.900000
91.054200 53724.800000
93.069900 5061.500000
95.085600 72206.100000
97.101200 31437.600000
103.054200 15755.800000
104.062000 17880.000000
105.069900 58985.900000
107.049100 43248.500000
109.010600 3694.800000
109.101200 71133.600000
115.053800 6163.500000
116.062100 20358.500000
117.069900 181618.600000
118.077800 16298.800000
119.085500 32905.100000
121.064800 16224.100000
121.101400 3889.900000
123.026200 40578.700000
128.062100 3319.700000
129.069800 15762.200000
130.077700 36094.600000
131.085600 392721.200000
132.057200 3590.900000
132.093500 16453.600000
133.064800 4417.800000
135.026300 58818.600000
137.005800 31269.400000
139.021300 44007.400000
143.085700 14609.100000
144.093400 141312.600000
145.101200 469423.100000
146.072600 18391.700000
146.109100 5114.900000
147.026500 28603.700000
147.080500 15094.000000
149.042100 109447.300000
149.096400 6581.700000
151.021300 220590.500000
153.000500 165093.700000
155.016300 14806.600000
156.093400 7749.000000
158.109000 37016.100000
159.091900 18032.800000
159.116900 177404.700000
161.042100 29341.300000
161.096200 4971.400000
163.021500 12040.200000
163.057700 120768.000000
165.036900 151492.500000
167.016100 35824.000000
169.031800 90703.500000
171.011100 704481.100000
172.033500 3932.400000
173.042000 59909.600000
177.036800 33729.300000
179.052500 40035.300000
181.031700 54237.100000
183.047500 4962.400000
185.026800 3053967.500000
187.057600 50814.100000
191.052500 96489.500000
195.047500 596573.200000
196.124900 8220.400000
197.026900 21836.200000
199.042400 1840009.800000
201.163800 99888.600000
203.037400 38336.600000
205.068200 71147.500000
209.063200 586111.900000
211.042600 40113.900000
213.058100 1337775.100000
217.053000 55427.200000
223.078900 158404.000000
227.073700 675638.100000
231.068600 124554.000000
239.088800 5176.600000
241.089400 259970.700000
245.084500 83440.100000
247.115100 61741.000000
251.000000 5752.200000
259.099700 32435.800000
265.125800 58620.700000
283.136400 116314.900000
293.121700 27063.400000
301.147000 18540.000000
311.131100 107077.200000
329.141900 420068.000000

>ms2
53.002200 16186.300000
55.017800 4196.600000
55.054200 61423.200000
57.069900 1077972.500000
58.995000 6929.500000
67.054200 71924.000000
69.033500 6683.800000
69.069900 61771.300000
71.085500 257606.300000
77.038600 18572.900000
78.046400 3706.100000
79.054200 41210.300000
81.069900 60242.900000
83.049200 5838.600000
83.085500 19705.300000
85.101200 99799.000000
89.038400 3882.500000
90.046400 7253.800000
91.054200 145512.200000
93.069900 25639.600000
95.049400 5295.500000
95.085600 78379.200000
97.101500 13989.600000
103.054200 114199.000000
104.062000 327196.500000
105.069900 96642.500000
107.049100 283258.300000
109.010700 75621.400000
109.101200 46007.200000
111.026400 59990.200000
115.054400 17173.700000
116.062000 68279.400000
117.069900 350008.400000
118.077700 129071.100000
119.085700 15398.800000
121.064800 85887.000000
121.101400 4966.800000
123.026300 41467.800000
125.005800 16390.500000
128.062100 16943.100000
129.069900 88950.600000
130.077800 182525.200000
131.060600 32626.200000
131.085600 415394.300000
132.057300 7832.500000
132.093400 73733.700000
133.064800 26277.700000
134.018600 31186.500000
135.026300 179092.600000
137.005700 73046.600000
139.021300 99148.900000
141.069600 3373.700000
142.077900 18016.200000
143.085600 52258.500000
144.093500 185463.200000
145.101200 403669.500000
146.072700 21174.000000
146.109300 26102.500000
147.026400 36252.100000
147.080600 40360.600000
148.034100 25018.900000
149.005700 20912.100000
149.042000 215632.600000
149.096200 35876.800000
150.014100 5108.400000
151.021200 258339.000000
153.000500 205143.700000
154.078000 3836.600000
155.016300 5819.000000
155.085400 3607.100000
156.093400 27011.100000
157.101200 7492.500000
158.108900 39242.100000
159.091700 102399.700000
159.116800 79092.500000
160.124800 4251.600000
161.042100 33346.000000
161.096400 3641.400000
163.021400 26474.700000
163.057500 84673.100000
163.112000 12297.200000
165.036900 146292.400000
167.016200 317851.000000
169.032000 28200.800000
169.101300 4733.600000
171.011100 2741074.500000
172.034300 21541.700000
173.042000 47384.700000
173.107300 39351.600000
177.036700 31280.600000
179.052300 28126.900000
181.031800 76210.700000
183.048000 5699.700000
185.026800 2775709.200000
187.057500 31245.000000
187.123200 7141.000000
191.052500 70146.700000
195.047500 151093.700000
196.124600 5467.700000
197.027000 16732.700000
199.042400 383189.000000
203.037500 36867.800000
205.068300 33087.600000
209.063100 70614.400000
211.041500 5207.900000
213.058100 197491.200000
217.053100 24989.100000
223.078500 6959.900000
227.073800 55926.900000
231.068300 25924.100000
241.089400 16511.400000
245.084600 14122.600000
247.115200 6177.900000

>ms2
50.015000 4638.500000
51.022800 3833.800000
53.002300 19773.400000
53.038600 16578.300000
55.017900 5728.400000
55.054300 101299.600000
57.069900 842398.900000
58.995000 6274.200000
63.022700 3458.800000
65.038600 13010.100000
67.054200 89649.400000
67.989400 3851.100000
69.033500 16848.700000
69.069900 55712.300000
71.085500 98849.800000
77.038400 34943.100000
78.046400 21069.600000
79.054200 122032.100000
81.033400 3914.600000
81.069900 57291.700000
83.085600 6485.000000
85.101200 16424.300000
90.046300 3415.200000
91.054300 339407.200000
93.070000 45955.700000
95.049200 60300.800000
95.085500 51264.400000
103.054300 470887.900000
104.062100 1316938.800000
105.044700 33424.300000
105.069900 174113.600000
107.049200 1058508.000000
109.010700 130737.000000
109.101200 24346.100000
111.026300 144334.900000
115.054300 62080.900000
116.062100 134178.200000
117.069900 557063.700000
118.041600 14814.700000
118.077700 190729.900000
119.049300 13947.700000
119.085700 19926.400000
120.057000 5740.700000
121.064800 173166.800000
123.026300 45324.600000
125.005700 52312.500000
128.062000 29442.000000
129.069900 223955.700000
130.077800 231784.900000
131.060400 150447.300000
131.085600 335432.500000
132.057000 30971.100000
132.093400 49610.300000
133.064900 31524.100000
134.018500 113377.200000
135.026300 171130.800000
135.080500 19328.600000
137.005700 83916.500000
139.021200 94241.100000
141.070000 20807.600000
142.077800 38713.100000
143.060400 4413.300000
143.085600 68722.800000
144.093400 104800.000000
145.076100 46220.400000
145.101300 195595.000000
146.072800 17321.700000
146.109000 12889.100000
147.026300 49919.400000
147.080500 29916.600000
148.034200 67522.900000
149.005600 25240.600000
149.042000 97351.700000
149.096000 28466.800000
150.013400 18121.700000
151.021300 146266.300000
153.000500 77183.100000
154.077600 13882.100000
155.085500 7139.000000
156.093500 24999.200000
158.109100 5077.100000
159.091700 77331.200000
159.116900 21781.000000
161.042000 25902.900000
163.021300 19416.100000
163.057500 27195.900000
163.112000 13798.800000
165.037000 43625.700000
167.016200 320567.200000
169.031600 3834.700000
169.101300 3788.000000
171.011100 2721771.200000
172.034000 26656.700000
173.042200 17274.800000
173.107600 28936.700000
177.036900 16717.400000
179.052700 5695.600000
181.032000 21930.500000
185.026800 951578.700000
187.057900 4715.900000
187.123100 7503.000000
191.052800 17478.000000
195.047500 16153.000000
199.042400 29570.800000
203.037000 6637.100000
213.058200 6196.500000
227.073700 3602.100000

>ms2
50.015000 6415.000000
51.022800 6423.100000
53.002200 30524.200000
53.038600 84701.900000
53.997500 5650.200000
55.017900 25713.100000
55.054300 94267.800000
57.069900 550362.500000
58.995000 6543.500000
65.038600 20762.600000
67.054200 92303.900000
67.989200 3107.300000
69.033500 18500.100000
69.069900 34753.500000
71.085500 21968.700000
77.038500 70837.900000
78.046400 84960.300000
79.054200 358478.400000
81.033500 13403.800000
81.069900 41985.900000
83.049200 13116.000000
83.085400 3089.600000
89.038500 5531.900000
90.046500 12673.500000
91.054300 522562.900000
93.070000 47264.200000
95.049200 360239.300000
95.085600 22190.600000
97.010800 24228.400000
102.046300 3932.600000
103.054300 679419.200000
104.062100 1681586.900000
105.044800 183948.800000
105.069900 164121.100000
107.049200 1635986.000000
109.010700 156024.000000
111.026400 80402.400000
115.054300 175497.400000
116.062100 190745.100000
117.069900 606707.900000
118.077700 127390.400000
119.049400 7685.800000
119.085400 7259.200000
120.057100 15188.000000
121.010800 23491.300000
121.064800 105240.700000
122.017900 3154.800000
123.026200 18079.000000
125.005700 60717.800000
128.062100 62988.100000
129.069900 289675.400000
130.077800 139294.000000
131.060500 108384.900000
131.085600 220798.200000
132.057100 28415.200000
132.093500 6459.700000
133.064800 18512.400000
134.018500 160374.600000
135.026300 89319.200000
135.080200 4862.100000
137.005600 55597.100000
139.021100 28390.300000
141.070000 34970.800000
142.077800 26031.600000
143.060100 3658.700000
143.085700 69289.100000
144.093300 23610.400000
145.064800 12595.600000
145.076200 11792.500000
145.101300 83474.100000
146.072800 12133.700000
146.109300 3750.400000
147.026300 50595.300000
147.080500 20870.800000
148.034200 72602.500000
149.005700 7083.700000
149.042100 25112.200000
149.096200 14712.400000
150.013400 17234.400000
151.021400 42992.500000
153.000600 26820.200000
153.069800 6799.300000
154.077900 6447.500000
155.086100 10830.700000
156.093500 5517.000000
157.101300 4266.500000
159.091800 37308.600000
161.042000 10728.100000
163.021200 5697.500000
167.016300 85205.100000
171.011100 1222493.200000
172.034100 13092.200000
173.042300 3862.000000
173.106800 3809.500000
185.026800 121232.800000
185.041700 6361.100000

>ms2
50.015100 12639.100000
51.022900 31827.700000
52.030700 3453.400000
53.002200 30739.200000
53.038600 226822.100000
53.997400 7784.500000
55.017900 40429.800000
55.054300 80559.300000
57.069900 307317.400000
58.994900 5075.100000
63.023000 3637.900000
65.038600 48202.100000
66.046400 5132.400000
67.054200 91214.000000
67.989200 5394.200000
69.033400 13139.100000
69.069900 15046.900000
71.085500 3269.600000
77.038500 155487.400000
78.046400 286716.000000
79.054200 497158.300000
81.033600 21805.300000
81.069800 31081.000000
89.038600 19033.300000
90.046500 43286.300000
91.054300 764154.200000
93.069800 27413.100000
94.041400 16666.100000
95.049200 844092.500000
97.010800 43824.100000
102.046400 31907.500000
103.054300 701882.600000
104.062100 1370185.600000
105.044800 419709.000000
105.070000 138639.500000
107.049200 1417644.000000
108.002900 3220.500000
109.010700 132611.000000
111.026200 33325.500000
115.054300 352760.500000
116.062100 179227.100000
117.069900 588156.200000
118.041300 4923.600000
118.077700 44746.700000
119.049300 3701.200000
120.057000 19004.600000
121.010800 22479.300000
121.064900 43644.800000
122.018800 3906.600000
123.026400 15925.100000
125.005700 27726.200000
128.062100 117724.100000
129.069900 295008.800000
130.077800 93227.300000
131.049300 19238.200000
131.060400 39484.700000
131.085600 126018.900000
132.057000 5845.200000
133.064900 15497.600000
134.018500 121044.900000
135.026300 47107.700000
137.005700 29212.000000
139.021300 5783.200000
141.070000 44243.700000
142.077700 12963.700000
143.085600 33681.900000
145.064900 6734.700000
145.101300 29963.100000
147.026300 61707.600000
147.080500 4300.700000
148.034100 34739.400000
149.041600 5443.900000
150.013900 6249.000000
151.021400 6625.100000
153.001000 3207.800000
153.069900 4450.000000
154.078000 7339.600000
155.060500 14104.700000
155.085600 5192.800000
159.091800 6168.500000
161.042000 2980.200000
167.016300 16399.300000
171.011100 393476.000000
171.026100 25683.200000
185.026900 4205.600000
185.042100 4743.600000

>ms2
50.015100 77531.100000
51.023000 166931.600000
52.030700 4804.800000
53.002200 38345.600000
53.038600 375048.100000
53.997500 11951.400000
55.017900 82728.200000
55.054300 45762.600000
57.069900 75400.800000
63.022900 31121.600000
64.030600 3163.300000
65.038600 181341.100000
66.046400 17168.400000
67.054300 41883.400000
68.979300 6254.500000
69.033500 3544.700000
75.022800 4279.600000
77.038600 376426.300000
78.046400 656985.300000
79.054200 271732.100000
81.033500 63247.500000
81.069900 7112.400000
89.038600 182072.100000
90.046500 81999.700000
91.054300 823446.100000
93.070000 3981.500000
94.041400 22980.900000
95.049200 1316114.800000
97.010700 19985.300000
102.046400 40330.400000
103.054300 563779.500000
104.062100 419328.000000
105.044800 696348.900000
105.070000 53954.300000
107.049200 440168.800000
108.002800 6490.200000
109.010700 45106.300000
115.054300 584400.800000
116.062100 106700.500000
117.069900 315341.200000
121.010700 17819.300000
122.018600 6311.400000
125.005900 3448.800000
127.054100 6164.800000
128.062100 185563.300000
129.069900 164977.400000
130.077800 17656.300000
131.049200 7160.600000
131.085600 14287.300000
134.018500 80035.400000
135.026300 3289.500000
141.069900 40388.900000
145.064900 20607.700000
147.026200 46587.100000
148.034000 4808.200000
152.062100 3284.600000
153.070300 3632.100000
154.077900 3613.300000
155.060200 27366.400000
171.011100 3957.500000
171.026100 11680.700000

>ms2
50.015100 187095.200000
51.023000 444010.900000
52.030800 18892.000000
53.002200 53135.500000
53.038600 312856.800000
53.997500 5885.900000
55.017900 72429.100000
55.054300 25097.000000
57.069900 2955.900000
62.015100 15603.600000
63.022900 93025.400000
64.030800 15951.800000
65.038600 333433.900000
66.046500 5374.600000
67.054300 24950.400000
68.979300 26194.300000
74.015000 3279.800000
75.022900 18262.500000
76.030700 6789.400000
77.038600 412934.900000
78.046400 602701.300000
79.017900 4709.700000
79.054200 82707.500000
81.033500 60334.000000
89.038600 352976.500000
90.046500 59664.000000
91.054300 649509.100000
94.041300 23867.200000
95.049200 1028777.200000
97.010600 3360.100000
102.046400 62628.400000
103.054200 421384.200000
104.062100 60990.800000
105.044800 546930.800000
107.049200 77798.600000
108.002800 6563.300000
109.010800 11051.800000
115.054300 589682.600000
116.062000 46516.100000
117.069900 74080.400000
121.010700 5354.200000
126.046400 5453.200000
127.054200 19405.700000
128.062100 221915.800000
129.069900 45412.400000
131.049300 7431.500000
134.018400 30427.300000
141.069800 12588.300000
145.065000 16406.700000
147.026200 22240.000000
152.061900 4435.500000
155.060400 30014.000000
160.125300 3824.900000
171.025900 5791.500000

>ms2
50.015200 277541.000000
51.023000 735311.800000
52.030800 35571.900000
53.002200 66641.800000
53.038600 193441.300000
53.997400 11489.300000
55.017900 54884.900000
55.054400 3532.100000
62.015100 39384.700000
63.023000 238556.000000
64.030800 33504.500000
65.038600 345732.000000
66.046400 5751.800000
67.054200 6066.700000
68.979400 26823.800000
74.015100 16253.100000
75.022900 37003.100000
76.030700 19065.100000
77.038600 259832.800000
78.046400 297907.000000
79.017900 3535.900000
79.054300 25392.000000
81.033500 35284.600000
89.038600 400350.800000
90.046500 22843.200000
91.054300 335990.700000
94.041500 5282.700000
95.049200 556394.400000
102.046400 57061.100000
103.054300 165136.900000
104.062200 3369.000000
105.044800 293671.200000
107.049100 5502.900000
108.002900 4495.700000
115.054300 354501.200000
116.062100 5893.600000
117.069800 6345.000000
121.010700 3715.600000
126.046900 3335.800000
127.054000 12255.500000
128.062100 116657.900000
129.069900 4363.500000
134.018700 10931.300000
141.069300 3435.400000
145.064800 11249.300000
147.026900 2729.500000
155.060400 18989.600000

