>compound EQ88543748
>parentmass 415.1322
>ionization [M+H]+
>formula C21H22N2O5S
>rt 564.000000
>profile orbitrap
#smiles_iso CCOC1=C(C2=CC=CC=C2C=C1)C(=O)N[C@H]3[C@@H]4N(C3=O)[C@H](C(S4)(C)C)C(=O)O
#smiles_can CCOC1=C(C2=CC=CC=C2C=C1)C(=O)NC3C4N(C3=O)C(C(S4)(C)C)C(=O)O
#inchikey GPXLMGHLHQJAGZ-JTDSTZFVSA-N
#pubchem_id 8982
#mb_accession EQ320601,EQ320602,EQ320603,EQ320604,EQ320605,EQ320606,EQ320607,EQ320608,EQ320609

>ms2
171.043000 1382704.600000
173.096300 314157.200000
199.075300 272672736.000000
256.096800 28603376.000000
371.142400 818721.600000
415.132300 7590720.000000

>ms2
115.053700 626904.800000
128.052800 376148.400000
157.064900 1103955.200000
160.042600 1003498.200000
169.064800 1358257.200000
171.044000 30636972.000000
173.096500 386580.200000
181.064800 17655192.000000
182.059900 829132.800000
199.075300 286915840.000000
210.078800 473021.900000
210.089900 396659.600000
211.098500 757583.300000
227.057600 647320.900000
228.065300 1309970.500000
238.085900 705668.000000
239.117900 6605685.000000
256.096800 33398214.000000
283.107500 485455.700000
371.141600 298459.400000
415.132200 464103.100000

>ms2
55.017800 391610.000000
87.026300 457576.800000
100.039300 187809.200000
102.000700 188721.200000
114.037100 804152.600000
115.054100 1915762.000000
128.052900 402665.200000
128.061800 238677.200000
129.069900 438148.200000
141.069700 372781.000000
143.049100 2348492.000000
143.085500 1093618.900000
145.064900 405280.600000
155.085400 268212.500000
156.081100 246706.500000
157.064800 2429484.000000
160.042600 760245.500000
169.064900 2705805.000000
171.044000 147815040.000000
181.064700 31502036.000000
182.060000 7883654.500000
183.044300 299353.800000
183.067800 1990482.800000
183.079900 371016.200000
183.091400 277936.900000
184.075700 716963.400000
199.075300 76247936.000000
209.070400 285627.800000
210.078700 3282336.200000
210.091100 1023706.900000
211.086600 2246055.800000
211.099000 913945.100000
227.057600 2360655.200000
228.065500 4186750.800000
238.085900 326341.000000
239.117900 3350110.000000
255.076100 153656.300000
256.096800 7804179.500000
283.107900 194964.900000

>ms2
55.017900 384898.500000
70.065000 227362.800000
87.026300 661453.300000
100.039400 259411.100000
102.000800 228043.700000
114.037200 1673214.800000
115.054200 21016186.000000
117.069900 268659.900000
128.052700 399150.900000
128.061900 1009909.600000
129.069800 1415669.800000
130.041400 556337.200000
141.069800 1109241.000000
143.049200 31026390.000000
143.085500 1580968.000000
145.064800 925185.600000
152.061900 234902.000000
153.069900 1599013.100000
154.065100 544034.800000
155.060300 487968.200000
155.085300 742199.600000
156.081000 349208.800000
157.064800 1678739.400000
160.042500 288798.600000
165.069900 249853.800000
167.073300 354670.300000
168.057300 432450.000000
169.064800 1569696.500000
169.076100 242981.500000
170.059800 334512.600000
171.044000 214739408.000000
181.064700 19062430.000000
182.060000 16269113.000000
183.044000 595772.800000
183.067800 3422181.800000
183.080800 223388.500000
183.091500 1198279.400000
184.075800 617160.200000
196.075400 258621.400000
199.075300 10151152.000000
209.071000 2050331.800000
210.078900 4398886.500000
210.091100 545816.300000
211.086600 2063663.200000
211.098900 250719.800000
221.070400 316137.300000
223.086100 263222.500000
227.057800 741535.100000
228.065400 1951701.800000
239.117700 378975.700000
256.096600 543547.200000

>ms2
54.033800 336176.300000
55.017800 163632.800000
58.995000 264454.600000
63.022800 322363.400000
70.065000 202943.200000
87.026300 753963.300000
89.038400 407155.300000
94.065100 234522.900000
102.000800 191180.800000
103.054200 136762.400000
113.029300 195150.800000
114.037200 1647113.100000
114.046200 170895.700000
115.054200 75830704.000000
117.069800 334646.400000
126.046000 139010.600000
127.054000 345205.900000
128.061900 1694503.200000
129.069800 1564801.000000
130.041200 827258.500000
141.069700 1026418.900000
142.041200 223808.200000
143.049100 72678992.000000
144.056900 232807.800000
145.064700 1155255.900000
152.062100 1172524.500000
153.057200 479422.000000
153.069800 1896973.900000
154.065000 1626769.800000
154.077800 145423.800000
155.049300 400438.200000
155.060200 1444523.900000
155.085400 754591.600000
156.080700 204903.200000
157.064700 732437.600000
165.069800 378584.600000
166.065100 152985.300000
167.072900 403220.300000
168.056800 401093.600000
169.052300 852451.100000
169.064700 495950.800000
169.075800 191818.900000
170.059700 336980.800000
171.043900 112704960.000000
181.064700 7474496.000000
182.060000 15869779.000000
182.083500 1279623.200000
183.044300 275417.700000
183.067800 2311769.800000
183.091500 1276705.100000
184.075500 203161.100000
193.076100 222380.800000
195.091700 264567.000000
196.075500 202478.700000
198.054800 140342.400000
199.075500 435555.200000
206.083900 149760.100000
208.062800 156978.400000
209.070900 4208098.000000
210.078800 1401445.100000
210.091100 182837.900000
211.086400 571988.700000
221.070800 433467.200000
222.079000 246784.500000
223.086500 189210.600000
228.065700 184551.400000
249.102300 139984.600000

>ms2
53.038600 226030.100000
54.033800 278465.600000
58.995000 414313.200000
65.038500 721455.800000
69.044700 195175.900000
70.065000 258185.800000
87.026300 1085762.200000
89.038500 2168806.000000
94.065100 195797.200000
102.000800 190844.900000
103.054100 379471.900000
114.037300 1053305.800000
114.046100 453678.600000
115.054200 157718656.000000
117.069700 378662.800000
126.046200 398962.600000
127.054200 762836.900000
128.062000 2374304.800000
129.069800 1277240.100000
130.041300 581494.800000
139.054100 295526.500000
140.049600 205930.400000
140.061900 245564.400000
141.057300 394550.300000
141.069800 1163573.100000
142.041300 805443.900000
143.049100 71371256.000000
144.056500 339754.400000
145.064700 1816185.200000
152.062000 2226778.200000
153.057200 857923.400000
153.069800 2156893.000000
154.065000 3069686.200000
154.077800 190330.000000
155.049700 652075.700000
155.060300 3540310.500000
155.085400 338410.000000
157.064700 380897.400000
165.069600 396016.800000
166.065300 293419.900000
167.073100 500592.100000
168.056800 413050.600000
169.052200 1444753.500000
169.064400 396667.200000
169.075800 326204.600000
170.060000 368691.500000
171.044000 38951536.000000
181.064700 3283575.500000
181.075900 610866.100000
182.060000 13399943.000000
182.083600 1448070.200000
183.067800 1066924.400000
183.091600 801189.600000
193.076000 429313.300000
195.091700 213097.400000
196.075400 172816.800000
206.083800 236659.900000
207.055400 185144.500000
209.070900 4504204.000000
210.078700 284944.600000
221.071000 951907.200000
222.078400 235581.700000

>ms2
50.015000 182203.100000
53.038600 471946.600000
58.995000 469035.400000
62.014900 294111.200000
63.022900 2735494.800000
65.038600 8514774.000000
70.065100 217057.500000
75.022800 494187.800000
77.038400 349833.200000
87.023000 444118.000000
87.026200 385960.800000
89.038600 24827664.000000
90.046400 777340.900000
91.054300 200468.600000
95.049100 855739.200000
103.054200 516624.500000
105.044800 424704.700000
113.038600 360378.900000
114.046400 1362975.200000
115.054200 176463728.000000
117.069900 228129.900000
118.041500 235793.300000
126.046400 1738374.400000
127.054200 2873660.800000
128.062000 2590623.500000
129.044700 240166.800000
129.070200 240181.200000
132.056900 889892.200000
139.054100 900541.600000
140.049400 1119401.500000
140.061800 280111.200000
141.057300 1052724.900000
141.069600 367417.800000
142.041200 762459.600000
143.049200 11353344.000000
145.064800 2846215.200000
152.062000 3453158.500000
153.057300 650317.700000
153.069700 850579.200000
154.065100 2517166.800000
155.049300 337425.700000
155.060300 5482767.500000
165.069900 229648.300000
166.065100 364860.300000
167.073100 257608.400000
169.052200 600970.400000
169.064500 442931.800000
170.060000 637541.000000
171.044000 1428040.800000
179.060200 242916.000000
181.064600 328571.900000
181.076000 760308.300000
182.060100 3114231.800000
182.083700 428278.000000
193.076000 529269.300000
209.071000 1198795.900000
221.071000 442789.000000

>ms2
50.015000 492054.100000
51.022900 315202.800000
53.002200 524535.600000
53.038600 829708.100000
53.997400 137686.000000
54.033800 187654.700000
57.987200 185606.600000
58.995000 622020.000000
61.007200 294101.100000
62.015100 1707902.800000
63.022900 15578404.000000
65.038600 23875646.000000
74.015000 648398.900000
75.022900 2613193.000000
76.030600 154618.900000
77.038500 855232.700000
78.046300 293528.300000
79.054200 143027.600000
80.049400 186250.100000
86.015000 300105.000000
87.022900 1597938.100000
88.030700 1297217.600000
89.038500 53527608.000000
90.046400 1356696.000000
91.054300 368653.000000
95.049100 2489505.500000
99.022700 251976.000000
101.038500 252213.700000
102.046400 555208.100000
103.054100 457412.900000
105.044800 1390354.600000
113.038500 1940744.400000
114.046400 2545331.000000
115.054200 90231000.000000
118.041200 645474.400000
119.049100 187566.600000
120.020600 135262.300000
125.038600 343357.500000
126.046400 3492435.000000
127.054200 2821258.200000
128.062000 1690940.600000
129.044600 524311.800000
132.056900 1609485.500000
139.054100 1387276.400000
140.049400 1677682.600000
140.061900 165629.400000
141.057200 450376.300000
141.069900 161664.100000
142.041200 212337.100000
143.049200 821324.900000
145.064800 2202636.200000
150.046500 316641.300000
151.054200 137076.700000
152.049400 216131.000000
152.062000 2349151.800000
153.057200 311549.200000
153.069800 260744.900000
154.065000 1023223.400000
155.060300 4034274.800000
164.049400 244756.100000
165.069700 144728.500000
166.065100 315688.800000
169.064800 533454.200000
170.060000 766893.800000
179.060500 247631.100000
181.076200 261224.000000
182.060200 302349.900000
193.076200 138705.900000
221.071100 151443.000000

>ms2
50.015100 976044.200000
51.022900 781583.500000
53.002200 970761.400000
53.038600 689856.800000
53.997400 212715.200000
57.987200 151160.100000
58.995000 614290.800000
61.007200 1017168.100000
62.015100 5252674.500000
63.022900 27347842.000000
64.030600 209103.700000
65.038600 20271812.000000
66.046400 41899.000000
67.989200 71013.100000
74.015000 2347946.800000
75.022900 4549976.500000
76.030700 585619.800000
77.038500 1115054.600000
78.046400 372207.100000
80.049400 209810.000000
81.033300 50999.300000
86.015100 1199139.900000
87.022900 2594727.500000
88.030700 2599359.200000
89.038500 38831012.000000
90.046400 704678.500000
91.054200 283688.500000
92.025600 75443.700000
95.049100 2504368.000000
99.022900 568577.500000
100.030600 202282.100000
101.038600 209660.600000
102.046400 749801.000000
103.054100 193952.600000
105.044700 1392775.200000
113.038500 3335033.500000
114.046400 1902817.200000
115.054200 23027994.000000
118.041200 332196.000000
119.049100 274894.700000
120.020600 303212.400000
125.038600 382861.700000
126.046400 2655361.500000
127.054200 1239685.800000
128.062000 626028.600000
129.044600 617810.000000
131.049100 44237.500000
132.056900 1010833.600000
139.054100 1067702.500000
140.049500 981093.100000
143.049000 62794.900000
145.064700 611432.500000
150.046400 449706.100000
151.054100 126334.200000
152.049500 52639.600000
152.062000 902491.000000
153.044800 56727.600000
153.057000 220351.400000
154.064800 76044.900000
155.060300 1071193.400000
163.054100 110123.800000
164.049300 195091.800000
166.065200 156901.600000
169.064700 422163.500000
170.059900 259594.300000
179.060200 194179.500000
182.060000 43826.400000

