>compound EQ89735924
>parentmass 360.1718
>ionization [M+H]+
>formula C19H22FN3O3
>rt 264.000000
>profile orbitrap
#smiles_iso CCN1CCN(CC1)C2=C(C=C3C(=C2)N(C=C(C3=O)C(=O)O)C4CC4)F
#smiles_can CCN1CCN(CC1)C2=C(C=C3C(=C2)N(C=C(C3=O)C(=O)O)C4CC4)F
#inchikey SPFYMRJSYKOXGV-UHFFFAOYSA-N
#pubchem_id 71188
#mb_accession EQ366701,EQ366702,EQ366703,EQ366704,EQ366705,EQ366706,EQ366707,EQ366708,EQ366709

>ms2peaks
316.182300 17094400.000000
342.161300 6695498.500000
360.171900 423977952.000000
361.174500 922582.100000

>ms2peaks
72.080800 3757243.000000
84.080800 795107.100000
86.096500 946191.600000
98.096400 727803.900000
203.061600 701793.500000
204.069400 1532833.800000
219.092900 283391.600000
231.093000 2792878.500000
245.108700 30538898.000000
257.109100 530910.800000
268.144900 243940.100000
273.139600 433310.400000
275.142300 345147.500000
285.127100 278260.800000
287.142000 498706.500000
288.150800 2645441.500000
296.176100 1121804.100000
314.166500 7181939.500000
316.182100 242024864.000000
342.161500 67508408.000000
360.171900 155377696.000000
361.175700 838962.100000

>ms2peaks
56.049500 1203354.100000
57.057300 420296.300000
58.065100 532238.000000
67.054300 172919.200000
70.065200 2085277.100000
71.073000 344488.800000
72.080800 23014014.000000
84.080800 13505536.000000
85.088600 483533.400000
86.096400 4213214.500000
96.080800 359899.600000
98.096500 2166933.500000
99.091800 343558.800000
99.104300 766413.600000
113.107300 114235.100000
135.048000 895220.600000
136.055800 818428.600000
150.071600 182547.500000
151.066800 206749.400000
152.074600 113712.300000
154.066400 217099.000000
156.081100 224003.500000
161.051100 109140.800000
162.071600 239782.500000
163.042900 308074.200000
163.066700 1239245.200000
169.076300 244731.400000
174.059400 193829.700000
174.071700 109106.700000
175.067000 434108.600000
175.079400 186175.800000
176.050700 270937.600000
176.074500 649114.600000
178.053800 110175.600000
179.061700 259402.400000
182.084000 259031.200000
183.091800 320807.100000
184.063400 625867.700000
184.075700 446785.300000
187.066500 112886.900000
188.050700 219929.000000
189.046000 1089396.100000
189.082300 1174802.100000
191.061800 643386.800000
197.071300 307921.400000
197.107400 323694.800000
201.082100 179558.900000
202.054200 200317.300000
202.066600 483918.100000
202.090700 105274.200000
203.061700 11564821.000000
203.097900 820049.600000
204.069600 17851836.000000
205.077500 1628891.000000
206.121200 363186.600000
215.062200 552581.400000
215.098400 221710.900000
216.069800 1215597.900000
216.081200 180240.400000
217.040800 433060.200000
217.077400 2494916.800000
217.089900 1323317.500000
217.113700 1421706.500000
218.085400 273751.100000
218.097900 183474.800000
219.093000 975506.300000
225.066300 169410.600000
225.102400 1065341.900000
227.098100 1011083.100000
229.077400 1749508.000000
230.049200 695341.500000
230.085200 740039.900000
231.093100 11131115.000000
232.100900 316815.900000
233.108600 195033.300000
235.051600 178049.700000
238.097700 186518.800000
238.134200 105219.400000
239.081600 431692.300000
239.118100 427817.400000
239.154600 205324.000000
240.113300 210007.700000
243.056800 416619.300000
243.093200 604768.800000
244.064600 288283.900000
245.108700 104375320.000000
252.113400 236635.800000
255.137000 217893.600000
257.108500 5766003.500000
258.067500 1678983.000000
259.088000 204415.100000
259.124000 1025384.400000
260.119600 1456343.900000
266.128800 736644.800000
266.165300 286185.500000
267.136800 401545.100000
268.144700 1430157.400000
271.075300 161114.800000
271.088100 193709.800000
273.127100 117922.400000
273.140000 962270.300000
275.142900 972232.400000
281.115900 537575.600000
285.127400 3816263.800000
286.098800 12203566.000000
287.143300 632784.900000
288.150900 4134687.800000
289.098300 185128.700000
294.123600 618976.200000
294.160000 972814.200000
296.175900 1685220.200000
299.108000 158714.800000
300.114500 1066344.400000
300.150600 535072.400000
301.122300 730879.400000
312.134100 191934.800000
314.130200 1319872.400000
314.166500 10723731.000000
316.182300 51155872.000000
317.184600 212834.700000
322.155500 889354.600000
340.165600 455660.600000
342.161500 47731156.000000
360.172000 57975552.000000
361.174400 224333.800000

>ms2peaks
53.002200 205123.900000
56.049500 3804594.200000
57.057300 1854116.100000
58.065200 2292815.200000
65.038600 174492.700000
67.041800 51228.200000
67.054300 373033.200000
67.989300 50181.000000
68.049500 537368.800000
70.065200 8786293.000000
71.073000 576138.400000
72.080800 19544534.000000
80.049500 71002.800000
82.028900 309390.300000
82.065100 226277.400000
83.049300 302949.600000
83.060300 56524.600000
84.080800 19224336.000000
85.088600 748459.900000
86.096500 3748972.200000
96.080800 622145.600000
97.076100 355095.400000
98.083900 57768.000000
98.096600 919565.100000
99.091800 351907.000000
99.104300 234522.500000
103.054600 50547.100000
109.044800 371490.100000
111.091700 199631.800000
112.099700 170684.000000
113.107400 67368.900000
115.054200 59561.000000
116.049500 342126.800000
117.057400 91458.900000
118.065000 45359.900000
120.044900 49459.900000
122.040100 84995.100000
124.055800 104157.900000
128.049600 90486.400000
128.062200 221889.100000
129.069900 369799.500000
130.065500 234952.400000
131.060600 391300.900000
132.068100 73728.600000
133.045000 80293.200000
134.040100 101730.200000
134.060100 202330.400000
135.048000 2928535.800000
136.055800 3310606.200000
137.063600 55576.100000
141.057600 45695.800000
142.065500 191315.200000
143.060600 259132.800000
144.055800 46861.800000
144.081000 201403.800000
146.052700 43699.000000
147.048300 54734.900000
147.060600 174485.500000
148.055900 905672.500000
149.051400 153696.300000
149.064000 105261.100000
150.058500 51434.500000
150.071600 377301.900000
151.042300 48754.800000
151.066700 250789.400000
152.050800 256163.700000
152.074500 349039.000000
154.066000 973416.800000
155.060500 487451.500000
155.073200 251799.600000
156.068300 581919.200000
156.080900 612061.200000
157.076300 219879.700000
161.051100 727499.900000
161.063900 337639.500000
162.035400 367243.200000
162.059100 179372.600000
162.071400 623283.700000
163.042800 551593.000000
163.066700 1438590.000000
164.050800 269617.000000
166.065800 48996.700000
167.073200 170221.200000
168.068600 174344.900000
168.080800 52253.500000
169.076300 1468261.400000
170.060400 272219.200000
170.083900 44540.900000
170.096800 63380.200000
171.092100 300445.000000
172.055700 590035.600000
173.063700 149765.200000
174.059200 921375.900000
174.071500 1176441.500000
175.066900 1576737.900000
175.079200 1225615.100000
176.050900 1324491.000000
176.074600 4222679.500000
177.058700 275366.900000
177.082500 437647.100000
178.030200 69612.000000
178.054000 221943.000000
178.066700 77300.200000
179.061700 284682.900000
180.045500 45242.500000
180.081000 93217.900000
181.076000 89060.100000
182.059800 63721.500000
182.084100 818305.300000
183.055500 54718.200000
183.067800 322967.700000
183.091900 531385.000000
184.063300 1926012.100000
184.075500 656795.400000
185.051000 194440.500000
185.063600 481259.800000
185.071300 496874.800000
185.107800 45941.000000
186.059200 258703.500000
186.071700 271161.200000
187.042900 69590.500000
187.066800 776206.200000
187.079000 70467.000000
188.050800 1170921.200000
188.074800 435736.400000
188.087100 392444.100000
189.046000 8320269.000000
189.082400 2704232.000000
190.054000 840459.700000
190.066400 386192.700000
190.090000 93428.700000
191.061600 1297960.100000
191.097800 65894.300000
192.069400 174323.300000
195.092000 335601.100000
196.063900 63807.500000
196.099600 173626.700000
197.071100 930789.000000
197.107600 582918.100000
198.079000 185543.600000
198.091500 72693.600000
199.066700 86652.700000
200.050600 188926.100000
200.074700 166669.400000
200.087100 206587.000000
201.045700 43220.200000
201.058400 682394.800000
201.065800 44345.200000
201.082600 662490.800000
202.030000 282470.100000
202.054200 739862.900000
202.066500 3038936.800000
202.090200 859699.800000
203.061700 24510532.000000
204.069600 20441118.000000
205.077400 4068230.500000
206.084100 99490.600000
206.121200 71515.400000
207.092100 95225.000000
208.087200 55063.800000
209.071200 341086.600000
209.107600 237988.700000
210.042700 213753.700000
210.079300 194390.500000
210.103400 61032.400000
210.115500 69104.200000
211.051100 94543.300000
211.087000 279355.400000
211.123100 175530.900000
212.082500 80153.800000
213.083100 85787.100000
214.066300 62440.800000
214.090900 54025.500000
215.025100 752904.200000
215.061800 1912820.200000
215.098100 541385.600000
216.033100 351215.100000
216.069700 2528974.000000
216.082000 326022.400000
217.041100 3968744.800000
217.077500 3823720.800000
217.090000 1389445.000000
217.113700 1638105.100000
218.049100 313816.300000
218.085400 237213.400000
218.097900 235382.200000
219.093000 469375.600000
221.048700 223211.900000
221.072300 267568.500000
222.102500 66973.300000
223.086400 337276.600000
223.122600 98828.100000
224.058200 318436.900000
224.094700 177495.400000
225.066500 384000.300000
225.102400 1628301.500000
227.097800 922317.400000
228.067500 55604.000000
228.082400 227063.800000
229.041300 302297.200000
229.077400 5771129.500000
230.048900 1279836.600000
230.085400 1096551.500000
231.056700 1032612.100000
231.093100 6643670.000000
232.088700 97852.400000
232.101100 58916.000000
233.108600 194955.200000
234.043900 174261.600000
235.051900 1073232.800000
235.063600 128446.700000
236.058200 152707.800000
236.081500 70281.100000
236.118400 195972.100000
237.102300 234894.000000
237.126200 77488.300000
238.097900 507294.500000
238.134200 228909.900000
239.081900 599400.900000
239.118600 163232.900000
239.154200 82666.100000
240.113400 237921.800000
242.086100 45709.300000
243.056700 4796166.000000
243.092600 1288872.500000
244.064700 327904.600000
245.108800 42354348.000000
247.051700 196662.400000
252.077200 89137.800000
252.113600 356474.600000
253.121300 91003.100000
254.129600 88109.300000
255.057000 53944.000000
255.136600 65108.500000
257.108700 2982920.200000
258.067500 4520032.500000
258.104100 261130.800000
259.088400 515971.100000
259.124500 536071.400000
260.119900 460726.700000
261.067200 240014.900000
264.112900 89983.300000
265.120700 80703.800000
266.092800 477030.900000
266.129000 735396.800000
266.165400 341703.800000
268.144100 326949.400000
270.104200 168560.700000
271.075300 2027050.000000
271.087900 162523.400000
272.083300 197089.000000
273.127400 169085.600000
273.140600 85568.700000
274.134800 55846.500000
275.142900 278381.500000
281.115900 456301.000000
284.119400 174605.200000
285.127400 3441734.800000
286.098900 29215330.000000
287.102000 53791.000000
288.150800 541187.700000
289.099500 71209.600000
294.124000 384082.000000
294.160300 271030.300000
296.175100 103555.600000
299.106800 276734.000000
300.114600 2685269.200000
300.150300 533539.800000
301.122200 219843.400000
312.133900 186702.900000
314.129900 531881.800000
314.166500 1170501.000000
316.182500 1640037.600000
322.155500 399536.100000
340.165900 75695.200000
342.161600 5810866.000000
360.172100 8169844.500000

>ms2peaks
53.002200 503706.000000
53.038700 72843.000000
54.034000 66501.400000
55.017900 181111.800000
55.054300 234327.500000
56.049500 5890725.000000
57.057300 2323368.800000
58.065200 3131610.500000
65.038600 372971.900000
67.041700 81832.100000
67.054200 87176.600000
67.989200 79036.300000
68.049500 851172.600000
69.044800 88123.200000
70.065200 16830784.000000
71.072900 380894.400000
72.080800 11949990.000000
80.049500 84525.800000
82.028800 292632.200000
82.065200 438493.400000
83.049200 297869.500000
83.060500 295822.800000
84.080800 13110137.000000
85.088700 477875.000000
86.096500 2764493.000000
89.038600 386511.800000
91.054700 38787.100000
92.049600 58996.200000
93.033600 66204.100000
96.080900 274501.100000
97.076100 479237.000000
98.083900 102222.500000
98.096600 284144.900000
99.091800 206885.700000
103.054200 184439.600000
104.049500 210847.200000
107.029200 66986.200000
109.044900 1197751.600000
110.040400 54607.300000
111.091700 180701.800000
112.099500 198719.800000
115.041700 42651.100000
115.054300 582744.300000
116.049600 1448611.900000
117.057300 430674.700000
118.065200 65167.900000
120.044600 69199.100000
121.045000 83123.300000
122.040200 298177.800000
124.055900 268715.800000
127.054200 82391.100000
128.049500 526663.100000
128.062100 817438.800000
129.044800 68997.000000
129.057500 250881.000000
129.069900 521382.300000
130.065300 739014.100000
131.060500 579752.000000
132.068300 201859.300000
132.080900 68459.400000
133.044800 507707.300000
134.040100 701522.300000
134.060100 1165567.800000
135.048000 4463823.000000
136.055900 4408729.500000
137.051000 84389.000000
137.063700 106425.700000
140.049600 182783.300000
141.044700 91248.500000
141.057600 439235.100000
142.065300 691320.100000
143.060600 475035.800000
143.072900 61809.300000
144.044500 77588.200000
144.056000 394166.800000
144.080900 97702.600000
145.064900 51522.700000
146.040400 317138.300000
146.052800 305812.100000
146.060400 73232.500000
147.048000 609655.000000
147.060400 484069.800000
148.055800 3395841.500000
149.051100 359204.900000
149.064000 424538.400000
150.035400 66111.800000
150.059000 271017.500000
150.071500 442948.400000
151.042900 173352.700000
151.066800 279161.000000
152.050900 344141.400000
152.074700 192232.200000
154.065500 2453290.000000
155.060400 1649912.500000
155.072900 573875.600000
156.068300 2645842.500000
156.081000 750723.600000
157.052200 50236.400000
157.076200 555973.400000
158.040300 207683.500000
158.060000 88341.600000
159.048200 188512.600000
159.060500 50421.800000
160.043300 87678.900000
160.055900 577265.700000
161.051200 1260412.000000
161.063700 739122.100000
162.035100 1591193.200000
162.045600 343033.500000
162.059300 556639.400000
162.071400 1238566.900000
163.043000 736338.900000
163.066700 1020176.800000
164.050700 493104.700000
166.065600 176149.700000
167.060400 63863.800000
167.073200 283749.800000
168.068300 500227.500000
168.080900 298201.100000
169.052200 219133.600000
169.076200 2604476.800000
170.060200 300096.800000
170.084000 63398.600000
170.096700 100131.000000
171.055200 89385.400000
171.091900 426133.500000
172.055800 1447532.200000
173.051700 325811.200000
173.063700 801966.100000
173.071100 71267.100000
174.035100 539697.700000
174.059200 2216886.200000
174.071400 2896258.800000
175.043500 304879.100000
175.066800 3651559.500000
175.078900 1255298.500000
176.050800 1955482.800000
176.074600 6928538.000000
177.046300 69067.600000
177.058600 712405.600000
177.082700 329365.800000
178.030300 89786.200000
178.054000 231466.200000
178.066300 283949.000000
179.038200 57233.700000
179.061800 228145.400000
180.045700 672398.600000
180.080900 278774.400000
181.076400 452384.300000
182.060200 412402.400000
182.084100 1780090.000000
183.055700 86570.500000
183.068100 431132.000000
183.091700 618796.100000
184.063400 2074567.100000
184.075500 416387.100000
185.051300 390860.300000
185.063600 735724.900000
185.071300 1227499.100000
186.059100 284827.800000
186.071400 390406.400000
187.043200 381697.400000
187.066800 2407750.000000
187.079800 229118.300000
188.014300 202426.100000
188.038100 222934.600000
188.050800 1409617.400000
188.074500 658817.700000
188.087000 512511.600000
189.046000 13692838.000000
189.082400 2441776.800000
190.041400 383304.000000
190.053800 1487509.400000
190.066200 321294.500000
190.090500 165369.700000
191.061700 1264370.800000
191.098200 83296.700000
192.069500 78897.900000
193.076400 75371.100000
195.056200 101100.100000
195.091900 368293.100000
196.063200 181215.500000
196.099900 179015.700000
197.071100 900069.500000
197.094300 47276.300000
197.107600 386188.100000
198.079300 97534.800000
198.091900 91126.000000
199.066600 201696.200000
199.079600 80863.300000
200.050500 608173.500000
200.059100 78589.600000
200.074700 283735.500000
200.087000 180213.000000
201.058500 1539363.500000
201.065200 93699.000000
201.082500 1220932.800000
202.030000 1322213.000000
202.054100 803029.900000
202.066500 4802704.500000
202.090000 861536.500000
203.061700 25585830.000000
204.069600 7528973.500000
205.077400 3624496.500000
206.084100 97831.000000
207.091700 156171.400000
208.087000 262574.600000
209.071300 488499.000000
209.107300 206106.500000
210.042600 270128.100000
210.078800 292996.800000
210.102600 184761.500000
210.114900 48706.500000
211.067100 52625.900000
211.087000 362178.600000
212.082500 70188.300000
213.059300 54733.300000
213.082300 167583.200000
214.066600 237146.000000
214.090000 49788.400000
215.025300 5567609.500000
215.061700 2845955.200000
215.098100 445290.900000
216.033300 737220.600000
216.069700 1699534.500000
216.082100 260144.800000
216.092900 154592.800000
217.041100 6135331.000000
217.077400 2147495.000000
217.089900 493765.500000
217.113600 436965.000000
218.049000 163360.300000
218.085100 282654.200000
218.097000 101429.700000
219.092900 263562.700000
220.040500 171904.100000
221.048600 188184.000000
221.072100 101200.600000
222.102600 54736.000000
223.086500 295855.900000
223.122800 60424.300000
224.058300 253841.100000
224.094800 89505.600000
225.066100 466637.100000
225.081800 63042.100000
225.102200 740216.800000
227.061900 189399.200000
227.098100 445340.600000
228.069200 58471.500000
228.081200 46986.900000
229.041200 459214.800000
229.077500 4493678.000000
230.049300 315299.500000
230.072600 198210.400000
230.085200 882962.700000
231.056700 951070.400000
231.093000 2368142.200000
232.088400 57309.700000
233.036100 374112.000000
233.046800 48898.000000
234.044200 435259.400000
235.051900 1210055.500000
235.064200 197404.300000
236.059700 48798.900000
236.082000 179364.300000
236.118700 192310.200000
237.102400 79415.400000
237.126200 56512.200000
238.061300 65226.600000
238.097900 304178.200000
238.134100 72520.600000
239.081800 189020.800000
241.077100 232832.700000
243.056700 8083448.000000
243.092400 995288.600000
244.100600 77649.700000
245.108700 12049818.000000
247.051400 288187.400000
252.076400 102396.600000
252.113500 56769.900000
255.056900 183793.900000
256.051600 164727.000000
257.108300 309582.900000
258.067600 3033426.200000
258.104200 193791.000000
259.087900 171927.500000
259.124000 195529.700000
260.119700 53623.900000
261.067100 587626.100000
264.113400 61087.300000
265.120300 58635.600000
266.092900 240008.800000
270.066900 67780.000000
270.103700 334516.400000
271.075400 4467492.500000
272.083100 75554.900000
281.115400 61996.400000
284.119300 183218.400000
285.091100 76781.400000
285.127300 608377.600000
286.098900 7569229.000000
289.085300 67009.400000
300.114500 1468439.000000
312.133200 50815.300000
342.161400 59124.400000
360.171700 178217.800000

>ms2peaks
50.015000 43219.800000
53.002200 1212434.200000
53.038600 171432.300000
54.033900 65068.300000
55.017800 192305.700000
55.054300 185525.600000
56.049500 6238194.500000
57.057300 1598884.600000
58.065200 2711094.500000
65.038700 373999.600000
67.041700 55957.000000
67.054200 163688.000000
67.989300 77054.300000
68.049500 1074788.000000
69.044700 90047.500000
70.065200 12562779.000000
71.073000 164422.900000
72.080800 6201969.000000
75.022800 63056.600000
78.034000 56069.900000
80.049500 165082.600000
81.013400 54071.600000
82.028800 62575.000000
82.052500 45492.000000
82.065200 481874.000000
83.029100 360319.700000
83.049100 190549.500000
83.060400 457486.900000
84.080800 6729771.500000
85.088800 42243.300000
86.096500 1463343.000000
89.038600 1747972.200000
91.054400 54427.600000
92.049500 157035.900000
95.029400 54364.500000
95.049200 81332.800000
96.044400 198932.300000
96.081000 127346.500000
97.044800 58352.000000
97.076100 389387.400000
98.083900 269823.700000
98.096500 159313.800000
99.091700 76244.900000
102.046600 146350.400000
103.054300 513330.700000
104.049600 325707.800000
105.044800 67701.600000
105.057600 43631.400000
107.029200 568881.100000
108.024400 179857.400000
108.037000 257189.400000
109.044900 2581784.000000
110.040000 167124.700000
111.091500 69879.200000
114.034000 243022.600000
115.041700 267860.800000
115.054400 1543364.800000
116.049500 2392281.000000
117.057400 672460.600000
118.065200 251945.800000
120.037100 188440.600000
121.032400 210595.200000
121.045100 184944.900000
122.040100 644856.400000
123.035400 218394.900000
123.048100 70198.500000
124.055900 359162.100000
126.034300 45842.100000
127.054300 368614.700000
128.049600 1157250.900000
128.062100 1500854.500000
129.044800 382609.100000
129.057400 975085.200000
129.070100 438633.100000
130.065300 1255974.200000
131.060600 542131.900000
132.024400 150269.900000
132.044600 95080.900000
132.068400 98284.900000
132.080900 171659.200000
133.032200 74417.900000
133.044900 919987.900000
133.052200 82704.700000
134.040200 2486081.000000
134.060100 1694302.400000
135.048000 5816771.500000
136.019600 229958.200000
136.055900 3106154.000000
137.026700 46002.000000
137.051200 62329.500000
137.063700 182761.600000
138.035200 60826.800000
139.054500 67057.200000
140.049500 581065.500000
141.044900 454681.100000
141.057400 1015334.700000
142.028800 233561.900000
142.052900 74122.300000
142.065300 1402039.100000
143.060500 707896.200000
143.073400 86883.400000
144.044500 250289.600000
144.055800 563922.900000
144.080800 171806.200000
145.044900 61906.400000
145.064900 364707.300000
146.040200 708617.100000
146.052700 816518.500000
146.060000 160998.500000
147.035600 61872.500000
147.048000 1218771.900000
147.060500 613250.600000
148.043600 414658.200000
148.055800 7541766.500000
149.051200 406952.200000
149.063700 682708.200000
150.034900 155033.900000
150.058900 305217.300000
150.071200 289238.600000
151.042800 157673.300000
151.067000 192225.300000
152.050700 534614.900000
152.062100 93436.700000
153.045200 39885.600000
153.057300 179722.900000
154.052600 257877.046900
154.065300 3879539.200000
155.060500 3416695.800000
155.073000 890143.200000
156.044400 182685.200000
156.068300 3586795.000000
156.081100 587625.600000
157.052400 81430.800000
157.076300 759676.700000
158.040300 770155.800000
158.060200 206178.700000
159.035600 48267.000000
159.048100 630087.600000
159.055200 187708.500000
159.060900 149032.600000
160.043700 417770.200000
160.055800 847775.000000
161.027300 451337.900000
161.051300 2318336.200000
161.063500 1109227.000000
162.035100 2962158.000000
162.045800 587686.100000
162.058900 1062869.400000
162.071400 1259050.500000
163.042900 729974.200000
163.055500 47738.300000
163.066700 765133.600000
164.050700 654838.100000
166.052600 41515.100000
166.065600 190633.100000
167.060400 516464.000000
167.072700 308661.700000
168.068400 1022181.200000
168.080900 240683.400000
169.039600 166138.600000
169.052100 254683.500000
169.076200 2448273.000000
170.034800 61318.600000
170.047900 55712.100000
170.060100 380321.800000
170.084100 50384.900000
170.096400 77493.900000
171.055200 208451.500000
171.091900 181777.100000
172.055800 2360148.800000
173.051400 1158628.000000
173.063600 1133279.400000
173.070900 127440.400000
174.035200 2039886.400000
174.059200 3048718.500000
174.071400 3433536.500000
175.043100 317952.200000
175.066800 5529951.000000
176.050800 1874986.200000
176.074600 5646438.000000
177.046400 57208.900000
177.058500 385578.700000
177.082300 61937.600000
178.030100 64753.300000
178.053800 66916.700000
178.066300 340857.500000
179.037800 248428.300000
179.060700 74549.800000
180.045700 2692082.500000
180.081100 222131.900000
181.076200 1040817.600000
182.060300 578294.700000
182.084100 1560648.000000
183.055700 343520.900000
183.068100 340039.200000
183.092100 335324.400000
184.055700 157682.400000
184.063300 1191563.900000
184.076100 232947.300000
185.051400 541006.500000
185.063600 805008.800000
185.071200 1248304.900000
186.018600 201942.578100
186.059000 494814.500000
186.071400 567743.900000
187.030700 375099.400000
187.043000 630283.100000
187.066800 2632496.000000
187.079800 216992.700000
188.014400 1294107.400000
188.024700 72170.000000
188.038200 307547.100000
188.051000 1328201.600000
188.074700 502171.100000
188.087300 490667.600000
189.046100 11212643.000000
189.082400 1875350.500000
190.041300 749532.300000
190.053900 638456.600000
190.066500 307792.900000
190.090000 172764.000000
191.061600 943982.900000
193.076200 99116.100000
194.061200 89266.900000
195.019300 74476.100000
195.055200 312568.900000
195.091800 463264.500000
196.063600 200367.300000
196.099600 87245.600000
197.070900 443370.900000
197.094400 53258.000000
197.107200 85445.500000
198.079300 78109.000000
199.066800 175856.000000
199.078500 41128.100000
200.050800 821142.500000
200.059400 69573.600000
200.074700 397419.600000
200.087300 167650.700000
201.058700 1727811.800000
201.082500 1598484.100000
202.030100 1246508.900000
202.054100 572954.600000
202.066500 3968360.800000
202.090100 650398.200000
203.061700 19785300.000000
204.033200 225492.968800
204.069600 2147204.200000
205.077500 1808004.900000
206.024600 294461.600000
206.083900 102822.800000
207.092600 48893.000000
208.087000 279050.900000
209.071100 717513.900000
209.107200 94938.300000
210.042400 100972.900000
211.050800 67347.000000
211.066800 215484.200000
213.058500 52703.000000
213.082200 215516.200000
214.066900 297567.000000
215.025400 8298050.500000
215.061700 2855090.000000
216.033300 341023.800000
216.069500 715830.600000
216.082100 280127.500000
216.092200 62693.400000
217.041100 3957631.800000
217.077400 627675.400000
218.085500 50554.600000
220.040500 258848.400000
221.048600 47208.600000
221.071500 75414.000000
222.102600 96491.900000
223.086400 298731.800000
224.058400 54430.000000
225.066500 47397.100000
225.082600 70534.900000
225.102500 85414.800000
227.061600 267995.000000
227.098300 216978.400000
228.069100 100130.100000
229.040900 180751.300000
229.077500 3117228.500000
230.072600 450000.300000
230.085100 903736.300000
231.056300 478523.100000
231.092800 465614.100000
233.036100 673146.600000
233.047300 78094.800000
234.043800 157883.200000
235.051700 891640.100000
235.063500 71751.400000
236.082000 183984.100000
236.117600 49442.200000
237.102800 73929.000000
238.061100 49636.400000
241.077300 164157.400000
242.084800 54899.700000
243.056700 2602912.800000
243.092500 467691.900000
245.108700 3047843.000000
247.051200 80858.300000
255.056800 56362.900000
256.051700 627071.400000
258.067700 1048470.000000
261.067100 239480.800000
270.067200 285407.700000
270.103400 190934.400000
271.075400 2491087.500000
284.119500 54657.200000
285.090500 78541.800000
286.099000 493090.800000
289.085700 56990.300000
300.114300 166955.000000

>ms2peaks
50.015100 166162.000000
51.022900 313331.500000
52.018100 94360.400000
53.002300 3972577.500000
53.038600 296040.300000
53.997400 89142.100000
54.033900 66051.500000
55.017900 93597.800000
55.054200 187478.900000
56.049500 3599579.500000
57.013600 335523.400000
57.057400 557963.600000
58.065200 1410916.800000
62.015100 86549.300000
63.022900 689340.200000
65.038600 463511.100000
67.041600 168685.100000
67.054300 52434.300000
68.049500 609389.800000
69.044700 67308.100000
70.065200 3750059.200000
72.080800 1063058.400000
74.015000 80712.800000
75.022900 935301.200000
76.030700 45567.500000
77.002200 57308.300000
77.038600 436734.300000
78.033700 174941.500000
78.046400 214716.800000
80.049500 274375.900000
81.013500 94606.700000
81.033600 55415.200000
82.065200 289182.700000
83.029200 1757190.000000
83.060300 194976.600000
84.037000 263937.300000
84.080900 1155762.000000
86.096400 342051.000000
87.010300 44758.100000
87.022900 235276.000000
88.018300 57886.400000
88.030800 292329.200000
89.038600 4656424.500000
90.033900 291699.100000
90.046500 365735.900000
91.041700 46043.000000
91.054300 379826.900000
92.025700 91369.200000
92.049500 180465.900000
93.013700 60402.700000
93.033700 41833.400000
94.021600 151375.200000
95.029200 186088.200000
95.049200 691741.200000
96.037100 414042.800000
96.044500 338192.600000
97.032400 65535.900000
97.044900 86830.900000
97.076300 49326.300000
98.084000 98696.200000
99.023000 161956.600000
100.018300 229135.600000
101.038700 474673.100000
102.033900 191333.300000
102.046500 1002051.500000
103.041600 157765.200000
103.054300 771793.900000
104.049500 613385.900000
105.044900 638447.500000
105.057300 219103.700000
106.021400 292292.200000
107.029200 5437431.000000
108.024500 1038622.900000
108.037000 1567320.900000
109.044900 2773084.200000
110.040100 252808.800000
112.018500 39789.800000
113.026000 72706.200000
113.038900 378599.200000
114.034000 1531696.600000
114.046600 197595.600000
115.041700 983384.400000
115.054300 2500578.800000
116.049600 2094812.600000
117.057400 986157.900000
118.028700 229096.100000
118.065100 190962.300000
119.029200 67642.400000
119.049200 391285.600000
120.024500 164174.400000
120.037100 1113921.600000
120.044200 72536.300000
121.032300 1211739.500000
121.044800 486248.200000
122.040200 1115564.400000
123.035400 567111.400000
123.048000 162453.500000
124.055700 154278.800000
125.038800 307247.800000
126.034000 640629.200000
126.046600 338087.600000
127.041900 462295.200000
127.054300 830870.400000
128.049600 3146184.500000
128.062100 1255816.000000
129.044800 2122850.200000
129.057400 1571233.000000
129.069900 156418.200000
130.040300 172506.500000
130.065300 1298298.900000
131.029200 91637.400000
131.037000 87445.400000
131.060600 381908.000000
132.024500 1825158.900000
132.036800 177184.000000
132.044500 505813.300000
133.032400 1123308.500000
133.044900 2184792.000000
134.040200 6431965.000000
134.060100 1086408.900000
135.047900 5023012.000000
136.019500 437895.900000
136.055900 1085134.500000
137.027200 44587.300000
137.051300 51232.600000
138.034900 167106.600000
139.029400 286913.700000
139.054300 183924.500000
140.027000 162364.328100
140.037200 149698.300000
140.049600 1724146.400000
141.044900 477600.400000
141.057400 970520.600000
142.028900 286503.100000
142.052800 242234.000000
142.065300 685287.300000
143.049300 44527.400000
143.060500 532341.900000
143.073200 158696.000000
144.024400 61914.000000
144.044500 293624.200000
144.055800 508541.700000
144.081200 45689.300000
145.032300 211789.900000
145.045000 82808.300000
145.065000 575288.400000
146.040200 2046403.100000
146.052800 1755354.200000
146.060100 389751.400000
147.035400 513157.000000
147.048000 1806706.400000
147.060500 593514.100000
148.043600 668541.600000
148.055800 10332772.000000
149.051300 534727.400000
149.063700 244113.600000
150.035200 414729.400000
150.058900 296164.100000
150.071800 68036.200000
151.043000 386700.300000
151.067100 55360.800000
152.050600 1204633.900000
152.062100 155895.200000
153.045100 316784.400000
153.057300 364295.500000
154.040200 898468.900000
154.065300 4594800.000000
155.060500 4716196.500000
155.073000 275839.800000
156.044600 380496.800000
156.068300 1532246.500000
156.080900 173037.900000
157.039700 190466.400000
157.045400 75168.400000
157.052500 83216.200000
157.076200 271193.000000
158.040300 1093714.600000
158.060300 228307.200000
159.036000 64320.500000
159.048100 1064562.600000
159.055400 271324.800000
160.019400 223961.406300
160.043400 638269.200000
160.055800 917884.700000
161.027300 611391.700000
161.051300 3799752.800000
161.063600 799480.000000
162.035200 1791989.800000
162.046100 948479.400000
162.058700 550531.300000
162.071400 355399.200000
163.042800 318871.900000
163.055300 58717.900000
163.066700 256129.700000
164.050700 766644.300000
165.045100 89119.700000
166.052800 416576.200000
166.065500 285537.400000
167.060700 901929.800000
167.072900 378718.900000
168.008300 91678.900000
168.044600 89216.900000
168.055800 184487.200000
168.068300 903700.200000
168.080800 228685.300000
169.039900 72832.000000
169.051500 81028.300000
169.076100 629769.100000
170.034400 50752.300000
170.047200 41688.200000
170.060100 217373.000000
171.047700 72743.600000
171.055300 73409.800000
172.055800 3922442.800000
173.051300 1777674.100000
173.063700 1147625.900000
173.071000 143232.400000
174.035200 2022890.900000
174.059100 2605134.500000
174.071300 1809288.000000
175.042900 156457.000000
175.066800 2314156.200000
176.050900 983588.900000
176.074700 1172031.900000
177.046400 62369.300000
177.058500 172414.900000
178.030400 70360.600000
178.065900 159057.400000
179.037900 268579.700000
179.060700 349317.200000
180.045700 1604545.600000
180.055400 164726.000000
180.068400 207393.800000
181.076100 1025566.500000
182.060300 337280.500000
182.084200 178095.900000
183.055400 150086.900000
183.068200 48560.300000
183.092200 49942.200000
184.055800 306330.800000
184.063500 220068.800000
185.051600 375877.200000
185.063700 829411.400000
185.071400 311377.400000
186.058900 525117.400000
186.071400 317119.000000
187.030400 355514.000000
187.042900 486759.600000
187.066800 1393480.600000
188.014500 1001614.000000
188.025700 247462.800000
188.038300 80235.800000
188.050800 442006.700000
188.074500 94375.200000
189.046100 1404104.100000
189.082500 213562.200000
190.041200 243465.100000
190.066500 46268.300000
191.061400 93427.300000
193.076200 249229.900000
194.061300 73355.500000
195.019200 58803.800000
195.030900 162951.796900
195.055600 329921.900000
195.092000 150303.600000
197.071100 214647.600000
199.066800 212119.900000
200.050700 587092.600000
200.074700 239931.400000
201.046000 55557.100000
201.058800 705852.300000
201.082300 980294.600000
202.030600 51904.400000
202.066500 755534.200000
202.090300 66436.300000
203.061700 2856976.800000
205.076700 255651.500000
206.025200 203352.900000
208.087100 209350.600000
209.071300 246878.700000
211.066700 57300.500000
215.025300 1103715.100000
215.061600 674267.800000
217.041200 79100.400000
227.062200 74305.800000
229.077500 597030.000000
233.036200 158059.700000
243.056800 71010.100000

>ms2peaks
50.015100 527239.000000
51.023000 893256.000000
52.018300 347385.000000
53.002300 4577717.500000
53.038700 679429.700000
54.033900 92311.800000
55.017800 146445.900000
55.041600 65621.300000
56.049500 2402688.800000
57.013600 1859518.500000
57.057300 234489.500000
58.065200 655009.500000
59.029200 138405.000000
61.007300 165794.000000
62.015100 634562.300000
63.023000 2644119.000000
64.018200 64757.500000
64.030800 60458.200000
65.038600 595990.300000
66.046400 48016.900000
67.041700 162032.100000
68.005700 68890.600000
68.049500 347123.200000
69.044800 59246.900000
70.021300 256392.200000
70.065200 1379936.100000
71.029200 176067.600000
72.080800 167747.800000
74.015100 743520.300000
75.023000 5128614.000000
76.018200 324165.200000
76.030700 343274.600000
77.002200 264427.700000
77.038600 1138462.400000
78.033900 507742.800000
78.046400 539833.600000
79.041700 78006.000000
80.049600 206060.300000
81.013600 966603.900000
81.033500 83783.300000
82.008900 277283.900000
82.021400 188784.200000
82.065100 151724.700000
83.029200 3046187.500000
84.037200 478849.300000
84.080900 84018.700000
86.015100 275977.700000
87.010400 199556.200000
87.023000 867971.000000
88.018200 552262.900000
88.030900 611282.200000
89.038600 5860902.500000
90.033900 395852.400000
90.046500 613668.900000
91.017900 150637.100000
91.041700 75618.000000
91.054300 541924.900000
92.025700 59733.000000
92.049500 163672.000000
93.013600 390561.900000
94.021400 1177056.600000
95.029200 348401.400000
95.049200 1535832.200000
96.024400 72130.800000
96.037000 791572.200000
96.044400 540946.600000
97.032300 158631.400000
97.044900 180373.800000
98.015200 201817.700000
99.023000 1291818.500000
100.018300 940229.500000
100.030800 199541.300000
101.026000 175541.500000
101.038700 1008213.800000
102.033800 553971.500000
102.046500 1826672.800000
103.041500 278129.000000
103.054300 644486.200000
104.049500 473913.200000
105.013600 495162.500000
105.044900 1039454.400000
105.057300 66100.400000
106.008700 82281.500000
106.021400 711812.400000
107.029300 12355618.000000
108.024500 2164532.200000
108.037000 2285833.200000
109.032300 207733.300000
109.044900 1828145.900000
110.040200 178865.800000
112.018500 181230.700000
112.031900 250081.100000
113.026100 280532.100000
113.038700 1162876.400000
114.034000 2620385.200000
114.046400 295049.200000
115.041800 1054656.500000
115.054400 2243292.000000
116.049600 1100508.400000
117.057400 585132.400000
118.028700 244691.500000
118.041600 58135.900000
119.029300 191441.300000
119.049300 949842.200000
120.024600 187561.900000
120.037100 2061568.600000
120.044300 146921.600000
121.032300 1703321.400000
121.045000 437768.800000
122.040200 1269085.900000
123.035400 1043288.700000
123.048000 236381.300000
124.018400 246871.500000
124.055900 61247.600000
125.038800 736134.900000
126.034100 1219621.500000
126.046500 897709.800000
127.028900 59674.700000
127.041800 707358.900000
127.054300 1004626.900000
128.049600 3793489.500000
128.062200 805925.700000
129.044800 3641095.800000
129.057400 795530.300000
130.040200 444132.800000
130.065300 580821.100000
131.029300 578956.600000
131.036700 188809.100000
131.060500 69587.900000
132.024600 3278203.500000
132.037300 296395.100000
132.044400 295445.700000
133.032400 1284412.600000
133.044900 2556306.800000
133.052600 200199.400000
134.040200 3704971.500000
134.060200 423014.300000
135.048000 2654978.500000
136.019500 168428.800000
136.032300 42661.500000
136.056000 285719.000000
138.011100 74822.300000
138.034300 281190.400000
139.029200 283200.800000
139.042000 61699.400000
139.054300 279762.100000
140.049600 2046712.500000
141.045000 293504.900000
141.057400 977764.200000
142.029100 170354.700000
142.052800 254291.000000
142.065200 316824.800000
143.049400 75680.400000
143.060900 50983.100000
143.073000 61333.800000
144.024600 57688.300000
144.037200 87277.500000
144.044600 370986.800000
144.055700 301400.900000
144.080600 49675.300000
145.032400 211479.500000
145.045100 225852.700000
145.065000 564952.600000
146.040200 2380340.500000
146.052800 1874422.000000
146.060100 423860.200000
147.035600 641901.000000
147.048000 1526433.900000
147.060800 203239.900000
148.055900 5621390.500000
149.051300 234218.100000
150.035300 529967.600000
150.058800 86239.300000
151.042900 372354.600000
152.050400 905554.600000
152.062200 68598.300000
153.045000 535478.300000
153.057300 380857.400000
154.040200 1137565.400000
154.065300 2639870.500000
155.060500 2589488.000000
156.044600 158698.300000
156.068300 398354.000000
157.039500 75329.500000
157.045100 323091.800000
157.052300 163967.100000
158.040200 1424132.800000
159.035500 78955.300000
159.048200 682022.500000
159.054900 117845.200000
160.043400 750333.000000
160.055800 625020.600000
161.027400 157980.000000
161.051400 1879960.100000
161.063100 323151.600000
162.035200 471158.000000
162.046200 493672.900000
162.058600 81686.600000
163.043200 69216.000000
163.055500 62586.500000
164.050700 714604.900000
165.045100 74324.400000
166.052900 468675.500000
166.065300 158299.000000
167.060700 437587.500000
167.072900 321517.800000
168.008500 41763.100000
168.044100 42352.400000
168.056000 79179.400000
168.068400 272580.600000
168.081100 58089.300000
169.051700 69676.400000
169.076200 145103.200000
170.060300 222799.000000
171.048200 221423.200000
171.055100 54211.300000
172.055900 3849303.500000
173.051200 1428678.900000
173.063400 552213.400000
174.035300 588152.300000
174.059100 1000646.200000
174.071800 249484.800000
175.043200 47719.900000
175.066800 398306.000000
176.051100 302959.600000
176.074600 83550.200000
177.058400 89041.600000
178.030100 37708.200000
178.066100 58043.600000
179.038200 331126.800000
179.060700 293553.000000
180.045900 64876.900000
180.068500 74929.800000
181.076300 333653.200000
182.060500 53795.800000
184.055800 276207.300000
185.051200 179716.000000
185.063700 350279.200000
186.059100 334015.300000
186.071800 62939.400000
187.030600 60027.300000
187.043100 78515.500000
187.066900 492680.800000
188.015100 45907.500000
188.026100 51435.700000
188.050900 178329.200000
189.046400 196703.500000
193.076500 150435.700000
195.056000 54637.200000
199.066800 74651.200000
200.051100 409384.100000
200.074900 57454.700000
201.058700 201101.500000
201.082600 76637.100000
202.066900 70907.100000
203.061900 181266.200000
215.062100 54503.700000

>ms2peaks
50.015200 1220633.900000
51.023000 1813083.400000
52.018300 343384.900000
53.002300 3820974.500000
53.038700 704346.400000
53.997500 58979.900000
54.033900 39446.900000
55.017900 72460.400000
55.041700 61690.700000
56.049500 1249235.100000
57.013600 4479528.500000
58.065200 194574.600000
59.029200 252429.100000
61.007300 664535.000000
62.015100 2000949.900000
63.023000 4633038.500000
64.018200 398077.700000
64.030800 71738.300000
65.002200 187059.015600
65.038600 779041.100000
66.046400 173993.800000
67.041700 156549.200000
68.005800 363446.100000
68.049500 153493.800000
70.008800 193861.921900
70.021500 548774.400000
70.065200 352241.800000
71.029200 51076.300000
74.015100 2634847.200000
75.023000 9611418.000000
76.018200 801204.500000
76.030800 667239.800000
77.002200 316397.200000
77.038600 1104298.100000
78.033900 495845.000000
78.046400 447557.300000
79.041700 72724.100000
80.049500 91340.400000
81.013600 2660364.000000
81.033600 149755.600000
82.008800 583717.900000
82.021400 369892.200000
82.052700 37962.500000
83.029200 2813410.800000
84.037000 341711.500000
85.007400 279693.468800
86.015100 832040.000000
87.010500 736489.200000
87.023000 1626173.900000
88.018300 1014431.000000
88.030800 1026710.200000
89.038700 4969526.500000
90.034000 245746.800000
90.046600 345314.500000
91.018000 83684.300000
91.041700 82487.400000
91.054400 481571.400000
92.025800 192294.100000
92.049800 52469.700000
93.013600 736972.100000
94.021400 1726442.500000
95.029200 412931.400000
95.049200 1790412.600000
96.024500 54957.500000
96.037100 891360.400000
96.044400 547073.000000
97.032300 65502.500000
98.015200 920349.000000
99.010500 390985.812500
99.023000 2442324.500000
100.018200 1660124.200000
100.030800 383737.300000
101.026100 53761.800000
101.038700 886431.100000
102.033800 442482.700000
102.046500 1573018.100000
103.041700 196984.000000
103.054300 329316.200000
104.049400 299178.200000
105.013600 1515819.500000
105.044900 1278155.200000
106.008900 415753.000000
106.021400 911861.200000
107.029300 11820404.000000
108.024500 1285350.500000
108.037000 1301967.600000
109.032300 212439.100000
109.044900 830100.800000
112.018200 320398.900000
112.031800 304901.900000
113.026100 216286.200000
113.038800 1306602.400000
114.034000 1998285.100000
114.046500 201108.900000
115.041800 485952.900000
115.054300 1307764.400000
116.049600 332339.300000
117.057400 268438.500000
118.028900 295641.200000
118.041300 68372.400000
119.029400 197968.200000
119.049400 793740.400000
120.037100 2108926.500000
120.044400 202283.100000
121.032300 710682.600000
121.044800 210689.900000
122.040100 636392.600000
123.035400 872619.600000
123.048000 53546.400000
124.018400 298375.000000
125.038700 923802.200000
126.034100 827480.700000
126.046500 964592.900000
127.029200 47414.700000
127.041700 697210.900000
127.054300 607245.500000
128.049600 2031775.200000
128.062200 343656.000000
129.044800 2669391.000000
129.057400 282338.200000
130.040200 368887.900000
130.065300 205683.600000
131.029200 821771.200000
131.036800 85145.000000
132.024600 2477856.500000
132.037100 174614.500000
133.032500 731152.100000
133.045000 1588188.100000
134.040200 1206197.800000
135.048000 711426.200000
136.032000 69679.000000
136.055600 76182.300000
138.011400 77716.900000
138.034200 207513.859400
139.029600 59645.800000
139.041800 69302.300000
139.054500 189208.600000
140.037100 175082.300000
140.049600 1436459.500000
141.044800 42965.900000
141.057400 370001.100000
142.029100 44212.800000
142.052600 168327.900000
142.065500 43397.300000
143.049400 229735.500000
144.037200 298840.600000
144.044500 190789.600000
144.055800 44891.800000
145.032300 80527.300000
145.044900 199516.700000
145.065100 274568.100000
146.040300 1227411.900000
146.052800 1248878.200000
146.060000 177760.000000
147.035500 295139.400000
147.048000 642920.600000
148.055800 1347769.000000
149.051200 62955.500000
150.035000 187349.400000
151.042700 164748.900000
152.050200 579437.100000
153.044900 323901.900000
153.057400 237066.200000
154.040200 738302.400000
154.065200 757369.400000
155.060600 927190.400000
156.068800 58775.600000
157.045000 282477.100000
157.051500 57200.800000
158.040300 798570.700000
159.048100 345673.100000
160.043300 359632.400000
160.055900 210573.700000
161.051000 206047.200000
161.063700 66056.900000
162.034900 55453.400000
163.055700 44572.600000
164.050600 320933.200000
166.052600 349868.100000
166.064900 45825.900000
167.060600 39862.000000
167.072600 53221.600000
168.068600 50302.600000
170.060100 81430.500000
171.048100 250901.500000
172.055900 1776901.800000
173.051200 745111.500000
174.034700 86956.700000
174.059100 205598.000000
179.038100 156190.800000
179.060600 202674.546900
180.055900 61149.900000
184.055700 148843.800000
185.063700 83720.600000
186.058200 58375.100000
187.066600 41447.000000
200.050700 90065.200000

