>compound EQ89074533
>parentmass 117.06590000000001
>ionization [M+H]+
>formula C4H8N2O2
>rt 102.000000
>profile orbitrap
#smiles_iso C1COCCN1N=O
#smiles_can C1COCCN1N=O
#inchikey ZKXDGKXYMTYWTB-UHFFFAOYSA-N
#pubchem_id 6046
#mb_accession EQ345401,EQ345402,EQ345403,EQ345404,EQ345405,EQ345406

>ms2
56.036900 399257.100000
56.049500 2820039.800000
57.057300 13564690.000000
73.039600 16613228.000000
86.060000 43447636.000000
87.067900 71595688.000000
117.065800 189238800.000000

>ms2
56.036900 422530.200000
56.049500 3845006.000000
57.057300 14073427.000000
73.039600 17750750.000000
86.060000 48078080.000000
87.067900 76283560.000000
117.065800 201917184.000000

>ms2
56.036900 542371.200000
56.049500 4146331.000000
57.057300 15943737.000000
72.044400 205671.600000
73.039600 18546132.000000
86.060000 50050812.000000
87.067900 76285208.000000
117.065800 184521008.000000

>ms2
55.041700 164818.800000
56.036900 1121021.000000
56.049500 5530866.500000
57.057300 18101424.000000
58.028700 300924.200000
58.065100 283400.500000
72.044400 217365.800000
73.039700 18693196.000000
86.060100 46340288.000000
87.067900 45740112.000000
117.065900 77791864.000000

>ms2
55.041600 61229.300000
56.036900 1128837.500000
56.049500 5513510.000000
57.057300 14347941.000000
58.028700 480899.500000
58.065100 263547.300000
72.044400 202380.300000
73.039700 12475775.000000
86.060000 30640288.000000
87.067900 18459776.000000
117.065900 24422568.000000

>ms2
55.041700 185311.500000
56.036900 883467.100000
56.049500 5520634.000000
57.057300 9283711.000000
58.028800 565347.900000
58.065100 241175.200000
72.044400 183452.700000
73.039700 5956808.500000
86.060000 17614804.000000
87.067900 6870038.000000
117.065900 7158942.500000

