>compound EQ89927066
>parentmass 271.0601
>ionization [M+H]+
>formula C15H10O5
>rt 456.000000
>profile orbitrap
#smiles_iso C1=CC(=CC=C1C2=COC3=CC(=CC(=C3C2=O)O)O)O
#smiles_can C1=CC(=CC=C1C2=COC3=CC(=CC(=C3C2=O)O)O)O
#inchikey TZBJGXHYKVUXJN-UHFFFAOYSA-N
#pubchem_id 5280961
#mb_accession EQ326501,EQ326502,EQ326503,EQ326504,EQ326505,EQ326506,EQ326507,EQ326508,EQ326509

>ms2
271.060000 421227008.000000

>ms2
149.023400 782572.500000
153.018200 1575310.900000
215.070400 1356881.600000
243.065400 1712646.600000
271.060100 381813120.000000

>ms2
67.017800 356722.300000
68.997000 939768.900000
91.054200 2041373.400000
111.007700 1177417.400000
119.049200 2395430.000000
121.028400 1016807.100000
131.049200 861681.400000
133.028300 745116.400000
133.064700 449030.800000
137.023500 341627.100000
141.069900 498450.800000
145.028500 6823832.500000
145.064900 395918.100000
147.044200 576324.200000
147.080400 550447.500000
149.023400 12081193.000000
153.018300 30845234.000000
159.044100 4613709.000000
159.080500 422412.700000
165.018300 2579867.800000
169.064800 2333244.800000
173.060000 883233.800000
175.075300 405222.700000
181.064900 344036.200000
183.029000 508238.600000
183.044000 381456.400000
185.059800 301824.600000
187.039000 1473090.900000
187.075400 1950635.800000
197.059800 3344643.000000
200.046700 297476.800000
201.054700 751747.500000
203.070300 321787.600000
213.054700 261209.600000
215.070400 31789608.000000
225.054600 2111477.500000
226.062700 331370.500000
227.070300 1036507.400000
229.050100 473082.300000
242.056500 367236.200000
243.065400 25178180.000000
247.060300 324472.200000
253.049700 10848622.000000
271.060100 253649696.000000

>ms2
51.022800 138344.900000
53.002000 75600.300000
55.017800 620678.200000
63.022900 191067.900000
65.038600 1317254.900000
67.017800 3055970.200000
68.997100 6036852.500000
69.033500 462610.900000
71.012800 247943.100000
77.038500 249468.300000
79.054200 72324.200000
81.033500 603263.600000
83.012700 177487.800000
85.028400 87139.900000
89.038500 1102674.500000
91.054300 23763052.000000
93.033600 75934.600000
94.041300 88773.700000
95.012800 1026287.900000
95.049100 220502.100000
97.028500 551389.100000
103.054300 574480.900000
105.033500 766301.100000
105.044700 169541.400000
105.069900 319300.200000
107.049200 2500460.500000
109.028500 1207385.600000
109.064800 163956.700000
111.007700 2294076.500000
115.054300 957098.400000
116.062000 61299.900000
117.033500 450711.000000
117.069900 1150450.600000
118.041200 229306.400000
119.049200 9975859.000000
121.028500 4229770.500000
123.007800 323559.200000
123.044100 247846.200000
125.023400 325742.600000
127.039100 227187.900000
128.062100 803341.600000
129.069800 1095626.100000
131.049200 4129845.200000
131.085600 1511159.500000
132.056800 61298.700000
133.028400 1027175.300000
133.064800 740798.400000
134.036400 251651.200000
135.044000 1704165.200000
137.023400 1937538.400000
139.054300 67684.500000
141.069900 7034463.000000
143.085700 63130.600000
144.057000 646029.100000
145.028500 10400051.000000
145.064900 2619686.000000
147.044100 2214014.000000
147.080500 1983421.100000
149.023400 17773212.000000
150.031300 922851.400000
151.039000 73662.400000
152.062000 686123.800000
153.018300 55668512.000000
155.049200 1023488.000000
155.059900 314853.000000
157.064900 739190.300000
159.044100 8225933.000000
159.080500 2623914.500000
160.051600 56954.200000
161.059900 333868.900000
163.039000 409031.800000
165.018300 5992591.500000
167.034100 433223.900000
168.057100 332916.800000
169.064900 13131406.000000
170.072900 86954.000000
171.028700 93605.300000
171.043900 164479.200000
171.080300 84279.500000
172.052200 184624.700000
173.059900 2744409.000000
174.067600 297883.200000
175.075500 1979375.200000
177.018400 225082.400000
177.054800 267761.600000
178.025900 511564.100000
179.049100 344340.000000
179.060500 77261.400000
181.064800 882046.800000
183.029000 1514865.800000
183.044100 1810337.100000
184.052000 294169.500000
185.059900 1119280.200000
187.039100 2059980.400000
187.075400 5055291.500000
191.034000 874670.100000
195.055400 57668.600000
197.059800 15144997.000000
198.067400 330115.800000
199.075500 74537.600000
200.046900 2184438.200000
201.054700 2407249.800000
203.034000 203552.900000
203.070600 344117.000000
205.050000 153861.700000
207.043800 89041.200000
209.045000 59192.200000
211.039100 983643.600000
213.054700 1674634.200000
214.062500 202560.300000
215.070400 42449976.000000
216.042300 80319.700000
219.065600 597649.300000
224.046500 75271.800000
225.054800 4051819.800000
226.062500 756233.100000
227.070500 1009947.300000
228.041800 1058423.200000
229.049700 866915.500000
235.039300 186929.700000
241.049800 412330.500000
242.057500 1122927.400000
243.065400 25681942.000000
247.060200 281330.100000
252.041400 95409.700000
253.049700 15983941.000000
271.060200 51763556.000000

>ms2
50.015000 144480.300000
51.022800 154190.500000
53.002200 164742.100000
53.038600 421043.700000
55.017900 1083074.100000
63.022900 417821.100000
65.038600 9543830.000000
67.017900 6832372.000000
68.997100 13537847.000000
69.033500 2337280.000000
71.012700 503984.200000
77.038400 417980.700000
78.046500 77361.000000
79.017800 425524.600000
79.054300 516107.000000
81.033500 1757363.900000
83.012700 558023.400000
85.028300 299283.200000
89.038600 2850230.800000
90.046500 72331.300000
91.054300 60476636.000000
92.997200 166107.400000
93.033600 259619.300000
94.041400 341795.700000
95.012800 1848128.200000
95.049200 681437.800000
97.028500 1621885.200000
103.054200 2285399.800000
105.033500 1207058.000000
105.044800 324751.900000
105.069900 555134.300000
106.041200 311039.200000
107.049200 5852431.500000
108.020600 195915.900000
109.028500 1361214.800000
109.064900 259469.500000
111.007700 1488682.100000
111.044000 462409.100000
115.054300 6317233.000000
116.062100 430648.700000
117.033500 477142.000000
117.069900 2292417.800000
118.041300 449878.700000
119.049200 11143548.000000
119.085700 574547.900000
121.028500 7892584.000000
121.039800 461636.500000
122.036300 60806.700000
123.007600 262730.100000
123.044000 214150.500000
124.015700 70092.900000
125.023400 377637.700000
126.031200 161778.400000
127.039000 177810.800000
127.054300 543812.700000
128.062100 1969400.000000
129.069900 1786626.600000
131.049200 5822240.000000
131.085600 1927650.600000
132.057200 222739.300000
133.028600 379086.800000
133.064800 529815.600000
134.036300 459422.300000
135.044100 2780843.000000
136.015700 79532.600000
137.023400 2117307.200000
139.054500 270132.000000
141.069900 16740418.000000
143.049000 148993.000000
144.057100 2193834.200000
145.028500 4976020.500000
145.064900 3169492.800000
147.044100 2579850.200000
147.080500 1526115.600000
149.023400 9205985.000000
150.031200 1431276.600000
151.054100 345967.500000
152.062100 1742718.500000
153.018300 45596396.000000
155.049200 2688142.800000
155.060100 1015916.900000
156.057100 192039.200000
157.064900 952507.600000
158.072600 73482.100000
159.044100 4702713.000000
159.080500 2157800.800000
160.051900 170240.200000
161.059900 204191.400000
163.039000 989517.400000
165.018300 2550927.500000
167.033800 204413.200000
167.049400 62147.100000
168.057200 1421467.500000
169.064900 14368503.000000
170.072800 159813.900000
171.029000 63840.100000
171.044200 380965.000000
171.055000 71038.500000
171.079900 61297.700000
172.051900 512460.800000
173.059800 2040241.900000
174.067600 457234.600000
175.075400 1452363.200000
178.026000 584921.100000
179.049000 568314.100000
179.060500 324700.700000
181.064900 575422.200000
183.029200 733012.600000
183.044200 1997458.400000
184.052000 389317.300000
185.059800 1258532.800000
186.067900 201990.400000
187.039100 1164790.900000
187.075400 2519995.200000
191.034000 1104510.400000
195.055300 139272.700000
196.051900 352422.100000
197.059800 14484871.000000
198.067600 625366.800000
199.038600 67202.400000
200.046900 3184370.500000
201.054700 1444271.600000
203.033800 338055.400000
207.044300 206049.300000
208.052500 65557.600000
209.044900 178700.600000
211.039100 843148.900000
213.054700 2143874.200000
214.062700 395927.800000
215.070400 12076268.000000
216.041600 266744.600000
219.065500 283081.600000
224.047100 340266.200000
225.054800 1737387.600000
226.062500 607524.800000
227.034100 65510.800000
227.070500 304414.600000
228.041900 909813.700000
229.049600 285447.200000
235.039000 204093.300000
241.049800 415096.600000
242.057400 1046646.300000
243.065300 5329148.500000
252.042000 72759.500000
253.049700 5165941.500000
271.060200 3468092.200000

>ms2
50.015000 198424.500000
51.022900 220159.200000
53.002200 595537.200000
53.038600 666898.600000
55.017900 1751787.500000
62.015100 90487.000000
63.022900 957650.900000
65.038600 27775332.000000
66.046300 80987.900000
67.017800 7218362.500000
67.989200 82457.200000
68.997100 18234810.000000
69.033500 4702516.000000
71.012700 350014.800000
75.022900 209765.800000
77.038500 861054.400000
78.046400 363033.700000
79.017800 1035890.100000
79.054200 1275022.400000
81.033500 2448396.500000
83.012800 887886.000000
85.028300 311737.700000
89.038600 3366256.500000
90.046400 232899.900000
91.054200 72353064.000000
92.997100 179025.900000
93.033500 189039.800000
94.041300 369209.400000
95.012800 1412059.900000
95.049200 1541193.400000
97.028500 2546731.500000
101.038500 198812.600000
102.046500 170860.000000
103.054200 3625836.000000
105.033500 1279153.400000
105.044700 709249.800000
105.069900 456137.200000
106.041400 383325.700000
107.049200 7369278.500000
108.020500 386469.100000
109.028400 767678.000000
109.064900 169497.600000
111.007700 794019.500000
111.044100 604486.100000
115.054300 16942094.000000
116.062100 1029524.900000
117.033500 304688.800000
117.069900 1884265.000000
118.041300 738807.700000
119.049200 6480868.500000
119.085600 427642.400000
121.028500 7742384.500000
121.039700 644198.100000
123.044100 135668.700000
124.015500 189206.400000
125.023500 433232.500000
126.031100 268411.600000
126.046400 175338.500000
127.054200 1166529.100000
128.062100 2574011.000000
129.044800 276148.900000
129.069900 1021834.900000
131.049200 5023007.500000
131.085600 790357.700000
132.057000 236585.400000
133.028500 213055.100000
133.064800 264405.700000
134.036200 233250.200000
135.044100 2097423.200000
137.023400 1024700.200000
139.054200 606294.200000
140.062000 341173.700000
141.069900 15643250.000000
143.049200 340014.400000
144.057000 2642642.800000
145.028500 1941343.000000
145.064900 2638079.000000
147.044100 1745735.200000
147.080400 306174.300000
149.023400 2928345.000000
150.031200 1219528.400000
150.046500 161280.700000
151.054300 693214.800000
152.062100 2201768.500000
153.018300 25550280.000000
155.049200 3298263.000000
155.060200 2284465.500000
157.064900 777733.000000
158.036400 82434.100000
158.072700 167503.200000
159.044100 1226874.000000
159.080500 763551.900000
160.051900 199108.000000
161.059900 89262.300000
163.039000 1117155.800000
165.018200 634638.200000
168.057000 2852006.000000
169.064800 7797369.500000
170.072800 197895.300000
171.044100 562834.400000
172.051900 613341.100000
173.059900 663911.200000
174.067600 86602.200000
175.075500 239066.100000
178.026300 74885.500000
179.049100 707429.600000
179.060500 531049.200000
181.064900 502512.600000
183.028800 73522.800000
183.044100 779230.400000
184.052100 316276.500000
185.059700 610266.100000
186.067500 82478.100000
187.039200 487083.000000
187.075500 650012.100000
191.033900 441318.900000
196.051800 375763.200000
197.059800 6313327.500000
198.067600 254385.300000
200.046900 1857541.200000
201.054800 568928.500000
203.033600 310470.900000
208.051400 76308.700000
211.038900 245971.900000
213.054700 1495684.100000
214.062300 83763.900000
215.070300 1728331.800000
216.041500 174911.300000
224.046900 180121.300000
225.054800 339959.100000
226.062700 348019.700000
228.041900 324849.700000
241.049600 313307.700000
242.057200 475106.100000
243.065100 496589.600000
253.049800 666623.800000

>ms2
50.015100 647993.100000
51.022900 463976.800000
53.002200 1588663.900000
53.038600 1783139.200000
53.997500 245556.900000
55.017900 2285640.200000
61.007300 65435.200000
62.015100 812801.600000
63.023000 3990542.500000
64.030700 218963.200000
65.038600 61047876.000000
66.010200 68576.300000
66.046400 395264.600000
67.017900 4993197.500000
67.989300 376153.600000
68.025600 71868.300000
68.997100 20674548.000000
69.033500 4014806.500000
71.012800 238620.200000
74.015100 224962.500000
75.022900 1881485.600000
77.038600 1830186.100000
78.046400 871778.200000
79.017800 1675293.400000
79.054200 1286436.200000
81.033500 1965887.900000
83.012800 644404.100000
85.028500 140787.800000
89.038600 4452165.000000
90.010100 147530.800000
90.046500 532052.300000
91.054300 42204512.000000
92.025700 138228.600000
92.997200 158731.000000
93.033600 169219.600000
94.041400 448192.700000
95.012800 568994.800000
95.049200 4592930.000000
96.020700 75790.500000
97.028500 1276298.900000
101.038600 314177.100000
102.046500 909758.300000
103.054300 3177799.500000
105.033600 1286883.200000
105.044800 2207410.000000
105.069900 255059.900000
106.041400 237355.100000
107.049200 3647250.500000
108.020700 453593.900000
109.028500 186799.800000
111.007700 329475.700000
111.044000 484311.900000
113.038600 144387.900000
115.054300 27903634.000000
116.062100 1157968.800000
117.033500 144594.500000
117.070000 519026.200000
118.041300 1229048.900000
119.049200 945135.800000
121.028500 1695225.100000
121.039800 483633.900000
124.015600 303347.400000
125.038900 145082.700000
126.031200 217973.800000
126.046500 1146873.900000
127.054300 1528022.900000
128.062100 2841958.500000
129.033700 76754.700000
129.044800 690427.400000
129.070000 422866.100000
130.041500 63634.000000
131.049200 1874686.000000
132.057100 216524.900000
134.036400 86876.800000
135.044100 319494.200000
137.023500 74105.500000
139.054300 3767226.500000
140.062100 1171383.600000
141.069900 3618453.800000
142.041300 78038.100000
143.049100 226628.500000
144.057100 1116296.200000
145.028400 482155.400000
145.064900 1114683.400000
147.044100 371730.500000
149.023400 222852.300000
150.031200 214644.800000
150.046500 1187307.600000
151.054400 375839.500000
152.062100 2420119.000000
153.018300 3332061.200000
155.049300 1312050.100000
155.060300 1817029.900000
157.065000 442746.700000
159.044100 157497.700000
163.039200 268952.600000
167.049500 75425.900000
168.057100 2269555.500000
169.064900 1673187.100000
171.044200 471002.900000
179.049700 243208.200000
179.060600 429369.800000
181.065200 62238.800000
183.044300 65091.900000
184.052100 78775.200000
185.059900 232213.300000
187.039100 73544.800000
195.043800 76940.000000
197.059800 813228.400000
200.046900 149767.700000
213.054900 209766.700000

>ms2
50.015100 1726299.200000
51.023000 1883323.500000
52.030700 53099.800000
53.002200 2385266.500000
53.038600 1738588.100000
53.997500 468118.900000
55.017900 1567511.900000
61.007300 365499.300000
62.015100 2013059.100000
63.023000 6866310.500000
64.030700 143771.600000
65.038600 47728652.000000
66.046400 330761.200000
67.017800 2063120.200000
67.989300 462839.700000
68.025600 50270.200000
68.997100 15494605.000000
69.033500 1325883.900000
71.012800 64972.300000
74.015100 731075.100000
75.022900 3752939.800000
76.030700 329855.000000
77.038600 2637991.500000
78.010300 70476.400000
78.046400 935733.300000
79.017800 1081450.600000
79.054200 517606.500000
81.033500 893846.200000
83.012800 59637.300000
87.022900 315316.300000
88.030800 48619.800000
89.038600 7114494.500000
90.010100 392434.900000
90.046500 563005.400000
91.017900 678816.600000
91.054300 12092757.000000
92.025700 62962.900000
92.997100 146568.900000
94.041300 228983.200000
95.049200 4534884.000000
96.020700 68201.900000
97.028500 215504.000000
99.023000 282929.500000
101.038600 172530.400000
102.046400 1246385.800000
103.054300 1097138.000000
105.033500 730019.000000
105.044800 2346753.000000
107.049200 817473.800000
108.020500 128354.900000
111.044100 188112.600000
113.038400 474879.900000
114.046400 253073.700000
115.054300 18192518.000000
116.062100 406784.700000
118.041400 677480.700000
119.049000 244014.900000
121.028300 270772.200000
121.039700 176885.000000
125.038700 241315.000000
126.046400 1484524.500000
127.054300 700281.500000
128.062100 1643828.500000
129.044800 438014.300000
129.070100 65065.600000
131.049300 490135.600000
132.057100 71312.000000
138.046400 50843.900000
139.054300 6193295.000000
140.062100 345228.100000
141.070000 462147.200000
142.041500 73176.700000
143.049100 65643.700000
144.057100 209127.400000
145.028600 49949.800000
145.064900 318743.900000
150.046500 1290404.800000
151.054300 191264.200000
152.062100 1097761.400000
153.018200 186906.900000
155.049500 219864.600000
155.060300 493118.700000
157.064800 125352.200000
168.057000 564394.100000
169.064800 558337.400000
171.043900 61428.200000
179.060800 233722.000000

>ms2
50.015100 3780295.500000
51.023000 4364192.500000
52.030800 158027.000000
53.002200 3777159.000000
53.038600 1147337.200000
53.997500 536880.500000
55.017900 941938.100000
61.007300 1193108.000000
62.015100 4799918.000000
63.023000 9996834.000000
64.030800 294041.300000
65.038600 29331124.000000
66.010100 138867.800000
66.046400 185264.400000
67.017800 1052980.400000
67.989300 341757.000000
68.025800 40702.800000
68.997100 11495804.000000
74.015100 2374308.800000
75.022900 4820798.500000
76.030700 650119.400000
77.038600 1741331.200000
78.046400 681580.600000
79.017900 628181.500000
79.054200 151869.200000
81.033500 436331.500000
87.023000 673848.400000
88.030800 247017.500000
89.038600 8302588.000000
90.010000 426599.300000
90.046500 372277.600000
91.018000 293619.300000
91.054300 3514768.200000
92.025700 71252.600000
94.041400 73395.000000
95.049200 3448216.200000
98.015200 396095.800000
99.022900 387963.800000
101.038600 144241.800000
102.046500 1254573.100000
103.054300 349265.800000
105.033500 202839.200000
105.044800 1726024.000000
107.049100 134382.600000
113.038600 949721.600000
114.046400 266493.000000
115.054300 8514517.000000
118.041300 192154.100000
119.049000 43469.500000
121.028600 40513.100000
125.038900 74989.800000
126.046500 1015770.600000
127.054100 215248.900000
128.062100 671540.900000
129.044600 238852.200000
131.049400 160291.400000
132.057300 67324.900000
138.046400 131802.400000
139.054300 4847328.500000
140.061900 57185.000000
141.070200 39706.800000
145.065000 48888.700000
150.046500 1040444.300000
151.054400 45491.000000
152.062400 262020.500000
155.060400 219032.700000
168.056800 54338.100000
169.064700 238195.900000
179.060600 59925.800000

