>compound EQ89206430
>parentmass 131.1179
>ionization [M+H]+
>formula C6H14N2O
>rt 384.000000
>profile orbitrap
#smiles_iso CCCN(CCC)N=O
#smiles_can CCCN(CCC)N=O
#inchikey YLKFDHTUAUWZPQ-UHFFFAOYSA-N
#pubchem_id 12130
#mb_accession EQ345601,EQ345602,EQ345603,EQ345604,EQ345605,EQ345606

>ms2peaks
52.018200 8294.400000
53.002200 270701.000000
53.997400 45466.600000
59.049100 40728.300000
67.989300 43270.800000
89.070900 4777387.500000
131.118000 3195213.200000

>ms2peaks
52.018100 7573.800000
53.002200 274915.200000
53.997400 32126.400000
59.049100 14305.100000
67.989300 30150.600000
89.070900 4856806.500000
131.117900 3217189.800000

>ms2peaks
53.002200 324625.600000
53.997400 48354.900000
54.010000 13281.400000
59.049100 7679.600000
67.989200 42474.000000
78.008700 9996.100000
89.070900 3429774.000000
131.117900 1272677.600000

>ms2peaks
52.018200 6876.100000
53.002200 362723.300000
53.997400 53121.400000
54.010000 26765.800000
58.065200 10570.500000
59.049100 10420.600000
67.989300 53964.700000
89.070900 1015876.100000
131.117900 122981.100000

>ms2peaks
53.002200 356179.500000
53.997500 47755.600000
54.010000 15579.000000
58.065200 7047.100000
59.049100 8062.400000
67.989300 43521.700000
89.071000 228376.700000

>ms2peaks
52.018200 5968.200000
53.002200 336598.900000
53.997400 42189.500000
54.010000 10155.900000
67.989300 35344.900000
78.008700 9827.800000
89.070900 38361.600000

