>compound EQ89610427
>parentmass 334.1049
>ionization [M+H]+
>formula C18H14F3NO2
>rt 606.000000
>profile orbitrap
#smiles_iso CNC1=C(C(=O)C(O1)C2=CC=CC=C2)C3=CC(=CC=C3)C(F)(F)F
#smiles_can CNC1=C(C(=O)C(O1)C2=CC=CC=C2)C3=CC(=CC=C3)C(F)(F)F
#inchikey NYRMIJKDBAQCHC-UHFFFAOYSA-N
#pubchem_id 91755
#mb_accession EQ360001,EQ360002,EQ360003,EQ360004,EQ360005,EQ360006,EQ360007,EQ360008,EQ360009

>ms2
247.071900 2142236.200000
275.067800 1462034.400000
277.083900 3939442.200000
303.062500 2874378.200000
306.109700 2658678.000000
334.104700 1180343040.000000

>ms2
58.028700 18516810.000000
77.038600 583704.100000
103.054200 6088145.500000
105.033500 31066856.000000
120.080800 16784854.000000
131.049200 15868140.000000
159.041400 844479.500000
171.041600 5334540.000000
199.036600 10733107.000000
209.076200 1204260.400000
225.015900 12089798.000000
227.065900 1042290.800000
228.063200 1729777.000000
229.082400 1874287.200000
237.071000 2680461.800000
238.048100 2102068.500000
243.026300 1987554.100000
247.073000 106612456.000000
249.088500 4824452.000000
255.081300 608470.400000
256.058100 13855944.000000
257.077300 23875586.000000
259.072800 734854.200000
275.067900 106516296.000000
275.087300 8491662.000000
277.083600 54000476.000000
286.104000 2738904.500000
288.099400 7937638.000000
303.062900 129604856.000000
306.110100 110154872.000000
314.098600 4061063.500000
316.094500 12220275.000000
333.097300 545802.900000
334.104800 544392640.000000

>ms2
53.038500 921041.500000
58.028800 44906396.000000
77.038300 2502316.800000
91.054100 1816482.400000
95.049200 2981820.800000
103.054200 21179018.000000
105.033500 184720448.000000
118.065100 1364075.800000
120.080800 43013040.000000
131.049200 12854602.000000
159.041800 1543910.200000
165.069900 740487.300000
167.030400 696778.500000
171.041600 17001446.000000
173.021000 1680299.500000
178.077700 26682348.000000
179.085700 634060.900000
180.093500 520347.000000
188.068000 1176678.400000
189.069800 656590.400000
191.086000 831089.200000
196.068600 1451680.600000
197.020800 3630087.200000
199.036600 6890424.500000
200.068000 1807513.200000
206.072600 512570.500000
207.060400 5850664.000000
209.076200 9766671.000000
210.052100 1145838.200000
214.059000 721830.200000
219.104600 533063.200000
225.015900 21260254.000000
227.066700 27712938.000000
228.063200 6095335.000000
229.082400 8317696.000000
233.059400 1304847.100000
234.065900 608153.100000
237.071200 6019828.500000
238.047500 3860199.000000
243.026500 4138661.500000
246.065200 889422.400000
247.073000 498114656.000000
249.088600 6875978.000000
255.061700 2771693.800000
255.081100 737501.400000
256.058000 7123728.000000
257.077200 21034896.000000
258.108900 686852.900000
259.073100 2585180.000000
262.059600 1530717.900000
265.083700 1000837.700000
268.093400 546275.700000
275.067900 72206984.000000
275.087400 6487217.000000
277.083400 7496067.500000
278.115400 3075997.000000
279.098900 900849.900000
283.056500 1096826.800000
286.103800 8076088.500000
288.099500 10735215.000000
303.062900 53610948.000000
306.110100 37853280.000000
314.098300 2372741.200000
316.094300 3870910.500000
334.105000 23812066.000000

>ms2
51.022900 655294.900000
53.038600 3650734.800000
58.028800 42569836.000000
77.038500 8973942.000000
81.033500 440392.100000
91.054200 2975050.200000
95.049100 11856005.000000
103.054200 23180790.000000
105.033500 195728496.000000
118.065100 2975844.800000
120.080800 45610708.000000
131.049100 2796477.200000
131.073000 1292695.000000
151.035300 2406492.200000
152.061400 402483.600000
159.041700 2660116.200000
165.069900 2304980.500000
167.030200 1747555.900000
169.026200 1011536.900000
171.041600 16822664.000000
173.021000 2067796.900000
178.077700 201024336.000000
179.085600 1676316.900000
180.062000 996410.700000
180.093500 1316690.800000
181.064900 958870.300000
183.041700 518683.300000
183.060700 584565.100000
185.044600 916890.100000
186.052400 921509.500000
188.068300 2128351.000000
189.069800 1827753.400000
190.077900 530858.300000
191.085800 836806.200000
195.025200 672693.100000
196.068400 7434154.000000
197.020900 15810656.000000
198.052700 475401.600000
199.036600 2873103.800000
200.068200 1954512.800000
201.051100 1067855.000000
204.081000 543089.800000
206.073100 728227.900000
207.060600 37844732.000000
209.076200 11669919.000000
210.052400 2308618.200000
214.058800 2849421.200000
215.066700 993092.600000
218.096500 749187.900000
225.015900 8760944.000000
226.059300 500975.900000
227.066800 169876768.000000
228.063200 3915708.800000
229.082300 6846136.500000
233.058800 1249356.200000
234.065100 821900.700000
237.071000 3805681.800000
238.047400 569524.400000
239.066600 736494.600000
243.026500 1913138.100000
246.065100 6287428.500000
247.072900 331744320.000000
249.088600 852321.500000
255.061900 3329239.500000
256.057700 580068.300000
257.077100 4329674.000000
258.109200 634817.400000
259.073200 2789294.200000
262.060200 1743046.000000
265.084000 514133.800000
268.092800 413002.300000
273.075800 459193.300000
275.067800 21164372.000000
275.086900 1281746.800000
278.115400 1644469.800000
279.099400 550614.900000
283.056200 985619.200000
286.103700 1319761.600000
288.099400 3647821.200000
303.062900 2100381.200000
306.110000 1784531.400000

>ms2
50.015100 691576.600000
51.022800 1008433.800000
53.038600 7847582.000000
55.017900 587684.800000
58.028800 34082556.000000
77.038500 15539836.000000
79.054200 912068.700000
81.033600 887212.600000
90.046600 667472.200000
91.054200 4834309.000000
94.041300 637118.900000
95.049200 26962900.000000
102.046500 759162.800000
103.054300 16201590.000000
105.033600 118136312.000000
105.044800 17584474.000000
109.044800 530093.200000
115.054300 932226.800000
118.041400 546843.200000
118.065100 2850755.200000
120.080800 26844914.000000
127.035400 572685.100000
130.065200 728668.700000
131.049200 1236940.800000
131.072900 1414463.500000
133.044800 598753.400000
145.025800 1192690.100000
151.035400 6934955.500000
152.062300 1787646.000000
159.041700 2507371.000000
165.069900 3641841.800000
166.078100 435882.300000
167.030200 1419488.400000
169.026100 6254279.000000
171.041700 7316963.000000
173.021200 1135345.800000
173.032200 465882.800000
176.061800 1636183.000000
177.069900 2816317.500000
178.077800 364261376.000000
179.085500 1914944.500000
180.061700 1103327.100000
180.093400 656959.200000
181.064800 727497.200000
183.041800 803922.500000
183.060500 1719830.100000
185.044700 1172446.400000
186.052600 1249864.200000
188.068100 853023.800000
189.069900 2959762.500000
190.077900 637719.300000
191.085600 568643.300000
193.065000 465003.000000
196.068400 8594951.000000
197.021000 15089318.000000
197.031600 1164625.900000
198.052600 653819.900000
199.036400 976976.100000
200.068100 716844.600000
201.051200 3643875.500000
204.081000 783929.100000
205.064800 1013901.400000
206.072900 795202.700000
207.060700 67374160.000000
208.068400 1490817.500000
209.076200 8073463.500000
210.052600 1220940.000000
214.058900 5123394.000000
215.066700 471849.500000
217.064500 460950.200000
218.096500 647734.000000
225.015900 1184127.200000
225.050700 1982932.200000
226.059100 2888559.200000
227.066800 217807344.000000
228.063100 1127464.600000
229.082500 1446388.900000
232.049800 455215.400000
233.057600 1151188.200000
234.065800 591671.200000
235.055700 590907.100000
237.071500 677147.900000
238.058700 578998.000000
239.066700 443530.900000
243.026400 530947.900000
245.057500 874909.700000
246.065200 19961044.000000
247.073100 62971908.000000
254.053800 415033.600000
255.061700 1831534.100000
259.073200 1667334.500000
262.060000 770845.000000
272.068400 569612.400000
275.067900 7635872.500000
288.099100 753145.200000

>ms2
50.015100 1545327.500000
51.022900 2106940.000000
53.038600 11653536.000000
55.017900 752767.900000
58.028800 27637056.000000
77.038500 21914674.000000
79.054200 826448.600000
81.033500 1622359.500000
89.038600 445820.100000
90.046400 1152633.600000
91.054300 4981955.500000
94.041300 641237.900000
95.049200 39280816.000000
102.046400 1609185.000000
103.054300 11300281.000000
104.049500 438311.800000
105.033600 58040572.000000
105.044800 23106908.000000
109.044900 1801733.900000
115.054300 1033530.000000
118.041300 567110.100000
118.065200 2211981.000000
120.080800 13371743.000000
126.046200 427728.300000
127.035400 927631.700000
130.065000 921689.300000
131.049200 464004.100000
131.073100 982848.300000
133.045000 853105.200000
139.035400 451007.100000
145.026000 2775002.200000
147.035200 991310.900000
151.035500 9633056.000000
151.054100 551680.000000
152.062100 17945508.000000
159.041800 2226783.200000
165.070000 5343516.500000
167.030300 981699.800000
169.026100 13144395.000000
169.064900 891365.000000
171.041600 2618955.500000
173.032100 442673.100000
176.062200 8714010.000000
177.070000 20134726.000000
178.077800 378087072.000000
179.085600 1771357.400000
180.061900 610985.500000
183.041600 631192.800000
183.060600 2404595.800000
185.044800 998590.800000
186.052400 547216.400000
187.054600 810051.100000
189.070000 4834734.500000
190.077800 514391.300000
196.068400 11780742.000000
197.021100 3958513.200000
197.031900 572996.300000
201.051100 10820914.000000
204.081000 1050989.800000
205.065300 1742095.200000
206.052700 782730.500000
207.060700 96079656.000000
208.068400 1626064.000000
209.076200 3559559.000000
210.052400 520334.900000
214.059000 4368278.500000
217.088800 456007.800000
218.096500 582316.900000
225.051100 7860562.000000
226.059000 3836352.200000
227.066800 141338736.000000
233.057400 1107918.900000
238.058700 605451.400000
245.057400 2752883.000000
246.065200 22335524.000000
247.073000 5560312.000000
259.073100 398387.000000
275.067900 2460222.500000

>ms2
50.015100 6224727.500000
51.023000 4433411.000000
53.038600 12070123.000000
55.017900 1007929.400000
58.028800 16721021.000000
63.022800 238073.500000
65.038600 1954029.500000
66.046400 236816.000000
68.994600 738629.100000
74.015000 475898.700000
75.004100 972463.800000
75.022800 1627138.100000
77.038500 24958612.000000
79.054200 862446.800000
81.013600 216300.300000
81.033500 1409551.100000
83.029100 545137.600000
87.022800 266062.200000
89.038600 2692152.500000
90.046400 2024743.600000
91.054300 4465472.000000
94.041400 875480.200000
95.049200 44255868.000000
99.004100 855012.400000
99.023000 1515389.500000
101.019800 756262.900000
101.038600 186970.900000
102.046400 3814739.000000
103.054300 3968300.500000
104.049500 740179.600000
105.033600 11199943.000000
105.044800 26901396.000000
107.029200 231209.800000
109.044900 3051740.000000
115.054300 3049841.500000
116.049600 723483.500000
117.057400 237293.200000
118.041300 522139.600000
118.065000 728159.800000
119.010400 473019.100000
119.029100 970126.200000
120.037100 180593.700000
120.080900 2072272.500000
123.035400 928716.800000
125.019800 1383407.800000
126.046500 3143859.500000
127.035400 652451.200000
127.054400 549071.900000
128.062100 6584207.000000
129.044700 685961.400000
130.065200 1366494.200000
131.029200 519271.800000
133.045000 1496163.900000
134.040300 195142.100000
138.027800 475728.500000
138.046500 489731.400000
139.054300 3878090.000000
143.010400 694256.900000
145.026000 4719694.000000
147.035300 1332045.100000
149.019900 2938904.800000
150.046500 3023525.800000
151.035500 8673531.000000
151.054300 8739963.000000
152.062100 115464080.000000
153.070000 249344.000000
155.060200 475052.200000
157.045000 930532.000000
158.033800 260654.600000
159.041800 543119.100000
163.054200 3227775.000000
164.062000 709263.200000
165.070000 5938630.000000
168.057000 198280.900000
169.026000 9392931.000000
169.064900 21756778.000000
170.052800 2792513.200000
175.035700 515294.600000
175.054300 583182.200000
176.062200 102124360.000000
177.070000 83289792.000000
178.077700 180339984.000000
179.060400 6452211.000000
181.044800 6840172.500000
181.065000 473239.100000
182.033700 592703.100000
182.052600 885315.000000
183.042000 228248.200000
183.060600 3823196.200000
183.080500 208932.000000
185.044600 210896.000000
187.054300 7905950.000000
188.043300 1422061.900000
188.062300 693188.200000
189.070000 4418409.500000
193.064700 1080775.100000
194.052700 1562941.600000
195.060600 1510356.500000
196.068400 20051222.000000
199.035400 509232.400000
200.043200 459891.100000
201.051100 16696775.000000
203.060400 436524.600000
203.073100 589806.500000
204.080800 217763.700000
205.045000 5256390.500000
205.064900 1393983.000000
206.052900 7301322.500000
207.060600 78831456.000000
208.067900 480995.500000
210.047700 2315711.200000
212.043300 482437.200000
214.059100 2255574.800000
217.089000 238338.400000
219.041900 468293.800000
220.049800 429049.000000
225.051200 23497340.000000
226.058900 1340715.400000
227.066800 27714540.000000
232.049300 183779.900000
233.057200 481885.200000
238.042800 901498.400000
238.058600 421252.400000
245.057400 6655914.500000
246.065200 4976879.500000

>ms2
50.015200 12581923.000000
51.004100 523289.000000
51.023000 9566638.000000
53.002200 540559.000000
53.038600 8153781.000000
55.017900 571353.200000
57.013600 1345855.800000
58.028800 8997099.000000
61.007200 182122.300000
62.015100 449928.800000
63.022900 2825276.500000
65.002200 933878.900000
65.038600 3141074.500000
68.994600 1830609.900000
74.015100 2559176.800000
75.004100 3818245.200000
75.022900 7272968.000000
76.030700 2273801.000000
77.038600 20176122.000000
78.046500 2013682.000000
79.054300 845351.400000
81.013600 834360.800000
81.033500 1171573.200000
83.029200 1679373.400000
86.015100 692355.500000
87.023000 1632332.400000
89.038600 8327989.000000
90.046500 2025010.500000
91.054300 2591400.800000
93.013600 261785.300000
94.041400 392545.500000
95.049200 28306996.000000
98.015200 2586078.500000
99.004100 1566053.000000
99.023000 4430607.500000
100.030700 583154.600000
101.019800 1390794.900000
101.038600 181367.700000
102.046500 9136909.000000
103.054300 1097686.900000
104.049600 951197.100000
105.033600 1320990.900000
105.044800 18227108.000000
107.029200 1767159.800000
108.037000 182976.000000
109.044800 1983204.800000
110.014700 157693.900000
111.023000 242569.200000
113.038700 1856459.500000
114.046400 244266.100000
115.054300 6386632.000000
116.049500 204597.300000
119.010500 656425.500000
119.029200 582124.000000
120.037000 186672.400000
120.080900 184247.200000
122.015100 211291.300000
123.004000 253891.700000
123.022900 239977.400000
123.035400 1573617.100000
125.019800 1874000.400000
125.038700 1970379.200000
126.046500 15990082.000000
127.054300 1847105.400000
128.062100 15915887.000000
129.044800 940400.700000
130.065100 898093.400000
131.029300 1046869.800000
133.044900 2297209.000000
137.038700 1700070.800000
138.027700 552961.800000
138.046600 1703378.900000
139.054300 10493884.000000
143.010600 564763.200000
143.049300 210333.800000
144.037200 533417.200000
145.026000 1905437.900000
145.065100 1157532.100000
146.052500 547517.200000
147.035300 516216.300000
149.019800 1739213.800000
149.038600 1404153.400000
150.046600 27214248.000000
151.035600 4482194.500000
151.054300 21679466.000000
152.062200 96627552.000000
155.029300 392717.000000
155.049400 649005.900000
155.060400 2859301.200000
157.045000 2029969.500000
161.038700 1681715.900000
162.027900 223012.400000
162.046500 1101292.500000
163.054300 7536240.500000
164.043400 423635.900000
164.062200 1019315.600000
165.070100 3346436.200000
167.049300 565768.400000
168.037200 862024.100000
168.057100 260123.800000
169.064900 58807340.000000
170.052700 4553063.000000
174.046400 2349293.200000
175.035500 1534976.900000
175.054400 3507633.000000
176.062200 149713408.000000
177.070000 31950060.000000
178.077800 21980690.000000
179.060500 19932844.000000
180.036800 781956.400000
181.044800 12940601.000000
182.033500 493136.100000
182.052700 1252520.600000
183.060500 1276903.000000
183.080600 549153.600000
185.038800 214412.400000
185.059900 470205.400000
186.027400 484141.000000
186.046800 1785256.900000
187.054300 10730038.000000
188.043400 1216386.900000
188.062000 736461.800000
189.070000 1679544.000000
190.041400 169587.200000
192.037000 201711.500000
193.065100 4179183.200000
194.052800 3065600.500000
195.060700 2209436.800000
196.068400 5802905.500000
197.051100 210489.700000
199.035400 2357852.000000
200.043300 956898.000000
201.051100 5646158.000000
203.060600 1681158.200000
204.037500 621606.200000
205.045000 18770580.000000
206.052900 6642336.500000
207.060700 16793426.000000
210.047800 1717890.500000
212.043100 699872.800000
214.058900 249894.200000
219.041900 1004116.200000
223.035300 886169.800000
224.043200 593480.000000
225.051200 15719022.000000
227.066800 2487511.200000
238.042800 848935.600000
243.041600 440148.400000
245.057700 1416797.000000

>ms2
50.015200 18019846.000000
51.004200 754085.900000
51.023000 14510522.000000
52.030800 490772.400000
53.002200 610586.100000
53.038600 5638633.500000
55.017900 165423.200000
57.013500 2486092.000000
58.028800 4320132.500000
61.007300 785541.900000
62.015100 2061333.900000
63.023000 7505798.000000
65.002200 2305545.200000
65.038600 4860571.500000
66.010000 435024.200000
66.046400 498259.400000
67.054300 182110.900000
68.994700 2648019.200000
74.015100 11566770.000000
75.004100 5474279.500000
75.022900 14453412.000000
76.030700 8023415.000000
77.038600 16518432.000000
78.046400 5236313.000000
79.054300 228742.600000
81.013500 2445283.800000
81.033500 1136735.200000
83.029200 2495300.800000
86.015100 2884092.000000
87.023000 5888067.500000
88.030800 883331.900000
89.038600 13964258.000000
90.046500 1240598.000000
91.054200 1603116.500000
93.013500 882021.400000
94.041300 475198.400000
95.049200 20122670.000000
98.015200 11379669.000000
99.004200 2057360.800000
99.023000 7957280.000000
100.030800 2101757.500000
101.019800 1163900.500000
101.038700 944011.900000
102.046500 16623018.000000
103.054300 731729.900000
104.049600 1070816.200000
105.044800 12481749.000000
107.029200 2860684.500000
109.045000 1013232.800000
110.015100 1404351.600000
111.022900 2317697.200000
113.038600 4116352.000000
114.027600 165707.400000
114.046500 447900.700000
115.054300 7780588.000000
116.049300 164743.700000
119.010400 233483.800000
119.029200 97409.900000
119.049100 596470.100000
120.037000 543101.900000
122.015200 1242582.100000
123.004200 533438.200000
123.023000 1657892.000000
123.035400 1008920.900000
125.019800 1755244.600000
125.038700 5974514.500000
126.046500 27241006.000000
127.054300 4019102.200000
128.062100 10807249.000000
129.044700 1835703.200000
131.029300 1702575.600000
133.044900 2184117.000000
135.022900 209229.000000
137.038600 4034225.000000
138.027700 627302.100000
138.046500 2091748.500000
139.054300 10479054.000000
143.010100 126464.700000
143.049200 687144.800000
144.036900 1192760.000000
145.026000 690711.300000
145.065000 2026786.800000
146.052600 620198.100000
149.020000 848565.800000
149.038700 3579382.200000
150.046500 77064400.000000
151.035500 2258710.800000
151.054300 17088706.000000
152.062100 35232420.000000
155.029100 1317951.400000
155.049400 562429.200000
155.060500 4233732.000000
157.044900 2193109.200000
161.038600 3753490.200000
162.027800 425565.800000
162.046500 2411861.800000
163.054300 7347758.500000
164.062000 637906.900000
165.070100 1552315.000000
167.029500 124220.000000
167.049300 1213905.900000
168.037200 1756590.900000
168.057000 786126.700000
169.064900 53482196.000000
170.052700 3301747.800000
174.046600 8267304.500000
175.035400 1397530.200000
175.054300 4421201.000000
176.062200 95118704.000000
177.069900 4503709.500000
178.077900 1439225.400000
179.029400 2131810.250000
179.060500 19076306.000000
180.037100 2200475.800000
181.044900 8736699.000000
182.053100 250331.500000
183.060800 458492.500000
183.080500 584398.400000
185.038600 2144220.800000
185.059800 1562985.600000
186.027600 701716.600000
186.046300 1828750.000000
187.054500 6987325.500000
188.043300 405976.700000
188.062300 448624.700000
189.069900 571346.100000
190.041500 166392.200000
192.037100 251823.100000
192.057000 155415.000000
193.065000 6881322.000000
194.052800 4534132.500000
195.060600 535239.000000
196.068500 519527.800000
197.020100 114683.800000
197.051300 698417.700000
199.035600 3344617.200000
200.043200 417772.600000
201.050600 831344.600000
203.060400 2796908.800000
204.037200 1371324.400000
205.045100 19600300.000000
206.052800 2139072.800000
207.060700 2503051.200000
210.047700 811441.900000
212.027000 632320.900000
212.043400 164863.000000
215.041700 108542.400000
219.041600 192713.100000
223.035700 3093347.500000
224.043300 1005483.600000
225.051200 3839153.200000
227.066900 115506.000000
228.038700 170555.400000
238.042600 153506.700000
243.041700 254011.900000

