>compound EQ89116230
>parentmass 315.1623
>ionization [M+H]+
>formula C19H23ClN2
>rt 552.000000
>profile orbitrap
#smiles_iso CN(C)CCCN1C2=CC=CC=C2CCC3=C1C=C(C=C3)Cl
#smiles_can CN(C)CCCN1C2=CC=CC=C2CCC3=C1C=C(C=C3)Cl
#inchikey GDLIGKIOYRNHDA-UHFFFAOYSA-N
#pubchem_id 2801
#mb_accession EQ366901,EQ366902,EQ366903,EQ366904,EQ366905,EQ366906,EQ366907,EQ366908,EQ366909

>ms2peaks
58.065000 20813204.000000
86.096500 323901888.000000
242.072400 3316961.500000
270.104800 8806154.000000
315.162400 1186177152.000000

>ms2peaks
58.065200 182014976.000000
86.096400 895889344.000000
220.112200 907741.800000
235.135600 3597989.800000
242.073300 28262816.000000
270.104600 39451160.000000
315.162500 112744952.000000

>ms2peaks
56.049500 1866056.600000
58.065200 359806336.000000
71.073000 1934107.500000
86.096400 631353984.000000
206.096500 779754.200000
207.104700 1470194.400000
220.112400 6872915.500000
227.049800 9028628.000000
234.128100 1875129.000000
235.135800 12473530.000000
242.073300 62408788.000000
270.104600 13981728.000000
315.161800 782687.900000

>ms2peaks
56.049500 3021571.500000
58.065200 481954752.000000
71.073000 4761666.000000
86.096500 408577504.000000
91.054300 685640.900000
105.070000 734530.300000
125.015500 525327.000000
158.096600 557851.300000
206.096900 2603948.800000
207.104500 8167392.000000
214.041700 667382.500000
220.112300 14265821.000000
227.049900 46720744.000000
234.127900 4302648.500000
235.135900 8330254.500000
240.057800 574632.000000
242.073300 51422252.000000
254.073700 1009877.600000
270.104600 1920575.500000

>ms2peaks
56.049500 5099620.000000
57.057400 674355.200000
58.065200 527489024.000000
71.073000 6628559.500000
84.080800 981589.000000
86.096500 219442320.000000
91.054300 1139320.600000
125.015500 741158.900000
130.065300 847922.200000
158.096500 941890.900000
165.070100 1042156.000000
179.085900 538328.100000
191.073100 567838.800000
192.081000 8529800.000000
201.034400 600402.700000
204.081100 641365.100000
206.096800 6685408.500000
207.104500 12483016.000000
212.039200 601358.000000
214.042100 1062636.400000
220.112300 13415328.000000
226.041700 1316167.900000
227.049900 85680392.000000
228.057700 829685.800000
234.128000 5022768.500000
235.135700 1309745.100000
240.057800 979800.600000
241.065900 630980.100000
242.073300 21739686.000000
254.073600 1792443.000000

>ms2peaks
56.049500 7344161.500000
58.065200 505380416.000000
70.065200 675368.100000
71.073000 8852260.000000
84.080800 1174938.500000
86.096500 94843336.000000
91.054300 1330826.800000
103.054200 616495.600000
125.015400 1395444.600000
130.065200 1006452.100000
144.081100 608119.900000
158.096700 705317.800000
165.070100 5940577.500000
167.073200 714816.700000
178.077900 1189184.400000
179.085800 1001320.400000
180.081100 546170.900000
190.065200 556644.300000
191.073000 4641007.500000
192.080900 32540404.000000
194.096600 594261.900000
201.034300 2514028.500000
204.081100 2029135.200000
205.088700 983305.800000
206.096700 11873761.000000
207.104500 7124051.500000
212.039100 840979.900000
214.042200 994129.000000
218.096700 894356.900000
219.104600 563408.400000
220.112400 8108498.500000
226.042100 6715015.500000
227.049900 73939632.000000
228.057600 697265.600000
234.128000 3176554.000000
240.057400 1086205.400000
241.065400 678716.100000
242.073300 5968394.500000
254.073400 1509862.500000

>ms2peaks
56.049500 11301938.000000
57.057300 969940.500000
58.065200 351267648.000000
65.038600 755076.400000
70.065200 1015468.100000
71.073000 6481663.500000
86.096500 13989526.000000
89.038600 4517790.000000
90.046500 1177608.800000
91.054300 2260480.200000
103.054300 759725.800000
115.054400 928952.200000
117.057400 1151906.400000
125.015300 1027885.000000
128.049600 825976.600000
130.065400 1419232.600000
139.054400 1004351.400000
152.062300 1378654.200000
163.054200 780115.100000
164.062000 1273507.200000
165.070100 25582946.000000
166.065300 3812636.500000
167.073200 1273902.100000
168.057200 532597.300000
176.062300 733381.400000
177.057600 1385994.500000
177.070000 845169.400000
178.077900 5011133.000000
179.072900 966896.500000
179.085600 1785239.200000
180.081000 1198343.600000
181.088800 533357.300000
190.065300 7739344.000000
191.073100 36914732.000000
192.080900 31636116.000000
193.089100 868474.500000
199.031100 1924904.000000
201.034200 4188877.500000
204.081100 8320399.000000
205.089100 1767291.500000
206.096700 7464932.500000
207.104400 619693.600000
212.038900 466282.400000
217.088600 786093.100000
218.096900 1370262.100000
219.104400 442783.100000
225.034200 907805.900000
226.042100 11912962.000000
227.049900 9294660.000000
238.041700 510337.900000
240.057200 526116.800000

>ms2peaks
51.023000 545404.400000
53.038700 242962.000000
56.049500 15538312.000000
57.057400 1084634.400000
58.065200 219400576.000000
62.015100 397303.300000
63.023000 2180792.500000
65.038600 2762922.800000
70.065200 608241.200000
71.073000 2275140.800000
75.023000 800155.400000
77.038600 556727.500000
86.096500 1964058.600000
89.038600 12262380.000000
90.046500 1497564.800000
91.054300 2476252.800000
95.049200 1495159.400000
98.999600 814081.800000
102.046600 657765.400000
103.054300 708262.600000
105.044900 816014.200000
113.039000 406917.100000
114.046500 478904.600000
115.054400 5220169.500000
116.049600 462388.500000
117.057300 843935.700000
124.007700 222636.800000
126.046300 247003.900000
127.041700 234491.500000
128.049600 1543852.900000
128.062100 503954.400000
129.044800 787609.200000
130.065300 1217818.200000
139.054400 6868412.500000
140.049700 4084792.500000
140.062000 624125.700000
149.015600 221895.200000
150.046600 960497.900000
151.054500 484518.100000
152.062300 3979763.200000
153.057500 626785.800000
163.054400 8462415.000000
164.062200 8196290.000000
165.070100 27812386.000000
166.065400 7230095.500000
167.073200 1094922.000000
168.057100 3550869.800000
169.065000 1369117.900000
176.062300 2325971.000000
177.057600 2676513.200000
177.069700 1427993.800000
178.077900 6409127.500000
179.060600 603890.100000
179.072800 976007.400000
180.081000 1025399.700000
189.057600 841900.300000
189.070000 1248950.100000
190.065300 27612352.000000
191.073100 46885452.000000
192.081000 5647854.000000
193.088800 516489.300000
194.060200 481510.000000
196.052200 875974.500000
199.031100 2178925.800000
200.026600 1148426.900000
201.034500 952209.800000
203.073300 924666.100000
204.081100 10507705.000000
205.088900 680333.000000
206.096700 904155.700000
216.081200 525698.200000
217.088900 1476599.000000
218.096600 705475.600000
225.034400 1962488.500000
226.042000 2157983.200000
227.050400 406934.700000

>ms2peaks
50.015200 1098628.900000
51.023000 1726430.600000
53.038700 612475.300000
56.049500 11313046.000000
57.057300 986639.600000
58.065200 96924096.000000
62.015100 1108546.000000
63.023000 6387560.000000
65.038700 3259244.200000
70.065200 719589.600000
71.073000 652764.000000
72.984000 1022453.300000
75.023000 2161148.800000
76.030800 120090.800000
77.038600 1294628.100000
78.046500 248317.500000
86.015200 256830.200000
89.038700 15134948.000000
90.046500 1528742.500000
91.054400 1981866.400000
95.049200 1720026.800000
98.999700 863079.100000
102.046500 1471436.500000
103.054400 738396.500000
105.044900 1386652.600000
113.038700 2465759.000000
114.046500 454949.100000
115.054400 9689845.000000
116.049800 777083.100000
117.057500 675918.700000
122.999500 144878.500000
126.046400 1424741.900000
127.041700 845398.300000
128.049500 1589954.200000
128.062000 1097887.500000
129.044800 1007697.200000
129.057400 134088.000000
130.065300 498457.600000
138.046700 1231682.500000
139.054400 12424659.000000
140.049600 8687903.000000
142.065300 133624.500000
146.060200 205774.900000
149.015200 125198.300000
150.046600 3665498.500000
151.054400 1032250.700000
152.062200 4761947.500000
153.057400 743137.800000
155.060700 522325.800000
162.010800 216368.700000
162.046800 1208637.375000
163.054400 29189526.000000
164.049700 5264447.500000
164.062200 8331923.500000
165.058300 1203498.250000
165.070100 9178011.000000
166.065300 2662070.800000
167.073000 410073.200000
168.057100 3869778.500000
169.065000 3181513.500000
170.060300 507179.300000
176.062300 5884319.500000
177.057700 2191768.500000
177.070100 1427042.000000
178.065700 1210068.900000
178.077900 3220460.500000
179.060800 1280973.000000
179.073000 210092.800000
180.081100 234295.100000
183.068200 166093.000000
188.049700 2248577.500000
189.057600 3790588.000000
189.070300 1008115.500000
190.065300 31935518.000000
191.073100 14161698.000000
192.080900 484732.200000
194.060300 689559.100000
196.052100 2098293.800000
199.031000 919579.600000
200.026900 480384.400000
202.065200 782895.600000
203.073300 1941333.600000
204.081200 5945443.000000
216.080900 1226370.000000
217.089200 832867.100000
225.034700 580356.200000
238.041800 126439.400000

