>compound EQ90828425
>parentmass 337.2274
>ionization [M+H]+
>formula C22H28N2O
>rt 360.000000
>profile orbitrap
#smiles_iso CCC(=O)N(C1CCN(CC1)CCC2=CC=CC=C2)C3=CC=CC=C3
#smiles_can CCC(=O)N(C1CCN(CC1)CCC2=CC=CC=C2)C3=CC=CC=C3
#inchikey PJMPHNIQZUBGLI-UHFFFAOYSA-N
#pubchem_id 3345
#mb_accession EQ364001,EQ364002,EQ364003,EQ364004,EQ364005,EQ364006,EQ364007,EQ364008,EQ364009

>ms2
105.070000 2758275.800000
188.143000 12490229.000000
337.227100 1375913344.000000

>ms2
57.033300 1484758.900000
77.038400 811497.200000
84.080800 1366999.600000
105.069700 26175452.000000
132.080600 2220864.200000
134.096300 7896748.500000
146.096300 4739416.500000
150.091300 2678789.000000
160.111800 2125765.500000
186.127700 2669273.800000
188.143200 731374784.000000
190.122400 3472865.500000
216.138200 25072920.000000
281.201100 14960413.000000
337.227100 674960704.000000

>ms2
55.054100 2105899.500000
56.049400 1330973.200000
57.033500 8300556.000000
67.054200 1894755.000000
69.069800 2462100.500000
79.054100 1730138.900000
84.080700 16178782.000000
91.054000 2895316.800000
94.065100 3012760.500000
96.080800 1024437.200000
103.054100 2026337.000000
105.069900 318560800.000000
117.069800 2514031.200000
120.080800 2943998.800000
132.080800 28371866.000000
134.096400 32585676.000000
146.096400 31685908.000000
150.091400 5501045.500000
160.112000 5938328.000000
186.127800 6679988.000000
188.143300 809442496.000000
190.122300 2086945.200000
216.138300 27326600.000000
281.201300 3244205.500000
337.227300 26151618.000000

>ms2
51.022800 915503.400000
53.038500 1065349.600000
55.054200 6824682.500000
56.049500 2873932.800000
57.033500 10231543.000000
67.054200 3640234.200000
69.069800 8145125.000000
77.038400 3115531.500000
79.054200 13710760.000000
82.065000 804382.200000
84.080700 23044000.000000
91.054200 5621106.000000
94.065100 7156667.000000
95.049000 2269610.000000
96.080600 1506144.800000
97.088600 793222.800000
103.054200 11923274.000000
105.069800 731508928.000000
115.054400 1091227.200000
117.057200 1268043.200000
117.069900 5657252.500000
118.065000 830312.400000
119.085700 1672128.100000
120.080700 9675966.000000
129.069800 1969924.800000
130.064900 1525681.900000
131.072900 1223734.800000
132.080700 41837560.000000
134.096400 21953920.000000
146.096400 28811926.000000
150.091400 3152030.200000
160.112000 3011100.800000
186.127700 8446037.000000
188.143300 258975280.000000
216.138200 3870504.000000

>ms2
53.038600 3295000.500000
55.054200 9413079.000000
56.049500 4497268.500000
57.033500 7442560.500000
67.054200 4055210.000000
69.069800 6589761.500000
77.038400 8939604.000000
79.054200 64107848.000000
82.065200 1183288.800000
84.080700 12200273.000000
91.054200 7050798.000000
94.065100 9245624.000000
95.049100 10655316.000000
96.080600 1150883.600000
103.054200 46027808.000000
104.049500 1324398.000000
105.069800 826963264.000000
115.054300 2639192.200000
117.057200 5408064.000000
117.069900 7568904.000000
118.065000 838215.300000
119.073300 1154095.400000
119.085700 1927967.100000
120.080700 8686597.000000
129.069900 1759316.000000
130.065100 4586433.500000
131.072900 1964692.600000
132.080700 30730928.000000
134.096400 7958902.000000
144.080800 1284287.500000
146.096400 13468002.000000
160.112000 856934.200000
184.112200 1804376.900000
186.127600 4480169.500000
188.143300 41354208.000000

>ms2
50.015000 1189659.200000
51.022700 1808538.600000
53.038600 8828987.000000
55.054200 10884881.000000
56.049500 3802637.500000
57.033500 4094666.500000
65.038400 1362214.500000
67.054200 2700269.500000
69.069800 2773377.500000
77.038500 21482510.000000
79.054200 135775648.000000
81.033300 1007312.200000
82.065100 977803.800000
84.080700 5369463.500000
91.054200 8389180.000000
93.069800 650095.500000
94.065100 7991055.500000
95.049100 29832330.000000
96.080700 751143.600000
103.054200 100667384.000000
104.049500 1185257.000000
104.061800 1189971.000000
105.069800 635576576.000000
115.054200 5222418.000000
117.057200 8221739.000000
117.069800 5111989.000000
118.064900 1024190.100000
119.073200 1211272.900000
119.085800 1031812.700000
120.080800 4129179.200000
128.061900 833433.400000
129.069900 1194851.900000
130.065100 5094224.000000
131.072900 2000596.500000
132.080700 15922485.000000
134.096300 1951547.500000
144.080700 1241608.600000
146.096300 4256840.000000
184.112100 722215.600000
186.127500 1324596.600000
188.143300 3302186.000000

>ms2
50.015100 5769440.000000
51.022900 5555504.000000
53.038600 29240020.000000
54.033800 254589.800000
55.017900 1930481.500000
55.054200 6353995.500000
56.049400 2170750.200000
57.033500 1451273.800000
63.022800 232648.900000
65.002200 318100.900000
65.038500 1935535.200000
67.054200 1393356.500000
68.049400 215957.400000
68.997100 540677.700000
70.065100 211495.300000
77.038500 55250316.000000
78.046300 835326.300000
79.054200 176116400.000000
81.033400 3636712.800000
82.065000 295834.700000
84.080700 1115763.200000
89.038600 246097.800000
90.046400 715448.900000
91.054200 8331530.000000
93.069700 213999.900000
94.041300 1009648.000000
94.065100 4358091.500000
95.049100 92576256.000000
102.046300 2279430.000000
103.054200 135072768.000000
104.049300 279907.500000
104.061900 1539347.200000
105.044700 64972508.000000
105.069800 192021664.000000
106.041600 237418.500000
109.064600 246050.800000
115.054200 5846631.000000
116.061800 272594.700000
117.057200 8402283.000000
117.069700 1685787.400000
118.065000 1023937.900000
119.073100 192320.800000
120.080800 232249.800000
128.062000 619305.100000
130.065100 3353099.000000
131.072900 1491196.000000
132.080700 1721276.000000
143.072900 236523.300000
144.080700 929270.800000
146.096200 267829.700000

>ms2
50.015100 16815960.000000
51.023000 25303072.000000
53.038600 44695612.000000
54.033900 159320.400000
55.017800 2361123.200000
55.054200 2866234.500000
56.049500 1704733.500000
57.033500 499671.300000
63.022900 286728.100000
65.002200 1306435.100000
65.038600 4580670.000000
66.046400 268755.800000
67.041800 147800.500000
67.054200 685758.800000
68.997100 257255.600000
70.065300 158471.700000
74.014900 166016.800000
77.038500 79592664.000000
78.046400 2369083.800000
79.054200 112994048.000000
81.033500 5465605.500000
81.069600 287529.100000
82.065200 255321.900000
84.080800 171651.200000
89.038500 1369537.600000
90.046400 1268382.500000
91.054200 6793938.000000
93.057300 529343.200000
94.041300 1870813.500000
94.065100 1235950.600000
95.049100 129686056.000000
96.080800 182430.200000
102.046300 2716690.500000
103.054200 81898656.000000
104.049400 200162.100000
104.062000 1239048.900000
105.044700 94653976.000000
105.069900 33496670.000000
106.041600 690869.800000
109.064600 621932.400000
115.054200 3128639.500000
116.062000 145474.100000
117.057200 4069601.200000
117.069800 626256.200000
118.065000 800161.900000
128.061900 595662.100000
130.065100 2695835.800000
131.072700 202755.200000

>ms2
50.015100 37297880.000000
51.023000 72183008.000000
53.038600 40145588.000000
53.997500 229355.700000
54.033800 200878.700000
55.017800 2022741.400000
55.054200 1157802.600000
56.049500 858341.900000
63.022900 972051.000000
65.002200 2617823.800000
65.038600 6060382.000000
66.046400 761241.600000
67.041600 182807.700000
67.054200 756981.900000
67.989400 132173.700000
68.049500 649391.600000
68.997000 214314.300000
74.015100 473145.800000
77.038500 69173344.000000
78.046400 2982365.800000
79.054200 42412648.000000
81.033500 4408303.500000
89.038600 2612362.000000
90.046500 1419055.100000
91.054200 4714746.000000
93.057400 220919.200000
94.041300 1213986.100000
94.065200 223795.400000
95.049100 103183680.000000
102.046400 2631126.500000
103.054200 25773732.000000
104.062100 629574.900000
105.044700 74647168.000000
105.069900 4746073.000000
106.041800 270944.500000
109.064900 300825.200000
115.054300 2115259.200000
117.057300 1125005.800000
118.065300 207143.400000
128.061900 508211.900000
130.065200 1672187.800000

