>compound EQ90673870
>parentmass 304.0091
>ionization [M+H]+
>formula C10H16Cl3NOS
>rt 954.000000
>profile orbitrap
#smiles_iso CC(C)N(C(C)C)C(=O)SCC(=C(Cl)Cl)Cl
#smiles_can CC(C)N(C(C)C)C(=O)SCC(=C(Cl)Cl)Cl
#inchikey MWBPRDONLNQCFV-UHFFFAOYSA-N
#pubchem_id 5543
#mb_accession EQ372501,EQ372502,EQ372503,EQ372504,EQ372505,EQ372506,EQ372507,EQ372508,EQ372509

>ms2
86.060000 628100.200000
111.116800 38346.200000
128.106900 578062.000000
140.932600 21117.800000
142.921200 61090.200000
176.909300 9855.300000
218.956400 10143.100000
261.962100 245097.300000
304.008900 4301300.000000

>ms2
53.002200 13100.400000
53.997400 3032.200000
58.065100 2655.800000
69.069900 12034.400000
71.049000 2699.500000
82.944900 7047.500000
86.060000 1736267.000000
88.075600 2854.700000
104.956100 2745.600000
111.116800 54884.400000
113.059600 2201.000000
118.032100 7258.900000
128.107000 357059.700000
140.932700 198266.800000
142.921700 689982.200000
159.948200 2871.300000
160.079000 6715.900000
161.086800 4569.200000
176.909400 37239.600000
201.904700 17919.100000
218.956500 5294.600000
219.915200 17349.900000
261.962200 305496.400000
304.009100 461402.600000

>ms2
53.002200 21981.600000
53.997500 6086.500000
55.054200 3790.400000
57.069800 2852.100000
58.065100 29076.400000
69.069900 34002.300000
71.085400 2284.500000
72.983800 2614.900000
78.940400 3574.800000
80.049400 2734.700000
80.956000 3716.500000
82.944900 83897.200000
86.060000 652742.600000
88.075700 2043.300000
91.054200 14424.500000
96.960600 7297.400000
104.956000 7865.200000
111.116800 24922.400000
113.059700 2991.400000
118.032100 26258.300000
128.107000 33775.800000
140.932700 224853.700000
142.921700 1690244.900000
159.948300 2178.100000
160.079100 16288.600000
176.909400 18091.800000
201.904400 2205.300000
219.915200 5479.300000
261.962200 20816.000000
304.009600 5275.200000

>ms2
53.002200 24174.000000
53.997500 4662.700000
55.054300 5463.300000
57.069800 3180.400000
58.065100 72046.700000
69.069800 37090.900000
72.983800 2861.800000
78.940300 13739.400000
80.049400 1999.000000
80.956000 11070.500000
82.944900 471383.200000
86.060000 134841.500000
88.075600 2013.900000
91.054200 18211.400000
96.960700 38397.000000
104.956000 20111.900000
111.116800 3136.000000
118.032100 21913.800000
128.107000 3431.300000
140.932700 152617.700000
142.921700 1860132.600000
160.079100 12355.200000
176.909200 4493.300000

>ms2
53.002200 18373.200000
53.997500 3521.700000
55.054200 6785.900000
57.069900 2982.300000
58.065100 106440.000000
59.966400 2088.700000
60.983900 2416.400000
67.054100 2144.700000
69.069800 20836.100000
72.983800 2720.000000
78.940300 21202.800000
80.049400 2030.700000
80.956100 7368.100000
82.944900 1227082.900000
86.060000 23966.800000
86.096300 4320.200000
88.075500 1974.800000
91.054200 16885.100000
96.960600 79690.600000
104.956000 29227.100000
106.944900 4725.800000
118.032100 14643.000000
140.932700 61480.200000
142.921700 1307276.800000
160.079100 5494.500000

>ms2
53.002200 20490.700000
53.997500 3734.300000
55.054200 6076.100000
58.065100 108289.600000
59.990300 2098.600000
60.983900 7276.300000
68.979400 5060.600000
69.069800 10654.400000
78.940300 25136.200000
78.994600 2100.200000
80.956100 7444.500000
82.944900 1912902.100000
86.059900 3462.300000
91.054200 18495.900000
93.070000 2038.500000
96.960700 98582.400000
104.956000 32690.100000
106.945000 10047.400000
118.032100 12137.300000
140.932700 15641.200000
142.921700 670061.300000

>ms2
53.002200 12186.700000
53.997400 2624.100000
55.054100 2609.400000
58.065100 63324.000000
60.984000 20031.000000
62.963200 3640.700000
65.038600 3792.400000
68.979300 14846.300000
72.983900 3870.200000
78.940300 26082.100000
78.994500 2829.500000
80.956000 2524.000000
82.944900 2189363.500000
91.054300 10183.800000
96.960700 55280.000000
104.956000 20121.500000
106.945000 31455.100000
116.906200 4543.000000
118.032300 3543.100000
142.921700 80358.900000

>ms2
53.002200 11610.200000
53.997400 1902.900000
58.065100 29622.500000
60.984000 30611.400000
62.963200 12080.000000
65.038600 6102.700000
68.979300 19842.400000
69.987100 2707.800000
70.968300 2556.800000
71.976000 4270.300000
72.983900 12840.900000
78.940300 25437.300000
78.994500 2508.300000
81.937100 2143.800000
82.944900 1858521.800000
91.054200 6012.600000
96.960700 19063.000000
104.956100 7387.300000
106.945000 39838.900000
116.906000 12848.500000
142.921700 4837.100000

>ms2
53.002200 9737.100000
58.065100 13533.400000
60.984000 27001.500000
62.963200 29239.700000
65.038600 5473.000000
68.979300 17504.100000
69.987100 2762.900000
70.968300 6639.900000
71.976100 8127.000000
72.983900 31614.500000
78.940300 22284.700000
81.937100 7042.300000
82.945000 1438931.000000
88.978900 3051.800000
91.054300 2789.500000
96.960800 5600.400000
104.956100 2411.500000
106.945000 31961.400000
116.906000 8238.100000

