>compound EQ90404401
>parentmass 300.123
>ionization [M+H]+
>formula C17H17NO4
>rt 654.000000
>profile orbitrap
#smiles_iso CC1=CC=CC=C1OCC2=CC=CC=C2/C(=N\OC)/C(=O)O
#smiles_can CC1=CC=CC=C1OCC2=CC=CC=C2C(=NOC)C(=O)O
#inchikey LXOPDEDFRXZTNO-FBMGVBCBSA-N
#pubchem_id 20055208
#mb_accession EQ346301,EQ346302,EQ346303,EQ346304,EQ346305,EQ346306,EQ346307,EQ346308,EQ346309

>ms2peaks
59.049100 100652.800000
91.054200 127107.500000
107.049100 650692.500000
116.049400 14795664.000000
117.057200 441203.400000
118.065100 113648.200000
121.064800 1336392.200000
132.044200 176472.800000
134.060000 953834.900000
135.044000 911032.700000
146.060000 1446427.200000
148.075600 137693.100000
179.085400 330976.400000
181.088400 133676.900000
181.100900 146470.300000
182.096500 141404.600000
192.065400 10159747.000000
194.072300 129408.900000
194.096300 492135.200000
195.080300 118147.300000
196.112000 1218255.100000
206.059300 103097.800000
206.096200 204852.700000
207.080500 570108.500000
207.104100 116763.000000
208.088700 102231.900000
209.083800 1384432.400000
209.096100 6571994.000000
222.091300 55118376.000000
223.098900 269711.100000
224.107000 22682610.000000
225.091100 104918.500000
235.075300 12247274.000000
236.082600 282261.800000
238.122600 1093801.600000
240.101900 551288.800000
250.086200 1030987.100000
251.094000 180807.800000
253.085900 26420430.000000
254.117500 6442535.000000
268.096700 2999907.500000
282.112500 8529591.000000

>ms2peaks
59.049200 251890.600000
89.038500 102884.300000
91.054200 1075762.000000
104.049500 96673.200000
107.049100 776409.400000
109.065200 71019.900000
116.049500 26014950.000000
117.057200 2115162.200000
118.065200 171112.800000
119.049400 57024.300000
121.064800 1946523.500000
130.065300 54245.800000
132.044400 964896.800000
134.060000 1438051.600000
135.044000 1603979.600000
146.060000 3251259.000000
147.067900 100586.700000
148.075700 237978.500000
165.069300 155738.100000
166.065100 51727.300000
166.077300 45787.400000
167.073300 290376.400000
167.085500 311833.200000
168.080600 302832.500000
178.077700 155193.200000
179.085500 2191644.200000
180.080700 450775.300000
181.088700 925235.100000
181.101100 1342006.800000
182.096500 410086.000000
191.072200 53490.100000
191.085500 446813.600000
192.065500 2502876.200000
193.088800 45555.900000
194.072700 1543297.100000
194.096400 2986976.200000
195.080500 487019.000000
195.104100 138805.900000
196.112100 2399754.500000
197.096100 249844.200000
204.080800 746572.900000
205.088200 49237.900000
206.060100 53291.600000
206.096500 706103.600000
207.067800 604811.000000
207.080400 777062.700000
207.104100 518405.800000
208.088400 718174.500000
209.083600 5514301.000000
209.096100 7100756.000000
221.083000 105112.800000
222.091400 43554828.000000
223.099200 1939216.900000
224.107000 11275788.000000
225.090800 458185.200000
232.075900 123725.200000
232.086600 83753.600000
234.091600 102723.100000
235.075400 14332772.000000
236.071400 69413.000000
236.083000 305077.400000
238.122700 440917.800000
240.101900 228106.900000
250.086400 761704.800000
251.094500 182232.700000
253.086000 1510348.100000
254.117500 3547492.500000
268.096600 303529.300000
282.112500 1404239.800000
286.082000 49351.400000

>ms2peaks
55.017800 111526.100000
59.049100 162082.500000
65.038600 187876.100000
69.033500 46803.400000
77.038400 48393.500000
79.054200 248137.000000
89.038600 1110327.000000
91.054200 5000282.500000
93.069900 139957.200000
95.049200 129713.400000
104.049400 315021.600000
107.049100 758645.600000
108.056900 52575.600000
109.064800 122808.100000
116.049500 36022564.000000
117.057300 2538218.200000
118.065100 473103.500000
119.049300 344841.400000
119.060400 133121.400000
120.044300 52423.800000
121.064800 2505687.000000
128.049600 48194.800000
130.065200 46259.800000
132.044400 1709765.100000
133.052300 85654.500000
134.060000 2153483.800000
135.044000 1743756.100000
140.049300 43201.800000
141.069900 92481.600000
146.060000 3053354.800000
147.067900 132230.400000
148.075600 247286.200000
152.061800 155079.400000
153.069700 337683.300000
154.065000 115839.300000
156.080600 56611.900000
161.047000 179026.100000
165.069900 561963.400000
166.065500 417878.600000
166.077700 681082.700000
167.073200 652758.900000
167.085500 1386448.200000
168.080700 444256.900000
176.061500 54354.300000
177.069900 696224.700000
178.064900 102581.200000
178.077600 1082987.000000
179.072800 229185.400000
179.085500 3626483.500000
180.080700 1532794.600000
181.088600 1526650.100000
181.101200 1714367.400000
182.060600 40066.000000
182.072700 192127.600000
182.096300 312911.900000
183.080600 40762.000000
189.070000 112688.900000
190.065000 43120.900000
190.077500 134328.900000
191.073200 222949.200000
191.085500 1076157.900000
192.057400 36235.500000
192.065400 329410.800000
192.080800 168700.300000
193.088700 1010388.900000
194.072700 4184200.000000
194.096500 7251377.000000
195.080400 1324801.000000
195.104300 253362.500000
196.076000 47801.400000
196.112100 934246.900000
197.096100 213342.400000
203.073000 440704.500000
204.080900 2872210.800000
205.076100 207773.900000
205.088300 244775.000000
206.060000 237940.500000
206.096500 930727.100000
207.067900 4733732.000000
207.080400 2947690.800000
207.104300 792426.800000
208.076000 254259.500000
208.088300 1651480.400000
209.083600 8409093.000000
209.095900 1413062.200000
210.068400 40049.700000
211.075400 195123.600000
220.075700 469241.500000
221.083600 330053.400000
222.091400 25169608.000000
223.099200 3866447.200000
224.107000 3533407.800000
225.090700 454197.100000
232.076500 66153.100000
232.086800 249075.700000
234.091500 126909.300000
235.063500 569420.500000
235.075300 8776237.000000
236.070700 93512.300000
236.083100 246215.700000
238.122800 50079.100000
250.086100 300736.500000
254.117700 535119.800000
286.081900 42052.300000

>ms2peaks
53.038600 100040.000000
55.017800 101639.400000
59.049200 121074.000000
63.022800 46771.200000
65.038600 1016884.400000
69.033400 40372.300000
77.038500 216400.800000
79.054200 552454.600000
89.038600 6005665.000000
90.033800 110009.500000
90.046400 134415.000000
91.054200 7505521.000000
93.069900 212909.100000
95.049100 449638.500000
103.054400 53215.600000
104.049500 550153.900000
105.033600 99129.400000
105.044700 267873.900000
106.041200 93771.900000
107.049100 703247.700000
109.064900 163049.700000
115.054200 100213.700000
116.049500 35853192.000000
117.057200 2265506.000000
118.041300 90692.400000
118.065100 474916.900000
119.049100 362000.500000
119.060400 121046.400000
121.064800 2224543.800000
128.049400 190161.100000
130.065200 122665.800000
132.044400 1489359.600000
133.052200 104563.200000
134.060000 2223311.500000
135.044000 974128.100000
135.055400 141328.300000
140.049400 120883.400000
141.069900 295865.700000
146.060000 1228495.800000
147.067900 50701.900000
148.075700 202848.700000
152.062000 1003071.000000
153.069900 646839.800000
154.065000 238159.700000
154.077800 99421.400000
155.072900 95453.200000
156.080700 92916.900000
157.028400 52708.900000
161.047200 274637.900000
163.053800 42151.900000
164.061800 43654.600000
165.069900 1939315.000000
166.065300 693133.100000
166.077700 1255798.800000
167.073200 856909.100000
167.085500 1769139.900000
168.080800 414170.800000
169.064800 135949.800000
176.062100 506935.800000
177.069900 1696626.900000
178.077700 3629107.200000
179.073400 908985.400000
179.085500 3321790.000000
180.080700 4585191.000000
181.064700 281914.900000
181.088600 1439511.800000
181.100800 521942.200000
182.072500 275252.600000
182.096500 102451.400000
183.080500 137502.500000
189.057400 114250.500000
189.069700 326042.800000
190.065200 331617.800000
190.077600 387217.000000
191.072900 286103.700000
191.085500 831298.300000
192.057100 45629.100000
192.080600 445068.600000
192.093500 38499.800000
193.088600 2564963.500000
194.072700 3830131.200000
194.096400 6071092.500000
195.080500 1375275.600000
195.104300 157091.900000
196.075600 144501.700000
196.112100 206714.000000
197.096100 38347.300000
203.072900 1653977.100000
204.080900 2590247.500000
205.076200 292510.900000
205.088600 333710.300000
206.060100 1878256.500000
206.096400 642108.900000
207.068000 5915203.000000
207.080400 4380326.000000
207.104000 593284.800000
208.075900 524826.400000
208.088300 1268058.600000
209.083600 5631249.000000
210.067700 163078.800000
210.091500 42722.600000
211.075200 306785.100000
220.075600 699735.000000
221.083500 378951.400000
222.091400 6895788.000000
223.099200 2174142.000000
224.107000 1576574.600000
225.090900 42672.200000
232.075800 41719.000000
232.086400 53352.500000
234.091300 47393.800000
235.063000 246506.800000
235.075200 1682384.500000
236.070500 133824.900000
236.083100 103875.600000
250.086200 44512.400000

>ms2peaks
51.022900 94255.200000
53.038600 266905.700000
55.017800 33077.600000
63.022900 695886.600000
65.038600 2478806.500000
66.046400 48280.300000
69.033400 36368.800000
77.038500 412681.900000
78.046300 168007.700000
79.054200 803793.100000
81.033400 52230.600000
89.038500 17827010.000000
90.033800 558813.300000
90.046400 518134.900000
91.054200 7838281.500000
93.069900 305993.100000
94.041200 32276.000000
95.049100 1050874.800000
103.054300 96106.400000
104.049500 779600.700000
105.033400 86853.300000
105.044700 502005.800000
106.041200 33751.100000
107.049100 552901.100000
108.056800 49688.300000
109.064700 50891.200000
115.041500 277248.700000
115.054500 167438.100000
116.049400 29563900.000000
117.057200 2352685.800000
118.041500 105780.300000
118.065200 282025.800000
119.036700 50280.200000
119.049200 186692.900000
119.060300 30432.200000
121.064800 1368947.200000
128.049600 168666.700000
128.062000 137601.200000
129.069700 47486.800000
130.028700 104687.700000
130.065100 119875.100000
132.044400 1308932.100000
133.052300 82786.700000
134.060000 1745282.800000
135.044000 359583.700000
135.055200 135439.800000
139.053900 180755.500000
140.049400 230110.600000
140.062000 32692.900000
141.069900 463621.300000
142.064900 31583.000000
145.065000 55005.100000
146.059900 431585.700000
147.067800 39328.200000
148.075700 93616.000000
151.054000 173206.200000
152.062000 2576101.800000
153.057500 42589.200000
153.069900 692731.300000
154.065100 292815.700000
154.077500 45729.300000
155.060400 137272.200000
155.072800 44362.400000
155.085400 34300.900000
156.080700 56272.500000
161.047200 196712.500000
164.061800 175513.600000
165.069900 4169589.800000
166.065300 712704.100000
166.077700 1527397.400000
167.073000 1038666.800000
167.085400 1089779.600000
168.057100 36240.900000
168.080700 344927.500000
169.064800 550777.000000
175.054200 29936.200000
176.062000 1487070.200000
177.057200 111683.500000
177.069900 1480470.600000
178.065800 1267479.400000
178.077600 6486965.000000
179.061100 217093.500000
179.073100 1593696.500000
179.085400 2856454.800000
180.080700 8284399.500000
181.064800 695066.600000
181.088600 795651.500000
181.101100 53136.600000
182.059700 45524.900000
182.072400 226169.900000
183.080800 29611.800000
189.057400 266736.500000
189.069900 602205.100000
190.065100 941500.900000
190.077700 356112.800000
191.072900 381763.700000
191.085300 213932.000000
192.057100 151496.100000
192.080700 841694.200000
193.088600 2965694.800000
194.072600 2739784.500000
194.096400 3473081.800000
195.080400 827297.400000
195.104600 92986.000000
196.075900 152214.400000
196.112000 38289.900000
202.065000 98187.600000
203.072900 2134754.200000
204.080900 1530140.000000
205.076300 129303.500000
205.088500 208114.300000
206.060100 4558533.500000
206.096400 585868.300000
207.067900 3429094.500000
207.080400 1919964.100000
207.103800 264636.100000
208.075700 812458.800000
208.088200 591250.300000
209.083500 2364781.500000
210.067600 170990.200000
210.091300 90155.500000
211.075700 125181.300000
219.068100 48536.600000
220.075600 518621.000000
221.048100 33425.100000
221.083400 297296.400000
222.091300 1338039.500000
223.099100 639306.400000
224.107100 592346.300000
235.063600 45063.700000
235.075300 361673.900000
236.070500 94833.100000

>ms2peaks
50.015000 95173.900000
51.022900 143722.700000
53.002200 89604.600000
53.038600 412692.100000
55.017800 128582.400000
61.007100 29609.200000
62.015000 151888.200000
63.022900 2163919.200000
64.018200 51946.000000
65.038600 3879773.000000
66.046300 141002.100000
75.022700 43391.100000
77.038500 636843.200000
78.046400 205435.000000
79.054200 614377.300000
81.033500 130546.100000
88.018100 43104.900000
89.038500 26842872.000000
90.033800 1197684.100000
90.046400 1135924.200000
91.054200 5448327.000000
92.049700 31498.400000
93.069800 175604.000000
94.041400 30249.900000
95.049100 1559413.100000
103.041400 30810.600000
103.054200 122340.800000
104.049400 707801.900000
105.033500 82031.500000
105.044700 872888.600000
107.049100 363159.500000
114.034100 33592.600000
115.041600 391170.800000
115.054300 347536.300000
116.049500 17229024.000000
117.057300 1668171.800000
118.041300 151809.600000
118.065100 107568.400000
119.049200 97756.900000
119.060400 30475.300000
121.064800 719101.200000
127.054200 124917.500000
128.049500 152647.400000
128.062000 301463.200000
129.044500 85133.300000
129.069900 130237.800000
130.028700 47275.100000
130.065200 56248.200000
132.044400 546559.600000
133.052100 98531.000000
134.060000 938910.500000
135.043900 109116.800000
135.055200 33932.900000
139.054100 270749.900000
140.049400 426853.700000
140.061900 97882.300000
141.069800 424872.000000
142.065400 45216.400000
145.064900 103208.000000
146.060200 120546.000000
148.075400 28857.500000
151.054100 360480.900000
152.062100 3844340.000000
153.057300 128691.400000
153.069900 901950.000000
154.065100 283286.800000
154.077700 53290.200000
155.060300 222105.600000
156.080800 35959.200000
161.046900 47780.400000
163.054300 138922.100000
164.062100 293542.100000
165.069900 5865422.500000
166.065300 557711.200000
166.077700 1016516.700000
167.073000 1152798.000000
167.085000 305510.300000
168.056800 106187.800000
168.080800 209617.800000
169.064800 1095454.900000
170.060200 28082.800000
176.062000 1951105.800000
177.057700 307136.000000
177.069800 889459.800000
178.065600 2042243.600000
178.077700 6907509.500000
179.060300 456284.900000
179.073000 1075353.100000
179.085400 1557728.800000
180.080700 7537496.000000
181.064700 836547.400000
181.088600 287828.100000
182.072500 87119.900000
188.049200 35572.900000
189.057400 209263.700000
189.069800 732231.100000
190.065100 1374585.500000
190.077700 176476.900000
191.073000 452264.200000
191.085800 168750.000000
192.057200 84841.100000
192.080700 1085547.000000
193.088600 1954395.400000
194.072700 1417158.500000
194.096500 1580228.000000
195.080400 253490.800000
196.075500 146853.200000
202.064800 157533.500000
203.072900 1778768.900000
204.080800 876906.500000
205.065200 72832.600000
205.075600 37623.300000
206.060100 4392313.000000
206.096400 416649.800000
207.067900 807815.100000
207.080400 410771.400000
208.075800 441495.200000
208.088200 127531.900000
209.083500 603900.300000
210.067000 51019.600000
219.067500 48243.600000
220.075800 489126.200000
221.046500 38851.700000
221.083200 87222.500000
222.091400 330557.400000
223.099200 150888.600000
224.106800 85885.000000
235.075600 112931.600000

>ms2peaks
50.015100 279086.000000
51.023000 510646.300000
53.002200 234455.300000
53.038600 655600.400000
55.017800 89391.600000
61.007200 114506.000000
62.015100 641350.800000
63.022900 9539547.000000
64.018200 631789.400000
64.030700 48715.800000
65.038600 4688925.500000
66.033900 83474.200000
66.046400 164035.200000
74.015100 28179.500000
75.022700 172080.200000
76.030700 49282.700000
77.038500 1156411.400000
78.046400 255017.800000
79.054100 189748.900000
81.033400 200588.700000
87.022800 40208.900000
88.018200 322161.200000
88.030800 188484.700000
89.038600 27278414.000000
90.033900 2047326.900000
90.046400 1253833.800000
91.054200 2497849.200000
94.041300 81068.800000
95.049200 2274886.200000
102.033900 29000.600000
102.046300 120242.000000
103.054200 135253.600000
104.049500 537380.600000
105.044800 1278963.800000
107.049100 199062.000000
113.038500 151004.200000
114.033900 377530.600000
115.041600 492607.200000
115.054200 964762.900000
116.049500 4049672.000000
117.057300 647853.200000
118.041400 27775.200000
119.049000 46408.000000
121.064700 106708.100000
125.038500 109441.000000
126.046300 170469.800000
127.054100 226827.600000
128.049400 86139.500000
128.062000 612458.300000
129.044700 89802.000000
129.070000 28970.600000
130.040000 87176.000000
132.044500 197452.100000
134.060100 182113.600000
138.046600 36755.500000
139.054200 889285.200000
140.049500 729196.500000
140.061800 178041.600000
141.069700 205075.600000
145.064800 260803.600000
146.059800 37607.000000
150.046400 699396.700000
151.054200 1032662.800000
152.062100 6390798.000000
153.057300 270434.500000
153.069900 1048940.500000
154.065100 273426.000000
155.060300 498555.800000
163.054200 855011.900000
164.049500 97028.400000
164.062000 594269.500000
165.069900 6933393.500000
166.065200 596335.200000
166.077300 161652.100000
167.073000 614545.900000
167.085200 34943.300000
168.057200 247335.500000
168.080500 52350.800000
169.064800 3317803.200000
170.060000 136731.400000
174.045900 27961.500000
175.054000 108953.100000
176.062100 2235601.200000
177.057400 1507703.000000
177.069700 1000151.000000
178.065500 1543522.500000
178.077700 4299601.500000
179.060500 1203511.500000
179.072600 456652.200000
179.085300 247004.000000
180.080800 2790976.500000
181.064800 571966.000000
183.080600 41833.100000
188.049500 243119.400000
188.062000 31644.700000
189.057100 85248.200000
189.069900 678482.100000
190.065100 1309151.000000
191.072900 646983.600000
192.056600 38873.600000
192.080800 761800.100000
193.065000 111864.900000
193.088700 442254.200000
194.060300 92461.200000
194.072400 120585.100000
194.096400 248710.400000
195.080600 42031.900000
196.051600 28611.400000
196.075300 73609.000000
201.057400 197595.700000
202.065300 231679.500000
203.060000 36722.500000
203.072800 586402.800000
204.055600 38913.900000
204.080800 293217.300000
206.060200 1347307.200000
207.067600 46670.700000
208.075700 113966.800000
209.083600 36845.800000
219.067900 28700.700000
220.075700 294074.700000

>ms2peaks
50.015100 836325.800000
51.022900 1349240.000000
52.018200 34412.900000
52.030800 25585.200000
53.002200 514484.100000
53.038600 608225.800000
53.997500 131303.800000
55.017900 121814.800000
61.007300 548187.800000
62.015100 2195278.200000
63.022900 15383781.000000
64.018200 1470361.100000
64.030700 199153.900000
65.038600 3324303.200000
66.046400 84130.400000
67.989200 80282.100000
74.015000 197349.500000
75.022900 448280.100000
76.018100 51493.800000
76.030600 163006.700000
77.038500 1056473.600000
78.046400 318102.900000
79.017900 50641.900000
79.054300 132746.200000
81.033500 111484.300000
86.015000 49912.900000
87.022900 183637.000000
88.018200 445541.000000
88.030700 363376.800000
89.038600 16303866.000000
90.033900 1199970.200000
90.046400 690905.100000
91.054200 970340.900000
94.041400 33470.200000
95.049100 2105387.500000
98.015200 31101.800000
99.022900 113732.900000
101.038600 30135.700000
102.033700 48658.200000
102.046400 520050.100000
103.054300 173801.000000
104.049400 265544.000000
105.044700 1065350.200000
107.049200 53413.400000
108.044300 25087.900000
113.038600 415377.800000
114.033900 450034.100000
114.046400 40699.600000
115.041600 111067.700000
115.054200 1691722.000000
116.049500 839473.100000
117.057300 215198.200000
119.049400 94867.000000
125.038600 307491.200000
126.046400 791912.000000
127.041700 44842.800000
127.054200 454211.300000
128.049400 106034.800000
128.062000 657343.800000
129.044600 180312.300000
132.043900 23831.200000
137.038700 105188.600000
138.046500 39481.900000
139.054200 1662755.600000
140.049500 666078.700000
140.062100 116310.900000
141.070000 51480.800000
143.049000 43488.400000
145.064700 249828.000000
146.060200 33153.000000
149.038500 153173.300000
150.046400 2556233.000000
151.054200 964788.400000
152.062100 6210012.000000
153.057500 183637.000000
153.069700 255510.400000
154.065300 139663.400000
155.060400 551526.100000
161.037900 32867.100000
162.046400 119584.500000
163.054200 1894329.500000
164.050100 241307.900000
164.062000 1026494.500000
165.069900 3945901.000000
166.065100 345634.400000
167.049100 41604.800000
167.072800 266984.700000
168.057000 382205.700000
169.064800 3482805.200000
170.060200 169292.700000
174.046500 163085.200000
175.042100 31850.500000
175.054300 51367.600000
176.062000 2228099.000000
177.057400 1591185.600000
177.069500 671405.200000
178.065500 516932.500000
178.077600 1508825.500000
179.060400 1218962.500000
179.072900 107924.900000
180.080600 388168.700000
181.064600 47153.200000
185.059700 41638.300000
187.054000 151282.100000
188.049400 395860.300000
188.062400 33547.200000
189.057200 42280.900000
189.069900 352675.200000
190.065100 774309.600000
191.072900 522409.100000
192.056900 22774.300000
192.080600 196268.100000
193.065000 184335.000000
193.088400 93143.200000
194.035900 27043.100000
194.060000 119626.200000
196.052200 122687.000000
201.057400 268964.400000
202.065300 42894.400000
203.060500 33587.400000
203.073100 52969.500000
204.055500 45624.100000
204.080900 96880.900000
206.060200 104101.200000
220.075800 44060.800000

>ms2peaks
50.015100 1478028.800000
51.022900 2082250.200000
52.018200 38303.300000
52.030700 37262.800000
53.002200 828908.900000
53.038600 527534.100000
53.997400 139889.900000
55.017900 189028.900000
61.007300 1305139.200000
62.015100 4156512.500000
63.022900 16362599.000000
64.018200 2231977.500000
64.030700 253040.600000
65.038600 2123299.000000
66.033900 25342.500000
66.046400 90616.100000
67.054100 19212.400000
67.989300 51044.900000
74.015000 678563.900000
75.022900 1060466.500000
76.018200 193110.800000
76.030700 517765.600000
77.038500 862832.100000
78.046400 480250.800000
79.017900 164185.100000
79.054000 26622.900000
81.033500 126312.000000
86.015100 207506.200000
87.022900 525492.400000
88.018200 410773.200000
88.030700 275153.300000
89.038600 8365048.500000
90.033800 496704.300000
90.046400 371216.900000
91.054200 599956.700000
95.049100 1470444.200000
98.015100 357374.500000
99.022900 432770.000000
101.038600 99949.300000
102.046400 864260.100000
103.041600 20222.200000
103.054300 75290.700000
104.049500 90981.100000
105.044700 879976.700000
107.049000 32587.300000
113.038600 582942.200000
114.033900 359089.300000
114.046600 38072.500000
115.054200 1819600.600000
116.049600 179474.400000
119.049100 82020.600000
125.038600 466207.300000
126.046400 1334462.100000
127.041500 85502.800000
127.054100 312372.300000
128.062000 448977.300000
129.044500 176272.100000
130.040200 21781.100000
132.044300 19971.500000
137.038600 200239.800000
138.046400 127329.800000
139.054200 1747668.200000
140.049400 414413.000000
140.062000 85115.400000
141.069900 35988.900000
143.049100 124682.000000
145.064600 183825.100000
149.038400 295026.500000
150.046400 4092641.800000
151.054300 483490.200000
152.062100 3249410.200000
153.057500 37644.300000
153.069900 47071.100000
154.065000 29762.300000
155.060300 338150.100000
161.038700 160988.000000
162.046300 193794.700000
163.054200 2116406.000000
164.049800 262911.800000
164.062000 637223.200000
165.069900 1402881.800000
166.065000 162279.200000
167.049000 124722.900000
167.072800 31819.700000
168.056800 322142.100000
169.064800 2178140.200000
170.059900 31342.600000
174.046400 304234.500000
175.041800 110758.400000
175.054000 44149.400000
176.062000 1511875.200000
177.057400 689873.000000
177.069500 252021.000000
178.065200 166385.900000
178.077700 328447.800000
179.060400 696879.100000
180.080700 24017.300000
183.080800 29589.100000
185.059800 92674.200000
187.054300 133891.400000
188.049500 264727.400000
188.062100 32875.600000
189.069800 84550.400000
190.064900 370912.800000
191.072900 189468.000000
193.065100 97725.600000
194.036100 31577.900000
194.060100 90469.500000
196.051800 96619.500000
201.057400 127665.700000
202.065700 20099.000000
204.055600 93183.500000
220.074700 23447.900000

