>compound EQ91247349
>parentmass 804.4893000000001
>ionization [M+H]+
>formula C44H69NO12
>rt 918.000000
>profile orbitrap
#smiles_iso C[C@@H]1C[C@@H]([C@@H]2[C@H](C[C@H]([C@@](O2)(C(=O)C(=O)N3CCCC[C@H]3C(=O)O[C@@H]([C@@H]([C@H](CC(=O)[C@@H](/C=C(\C1)/C)CC=C)O)C)/C(=C/[C@@H]4CC[C@H]([C@@H](C4)OC)O)/C)O)C)OC)OC
#smiles_can CC1CC(C2C(CC(C(O2)(C(=O)C(=O)N3CCCCC3C(=O)OC(C(C(CC(=O)C(C=C(C1)C)CC=C)O)C)C(=CC4CCC(C(C4)OC)O)C)O)C)OC)OC
#inchikey QJJXYPPXXYFBGM-LJIGMGMYSA-N
#pubchem_id 6473866
#mb_accession EQ280701,EQ280702,EQ280703,EQ280704,EQ280705,EQ280706,EQ280707,EQ280708,EQ280709

>ms2peaks
84.080800 29986.600000
85.064400 3643.000000
111.080500 9385.900000
128.070700 5829.800000
130.086400 34223.200000
145.100800 2820.700000
161.132300 4873.900000
171.116800 19497.500000
173.132000 3919.300000
175.147800 3366.200000
181.122700 5545.100000
185.132300 4388.600000
187.148100 9016.800000
189.127300 10445.400000
199.147800 3746.600000
203.143300 12690.400000
207.116400 4578.100000
207.138200 7021.100000
209.132100 2727.400000
213.126900 4319.100000
215.142800 2896.500000
217.158400 3995.100000
219.174700 7289.500000
220.097200 4772.300000
221.153800 31993.200000
234.112700 32490.300000
247.147800 3561.800000
249.163900 40143.000000
254.102500 13937.600000
255.173900 3231.500000
263.163900 3548.900000
265.158400 5348.000000
266.102400 36474.100000
267.174600 13920.300000
280.118000 4812.800000
281.189900 4299.500000
283.169100 4057.500000
289.195000 7494.200000
291.210700 5280.600000
292.118000 2612.800000
293.153100 5709.300000
299.200900 10041.800000
303.210500 2739.800000
304.117900 4030.700000
306.133400 3187.900000
307.206600 2583.600000
310.128800 2626.200000
311.164100 3753.400000
317.211400 8461.200000
321.221600 3306.400000
322.128700 3219.000000
331.242100 2711.500000
332.149300 4316.800000
346.165200 2796.300000
349.253200 3870.300000
362.159100 2818.400000
386.197300 6765.600000
394.237800 3885.600000
407.295300 2824.600000
413.266500 159182.300000
414.270000 162090.800000
422.232500 19712.200000
440.243500 41022.600000
450.227000 4325.600000
458.290600 5372.600000
465.249700 2680.800000
466.260300 7526.700000
468.238700 4369.000000
472.269400 9318.400000
476.299200 3042.600000
479.294300 4259.600000
482.254300 5696.200000
484.270100 8056.500000
486.285600 27318.400000
488.300600 3379.400000
494.253700 5039.300000
498.286400 4563.500000
500.264900 29964.000000
502.315100 8114.200000
504.296000 37255.900000
512.264700 6590.800000
512.301300 3651.600000
514.280300 16935.000000
514.317100 4255.300000
516.297000 10573.000000
526.280700 6907.800000
530.311600 42930.100000
532.290900 171869.300000
544.291000 7492.100000
548.322300 144071.400000
558.306700 102715.400000
561.357400 2836.600000
576.317300 305401.000000
658.411700 9081.900000
672.432300 19423.200000
700.421500 110232.500000
706.467300 4806.800000
718.432200 392375.218800
736.442900 176773.000000
750.458200 227347.765600
768.469100 1735371.400000
786.479400 198871.828100

>ms2peaks
56.049500 2772.700000
57.033500 816.400000
57.069900 1591.900000
59.049200 2977.500000
65.038600 676.300000
67.054200 10753.900000
69.033500 14259.300000
69.069900 9616.800000
71.012800 1538.200000
71.049100 9921.900000
74.096400 1164.200000
75.044100 847.200000
79.054200 17762.000000
81.069900 27639.600000
82.065100 3059.700000
83.049100 10780.700000
83.085600 3109.900000
84.080800 283148.700000
85.064800 36271.600000
91.054200 12409.000000
93.070000 32258.900000
95.049300 19081.100000
95.085600 40008.000000
97.064900 16216.000000
97.101200 958.500000
99.044100 2484.900000
99.080500 6977.300000
101.059800 1521.300000
105.069900 28770.600000
107.049300 6844.500000
107.085600 53587.400000
109.028400 43666.500000
109.064900 24886.100000
109.101300 19130.000000
110.060100 19118.200000
111.044000 5003.000000
111.080500 50491.800000
112.075700 3001.100000
113.059800 3216.200000
117.069800 5784.500000
119.049200 3494.100000
119.085600 39258.300000
121.064900 13975.400000
121.101200 24628.500000
123.044200 8333.400000
123.080400 20061.100000
123.116800 1620.700000
125.059700 9910.700000
125.096100 6403.000000
127.039000 3695.500000
127.075400 4024.000000
128.070700 84544.300000
129.069900 9221.300000
130.086400 162719.500000
131.085600 26418.100000
133.064700 5687.700000
133.101200 37230.400000
135.044200 4201.600000
135.080500 18917.600000
135.116900 41412.500000
136.112000 1502.500000
137.059900 9742.800000
137.096200 13498.500000
137.132700 6321.500000
138.055400 920.900000
139.039100 4963.500000
139.075400 8473.200000
139.111700 5444.400000
140.070400 2791.100000
141.054700 2663.000000
141.069900 2787.600000
141.091300 2688.500000
143.085600 30593.300000
145.101300 55466.700000
147.080500 14170.900000
147.116900 30121.500000
149.059900 7354.600000
149.096100 18110.900000
149.132700 6947.400000
150.091700 968.500000
151.039000 3598.300000
151.075600 8507.200000
151.111800 11138.200000
152.107100 17142.500000
153.054700 8946.700000
153.091000 5081.700000
155.085700 4881.600000
156.065500 6835.400000
156.093700 3524.000000
157.065100 3385.400000
157.101200 25806.400000
158.109500 917.400000
159.080300 7541.300000
159.117000 40901.100000
161.096200 24510.500000
161.132600 69181.300000
163.075300 8751.400000
163.111800 27042.000000
163.148100 8361.400000
164.106900 717.700000
165.054800 4176.500000
165.091200 6543.700000
165.127800 5403.900000
167.070400 3027.200000
167.085900 1635.100000
167.106900 6019.100000
168.101700 1244.200000
168.138400 1353.000000
169.101300 19132.700000
170.109200 804.000000
171.080600 9511.100000
171.116900 140902.100000
173.096300 15619.500000
173.132600 38945.200000
175.075500 13796.300000
175.111800 15437.400000
175.148200 21090.800000
176.107200 710.200000
177.055200 1030.700000
177.091200 9374.200000
177.127400 10546.000000
178.086300 986.400000
179.070300 4705.800000
179.085400 866.100000
179.106800 6315.400000
179.143200 9254.200000
180.101900 35070.300000
181.086300 1206.200000
181.101100 8474.100000
181.122700 5245.400000
182.118100 685.400000
183.117000 22820.200000
184.124700 947.800000
185.096400 7685.200000
185.132600 64131.000000
186.140500 1215.200000
187.075500 2935.500000
187.111800 16775.100000
187.148200 36789.500000
189.091000 18314.500000
189.127500 87217.400000
190.122700 2582.100000
191.070200 1481.200000
191.106800 5221.700000
191.143000 10616.000000
192.102000 86117.400000
193.086200 3289.900000
193.101000 6812.200000
194.109700 1013.900000
195.117000 21570.100000
196.097100 4592.000000
196.133500 10410.200000
197.081000 3802.600000
197.095900 4412.200000
197.132500 24673.400000
199.075300 2872.700000
199.111900 13710.700000
199.148200 28789.400000
201.091100 3928.500000
201.127500 23780.600000
201.163500 7680.700000
203.107200 4804.600000
203.143300 63243.000000
204.101800 1663.600000
205.086500 2619.700000
205.122500 6093.500000
205.158900 4858.000000
206.109600 748.600000
206.117900 6951.500000
207.101900 3569.000000
207.117000 18325.600000
207.138000 19804.500000
208.097000 56450.300000
209.096300 3665.600000
209.132800 15441.400000
210.112700 14701.200000
210.140000 916.100000
211.112000 19448.100000
211.148200 12436.500000
213.091100 2752.500000
213.127600 50052.400000
213.163900 13096.700000
214.135900 822.700000
215.107000 5949.200000
215.143200 27100.200000
217.086000 2894.700000
217.122400 5615.400000
217.158800 14749.600000
218.117700 4053.500000
218.167000 4356.800000
219.101800 3188.700000
219.116700 752.800000
219.138100 4186.600000
219.174600 10415.400000
220.097000 85455.000000
221.132900 6818.900000
221.153800 36088.600000
222.112800 5884.800000
223.112100 7297.000000
223.148200 17727.000000
224.128300 28290.600000
225.091200 1332.400000
225.127400 11895.600000
225.163800 9506.400000
226.107500 4483.200000
226.134800 801.700000
227.106800 4067.100000
227.143200 16103.100000
227.179500 15905.000000
228.152000 984.000000
229.122400 14430.500000
229.158800 11028.100000
231.138300 23912.100000
231.174800 5381.000000
232.133800 5347.400000
233.118300 814.200000
233.132600 3596.400000
233.153800 5745.200000
234.112700 101297.500000
235.111900 3300.000000
235.148100 5663.700000
236.092000 17360.100000
236.128500 9166.100000
237.091400 2865.300000
237.127100 6229.900000
237.163900 17615.400000
238.107700 15129.100000
239.106700 7408.700000
239.142800 7695.900000
239.179600 13838.100000
241.122300 6195.700000
241.158800 13862.800000
243.137500 2791.100000
243.174200 5442.600000
245.132200 1157.900000
245.153800 12764.200000
246.112800 7447.500000
247.148400 11380.100000
248.092100 17894.900000
248.128300 5424.600000
249.163900 37321.800000
250.107400 6170.500000
251.106700 1011.400000
251.143300 5929.800000
251.179300 6405.400000
253.122400 4086.700000
253.158800 8601.600000
254.102500 39119.200000
255.137200 2541.500000
255.174600 29425.100000
257.117700 5376.200000
257.153600 2920.400000
257.190300 8613.600000
259.147800 1517.300000
259.169700 3685.000000
261.164100 5191.900000
262.107600 19839.200000
263.142800 2549.700000
263.164400 6207.100000
263.179500 7298.700000
265.158800 44889.200000
265.195400 3754.600000
266.102400 66196.100000
267.138100 4156.500000
267.174400 28990.900000
269.153500 4529.900000
269.191000 5197.800000
273.163500 2642.900000
275.143200 5998.700000
275.179700 3934.900000
277.122300 1013.600000
277.159000 5398.500000
277.195700 1277.600000
278.102300 6475.400000
279.174400 5458.000000
280.118300 5968.900000
281.190200 16380.200000
283.169500 45004.600000
285.185000 16137.600000
286.144100 6269.200000
289.158800 1018.400000
289.195400 5918.500000
290.102200 1552.900000
291.174400 8027.400000
291.210800 3739.200000
292.117800 5046.100000
293.153800 41187.700000
293.189900 3288.300000
294.133400 1528.900000
295.170400 8810.900000
297.184800 5357.400000
299.200600 11852.200000
301.194200 1988.400000
303.211000 3366.200000
304.117200 5434.600000
304.154700 2843.300000
306.134000 7407.500000
307.206000 5792.700000
309.185000 13511.600000
309.220800 1049.900000
310.128100 3063.100000
311.164400 37190.800000
313.215900 1354.200000
315.195400 7636.600000
317.211300 9590.000000
319.169400 11789.400000
321.221000 2728.800000
322.128800 1360.500000
327.195500 14630.700000
329.174700 10012.200000
331.242800 1646.400000
332.149600 15530.200000
336.144200 1612.400000
337.179900 17321.300000
338.158700 1171.600000
339.159800 10404.000000
343.190400 15273.400000
346.165300 4448.200000
349.252500 7448.100000
355.190700 10162.400000
362.160300 3797.900000
368.185700 1089.200000
372.179900 1141.500000
375.216600 8032.900000
386.195400 6463.400000
394.238100 23868.700000
399.289600 5735.600000
404.222000 5021.100000
407.292800 788.500000
412.248300 4744.500000
413.266500 66747.600000
414.269900 62224.800000
422.232700 26647.200000
424.247300 1093.600000
426.264900 6903.300000
440.243400 11265.100000
448.248300 2719.700000
450.228200 2904.800000
458.290000 10083.900000
465.246000 981.600000
466.259600 8325.600000
468.237900 6362.600000
470.290600 6070.700000
472.269700 3181.100000
476.299100 807.000000
479.294200 5497.300000
480.274600 954.500000
482.254100 980.200000
484.269200 2971.700000
486.284400 10258.400000
488.301200 4858.500000
494.252600 1570.200000
498.284000 2606.300000
500.263800 9726.100000
502.315200 5384.800000
504.296200 2575.700000
511.320600 1420.000000
512.262900 3235.800000
512.300700 3791.900000
514.279500 2937.500000
514.316300 9309.900000
516.297000 1445.400000
526.279500 1067.400000
529.330700 3017.000000
530.310300 5148.800000
532.292100 5573.300000
544.290400 1544.900000
548.319900 889.600000
558.306700 7041.700000
561.357500 1283.500000
576.316100 3464.600000
579.366500 1455.100000
658.409700 913.200000
672.430100 1032.300000
700.421200 1077.300000
706.467700 4406.400000
736.441400 1456.300000
768.467000 1383.200000

>ms2peaks
56.049500 8521.300000
57.033500 2981.000000
57.069900 1525.700000
59.049100 4132.600000
65.038600 6198.100000
67.054200 46749.000000
69.033500 65965.900000
69.069900 19454.900000
70.065200 711.300000
71.012700 5297.800000
71.049100 16449.300000
73.028300 1126.700000
75.044000 1240.000000
77.038400 1406.400000
79.054200 63350.100000
80.049400 628.000000
81.033500 3640.700000
81.069900 60034.500000
82.065100 7228.400000
83.049100 19243.400000
83.085500 3761.900000
84.080800 323936.500000
85.028400 2897.600000
85.064800 41798.200000
91.054300 67520.500000
93.070000 103443.100000
95.049200 50673.200000
95.085600 68017.800000
97.064900 25044.600000
97.101300 1439.900000
99.044100 4030.500000
99.080500 6225.800000
101.059700 2487.900000
103.054100 1321.400000
105.044800 4305.900000
105.069900 85774.600000
107.049100 11935.300000
107.085600 120770.000000
109.028500 196863.600000
109.064900 48558.300000
109.101200 26506.200000
110.060100 24254.800000
111.044200 8802.500000
111.080500 44771.300000
112.075800 1343.700000
113.059800 6030.100000
115.054200 6816.500000
116.062100 851.500000
117.070000 24331.600000
119.049000 4993.200000
119.085600 99595.300000
121.064900 36943.300000
121.101200 36030.600000
123.044100 22329.300000
123.080500 27489.600000
123.116900 2967.600000
125.059700 15284.400000
125.096400 6940.400000
127.039000 3445.900000
127.075500 2917.900000
128.062200 9204.900000
128.070700 116282.400000
129.069900 34486.100000
130.086400 105331.000000
131.085600 60513.400000
133.064800 12110.700000
133.101300 64707.000000
135.044200 11226.200000
135.080500 35661.600000
135.116900 34373.000000
136.112200 7969.300000
137.059800 18041.000000
137.096300 12710.500000
137.132400 3951.500000
138.055100 818.500000
139.039000 8622.800000
139.075400 5872.500000
139.111700 1477.000000
140.070400 1362.500000
141.054700 2727.800000
141.069800 8437.300000
141.090900 2450.900000
142.077800 10969.800000
143.085600 93619.900000
144.093400 5914.400000
145.065100 8031.100000
145.101300 87568.300000
146.072700 777.900000
147.080500 40310.400000
147.116900 34231.800000
148.088200 1300.300000
148.112100 685.700000
149.059800 16796.600000
149.096200 25741.000000
149.132500 4138.000000
150.091400 2562.200000
151.039100 5017.000000
151.075400 9418.100000
151.111800 8651.800000
152.107100 53661.600000
153.054700 17117.500000
153.069800 4365.600000
153.091300 2605.600000
154.077800 1509.100000
155.033900 2915.000000
155.085600 18287.800000
156.065600 2574.200000
156.093500 25874.100000
157.064800 6849.100000
157.101300 64494.900000
158.072800 748.200000
158.109300 4796.900000
159.080500 17027.500000
159.116900 55711.900000
160.088300 2632.600000
160.124800 1524.500000
161.096200 38175.500000
161.132500 53905.300000
163.075500 10313.900000
163.111800 28833.600000
163.148100 3467.300000
164.107000 4305.300000
165.054800 8043.600000
165.069900 4876.000000
165.091300 5256.700000
165.127300 1572.300000
166.077900 987.600000
167.070300 3934.300000
167.085500 5849.300000
168.093300 7494.600000
168.101300 2183.700000
168.138200 1606.400000
169.049300 3189.100000
169.101200 29545.900000
170.109100 7579.800000
171.080500 13428.400000
171.116900 117400.100000
172.088100 3019.300000
172.124900 2899.700000
173.096200 23130.400000
173.132600 32679.000000
174.103800 1370.800000
175.075500 25084.900000
175.111900 18813.400000
175.148100 9189.100000
176.107000 1044.800000
177.054600 1176.100000
177.091200 9939.200000
177.127500 7502.200000
178.078100 846.700000
178.086500 1394.900000
179.070100 3120.400000
179.085600 5327.500000
179.106700 5003.200000
179.142900 1013.700000
180.093500 5057.700000
180.101800 35356.200000
181.085700 1036.200000
181.101300 13624.400000
181.121700 926.000000
182.109000 5729.300000
182.117200 1246.600000
183.065100 3066.900000
183.080500 4932.200000
183.116900 39724.000000
184.088600 1597.500000
184.125000 3522.000000
185.096200 14113.900000
185.132600 53047.800000
186.103700 3502.500000
186.140100 1441.100000
187.060000 2655.900000
187.075300 4257.200000
187.111900 21235.900000
187.148300 18040.500000
188.119400 1425.500000
189.091000 17748.900000
189.127500 45114.000000
190.122500 1056.200000
191.070300 2733.400000
191.106800 4076.900000
191.143300 2589.300000
192.094000 4283.000000
192.101900 74717.000000
193.085900 2861.100000
193.101300 12331.700000
194.108800 4374.500000
195.065800 2023.700000
195.117000 35044.800000
196.088000 2696.200000
196.096700 878.800000
196.124600 5066.400000
196.133300 7424.500000
197.080700 2822.900000
197.096100 7606.900000
197.132600 24768.000000
198.104100 4495.600000
199.075500 2618.000000
199.112000 16330.000000
199.148200 18007.300000
200.119500 1531.700000
201.091200 5815.100000
201.127500 23559.200000
201.163800 3356.200000
203.106700 5247.300000
203.143300 31947.700000
204.102000 1008.500000
205.085800 2643.200000
205.101100 3807.500000
205.122300 3525.800000
205.158700 1390.000000
206.108900 3451.000000
206.117700 8626.400000
207.101300 1387.000000
207.116900 15877.800000
207.138000 4079.300000
208.088600 1330.300000
208.097100 20593.300000
208.125000 7600.500000
209.096200 5846.400000
209.132600 16516.200000
210.103900 2542.900000
210.112600 11038.900000
210.140500 2514.100000
211.112000 19793.600000
211.148200 12675.400000
212.119600 4489.400000
213.091000 4312.600000
213.127600 30266.600000
213.163600 5065.600000
214.135600 3066.200000
215.106900 7060.200000
215.143200 13573.600000
217.085900 1277.200000
217.101000 1216.200000
217.122500 3779.100000
217.158800 6829.900000
218.108700 2623.500000
218.117700 2633.800000
218.166700 2492.000000
219.101500 1065.800000
219.117300 6599.300000
219.137800 1465.800000
220.097000 30244.500000
220.124900 2516.800000
221.096300 1492.300000
221.132500 11158.700000
221.153900 7540.300000
222.103300 1050.100000
222.112500 2728.700000
222.140600 5654.500000
223.111900 10852.400000
223.148000 10331.500000
224.119100 2412.300000
224.128300 3303.300000
225.090600 1403.300000
225.127500 11301.400000
225.164100 4987.900000
226.108200 893.500000
226.135400 3252.000000
227.107000 5102.200000
227.143200 8989.800000
227.179500 8621.500000
228.150200 736.600000
229.122400 9438.200000
229.158900 4438.200000
231.116600 1229.900000
231.138000 5998.400000
232.124400 3600.500000
232.134100 2306.700000
233.116600 780.100000
233.132400 3656.200000
233.153400 887.000000
234.112800 21830.600000
234.140100 5813.500000
235.111600 3263.300000
235.148400 5096.600000
236.092000 2383.800000
236.128400 2624.500000
237.091200 1073.500000
237.127400 5075.500000
237.163800 13439.900000
238.107500 3033.800000
239.106900 5589.900000
239.143500 8574.100000
239.179300 3407.500000
240.150800 1379.400000
241.122500 5954.000000
241.159100 7144.100000
243.137800 4625.400000
243.174100 1597.900000
245.097000 898.000000
245.132100 2829.600000
245.153700 1415.500000
246.112400 843.300000
247.148100 7259.800000
248.128200 2853.600000
249.127300 4224.600000
249.163900 8276.000000
250.106900 749.700000
250.134900 2664.400000
251.106700 2812.800000
251.143300 6531.700000
251.179000 2601.000000
252.113900 1071.200000
253.121900 1219.500000
253.158500 3128.800000
254.102100 1329.700000
255.137900 1123.500000
255.174400 12495.100000
257.117000 3693.700000
257.131300 1032.400000
257.153100 865.100000
257.190100 761.200000
259.147800 1096.600000
259.169800 989.800000
261.164300 3997.100000
262.107200 1540.400000
263.143200 1584.100000
263.179600 3404.900000
265.159000 16078.300000
265.194800 1063.900000
266.102800 5621.500000
267.138100 2546.000000
267.174600 8085.600000
269.153200 2551.500000
269.189500 705.400000
273.163500 1359.900000
275.142200 1385.900000
277.122700 840.000000
277.158400 944.900000
278.102000 1221.300000
279.173900 1090.700000
281.189900 3695.500000
283.169800 12870.500000
285.184600 2891.800000
286.143600 905.500000
289.157300 965.100000
289.194700 1414.300000
291.173700 2645.300000
293.154200 8222.600000
293.189400 1306.800000
295.168000 1074.200000
297.184600 1320.000000
299.200100 3720.700000
304.118900 1330.900000
304.154400 830.000000
306.132600 877.000000
307.205400 1001.800000
309.184300 3020.300000
311.164100 8390.700000
313.215300 808.800000
315.194800 1256.900000
319.168600 1197.700000
327.195800 3107.700000
329.174900 1348.900000
332.149100 1548.000000
337.179500 1508.700000
355.190400 751.900000

>ms2peaks
56.049500 17883.300000
57.033500 3182.800000
57.069900 1528.300000
59.049200 5502.500000
65.038600 12392.100000
67.054300 82943.600000
69.033500 92173.900000
69.069900 25878.700000
70.065100 864.200000
71.012800 11942.500000
71.049200 16688.600000
73.064800 1260.800000
74.096500 2730.300000
75.043900 581.800000
77.038600 3078.400000
78.046300 1388.300000
79.054200 106616.100000
80.049600 903.500000
81.033500 9427.400000
81.069900 71442.900000
82.028800 2961.600000
82.065100 14037.700000
83.049200 21829.300000
83.085600 3548.200000
84.080800 342243.500000
85.028500 3279.000000
85.064800 33503.200000
87.044200 942.600000
91.054300 155620.600000
93.070000 134027.400000
94.041400 1216.600000
94.077800 2753.600000
95.049200 65484.800000
95.085600 63149.300000
96.080800 1057.300000
97.064900 21828.300000
99.044100 2984.200000
99.080500 4374.100000
101.059900 1446.800000
103.054300 7998.500000
104.062000 1027.200000
105.044800 10411.700000
105.070000 154541.300000
106.077700 1022.900000
107.049200 17348.700000
107.085600 117774.900000
108.057100 2809.600000
109.028500 267933.800000
109.064900 52999.900000
109.101300 17636.000000
110.060100 15264.100000
110.072400 1031.400000
110.096500 858.100000
111.044100 8108.900000
111.080500 39629.400000
112.075800 1057.900000
113.059600 5059.300000
115.054300 14441.300000
116.062000 6736.100000
117.069900 42549.600000
118.077800 885.000000
119.049300 7698.000000
119.085600 128567.400000
120.093600 1079.700000
121.028500 2309.900000
121.064900 40531.100000
121.101300 22799.700000
123.044100 25787.600000
123.080500 22133.200000
124.052200 823.200000
124.112200 1158.400000
125.059800 13719.700000
125.096300 3929.200000
127.038900 1160.900000
127.075900 827.100000
128.062300 40027.600000
128.070700 91923.300000
129.069900 58964.000000
130.078200 13350.100000
130.086400 39164.100000
131.085600 73228.500000
132.056600 725.600000
132.093500 2424.300000
133.064900 15798.500000
133.101300 57821.900000
134.072700 2265.600000
135.044000 11460.100000
135.080500 31147.100000
135.116800 11187.000000
136.112100 8652.200000
137.023500 1280.700000
137.059800 16187.000000
137.096300 6115.300000
137.133000 902.300000
139.039100 5532.300000
139.075400 4783.900000
139.112000 749.900000
141.054800 1413.800000
141.070000 19357.100000
141.090900 1512.800000
142.077800 36148.800000
143.085700 101988.300000
144.057300 1062.300000
144.093400 13971.300000
145.064900 9432.700000
145.101300 79208.300000
146.072700 6260.900000
146.109500 1316.800000
147.080500 32611.800000
147.116900 20800.600000
148.088500 4630.000000
149.023500 1391.400000
149.059700 10935.400000
149.096200 13878.400000
149.132700 939.300000
150.091300 876.500000
151.039300 2404.500000
151.075500 6873.900000
151.112000 3974.100000
152.107100 18872.900000
153.054900 6507.200000
153.070000 8388.700000
153.091000 875.800000
154.077700 7750.000000
155.034000 5344.900000
155.060600 3691.700000
155.085600 32872.800000
156.093500 41188.900000
157.064800 6767.700000
157.101300 56581.900000
158.072800 5626.000000
158.109000 9130.300000
159.080500 18141.800000
159.116900 35105.400000
160.088500 3305.700000
160.124700 1558.000000
161.059800 2921.400000
161.096200 28616.100000
161.132600 19054.300000
162.103700 1186.600000
163.075400 6698.900000
163.111800 8531.900000
164.107100 3360.900000
165.055000 6910.200000
165.069900 15832.400000
165.091000 2948.400000
166.077800 6086.700000
167.070300 1361.300000
167.085600 15564.000000
168.093400 15067.700000
169.049700 4024.800000
169.065300 2831.200000
169.101200 27136.600000
170.073000 675.000000
170.109100 13215.000000
171.080500 11823.100000
171.116900 43149.000000
172.088300 7105.800000
172.124600 1458.700000
173.096200 16880.800000
173.132600 14740.400000
174.067700 833.500000
174.104200 4629.700000
175.075500 16132.600000
175.111700 10547.100000
175.148200 2516.600000
177.091100 3609.200000
177.127400 1379.600000
178.077800 3782.700000
178.085500 582.600000
179.070500 1508.900000
179.085700 12488.500000
179.106500 1007.400000
180.093500 10275.100000
180.101900 5658.800000
181.064600 2694.700000
181.101300 16694.800000
182.072400 704.500000
182.109300 9420.000000
182.117000 1888.100000
183.065900 1482.300000
183.080600 8217.000000
183.117000 27901.500000
184.088400 2797.100000
184.124900 4062.000000
185.096200 15379.400000
185.132700 23370.200000
186.103900 4755.400000
187.060300 5297.200000
187.075500 3126.600000
187.111700 12069.000000
187.148500 2648.200000
188.119700 1338.500000
189.091000 6607.100000
189.127400 9463.900000
191.085600 3429.600000
191.106600 1336.200000
191.142900 1215.200000
192.093300 8494.600000
192.102000 16370.000000
193.086800 1022.600000
193.101200 14863.800000
194.109200 7730.900000
195.065300 1178.700000
195.080400 4983.500000
195.116900 21124.600000
196.088300 4425.000000
196.096400 733.500000
196.124900 6512.700000
197.096200 7973.300000
197.132600 12312.700000
198.104200 7380.600000
199.075300 1521.600000
199.111900 10607.700000
199.148200 3572.100000
200.119500 896.100000
201.091400 2973.800000
201.127600 7175.300000
203.085600 1215.400000
203.106700 1054.600000
203.143300 5301.500000
204.093600 2794.500000
205.085900 960.800000
205.101400 7339.000000
205.122100 693.600000
206.109100 5988.500000
207.117100 12406.300000
208.088300 3264.800000
208.096900 2130.600000
208.125000 4167.300000
209.096300 8121.300000
209.132500 7450.700000
210.104000 3192.900000
210.112700 4201.900000
211.111900 10126.500000
211.148400 4219.900000
212.119800 2872.300000
213.091700 688.400000
213.127300 9434.500000
213.163900 731.800000
214.135400 994.800000
215.085600 801.900000
215.106800 3103.400000
215.143100 3090.200000
216.093500 878.500000
217.085400 957.500000
217.101500 4320.200000
217.158000 975.600000
218.108900 1446.300000
219.117100 6418.300000
220.088100 719.400000
220.097100 6151.600000
220.124700 1314.600000
221.096100 3037.400000
221.132900 6459.700000
221.154200 1123.800000
222.103900 1534.400000
222.140500 2977.700000
223.075100 979.800000
223.112100 5305.200000
223.148200 3305.900000
224.119700 2499.000000
225.127600 5696.500000
225.163800 1423.400000
226.135000 1452.900000
227.106700 2983.200000
227.143400 3152.100000
227.179100 1189.200000
229.101900 1308.400000
229.122400 3360.000000
229.159100 1289.800000
231.117100 2979.500000
231.137900 765.100000
232.124400 3761.800000
233.096500 1002.500000
233.132600 3931.200000
234.113400 1325.800000
234.140400 2709.100000
235.112000 3914.000000
235.148300 1455.500000
236.119700 1279.400000
237.127400 3391.600000
237.163600 2960.500000
239.106500 3027.000000
239.143000 1325.200000
240.149900 637.600000
241.122900 1061.100000
241.158700 990.100000
243.137900 1077.500000
245.132000 720.100000
247.148000 2569.700000
249.127600 1408.200000
249.164300 826.000000
250.135500 1339.400000
251.143000 967.200000
251.179000 724.000000
253.122100 824.600000
255.174800 1558.300000
257.132600 1321.200000
261.163200 820.600000
265.158700 1440.000000
275.180600 816.500000
283.168400 870.200000
293.152400 822.300000

>ms2peaks
56.049500 31580.100000
57.033500 3052.700000
57.069900 3246.400000
59.049200 5310.700000
63.022700 1059.200000
65.038600 29098.800000
66.046400 1105.300000
67.054200 114368.000000
69.033500 64805.500000
69.069900 22554.000000
71.012800 15370.500000
71.049100 15993.800000
73.028400 1158.100000
73.064800 892.500000
74.096500 1455.400000
77.038400 8741.600000
78.046400 3833.900000
79.054200 162177.900000
80.049400 1257.300000
80.062000 1141.200000
81.033500 16781.600000
81.069900 75774.800000
82.028800 3900.500000
82.041300 2870.600000
82.065200 13744.700000
83.012900 1219.600000
83.049100 15236.200000
83.085500 2596.700000
84.080800 358487.100000
85.028400 3219.500000
85.064800 30564.200000
87.044100 675.000000
91.054300 273284.900000
92.062100 3092.900000
93.070000 117798.800000
94.041400 5101.100000
94.065400 915.500000
94.077800 2980.700000
95.049200 93152.600000
95.085600 45296.900000
96.057100 1384.500000
96.080800 1033.900000
97.064900 16673.000000
99.044000 1185.700000
99.080500 2427.400000
101.059600 744.300000
103.054300 17585.400000
104.062100 5178.000000
105.044800 27017.500000
105.069900 195116.300000
106.077600 1337.100000
107.049200 16457.400000
107.085500 81777.300000
108.056900 5442.200000
108.080900 1361.100000
109.028500 267813.500000
109.064900 48699.600000
110.060000 8316.600000
110.072700 923.800000
110.096600 1195.900000
111.044100 8524.300000
111.080500 22502.900000
112.075600 1014.800000
113.059700 3155.800000
115.054300 33768.600000
116.062100 13269.900000
117.069900 63718.100000
118.077700 3946.200000
119.049300 6958.300000
119.060400 8385.600000
119.085600 119282.500000
120.057100 995.100000
120.080900 630.000000
120.093700 1100.200000
121.028400 3578.300000
121.064800 29593.200000
121.101200 14577.300000
122.072800 1320.200000
122.096500 902.600000
123.044000 17955.300000
123.080500 14160.900000
124.052100 798.800000
125.023700 718.300000
125.059700 8153.000000
125.096300 696.000000
127.038900 913.700000
127.054100 1244.100000
127.074900 665.200000
128.062100 81645.800000
128.070500 48532.600000
129.069900 76140.600000
130.077900 23262.000000
130.086200 16049.000000
131.049100 4262.500000
131.085600 72681.100000
132.057000 3899.300000
132.093300 2718.000000
133.064900 12310.800000
133.101200 31349.500000
134.072600 1059.600000
135.044100 10802.000000
135.080400 18406.800000
135.116900 3063.800000
136.112200 6253.300000
137.023600 1148.800000
137.059800 9924.400000
137.096200 3507.700000
139.039200 4623.300000
139.075300 1384.400000
140.070900 762.800000
141.069900 46441.400000
142.077800 56154.600000
143.085600 80933.400000
144.057000 4676.300000
144.093400 14597.900000
145.065000 15741.700000
145.101300 43896.500000
146.072700 7610.300000
146.109100 2455.500000
147.080500 16179.200000
147.116800 8319.400000
148.088300 2456.500000
148.112100 708.100000
149.023500 801.200000
149.059700 5109.100000
149.096100 4051.500000
150.091400 1000.500000
151.075300 4051.500000
151.111700 1000.400000
152.061900 4839.100000
152.107000 3350.100000
153.054700 1338.900000
153.070000 21861.900000
154.077800 14130.200000
155.034100 4670.500000
155.060500 8503.000000
155.085600 42501.300000
156.093500 45415.900000
157.065000 7900.900000
157.101300 33092.100000
158.072800 6396.100000
158.109000 6895.700000
159.080600 15163.600000
159.116900 15851.200000
160.088200 4339.500000
160.124400 699.900000
161.059900 2485.200000
161.096200 14325.100000
161.132500 5153.100000
162.103200 604.500000
163.075500 2981.900000
163.111600 1385.200000
164.107100 1449.200000
165.070000 29417.400000
166.077700 11457.200000
167.085600 22292.200000
168.093400 13920.300000
169.049600 1442.300000
169.064800 1405.100000
169.101300 22457.200000
170.072600 1556.800000
170.109100 8353.400000
171.080500 11588.100000
171.116900 16399.600000
172.088300 8678.600000
173.059600 663.100000
173.096300 10511.900000
173.132500 5920.300000
174.067700 952.900000
174.104100 1490.900000
175.075300 5819.900000
175.112000 3801.300000
177.091500 844.500000
178.077800 9779.300000
179.070300 993.200000
179.085600 18303.500000
180.093500 13209.700000
181.064900 3576.500000
181.101300 17759.100000
182.072600 3942.000000
182.109200 5289.300000
182.117000 1696.800000
183.064800 643.700000
183.080500 8934.000000
183.116900 12701.900000
184.088400 4263.700000
184.124700 667.600000
185.096300 5200.200000
185.132500 4818.600000
186.103800 2712.900000
187.059900 1396.200000
187.111900 4311.700000
189.070100 1103.300000
189.090700 2053.500000
189.127700 1378.700000
190.077800 1498.600000
191.085500 7322.400000
192.093400 6871.600000
192.101500 1999.800000
193.101300 15518.400000
194.109200 5856.300000
195.080400 6674.500000
195.116900 9663.900000
196.088400 4263.400000
196.124800 1468.900000
197.096000 5802.500000
197.132600 4102.700000
198.103900 3310.500000
199.075500 1018.100000
199.111900 5160.700000
200.119300 752.400000
201.127400 1407.300000
202.077800 1332.900000
203.085700 3597.500000
204.093600 1430.600000
205.101400 6322.900000
206.109100 5123.400000
207.080200 928.700000
207.116900 8456.500000
208.088200 2861.700000
208.125100 1033.700000
209.096300 5621.800000
209.132900 2852.400000
210.104100 2292.000000
210.113100 766.000000
211.111900 4160.600000
212.119800 796.400000
213.090500 716.900000
213.127400 1038.200000
215.086100 1078.400000
216.093700 1135.000000
217.101100 5248.400000
218.109100 1485.100000
219.080300 713.100000
219.117500 4659.500000
220.088000 839.700000
220.123700 879.400000
221.095800 3232.500000
221.132300 1294.900000
222.104600 1193.700000
223.074800 758.500000
223.112000 2813.900000
224.120000 1028.400000
225.090100 742.300000
225.127600 1492.900000
229.101900 825.500000
231.117300 4534.800000
232.125100 1487.700000
233.096200 907.100000
233.132900 1124.400000
235.111500 2487.000000
236.119600 830.200000
237.127900 1164.300000
239.107100 608.900000
245.097000 741.000000
247.147600 704.000000
249.127500 828.200000
251.107300 677.700000
252.113700 860.500000

>ms2peaks
56.049500 56433.900000
57.033500 3092.800000
57.069900 3098.400000
59.049200 4692.100000
63.022800 1109.900000
65.038600 52294.800000
66.046400 5591.600000
67.054200 125073.700000
68.049500 1438.200000
68.997200 2802.000000
69.033500 37170.300000
69.069900 15776.700000
71.012800 11848.500000
71.049100 10723.000000
73.064900 568.200000
74.096500 1248.300000
77.038500 13676.200000
78.046400 5369.700000
79.054200 172576.200000
80.062100 2838.800000
81.033500 23458.000000
81.069900 54577.800000
82.028800 1420.600000
82.041400 2589.200000
82.065200 9207.800000
83.049100 12654.300000
83.085700 641.500000
84.080800 317491.900000
85.028500 1464.100000
85.064800 18609.300000
89.038600 760.800000
91.054300 343972.700000
92.062100 3901.000000
93.070000 79043.100000
94.041400 5832.500000
94.065300 684.200000
94.077600 4567.900000
95.049200 128728.400000
95.085500 29602.600000
96.056900 971.500000
97.028600 1054.000000
97.064900 7639.500000
99.080400 777.900000
101.059800 776.500000
103.054300 35884.300000
104.062100 8504.800000
105.044800 50549.500000
105.070000 185276.700000
106.041500 898.500000
106.077700 1102.700000
107.049200 16030.800000
107.085600 40710.200000
108.057100 5821.400000
108.080800 991.100000
109.028500 218864.400000
109.064900 37159.800000
110.060000 2285.700000
110.072700 777.200000
110.096500 705.100000
111.044100 5239.900000
111.080500 10012.400000
115.054300 57787.100000
116.062100 24139.700000
117.069900 68246.900000
118.077800 3975.400000
119.049200 5158.400000
119.060500 7530.800000
119.085600 79887.500000
120.057300 1187.900000
120.081100 837.600000
120.093500 1141.400000
121.064800 21854.400000
121.101300 4108.800000
122.072500 1416.100000
122.096600 581.100000
123.044200 6128.100000
123.080500 7595.900000
124.112200 848.000000
125.023400 940.900000
125.059700 2462.900000
127.054100 3666.500000
128.062100 112758.500000
129.069900 87189.900000
130.077800 27851.200000
130.086300 4040.700000
131.049100 7893.600000
131.085600 42687.100000
132.056900 4355.100000
132.093300 2705.800000
133.064800 12058.900000
133.101200 17883.700000
135.044200 7461.100000
135.080400 7656.000000
136.112200 3469.500000
137.023300 663.400000
137.059900 3750.400000
139.039200 951.000000
139.075300 1168.100000
141.069900 82935.200000
142.077800 59296.800000
143.085600 45941.800000
144.057000 3871.400000
144.093400 10353.200000
145.064900 21373.200000
145.101200 20248.000000
146.072700 5192.600000
147.080400 9161.900000
147.116700 1150.700000
149.059900 3050.100000
149.096200 3405.600000
150.091600 786.000000
151.039000 676.400000
151.075000 1075.100000
152.062100 9175.500000
153.069900 33537.100000
154.077800 14061.600000
155.060500 13151.100000
155.085600 42281.100000
156.093500 28347.500000
157.065000 7544.100000
157.101300 14979.800000
158.072700 5695.400000
158.109000 3038.800000
159.080600 10868.000000
159.117100 5564.600000
160.088400 2756.200000
161.059700 1031.800000
161.096100 3603.700000
163.075500 766.800000
164.107200 893.100000
165.070000 39215.300000
166.077800 13371.100000
167.085600 25154.500000
168.093500 9662.800000
169.064800 6991.600000
169.101200 12177.300000
170.072700 1364.000000
170.109400 3101.400000
171.080500 9016.500000
171.117000 4970.800000
172.088100 3490.000000
173.059800 649.500000
173.096200 4901.600000
175.075500 1185.800000
178.077900 17472.900000
179.085600 24042.300000
180.093500 6449.600000
181.064900 3731.900000
181.101200 11211.200000
182.072900 2396.300000
182.109100 3713.700000
182.117100 1039.800000
183.080400 5916.900000
183.116900 3990.700000
184.088300 1139.900000
185.096300 4690.200000
187.075400 1264.800000
189.070000 2770.900000
190.077900 2860.900000
191.085600 13468.500000
192.093600 9147.000000
193.101200 10964.800000
194.109700 863.800000
195.080300 4115.100000
195.117000 4589.100000
196.088400 3124.600000
197.096200 3974.300000
197.132900 734.400000
198.103700 980.400000
202.077600 5208.600000
203.085600 5145.200000
204.093600 2291.000000
205.101300 3944.400000
206.109200 3228.600000
207.080900 1149.600000
207.116900 1342.700000
208.088000 980.900000
209.096300 4066.800000
210.104000 819.700000
211.112000 1108.900000
215.085700 4253.900000
216.093200 1273.800000
217.100900 1463.800000
218.108600 771.200000
219.081000 1002.900000
219.116800 2791.700000
221.095700 1043.300000
223.111700 866.900000
229.101100 1195.700000
231.116400 661.800000
233.132400 833.100000
235.111700 930.200000

>ms2peaks
56.049500 84082.100000
57.033500 844.500000
57.069900 1081.000000
59.049200 2377.700000
63.022900 4808.700000
65.038600 118862.000000
66.046400 11439.500000
67.017900 7069.700000
67.054200 95935.900000
68.025700 991.200000
68.049600 1047.700000
68.997100 3080.900000
69.033500 12196.200000
69.057400 2241.700000
69.069900 4345.700000
71.012700 10704.500000
71.049100 5815.300000
77.038600 27458.100000
78.046400 16005.500000
79.054200 148644.500000
80.049400 1074.700000
80.062100 2883.700000
81.033500 22641.600000
81.069900 22995.400000
82.028900 790.000000
82.041400 3690.000000
82.065200 6260.800000
83.012900 598.000000
83.049200 5097.200000
84.080800 158480.600000
85.028400 929.600000
85.064900 3717.000000
87.044200 835.800000
89.038600 3775.600000
91.054300 370604.200000
92.062100 5572.900000
93.070000 26701.200000
94.041300 6549.300000
94.065300 1344.400000
94.077600 648.900000
95.049200 165754.500000
96.057000 2264.900000
97.064900 1231.300000
102.046400 5736.500000
103.054300 51285.000000
104.062100 13031.500000
105.044800 87409.200000
105.070000 94571.400000
107.049100 8480.500000
107.085600 5802.200000
108.057000 2898.800000
109.028500 89810.300000
109.064900 12720.000000
110.060100 596.600000
111.044200 1062.100000
115.054300 145205.200000
116.062100 25887.900000
117.069900 42529.500000
118.077800 2340.400000
119.049400 3100.800000
119.060400 4236.300000
119.085600 18488.700000
121.064900 5507.600000
122.073200 633.100000
126.046600 1279.900000
127.054300 11668.500000
128.062100 157025.900000
129.069900 68178.900000
130.077800 9149.200000
131.049200 7381.700000
131.085600 14270.700000
132.057000 3987.100000
133.064800 3436.900000
133.101400 831.200000
135.044000 892.100000
135.080400 2070.800000
139.054400 1281.300000
141.069900 107673.400000
142.077800 27235.100000
143.085700 11110.300000
144.057000 3608.100000
144.093300 1137.700000
145.064900 16550.200000
145.101200 1201.200000
146.072800 946.600000
147.080400 999.000000
152.062200 31399.000000
153.070000 42176.800000
154.077700 11445.200000
155.060500 19025.800000
155.085600 21049.000000
156.093600 4853.900000
157.065000 4345.700000
157.101100 1312.700000
158.072600 1259.800000
159.080700 2330.500000
161.096000 762.300000
165.070000 60308.400000
166.077800 8614.700000
167.085500 13163.600000
168.057200 3140.000000
168.093400 2591.000000
169.064600 5321.100000
169.101000 1134.800000
171.080600 2296.000000
176.062100 1407.600000
177.069900 3038.000000
178.077800 26914.800000
179.085700 12720.700000
180.093300 826.600000
181.064900 4241.000000
181.101500 2282.100000
182.072000 907.700000
183.080600 2307.200000
189.070100 7059.700000
190.077900 6111.400000
191.085600 9148.200000
192.093500 3474.800000
193.101200 934.100000
194.072000 610.000000
195.080700 2476.300000
197.096500 856.300000
202.077700 8208.900000
203.085700 3386.200000
204.093000 1042.700000
205.101200 1011.500000
209.095700 825.900000
215.085700 3112.000000
216.093700 1229.500000

>ms2peaks
56.049500 92671.100000
57.033600 2266.200000
57.069900 1091.200000
59.049200 1415.100000
63.022800 4470.300000
65.038600 121502.900000
66.046400 12127.500000
67.017900 4606.500000
67.054200 88635.800000
68.025700 1163.000000
68.049400 931.400000
68.997100 3643.600000
69.033500 9971.700000
69.057300 2979.300000
69.069900 6395.100000
71.012800 9921.500000
71.049100 3687.300000
74.096500 1302.900000
77.038600 31233.300000
78.046400 18653.900000
79.054200 153311.200000
80.049500 835.400000
80.062100 3346.700000
81.033500 26384.000000
81.069900 22088.300000
82.028900 663.300000
82.041400 3325.500000
82.065100 6087.100000
83.049100 4347.900000
84.080800 149907.900000
85.028500 966.900000
85.064900 4279.100000
89.038600 4115.500000
91.054300 366589.100000
92.062000 3603.100000
93.070000 23709.400000
94.041500 6263.000000
94.065200 2372.200000
94.077700 956.200000
95.049200 165363.300000
96.057100 942.100000
97.028500 957.000000
97.064900 1090.600000
102.046500 7045.100000
103.054300 51593.900000
104.062100 11866.600000
105.044800 85835.600000
105.070000 88408.200000
106.041700 1106.400000
107.049300 10746.200000
107.085400 4662.200000
108.057100 2673.200000
108.080900 850.900000
109.028500 81361.800000
109.064900 12034.500000
111.080700 810.900000
115.054300 142192.400000
116.062100 26024.000000
117.069900 44938.100000
118.077900 2329.500000
119.049300 2411.300000
119.060500 3460.200000
119.085600 18635.900000
121.064900 4125.900000
123.044400 818.100000
123.080400 900.300000
126.046600 2436.500000
127.054300 9350.200000
128.062100 172484.800000
129.070000 69976.400000
130.077900 9564.800000
131.049200 8415.300000
131.085600 9747.100000
132.057100 1441.800000
133.064900 2865.300000
133.101300 839.600000
135.044100 709.400000
135.080500 1186.000000
136.112500 702.000000
139.054200 2633.400000
140.062300 928.400000
141.069900 104593.700000
142.077900 21563.800000
143.085700 10077.600000
144.056900 4098.500000
144.093600 2539.500000
145.064900 17217.300000
145.101400 938.800000
152.062200 37585.000000
153.070000 44540.100000
154.077800 9274.900000
155.060400 19815.400000
155.085600 22206.900000
156.093400 2589.900000
157.064800 4603.100000
157.101700 1404.600000
158.073200 2042.900000
159.080500 1455.900000
165.070000 56986.600000
166.077900 9377.500000
167.085600 11423.300000
168.056900 2451.800000
168.093600 1053.900000
169.064900 5863.700000
169.101400 2538.300000
171.080600 2644.500000
176.062100 2370.800000
177.070100 2957.700000
178.077900 22487.600000
179.085600 12234.300000
181.065300 5799.600000
181.101600 730.800000
183.080500 784.100000
185.095800 607.300000
189.069900 8964.700000
190.077600 3794.000000
191.085600 8729.600000
192.093200 2645.800000
193.101600 2777.100000
194.072800 682.600000
195.080700 2492.800000
202.077800 9204.800000
203.085500 3483.900000
204.093200 1029.300000
205.064800 1092.700000
205.101200 773.900000
207.080500 733.100000
215.085400 3134.600000
217.101000 651.300000
229.102200 938.800000

>ms2peaks
56.049500 87203.700000
57.033500 1050.900000
57.069900 990.600000
59.049200 2331.100000
63.022900 5546.700000
65.038600 129733.500000
66.046400 10066.800000
67.017900 5393.300000
67.054200 85146.000000
68.025700 819.200000
68.049600 2340.600000
68.997100 4107.600000
69.033500 13024.800000
69.057300 4507.700000
69.069900 3425.600000
71.012700 8163.500000
71.049100 4869.400000
77.038600 31515.100000
78.046400 18740.100000
79.054200 155417.600000
80.049400 1105.500000
80.062100 3267.400000
81.033500 27162.700000
81.069900 21776.600000
82.028900 658.400000
82.041400 3578.800000
82.065200 6582.900000
83.049100 5081.500000
84.080800 155461.900000
85.028400 668.300000
85.064900 4970.000000
89.038600 3808.800000
91.054300 376609.400000
92.062100 5240.400000
93.069900 23611.600000
94.041400 8024.600000
94.065300 695.200000
95.049200 169360.500000
96.057000 2245.300000
97.028400 934.900000
97.064900 1324.800000
101.059600 564.900000
102.046400 6438.900000
103.054300 52028.900000
104.062000 12366.200000
105.044800 90678.500000
105.070000 95097.600000
106.041600 648.700000
107.049200 8058.900000
107.085600 6105.700000
108.056900 1069.900000
109.028500 86460.100000
109.064900 12143.600000
111.044100 1257.100000
115.054300 141029.200000
116.062100 24746.900000
117.069900 42135.400000
118.077700 1171.000000
119.049100 2270.300000
119.060600 1164.300000
119.085600 19297.500000
121.064900 6779.600000
126.046500 2818.700000
127.054200 10965.400000
128.062100 168681.500000
129.069900 67864.600000
130.077800 10278.500000
131.049200 8907.200000
131.085500 10871.100000
132.057000 1395.800000
133.064900 3484.500000
135.044300 1210.200000
135.080700 1244.800000
139.054400 2726.900000
140.061800 618.000000
141.069900 97355.700000
142.077800 24408.300000
143.085700 10530.000000
144.057000 2358.600000
144.093400 1227.300000
145.064900 17456.200000
145.101500 1278.100000
147.080400 810.200000
152.062100 34515.600000
153.070000 42887.300000
154.077800 11245.100000
155.060400 22595.800000
155.085600 23822.800000
156.093600 2325.900000
157.064700 4513.400000
157.101200 1034.900000
158.072300 622.200000
159.080600 2174.900000
165.070000 58112.700000
166.077900 10284.200000
167.085500 11760.300000
168.057000 3157.400000
168.093000 2132.000000
169.065200 4894.600000
169.101200 1307.700000
171.080200 851.600000
176.061900 1004.100000
177.069800 2801.800000
178.077800 29436.800000
179.085600 9920.100000
180.093600 925.300000
181.064800 5711.500000
181.101300 1037.900000
182.072600 874.000000
183.080400 986.700000
189.069900 9663.400000
190.077800 4209.600000
191.085700 7177.000000
192.093400 3381.800000
193.101300 672.800000
194.073200 840.300000
195.080000 822.800000
202.077900 6847.600000
203.085400 5747.900000
204.093500 963.700000
205.064900 722.300000
205.101100 1417.800000
207.080200 879.600000
215.085700 3929.900000
216.093700 1081.100000
229.101700 880.800000

