>compound EQ91239244
>parentmass 311.2118
>ionization [M+H]+
>formula C20H26N2O
>rt 534.000000
>profile orbitrap
#smiles_iso CC(CN1C2=CC=CC=C2CCC3=CC=CC=C31)C[N+](C)(C)[O-]
#smiles_can CC(CN1C2=CC=CC=C2CCC3=CC=CC=C31)C[N+](C)(C)[O-]
#inchikey UNOPAPJVNIQNJP-UHFFFAOYSA-N
#pubchem_id 14151360
#mb_accession EQ356101,EQ356102,EQ356103,EQ356104,EQ356105,EQ356106,EQ356107,EQ356108,EQ356109

>ms2
58.065000 5216524.500000
71.072800 740248.300000
86.096400 14192279.000000
100.112100 2512483.200000
116.106900 524421568.000000
193.088200 2016596.900000
195.103800 1687943.500000
208.111800 26164534.000000
226.122600 2924251.800000
249.150900 833205.700000
250.159000 37745068.000000
311.211700 728609536.000000

>ms2
56.049400 848573.800000
58.065100 24365560.000000
60.044300 2330238.000000
71.072900 6919911.500000
84.080700 2087728.800000
85.088500 924304.900000
86.096400 146563088.000000
98.096500 1949843.100000
99.104200 2297115.500000
100.112100 5084779.000000
116.106900 679541888.000000
132.080900 1092812.600000
193.087700 1451815.600000
194.096200 1050532.000000
195.104300 19704072.000000
208.112100 171489872.000000
226.122500 2807698.000000
249.151100 9025074.000000
250.159000 96440176.000000
311.211700 29172688.000000

>ms2
55.054200 3576761.000000
56.049400 3795238.200000
58.065100 49667964.000000
60.044400 7078013.000000
70.065100 2288703.200000
71.072900 34373992.000000
84.080800 11260268.000000
85.088600 5497180.500000
86.096400 327538240.000000
91.054000 1598629.000000
98.096400 5030135.500000
99.104200 3526750.800000
100.112000 4338582.500000
105.069900 2943965.800000
116.106900 347901984.000000
130.065200 1096769.000000
132.080700 1818689.500000
144.081100 952811.300000
158.096400 822855.600000
159.104100 583961.200000
172.112200 2240918.000000
180.080500 1055316.000000
193.088500 48191584.000000
194.096400 2181266.800000
195.104300 44271632.000000
206.096100 1941956.000000
207.104400 1558362.600000
208.112000 416392000.000000
220.111800 828941.400000
221.119800 887115.700000
222.127500 887139.500000
224.106500 472215.400000
226.122700 821124.400000
234.127800 6788965.500000
235.135400 1810258.000000
248.143400 4624901.500000
249.151100 12766701.000000
250.159000 61613860.000000

>ms2
55.054200 5275453.500000
56.049500 7649907.000000
58.065100 54205036.000000
60.044400 7134704.500000
70.065100 4097489.000000
71.072900 67069260.000000
84.080800 16409145.000000
85.088600 6863448.500000
86.096400 262190960.000000
91.054200 5084977.500000
98.096400 4295331.500000
99.104200 3010559.500000
100.112000 1979480.100000
105.069900 3672360.000000
106.065200 810114.900000
115.054300 732107.700000
116.107000 90469224.000000
118.065100 818397.700000
120.080800 621479.000000
130.065100 2653863.800000
132.080800 1121866.100000
144.080900 1931621.800000
146.096500 524606.600000
158.096400 1615999.500000
159.104300 1011477.400000
165.069100 602310.100000
167.072900 528082.800000
172.112100 1803292.500000
178.077400 1206932.000000
179.085500 832579.200000
180.080700 6569146.000000
191.085600 981865.400000
192.080600 1145788.900000
193.088600 241686128.000000
194.096400 6738265.500000
195.104200 31580390.000000
206.096500 7095207.000000
207.104300 2845281.000000
208.112000 329482432.000000
218.096300 538917.200000
219.104700 506380.400000
220.112100 5001330.000000
221.119900 1434010.900000
222.127700 944676.400000
233.119800 495820.300000
234.127700 18973848.000000
235.135100 1480262.900000
248.143400 7934993.500000
249.151000 3720766.000000
250.159000 11497927.000000

>ms2
55.054200 7791240.500000
56.049500 18323996.000000
58.065100 57532468.000000
60.044400 7057109.500000
70.065100 7922436.500000
71.072900 108966568.000000
79.054200 1208727.400000
84.080700 20847882.000000
85.088600 6877323.000000
86.096400 179560928.000000
91.054200 12096786.000000
98.096400 3673849.500000
99.104300 1501268.800000
100.112100 716159.700000
103.054200 1461174.100000
105.069900 4202877.000000
106.065100 2648284.800000
115.054200 2455294.800000
116.107000 23499088.000000
117.057300 1791092.100000
117.069900 725274.600000
118.065100 2448976.200000
120.080800 572889.600000
129.069800 1125325.000000
130.065100 5832085.000000
131.073100 548007.200000
131.085500 649899.100000
132.080900 596795.700000
143.073000 1238885.200000
144.080900 3060983.500000
157.088700 544862.800000
158.096200 1540239.500000
165.069600 2786061.200000
166.077700 3775314.000000
167.072900 5432776.500000
172.112200 707880.400000
178.077500 3896439.200000
179.072900 548273.400000
179.085800 1800909.900000
180.080800 16235279.000000
181.100900 778882.000000
190.077700 619331.900000
191.072700 733947.600000
191.085800 1401342.200000
192.080700 14277254.000000
193.088600 500979712.000000
194.096400 16299754.000000
195.104200 14833281.000000
204.080600 1652770.500000
205.088300 1763115.000000
206.096400 12842818.000000
207.104200 8822013.000000
208.112100 191960656.000000
218.096200 2316593.500000
219.104300 3030547.500000
220.112200 7683075.500000
221.119800 762801.400000
232.112300 1241653.400000
233.119900 590878.100000
234.127700 24279244.000000
235.135500 834807.100000
248.143400 6446800.500000
250.159200 1039804.200000

>ms2
53.038600 604463.600000
55.054200 5633657.500000
56.049500 28914078.000000
58.065100 47449336.000000
60.044400 4090722.500000
65.038500 1639962.000000
70.065100 9457946.000000
71.072900 107061168.000000
77.038400 584709.800000
79.054200 1542256.500000
84.080700 18307150.000000
85.088600 3838621.500000
86.096400 76788976.000000
89.038400 1189938.900000
90.046400 2369784.000000
91.054200 16979754.000000
95.049100 1114183.100000
98.096400 1334029.400000
103.054200 3273593.800000
105.044700 492020.000000
105.069800 2849946.200000
106.065100 3930000.200000
115.054200 5440902.500000
116.049400 905013.800000
116.106900 4059837.800000
117.057200 2794531.200000
117.070000 1196446.800000
118.065100 2545133.000000
128.049500 496114.200000
128.061900 1040843.200000
129.069800 1355805.600000
130.065100 6967091.000000
131.072900 726386.400000
141.069600 635587.400000
143.073000 1651496.900000
144.080800 3074766.800000
152.062300 892603.300000
156.080700 629993.800000
157.088700 558473.900000
158.096200 1047122.600000
165.069800 13305628.000000
166.077700 9663415.000000
167.072900 23240616.000000
172.111800 630111.000000
178.065500 1253402.800000
178.077600 5343684.000000
179.073200 1115860.600000
179.085400 2850401.200000
180.080700 14459200.000000
181.088400 1003674.900000
181.100900 478339.800000
189.069700 664104.100000
190.064800 630932.100000
190.077600 739876.300000
191.072800 4990478.500000
191.085100 941277.600000
192.080700 70713152.000000
193.088500 470776448.000000
194.096300 19183652.000000
195.104200 2694680.800000
204.080700 4902672.500000
205.088700 2313279.800000
206.096400 14527132.000000
207.104200 10159534.000000
208.112100 55467284.000000
217.088200 646143.900000
218.096300 6683004.500000
219.104200 2909644.000000
220.112100 4755752.000000
232.111900 3064201.800000
233.119800 765417.200000
234.127700 12957851.000000
248.143500 1760679.500000

>ms2
50.015000 603409.600000
53.038600 1170892.100000
55.054200 2244925.000000
56.049500 56012396.000000
58.065100 33347878.000000
60.044400 2391160.000000
61.052200 238668.000000
63.022800 1165860.400000
64.030700 262546.200000
65.038500 9812726.000000
66.046400 1138213.000000
68.049400 236771.300000
70.065100 12220604.000000
71.072900 62558456.000000
77.038400 2096517.100000
78.046400 249786.300000
79.054100 3163014.500000
84.080700 8149820.500000
85.088600 705743.400000
86.096400 13234852.000000
89.038500 20976340.000000
90.046400 19004944.000000
91.054200 28010996.000000
92.049400 258967.800000
95.049100 4618601.500000
102.046300 899230.600000
103.054200 5653089.000000
104.049500 256868.800000
105.044700 2258482.200000
105.069800 668231.300000
106.065100 5186021.500000
115.054200 11315714.000000
116.049400 1911165.800000
116.061900 1021514.100000
117.057200 5091452.500000
117.069900 878037.700000
118.065100 2325490.500000
127.054300 235620.000000
128.049400 5299772.500000
128.062000 2153482.000000
129.044700 757012.600000
129.070000 944133.200000
130.065100 6289638.500000
131.072900 238282.100000
139.054100 3897794.000000
140.049400 807353.000000
140.061800 3198522.200000
141.069700 1582749.000000
142.065100 935500.800000
143.073000 2540780.000000
144.080800 1472200.900000
146.060000 2126152.200000
151.054500 952497.500000
152.062000 8991932.000000
153.057100 584419.200000
153.069800 1504081.600000
154.065100 2265786.000000
155.060400 733884.900000
156.080700 741840.400000
157.088600 296735.300000
158.096600 517157.600000
164.062000 1952317.200000
165.069900 99724248.000000
166.065200 11113788.000000
166.077600 13199517.000000
167.072900 76438488.000000
168.057100 298664.800000
168.080600 543085.900000
169.064400 1510484.800000
176.062100 1322465.100000
177.057400 2291464.500000
177.069600 1988022.400000
178.065300 5724115.000000
178.077600 12175687.000000
179.060300 601731.800000
179.073000 4389516.000000
179.085200 2519994.800000
180.080700 11836228.000000
181.088200 1158523.400000
189.069900 2578621.800000
190.065100 7794044.000000
191.072900 74277056.000000
192.080700 234267664.000000
193.088500 171527472.000000
194.096300 11723658.000000
196.075700 774066.900000
204.080800 16289219.000000
205.088600 3035065.000000
206.096400 15174524.000000
207.104200 4723107.500000
208.111900 2491867.500000
216.081400 238165.000000
217.088500 6200639.000000
218.096400 11090116.000000
219.104300 1142367.000000
220.112400 908741.000000
230.096000 527305.300000
232.112100 2048615.500000
234.128000 1050900.500000

>ms2
50.015100 1415709.900000
51.022900 1556046.400000
53.002200 488317.600000
53.038600 2924400.200000
55.041700 158723.200000
55.054200 794383.600000
56.049500 52991372.000000
58.065100 16661116.000000
60.044400 1707210.900000
62.015000 730395.700000
63.022900 6961950.500000
64.030700 1931397.500000
65.038600 19175294.000000
66.046400 1131090.100000
68.049400 176232.300000
70.065100 7185785.000000
71.072900 17834998.000000
74.015000 257211.500000
75.022900 2041037.100000
77.038500 4400856.000000
78.046400 654353.600000
79.054200 2250636.800000
80.049400 192250.500000
81.033500 243515.700000
84.080700 2299201.500000
86.096300 1183498.900000
88.030700 274693.700000
89.038500 51313084.000000
90.046400 14418470.000000
91.054200 19834998.000000
94.041300 221345.400000
95.049100 8602988.000000
101.038500 525592.600000
102.046400 2003609.200000
103.054200 4271676.000000
104.049300 296000.100000
105.044700 5214086.500000
106.065100 1774097.900000
113.038700 610893.000000
114.033700 299568.800000
114.046400 742225.900000
115.054200 19089208.000000
116.049400 2550961.200000
116.062000 731644.200000
117.057300 6504440.000000
118.065200 814957.100000
119.049100 847616.100000
125.038700 201230.400000
126.046300 1264199.500000
127.041500 247556.000000
127.054200 1281392.000000
128.049400 7962900.000000
128.062000 4066406.800000
129.044700 3139049.000000
129.057400 621714.300000
129.069700 266394.800000
130.065200 3938576.800000
132.057100 516863.900000
134.059700 173528.000000
137.038500 225401.600000
138.046300 246846.900000
139.054200 26740768.000000
140.049500 7343665.500000
140.062000 7171179.500000
141.057500 282786.900000
141.069800 1263545.500000
142.065200 1113252.200000
143.073000 1617792.100000
144.080700 696742.000000
145.064900 751295.500000
146.060000 2611683.200000
150.046400 1937838.900000
151.054200 1590424.400000
152.062000 18474806.000000
153.057300 1444938.800000
153.069800 1174988.800000
154.065200 2162957.200000
155.060500 1574145.000000
156.080700 458432.100000
163.054200 8162918.500000
164.049700 1305932.100000
164.062000 15615087.000000
165.069900 133554328.000000
166.065100 31075654.000000
166.077600 2298194.500000
167.072900 38071092.000000
168.057000 5656539.500000
168.081000 484342.700000
169.064800 5535136.000000
170.060100 864932.100000
176.062000 4419320.500000
177.057300 7785032.000000
177.069400 2447163.500000
178.065300 6209217.000000
178.077600 11337955.000000
179.060500 2479638.000000
179.072900 4764296.000000
179.085600 777808.800000
180.080800 4960647.000000
183.067900 447989.200000
184.075700 904409.200000
189.057100 504103.600000
189.069900 2974777.000000
190.065100 34663552.000000
191.072900 151502080.000000
192.080700 86378256.000000
193.088600 16104614.000000
194.059900 564132.900000
194.096400 1456714.200000
196.052000 1538759.900000
196.075100 156744.600000
202.077500 201160.900000
203.072900 1376293.800000
204.080800 17677584.000000
205.088600 1481840.800000
206.096400 3893089.200000
207.104400 240018.300000
216.080700 3065020.800000
217.088700 11842477.000000
218.096400 3340776.500000
230.096500 862151.900000
232.111700 154913.000000

>ms2
50.015100 4481547.000000
51.022900 3723348.800000
53.002200 1209931.600000
53.038600 3008266.800000
55.017800 213014.100000
55.054200 158072.100000
56.049500 30776382.000000
58.065100 7781262.000000
60.044400 1087485.400000
61.007300 871837.562500
62.015100 3570940.500000
63.022900 17252604.000000
64.030700 3138835.500000
65.038600 20720220.000000
66.046400 744480.400000
67.041600 199257.400000
67.989300 159274.700000
68.049400 657022.800000
70.065100 3080561.000000
71.072900 3565533.000000
74.015000 1953199.200000
75.022900 6061196.500000
76.030700 1023612.938000
77.038500 5479702.000000
78.033800 566145.400000
78.046400 1740865.400000
79.054200 691090.700000
81.033400 139466.800000
84.080800 218941.000000
87.022900 1507398.625000
88.030700 1034383.800000
89.038600 59177088.000000
90.046400 7326105.000000
91.054200 11324190.000000
94.041100 114558.100000
95.049100 9388599.000000
101.038600 1924219.000000
102.046400 4732450.000000
103.054200 2408905.500000
104.049400 165355.300000
105.044700 6637851.000000
106.065200 273157.700000
113.038500 4947479.500000
114.034000 796579.700000
114.046400 1070056.800000
115.054200 33238046.000000
116.049400 2865404.200000
116.062200 264863.100000
117.057200 3563948.000000
119.049200 1557755.800000
125.038600 850260.800000
126.046400 5262461.000000
127.041700 639574.600000
127.054200 1250749.800000
128.049400 8024184.000000
128.062000 4472557.500000
129.044700 5438236.000000
129.057200 542479.400000
130.065100 1565803.400000
132.056800 481984.200000
134.060100 152652.700000
137.038500 640179.800000
138.046400 1550721.500000
139.054200 49858940.000000
140.049500 20433800.000000
140.061800 4511871.500000
141.057300 993035.400000
141.069600 812130.400000
142.065200 517197.500000
143.073300 222374.700000
145.064900 750869.600000
146.060000 1726884.500000
149.038600 239119.100000
150.046400 7958611.000000
151.054200 2278324.200000
152.049600 887539.437500
152.062000 16716192.000000
153.057300 2174077.500000
153.070200 179269.300000
154.065100 1106245.500000
155.060400 1837918.100000
162.046500 1054576.750000
163.054200 39314208.000000
164.050100 4675233.500000
164.062000 26041590.000000
165.069900 68985408.000000
166.065100 20527330.000000
167.072900 8895831.000000
168.057000 11204119.000000
169.064800 8487212.000000
170.060200 1193687.800000
176.062100 8985780.000000
177.057400 6662039.500000
177.069500 3004393.200000
178.065300 5047073.500000
178.077500 6363497.500000
179.060500 2633636.000000
179.072800 2109044.200000
180.080600 1513877.100000
183.068000 532494.100000
183.080800 148373.600000
184.075700 466024.600000
188.049900 822337.625000
189.057200 3565596.000000
189.069900 3061404.200000
190.065100 59283384.000000
191.072900 79347816.000000
192.080700 10424935.000000
193.088600 1563008.600000
194.060000 1742688.900000
196.051800 3306251.500000
202.065500 985454.187500
202.077600 280319.000000
203.072800 2417595.500000
204.080900 9635509.000000
205.088800 153422.400000
206.096800 180248.400000
215.072900 1236234.875000
216.080800 5734069.500000
217.088600 4550161.500000
230.096800 133799.100000

