>compound EQ91507857
>parentmass 309.15979999999996
>ionization [M+H]+
>formula C19H20N2O2
>rt 678.000000
>profile orbitrap
#smiles_iso CCCCC1C(=O)N(N(C1=O)C2=CC=CC=C2)C3=CC=CC=C3
#smiles_can CCCCC1C(=O)N(N(C1=O)C2=CC=CC=C2)C3=CC=CC=C3
#inchikey VYMDGNCVAMGZFE-UHFFFAOYSA-N
#pubchem_id 4781
#mb_accession EQ361501,EQ361502,EQ361503,EQ361504,EQ361505,EQ361506,EQ361507,EQ361508,EQ361509

>ms2
69.069700 1110984.600000
71.085500 5804004.000000
77.038600 714002.200000
92.049000 973605.200000
93.033200 1197253.500000
93.057300 1697185.200000
94.065000 6121375.500000
97.064800 1395418.900000
99.080400 922869.900000
120.044400 31189634.000000
132.044400 2265073.200000
146.060100 1954389.600000
148.112100 1039951.700000
160.112100 4717818.000000
162.127800 5925274.500000
172.112300 1526289.900000
188.107000 41533180.000000
190.122700 45578212.000000
200.107400 748744.200000
211.086700 38568836.000000
216.102100 13889180.000000
253.096800 2742536.500000
263.154600 2629462.000000
265.169800 1941997.900000
281.165200 3032633.000000
291.149000 2827076.800000
309.159700 693076672.000000

>ms2
53.038600 183157.900000
55.017900 3445681.200000
55.054200 460877.400000
56.049500 582440.100000
57.069900 999917.300000
65.038600 5318367.000000
67.054200 206642.800000
69.069900 9017555.000000
71.085500 15610027.000000
77.038300 2552523.200000
79.054200 625546.400000
81.069900 347404.300000
91.054300 1665539.400000
92.049500 15249638.000000
93.033600 24608216.000000
93.057400 9363305.000000
94.041400 1773203.200000
94.065200 31337748.000000
95.049200 3671095.200000
96.080800 1038368.500000
97.064900 8460335.000000
97.088700 847321.700000
98.072700 172221.000000
99.080600 1043731.100000
104.049500 4201637.500000
105.033500 1375773.200000
105.044700 657415.900000
106.065200 6064632.000000
107.049200 1436093.400000
111.044100 6944943.500000
118.065200 2354586.000000
120.044400 162979200.000000
123.044100 797594.800000
125.059700 3131649.000000
130.065200 3021971.800000
131.073100 1620051.600000
132.044500 16261638.000000
132.080900 1770479.100000
133.052000 1820010.800000
134.060100 3080556.500000
134.096500 665696.800000
143.073200 334804.800000
144.081000 956805.600000
145.101100 586235.000000
146.060100 17571500.000000
146.096500 1707459.800000
147.067900 164393.900000
148.075800 1833915.200000
148.112100 6060493.500000
150.055100 468457.200000
160.063200 4409932.000000
160.112200 55893352.000000
162.055000 2380944.000000
162.127800 35278248.000000
168.081000 405120.800000
170.096400 434518.100000
172.112200 8074341.500000
173.120000 564307.600000
174.055100 6024145.500000
183.092000 551897.100000
186.091400 2108806.500000
188.107100 102687584.000000
190.122700 81194248.000000
194.060300 858332.600000
198.091600 588969.800000
199.122900 197760.100000
200.107100 3228249.800000
206.117700 1934944.800000
207.091900 763434.600000
208.099800 2522933.000000
209.107600 971826.100000
211.086800 78063824.000000
212.070400 182569.500000
216.102100 16168328.000000
221.107700 385067.700000
224.095000 1054692.100000
231.112700 447988.200000
249.102700 185902.700000
253.097300 7249055.500000
263.154400 6422198.500000
265.169900 3302258.200000
266.154100 853001.900000
281.165100 3678613.000000
291.149100 1305180.400000
309.159900 84450200.000000

>ms2
50.015000 314856.100000
51.022900 552721.100000
53.002200 504669.600000
53.038600 2956668.800000
55.017900 10067395.000000
55.054300 1797205.100000
56.049500 1008247.400000
57.069900 3161348.200000
65.038600 35657660.000000
67.054300 1580740.800000
67.989300 222805.500000
69.069900 14949495.000000
71.085500 5092437.500000
77.038500 9257423.000000
79.054200 2324781.500000
80.062000 361698.400000
81.033600 379430.500000
81.069900 509501.000000
83.049200 373913.600000
84.080800 519060.000000
91.054300 2159943.500000
92.049500 88064112.000000
93.033600 44577572.000000
93.057400 14253153.000000
94.041400 5895069.000000
94.065200 52689508.000000
95.049200 16121106.000000
96.080800 1101291.400000
97.064900 7781272.000000
97.088700 1275056.900000
104.049500 12537448.000000
105.033600 4749279.000000
105.044800 5992612.500000
106.065200 23331914.000000
107.049200 2177361.500000
111.044100 12385219.000000
116.049500 168541.500000
117.057300 1994988.500000
117.069600 282164.200000
118.065200 5256909.000000
119.036800 529441.200000
119.073000 937686.400000
120.044500 154979744.000000
123.044100 472482.700000
124.075600 194558.700000
125.059800 2457129.800000
128.049400 418948.700000
130.065200 7678791.500000
131.073000 3797306.000000
132.044500 32205910.000000
132.080800 4117407.500000
133.039700 2486331.200000
133.052300 13628107.000000
134.060100 8018384.500000
134.096400 1213584.900000
135.067700 156325.800000
143.072900 1159571.100000
143.085700 511052.500000
144.044400 575953.300000
144.080900 2724643.200000
145.088700 1408288.400000
145.101300 764628.100000
146.060100 29899854.000000
146.096500 1975281.400000
147.068100 825797.700000
148.075800 2606382.500000
148.112100 5811804.000000
157.088900 170871.200000
158.060300 439616.000000
158.096600 170425.600000
159.067700 704172.700000
160.063200 6517946.500000
160.112200 66084260.000000
162.055100 2992196.200000
162.127800 24771992.000000
164.070800 167680.500000
166.065100 971196.400000
168.080900 1875504.900000
169.065100 165712.000000
169.088600 523355.300000
170.096500 602835.200000
172.112200 4120782.200000
173.071000 202590.700000
173.083600 766184.900000
174.055100 11147370.000000
180.080800 389464.600000
182.084000 2949863.800000
182.096600 210039.000000
183.068000 165689.500000
183.091800 1701895.200000
184.076000 661866.100000
185.107300 442268.200000
186.091300 1476005.200000
188.107100 39736168.000000
190.122700 20254220.000000
193.075900 336841.500000
194.060200 4937041.500000
195.092200 318769.800000
198.091300 972938.400000
200.107200 2087569.000000
207.091800 1701956.400000
208.076300 357223.600000
208.099600 4660715.500000
209.107300 737531.300000
211.086800 46444512.000000
212.070900 202932.800000
216.102200 2687652.800000
219.091700 433046.200000
221.107500 922996.100000
224.094600 938952.100000
233.107700 351731.900000
234.078900 364571.300000
234.115300 623716.900000
235.086700 490107.800000
249.102400 444481.200000
253.097300 2143215.000000
263.154400 1897031.900000
266.153700 386201.500000
309.160000 1378788.800000

>ms2
50.015100 496682.300000
51.022700 783909.900000
53.002300 660171.600000
53.038600 8325004.000000
53.997500 158736.400000
54.033900 343377.200000
55.017900 14800316.000000
55.054300 2378866.800000
56.049500 841737.900000
57.069900 4472130.000000
63.022800 145241.200000
65.038600 63952476.000000
66.046300 134187.100000
67.054200 3438645.000000
67.989300 425999.100000
68.013100 529588.900000
68.049500 143158.100000
69.069900 12411873.000000
71.085600 895558.600000
77.038500 20193076.000000
79.054200 3677774.000000
80.049400 157395.000000
80.062100 135396.900000
81.033500 1131420.900000
81.069900 171708.700000
82.065200 527580.400000
83.049100 751280.000000
84.080800 153555.400000
91.041400 206875.400000
91.054300 2314526.800000
92.049500 115907640.000000
93.033600 23241312.000000
93.057400 16220718.000000
94.041400 7116886.000000
94.065200 49881368.000000
95.049200 32035494.000000
96.080800 853447.200000
97.064900 2966040.200000
97.088700 391533.000000
103.054300 439734.100000
104.049500 22672250.000000
105.033600 5750214.500000
105.044800 19704132.000000
106.065200 32452304.000000
107.049200 1484681.400000
108.044400 209706.700000
109.065000 119415.400000
111.044100 7096938.000000
115.054400 177739.500000
116.049700 395526.700000
117.057300 3674044.800000
117.069900 580791.100000
118.065200 6622192.500000
119.036600 453322.600000
119.073000 1820850.200000
120.044500 55904784.000000
124.075800 347066.800000
125.059900 548811.600000
128.049500 1424627.900000
128.062100 428938.300000
129.069900 187793.200000
130.065200 8482837.000000
131.060300 499774.700000
131.073000 2832375.500000
132.044500 25717252.000000
132.080900 3358372.200000
133.039800 3040418.000000
133.052300 22197672.000000
134.047600 521305.400000
134.060100 5612165.000000
134.096400 830549.200000
135.055500 201125.600000
143.073100 1446117.400000
143.085700 176777.400000
144.044600 1217599.400000
144.080900 1571907.500000
145.076300 187181.500000
145.088700 1841200.900000
145.101100 412321.500000
146.060100 19071282.000000
147.067800 982147.000000
148.075700 1139570.200000
148.112100 1816155.800000
154.065800 122052.400000
156.044400 197350.500000
156.080800 571170.800000
157.088700 343982.300000
158.059900 348811.800000
158.096600 436216.800000
159.055200 123447.800000
159.068000 1271540.500000
160.063300 1480560.900000
160.075700 1302472.200000
160.112200 24030058.000000
162.055000 2184481.000000
162.127800 4960440.000000
166.065200 3286268.200000
167.073100 1046122.600000
168.080900 2130381.800000
169.089100 579512.600000
170.060200 142674.400000
170.096500 353930.700000
172.075100 147490.500000
172.112200 891495.600000
173.071100 358844.500000
173.083700 386916.900000
174.055000 4912153.500000
180.080900 485308.300000
182.084000 6673446.500000
182.096700 425627.100000
183.068000 462320.600000
183.091800 1321996.800000
184.075600 699419.000000
186.091500 378249.000000
188.107100 5089830.000000
190.122700 2565378.800000
193.076000 195906.000000
194.060200 3731762.500000
195.091700 209886.000000
200.106700 174583.800000
206.084200 155147.600000
207.091700 2790671.800000
208.076300 344856.200000
208.099800 2162786.800000
210.079100 179825.500000
211.086700 12382265.000000
212.070600 128075.700000
216.101000 119666.500000
219.091400 443786.100000
221.107300 529593.200000
224.093900 142270.300000
233.107700 711964.600000
234.079100 203043.100000
234.115000 183107.600000
235.086700 450496.400000
253.097200 322136.300000

>ms2
50.015100 1197115.500000
51.022900 1134891.800000
53.002200 1759603.200000
53.038600 16321320.000000
53.997500 365553.400000
54.033800 396740.400000
55.017900 16244321.000000
55.054300 3528948.500000
56.049500 668851.300000
57.069900 3874451.000000
63.022900 149748.800000
65.038600 88019432.000000
66.046400 1070718.900000
67.054200 3803649.800000
67.989300 558653.100000
68.013000 728391.900000
68.049600 116177.700000
68.997000 423989.600000
69.033500 621759.000000
69.069900 8052701.500000
77.038600 36117420.000000
78.033900 129920.300000
78.046400 716348.400000
79.054200 5089599.500000
80.049400 593426.800000
80.062000 140699.200000
81.033500 2331393.000000
81.069900 127718.500000
82.065100 573472.100000
83.049100 664003.000000
89.038600 170539.700000
90.046500 541723.200000
91.041700 360105.800000
91.054300 3503840.500000
92.049500 106648392.000000
93.033600 10239415.000000
93.057400 18242046.000000
94.041400 8183657.000000
94.065200 48701588.000000
95.049200 54241896.000000
96.044600 116450.200000
96.080800 839105.800000
97.064900 1078627.000000
103.054300 1066560.000000
104.049500 24769608.000000
105.033600 5167000.500000
105.044800 36345724.000000
106.028800 1630733.900000
106.065200 29854502.000000
107.049100 1129165.500000
108.044300 173425.900000
109.064900 182833.200000
110.060000 136791.200000
111.044100 3291137.000000
115.054200 1120956.000000
116.049400 939369.800000
116.062200 117721.100000
117.057300 4861206.000000
117.069900 741267.200000
118.065200 8028775.000000
119.036600 345258.900000
119.073100 2120986.800000
120.044500 18894160.000000
120.080800 1996507.000000
124.075700 200821.200000
125.059900 119952.000000
128.049500 3029924.500000
128.061900 594487.600000
129.070100 198337.000000
130.065200 9555934.000000
131.060500 913647.700000
131.073000 1656833.500000
132.044500 20264134.000000
132.080800 2617511.800000
133.039800 2602403.800000
133.052300 22124184.000000
134.047500 759176.900000
134.060100 2769240.000000
134.096500 364026.400000
135.055100 446958.100000
135.067800 107302.400000
139.054200 157621.000000
140.049500 206131.100000
141.069900 331657.400000
143.073100 1330628.800000
144.044700 961534.600000
144.080900 1902929.400000
145.076100 391733.100000
145.088600 1404209.400000
146.060100 12638481.000000
147.068000 341166.000000
148.075600 350533.000000
148.112000 637455.700000
154.064700 137516.500000
155.060100 291181.700000
155.073000 125467.300000
156.044600 340233.000000
156.080800 668762.300000
157.064900 113450.200000
158.060100 694155.800000
158.095900 110554.800000
159.068000 1033880.000000
160.075700 390462.300000
160.112200 5775647.000000
162.055100 1423515.400000
162.127800 592430.600000
164.070600 133226.200000
166.065200 5142389.000000
167.073000 2524703.000000
168.080900 1866963.400000
169.064800 150837.300000
169.076100 173297.900000
169.089000 877344.400000
170.060100 124513.400000
170.096300 142417.400000
172.075900 170588.100000
172.112200 192647.100000
173.071200 193587.200000
173.083600 345056.200000
174.055000 1854661.600000
180.080700 726702.900000
181.076100 674089.400000
182.084000 8838836.000000
183.067900 332018.200000
183.091700 739295.600000
184.075400 542132.400000
188.107200 617750.300000
190.122500 353555.600000
192.068400 134703.600000
194.060300 1494892.500000
195.091800 351089.200000
206.084000 839467.600000
207.091900 2974488.200000
208.075800 171673.000000
208.099800 773561.500000
210.078900 472507.200000
211.086700 1711103.400000
219.091800 382369.400000
221.107500 416953.400000
233.107700 599988.600000
234.078800 125201.100000
247.086100 144760.800000

>ms2
50.015100 2780558.800000
51.022900 1696140.200000
53.002200 1560265.800000
53.038600 19786754.000000
53.997500 409679.800000
54.010100 117730.800000
54.033800 388916.200000
55.017900 13934641.000000
55.054300 2676281.800000
56.049500 487211.100000
57.069900 1880679.400000
63.022900 185135.800000
64.030700 160421.400000
65.038600 88901808.000000
66.046400 2889026.200000
67.054200 3578433.000000
67.989300 525949.500000
68.013100 1168316.000000
68.049500 308308.200000
69.033600 411659.000000
69.069900 3618711.800000
77.038600 41582844.000000
78.033900 661389.800000
78.046400 1712214.600000
79.054200 6001986.500000
80.049500 825882.800000
81.033500 2962800.500000
81.070000 295135.500000
82.065200 612532.600000
83.049200 768243.200000
89.038600 740218.800000
90.034000 116339.100000
90.046500 800416.400000
91.041700 638886.600000
91.054300 4488307.000000
92.049500 67392720.000000
93.033600 3862954.000000
93.057400 15856295.000000
94.041400 7370221.000000
94.065200 32977524.000000
95.049200 63092256.000000
96.044500 719108.800000
96.080800 420301.900000
97.064700 155709.100000
103.054300 1349232.500000
104.049500 16260925.000000
105.033600 3215611.000000
105.044800 46005412.000000
105.057300 2868742.000000
106.028800 2629193.200000
106.065200 19646034.000000
107.049200 535045.100000
109.064900 492868.400000
111.044100 1470868.900000
115.054300 2154874.000000
116.049500 1202326.000000
116.062200 128583.600000
117.057400 4302718.000000
117.069900 552680.600000
118.065100 9498380.000000
119.036600 525330.800000
119.073000 1298826.400000
120.044400 4764943.000000
120.080800 964061.100000
124.075600 348649.500000
128.049500 3090488.000000
128.062100 754850.800000
129.044600 365363.200000
129.069800 427195.600000
130.040100 489507.000000
130.065200 8022385.500000
131.060400 901284.800000
131.072900 702445.600000
132.044500 9843992.000000
132.080900 1504300.400000
133.039900 1362865.000000
133.052300 14179895.000000
134.047700 909702.000000
134.060000 1024157.300000
139.054000 559121.600000
140.049500 616496.200000
141.069700 132560.200000
142.065300 110992.100000
143.073000 996807.300000
144.044400 527668.600000
144.081000 1922630.600000
145.076400 158307.300000
145.088500 445907.500000
146.060100 5417901.500000
147.067800 94646.400000
150.055500 116291.500000
154.065100 327181.000000
155.060400 134111.600000
156.044200 130032.500000
156.081100 643482.700000
157.064800 103070.100000
158.060000 541204.600000
159.068000 323959.000000
160.076000 174292.200000
160.112000 722721.800000
162.054900 465737.200000
166.065200 3000900.500000
167.073100 2643096.000000
168.080900 1253548.600000
169.075900 124070.000000
169.088700 330680.000000
172.075600 496950.700000
174.055000 467044.500000
180.080800 983622.100000
181.076100 2772357.500000
182.084000 6796645.000000
183.067600 135758.100000
183.091200 100843.700000
184.075400 111877.900000
190.064900 134938.400000
192.068300 136898.100000
194.059700 134005.000000
195.091400 201412.800000
205.076000 173595.800000
206.084000 1016232.900000
207.091800 1526970.400000
208.099300 126003.000000
211.086600 141194.900000
219.091500 180201.100000
221.107300 111036.400000
233.107500 184609.300000

>ms2
50.015200 7816589.500000
51.023000 9048198.000000
52.018100 135858.500000
52.030700 115015.400000
53.002200 2937969.500000
53.038600 23310882.000000
53.997500 757637.900000
54.033900 741527.400000
54.046400 95823.300000
55.017900 10041995.000000
55.054300 1973584.800000
56.049500 102213.000000
57.070000 313759.700000
63.022900 1164288.400000
64.030800 1026240.600000
65.038600 84287152.000000
66.046400 6537702.000000
67.041700 372814.800000
67.054200 2340873.000000
67.989300 729289.000000
68.013100 1447712.800000
68.049600 299226.400000
68.997100 628743.800000
69.069900 626324.800000
75.022900 749801.100000
77.038600 48890040.000000
78.033800 1500964.800000
78.046400 3738595.200000
79.041700 856826.500000
79.054200 4951696.000000
80.049500 785483.700000
81.033500 2851288.500000
82.065100 411261.000000
83.049100 300849.400000
89.038600 2502397.800000
90.033900 119641.700000
90.046500 1363604.500000
91.041700 1396499.900000
91.054300 7641125.500000
92.049500 21595464.000000
93.033600 964593.700000
93.057400 10881398.000000
94.041400 4190704.200000
94.065200 11768119.000000
95.049200 66284768.000000
96.044400 1328490.600000
96.080700 160727.500000
101.038800 176422.700000
102.034000 309175.000000
102.046500 148803.800000
103.054300 1586431.100000
104.049500 9994326.000000
105.044800 51057072.000000
106.028800 1036666.400000
106.052600 780822.900000
106.065200 6207804.000000
107.049100 176383.700000
109.064900 374409.800000
110.060100 119692.400000
111.044100 415854.200000
115.054300 2444355.800000
116.049500 731233.900000
116.062000 188972.000000
117.057300 3569010.000000
118.065200 8283709.000000
119.036300 101178.900000
119.049200 301259.900000
119.073000 118461.500000
120.044500 732000.400000
120.080700 281513.200000
128.049500 2280124.800000
128.062100 778698.500000
129.044700 1040263.600000
129.069800 407937.300000
130.039900 774758.000000
130.065200 5256780.500000
131.060700 659139.400000
131.072900 356681.100000
132.044500 1568792.500000
132.080900 342970.600000
133.052300 3088744.000000
134.047400 104852.900000
134.060000 113318.300000
139.054300 804270.300000
140.049600 1453558.900000
141.070100 131946.900000
142.064900 89660.900000
143.073000 557634.300000
144.044400 187566.800000
144.080800 1022156.600000
145.065100 123529.600000
145.076200 87163.700000
146.060200 1466485.600000
152.062300 294551.000000
154.065100 679894.500000
155.060400 478065.200000
156.080900 174642.100000
158.060100 146620.400000
162.054900 86722.800000
166.065300 971704.200000
167.073100 2415468.800000
168.081300 627786.200000
169.064500 113194.000000
180.080800 581679.400000
181.076100 5605533.500000
182.084000 928428.200000
190.065100 107455.700000
192.068400 189454.600000
205.076300 714673.200000
206.083900 728897.300000
207.092100 106921.600000

>ms2
50.015200 22162166.000000
51.023000 32029896.000000
52.018200 361480.700000
52.030800 266259.300000
53.002200 3526427.200000
53.038600 13749312.000000
53.997500 1059768.000000
54.010100 112859.100000
54.033900 569826.900000
54.046500 149647.000000
55.017900 5211923.500000
55.054200 970761.400000
62.015100 330629.200000
63.023000 3479628.800000
64.030800 1533924.400000
65.038600 52974692.000000
66.046400 6343627.500000
67.041700 378118.100000
67.054300 1096407.000000
67.989300 1166063.500000
68.013100 737387.200000
68.049500 302930.700000
68.997100 456415.700000
74.015100 148489.400000
75.022900 1558169.100000
76.018200 65216.200000
76.030700 156078.100000
77.038600 38032916.000000
78.008800 274526.200000
78.033800 1654062.400000
78.046400 2908874.800000
79.041700 561956.000000
79.054200 1968856.100000
80.025700 90438.400000
80.049500 711580.200000
81.033500 1683609.400000
89.038600 3403656.000000
90.034000 125315.300000
90.046500 1125732.200000
91.041800 664250.200000
91.054300 7967833.500000
92.025800 430871.400000
92.049500 5179502.500000
93.033600 325665.300000
93.057400 5287292.000000
94.041400 1700205.000000
94.065200 2209884.200000
95.049200 38773228.000000
96.044400 853014.100000
96.080900 81203.600000
101.038700 161445.200000
102.033900 362798.400000
102.046500 358837.800000
103.054300 1167424.900000
104.049500 4362812.500000
105.044800 29282974.000000
106.028800 167598.800000
106.052600 170306.500000
106.065200 1212119.000000
109.065000 134742.300000
111.044100 84113.400000
113.038600 357982.100000
115.054200 2068120.900000
116.049600 417598.300000
117.057300 2389473.500000
118.065200 3804348.800000
119.049300 93279.400000
120.044400 83720.600000
127.054400 83740.300000
128.049500 714908.800000
128.062000 528949.000000
129.044800 653531.600000
130.040100 639082.700000
130.065300 2299677.800000
131.060400 147099.500000
132.044500 155371.700000
133.052400 307758.000000
139.054300 1180374.600000
140.049600 937700.800000
143.073300 82257.800000
144.080900 314913.100000
145.064800 105968.400000
146.060400 174083.000000
152.062300 318238.300000
154.065100 445919.600000
155.060400 372619.500000
164.049800 94666.400000
166.065200 822105.600000
167.073000 1012706.400000
168.081300 69429.000000
179.060100 97267.200000
181.076100 2844609.000000
205.075900 352061.600000
206.083500 98606.300000

>ms2
50.015200 28372950.000000
51.023000 54875664.000000
52.018200 645368.400000
52.030800 487125.000000
53.002200 4257891.000000
53.038600 7011183.000000
53.997500 1356971.400000
54.010100 103420.800000
54.033900 692061.100000
55.017900 2453044.800000
55.054300 306994.700000
62.015100 751430.200000
63.023000 5892348.500000
64.030700 1164824.000000
65.002200 2456540.000000
65.038600 30433362.000000
66.046400 4710612.500000
67.041700 675412.300000
67.054200 467534.900000
67.989300 834433.600000
68.013100 432315.700000
68.049500 125295.500000
68.997100 175769.400000
74.015100 835380.500000
75.022900 2689673.500000
76.018200 352937.000000
76.030700 406749.800000
77.038600 20494724.000000
78.008600 381489.100000
78.033800 1199683.900000
78.046400 1848704.200000
79.041700 155891.000000
79.054200 820371.600000
80.049500 644200.100000
81.033500 755077.100000
89.038600 3780795.000000
90.046500 691308.600000
91.041700 338516.000000
91.054300 6183073.000000
92.025700 115148.300000
92.049500 1875256.100000
93.057400 2790435.500000
94.041500 587604.400000
94.065200 405288.100000
95.049200 18977672.000000
96.044400 624652.200000
101.038600 125035.100000
102.033800 320074.300000
102.046400 501422.400000
103.054300 745487.500000
104.049500 1754453.500000
105.044800 13612348.000000
106.028900 82077.600000
113.038500 459676.400000
115.054400 1478930.600000
116.049500 80446.700000
116.062200 70507.300000
117.057300 1241423.000000
118.065200 1097385.100000
119.049100 106439.000000
127.054200 130492.200000
128.049400 173654.000000
128.061800 316127.500000
129.044600 359491.900000
130.039900 290295.200000
130.065400 755763.200000
139.054300 942174.400000
140.049600 1052514.200000
145.065100 139390.700000
152.062000 159554.600000
154.064900 154104.200000
155.060500 293714.200000
164.049400 127460.600000
166.065100 479100.900000
167.072900 115394.800000
169.065000 106134.100000
179.060100 109328.000000
181.075900 290328.700000
205.076100 76855.800000

