>compound EQ92288510
>parentmass 300.0898
>ionization [M+H]+
>formula C16H14ClN3O
>rt 372.000000
>profile orbitrap
#smiles_iso CN=C1CN(C(=C2C=C(C=CC2=N1)Cl)C3=CC=CC=C3)O
#smiles_can CN=C1CN(C(=C2C=C(C=CC2=N1)Cl)C3=CC=CC=C3)O
#inchikey BUCORZSTKDOEKQ-UHFFFAOYSA-N
#pubchem_id 2712
#mb_accession EQ361701,EQ361702,EQ361703,EQ361704,EQ361705,EQ361706,EQ361707,EQ361708,EQ361709

>ms2peaks
57.044800 1376101.200000
60.044300 2171158.800000
206.047300 610892.700000
216.057300 567935.300000
220.099200 658452.400000
227.049100 7639876.000000
231.068300 3620467.200000
241.052500 59626584.000000
242.035900 987473.700000
242.061100 1125494.000000
243.068500 493486.600000
244.053300 616706.400000
255.067700 3449905.800000
259.062900 527574.100000
266.059700 1302517.600000
269.047400 9505647.000000
269.083500 8930430.000000
282.078900 22103950.000000
283.086700 254609984.000000
300.089400 453479520.000000

>ms2peaks
57.044600 10116936.000000
60.044300 2815298.500000
104.049300 425240.800000
105.033400 1301910.100000
165.021400 518608.900000
179.036900 853984.900000
180.044700 5308567.500000
191.024600 310686.500000
206.047100 584964.500000
208.099000 860066.100000
220.099200 1462799.100000
226.041000 768276.700000
227.049500 197045088.000000
231.068200 6839280.500000
240.057800 322090.900000
241.052500 98768816.000000
242.036400 1116579.500000
242.060500 2580401.500000
243.067700 554416.400000
244.052600 807154.500000
253.053200 369863.800000
254.060100 510377.300000
255.068100 61938500.000000
256.076000 2106848.500000
266.060300 26421912.000000
267.068200 483563.500000
268.063000 360751.900000
269.047500 7224532.000000
269.083700 15848549.000000
282.079100 60603856.000000
283.086800 302272416.000000
300.089500 48241512.000000

>ms2peaks
57.044700 43743476.000000
60.044300 1583702.200000
89.038500 671104.100000
91.054100 456323.000000
104.049300 2344942.000000
105.033300 2176674.200000
128.025900 1326305.100000
138.010400 1428192.600000
140.026100 475913.800000
151.018100 961050.100000
163.005500 3022221.800000
164.013400 478958.800000
165.021200 1720421.400000
165.069300 563855.900000
179.036800 1219051.900000
180.044600 11661529.000000
192.080500 1175848.500000
205.075800 459164.500000
206.083900 667776.400000
208.099600 701084.900000
209.083300 465456.600000
214.041700 1214060.900000
216.057300 509206.500000
218.083600 526694.200000
219.091600 1116191.900000
220.099300 2230712.500000
226.041500 1152785.600000
227.049300 414379232.000000
231.068000 2970541.200000
239.036700 567389.100000
239.050000 448423.500000
240.057000 771109.900000
241.052500 92587408.000000
242.036400 496676.700000
242.060100 2004601.000000
246.102000 639116.200000
247.110200 2589167.200000
248.118000 1173626.200000
251.036800 6025555.000000
252.044600 820159.400000
253.052400 1162501.600000
254.060200 1190872.200000
255.068100 61508308.000000
256.075900 6026474.000000
265.052400 485191.300000
266.060200 22598490.000000
267.055200 1104368.600000
267.068300 863344.900000
268.063600 1148191.200000
269.047200 1068149.500000
269.083700 17503502.000000
270.078900 422058.600000
282.078900 117688480.000000
283.086700 22691712.000000
300.089500 739107.200000

>ms2peaks
57.044700 59137992.000000
60.044300 957841.800000
77.038300 667358.300000
91.054100 557130.900000
93.057200 609258.100000
95.049000 572402.400000
104.049300 3897777.000000
105.033400 1758748.900000
105.044600 629140.800000
124.007300 1808142.600000
128.026000 573539.200000
129.044500 382194.700000
138.010400 4386159.500000
139.005600 1572631.800000
140.026000 392594.700000
151.018100 1378412.500000
152.026200 1215106.400000
153.021300 714253.100000
163.005600 12002819.000000
164.013500 444694.600000
164.026000 423575.300000
165.021300 4726328.500000
165.069600 5553485.000000
177.021400 930777.800000
179.036900 1047942.100000
179.072700 510665.600000
180.044700 9962275.000000
181.015900 611088.900000
190.064700 1112504.900000
191.072700 1036242.800000
192.080500 27330980.000000
193.052400 663950.800000
194.047800 391342.500000
199.030600 460535.500000
203.073100 726115.600000
205.075900 3101166.000000
206.083700 4472253.500000
207.091300 877654.100000
208.099700 723306.900000
216.068100 1358536.900000
217.076800 631220.000000
218.083700 3600145.200000
219.091500 5168689.500000
220.099300 4675970.500000
221.106700 379852.800000
224.026100 1870119.400000
225.033600 473984.200000
226.041600 5175481.000000
227.049400 371823904.000000
232.086900 403403.200000
238.041500 4294288.500000
239.036700 954801.800000
240.044700 511365.400000
240.057300 1148363.800000
241.052500 63399912.000000
242.060000 1119718.400000
246.102300 5710994.000000
247.110100 22798140.000000
248.117800 815107.900000
250.073900 759462.300000
251.036800 13239627.000000
252.044600 6872249.000000
253.052400 2981623.800000
254.060300 2071619.800000
255.068000 28310750.000000
256.052800 927944.400000
256.075700 2909140.800000
265.052500 958632.500000
266.060200 4537576.500000
267.055300 4536582.500000
267.068300 928459.600000
268.063200 1050483.200000
269.083600 12658546.000000
282.079000 75841600.000000

>ms2peaks
51.022800 268466.400000
53.038500 517785.800000
55.029000 400689.500000
57.044700 69317744.000000
60.044300 501333.000000
65.038500 936574.100000
75.022800 317007.300000
77.038400 1221250.400000
79.054000 664267.400000
86.999600 548239.300000
89.038400 15597134.000000
90.046300 499006.800000
91.054200 609904.200000
93.033300 617795.400000
93.057200 742012.900000
95.049000 1618001.200000
100.007200 801065.800000
104.049300 3850799.000000
105.033400 962164.700000
105.044600 1103335.600000
110.999500 380501.500000
116.049400 312456.400000
117.057100 889234.000000
118.052600 368922.400000
118.065000 287366.000000
121.028300 374490.500000
124.007300 12879120.000000
126.010400 299685.500000
128.025900 196997.100000
129.010000 1146967.200000
129.044500 325454.400000
131.060200 325133.700000
135.994500 339555.400000
138.010400 6228015.000000
139.005600 4666237.000000
145.075800 373498.700000
150.010400 2088250.000000
151.018200 1564566.900000
151.053900 303771.900000
152.026000 1792943.100000
152.062000 1006442.400000
153.021200 442671.600000
154.005300 334639.800000
155.997000 336594.800000
163.005600 17543772.000000
164.000800 3895933.000000
164.026200 313186.300000
164.062100 403018.000000
165.021300 9869848.000000
165.069700 33997344.000000
169.064700 570670.000000
177.021400 844080.300000
177.057200 363269.000000
178.064900 1102587.100000
179.037000 688963.200000
179.059900 309748.000000
179.072800 1008245.200000
180.044700 4271961.000000
180.080500 1206511.200000
181.016300 737866.200000
183.080500 545559.700000
190.064900 4505910.000000
191.072700 5236430.000000
192.080500 85629648.000000
193.052400 416152.500000
193.088500 856931.600000
195.031700 274076.700000
199.030800 1393518.400000
201.033900 829741.800000
203.072700 4798816.000000
204.080600 966171.600000
205.076000 6746868.500000
206.083700 7892115.000000
207.091600 1103581.600000
214.041600 4159433.200000
215.060100 436673.300000
216.068000 5769495.000000
217.075900 2361963.800000
218.083700 13215288.000000
219.091500 10643075.000000
220.075600 465157.100000
220.099300 5242663.000000
224.026000 4792357.000000
226.041600 16386355.000000
227.049400 194816384.000000
229.075600 494339.100000
230.083800 778612.900000
232.086600 3321486.500000
233.107100 324734.600000
234.078600 969360.600000
235.086400 568860.700000
238.041600 10535950.000000
239.037000 1258229.200000
240.044600 2548582.200000
240.057200 1127262.100000
241.052500 27670864.000000
245.094800 553820.000000
246.102300 9207963.000000
247.110100 26635324.000000
250.073500 1965376.000000
251.036800 8115552.500000
252.044600 14488991.000000
253.052300 3884625.500000
254.060200 3921101.800000
255.068000 7390338.500000
256.052500 924442.100000
256.075500 569354.100000
265.052600 1200237.500000
266.047400 357370.100000
266.060200 1682357.100000
267.055500 9985866.000000
268.063300 429481.800000
269.083700 5057702.500000
280.063000 589206.900000
281.070900 640151.800000
282.079000 15430512.000000

>ms2peaks
50.015100 399908.700000
51.022900 354256.000000
53.038500 979096.200000
55.017700 94537.100000
55.029000 633827.400000
57.044600 65797848.000000
60.044300 372232.600000
63.022800 554485.400000
65.038400 1167348.900000
75.022700 862838.900000
76.017900 106079.100000
77.038400 1741719.600000
79.054100 597066.500000
86.999500 647888.900000
89.038400 53781592.000000
90.033600 335892.100000
90.046200 1151324.000000
91.054100 933224.400000
92.025600 378614.000000
92.049200 130551.900000
93.033500 1111197.000000
93.057300 944423.000000
94.041200 98188.200000
95.049000 3024736.500000
98.999400 319929.000000
100.007200 1228232.000000
100.018000 1262794.200000
103.054000 115886.300000
104.049300 3163627.000000
105.033500 458491.700000
105.044600 1834505.100000
105.056900 118645.100000
110.999400 453671.200000
114.033600 138422.200000
115.041700 83343.200000
116.049400 690703.900000
117.057100 1323947.100000
118.028600 598853.600000
118.052400 347871.300000
118.065000 354153.100000
120.044300 81710.700000
121.028200 472403.900000
122.999400 182607.300000
124.007300 19470886.000000
125.002700 109200.600000
125.015200 105631.000000
126.010500 357672.500000
128.002300 119043.900000
128.049500 391421.300000
129.010000 2305867.200000
129.044600 444817.400000
130.039800 379042.500000
131.060300 637394.400000
134.059800 109708.200000
135.994800 1083967.100000
137.002400 336010.800000
138.010300 4844995.500000
139.005600 7425670.000000
140.025900 277046.900000
143.060200 81095.200000
144.068100 92623.500000
145.075800 357504.700000
146.059800 80440.000000
147.055000 85465.600000
150.010400 2529113.500000
151.018200 1419600.800000
151.054100 546293.200000
152.026000 995208.500000
152.061800 2358741.500000
153.021200 121699.800000
153.069900 129969.700000
154.005300 656733.300000
155.035300 157330.300000
155.997100 515244.700000
156.055300 185026.400000
162.010200 643254.300000
163.005600 12179730.000000
164.000800 7231775.000000
164.025900 438306.900000
164.061700 1020791.000000
165.021300 11658149.000000
165.069700 76972328.000000
166.064700 140443.400000
167.072700 104182.900000
168.056800 485816.700000
169.064400 1075135.000000
176.061900 488105.600000
177.021300 389299.500000
177.057100 1326470.200000
177.069600 108259.300000
178.029000 505783.200000
178.065000 1563566.000000
178.077300 245257.900000
179.037000 403278.500000
179.060500 629391.000000
179.072600 1900137.800000
180.020700 109266.900000
180.044600 997054.200000
180.080500 1536597.400000
181.016100 1021817.200000
183.080200 1134268.500000
188.049200 95745.000000
189.057100 697657.400000
190.064900 13260424.000000
191.072700 17950876.000000
192.080500 74042136.000000
193.052500 631669.600000
193.075900 773647.600000
193.088400 1123970.000000
194.047800 124151.900000
195.091300 90514.200000
198.022700 125059.700000
199.030700 3643205.800000
201.033700 1378518.500000
201.057300 109689.200000
202.064700 711874.200000
203.072700 11381167.000000
204.080400 1259702.800000
205.075900 11189280.000000
206.083700 8131953.000000
207.067600 539866.700000
207.091300 560919.800000
208.075400 86886.400000
213.033800 493135.100000
214.041600 3799740.500000
215.060000 1134126.400000
216.068000 8593602.000000
217.075800 5597292.500000
218.083700 19589274.000000
219.091500 10482238.000000
220.075600 1323574.600000
220.099200 3356513.800000
224.025900 5938180.500000
225.034200 134859.700000
226.041600 16351382.000000
227.049400 56791276.000000
229.075700 1240748.200000
230.083600 847116.400000
231.078800 1034690.500000
231.091400 497985.500000
232.086600 8225437.000000
233.106700 355807.800000
234.078400 2397647.500000
235.086200 706625.700000
237.034000 344487.900000
238.041500 6938599.500000
239.036800 1465731.400000
240.044600 3203293.200000
240.057000 718576.100000
241.052400 8807096.000000
244.086500 105244.600000
245.094600 861969.900000
246.102300 7646441.000000
247.110200 9288994.000000
250.073200 1552148.400000
251.036600 2174416.500000
252.044500 13465742.000000
253.052400 3252145.500000
254.060200 1899670.100000
255.067800 1050130.800000
256.051100 111084.700000
265.052300 1264893.100000
266.047500 1579269.200000
266.060300 768224.200000
267.055500 8981045.000000
269.083400 610058.800000
280.063100 433086.600000
281.072400 256303.600000
282.078700 1528785.200000

>ms2peaks
50.015000 899446.900000
51.022900 1021200.800000
53.002200 384722.400000
53.038500 1027689.400000
55.017800 175843.500000
55.029000 939542.800000
56.049400 150315.700000
57.044700 47582756.000000
61.979100 156630.200000
62.014900 354252.700000
63.022800 4705949.500000
64.030600 115916.400000
65.038500 1073384.200000
66.046400 428582.900000
72.983800 321298.200000
74.015000 668326.900000
75.022800 4556302.500000
76.018100 319129.100000
77.038400 2960413.500000
78.033700 142911.400000
78.046400 118716.700000
81.033300 127680.400000
84.983800 432101.200000
86.999500 771508.300000
88.030600 164403.100000
89.038400 104030136.000000
90.033700 354363.400000
90.046300 1979066.500000
91.041600 179732.500000
91.054200 1417790.800000
93.033400 463176.300000
93.057300 514213.300000
95.049000 3852215.200000
98.999500 474358.900000
99.010200 317396.900000
100.018000 7891486.000000
102.033800 828091.200000
103.041600 392105.200000
104.049300 2507406.200000
105.044600 2540814.500000
108.983800 471192.500000
110.999500 1153922.100000
114.033600 962863.700000
115.041500 739777.800000
115.054100 2176246.200000
116.049400 1400617.200000
117.057100 2038402.900000
118.028600 2102560.000000
118.052400 350685.500000
118.064900 300284.400000
120.044200 329165.600000
122.999400 1725793.000000
123.994800 406309.700000
124.007300 4351402.500000
125.015100 467585.700000
125.038500 156447.500000
126.010500 116441.800000
126.046300 135113.200000
127.041400 574084.200000
127.054000 146120.300000
128.049300 326855.100000
128.061800 148080.600000
129.010000 2214274.200000
129.044400 842709.200000
130.039800 1427897.000000
130.065100 119350.200000
131.060000 518838.600000
135.994800 1630453.600000
137.002600 167802.800000
138.010300 4152199.200000
139.005600 6213495.000000
139.054100 2006158.100000
140.049300 829663.200000
140.061700 545175.100000
146.059900 132440.700000
150.010400 1473621.800000
150.046200 902053.100000
151.018100 1180887.500000
151.054100 1868061.800000
152.061900 4819086.500000
153.057200 356323.600000
153.069700 704599.200000
154.005300 530921.500000
154.039800 285082.900000
154.065000 123513.900000
155.034800 118786.400000
155.060200 163678.500000
162.010400 438423.800000
162.046800 173754.100000
163.005600 3153770.800000
163.054000 6148715.000000
164.000800 5317532.000000
164.049400 954873.800000
164.061800 10486353.000000
165.021300 4865347.000000
165.069700 90277480.000000
166.065000 1573014.000000
167.049100 126067.500000
167.072800 274935.800000
168.056800 4133983.800000
169.064600 3593081.500000
170.059800 289579.900000
175.054000 310070.900000
176.049300 169109.700000
176.061800 2717559.000000
177.057100 5240930.500000
177.069700 476771.700000
178.028900 343011.300000
178.065000 4444119.500000
179.060500 1937037.000000
179.072700 4636817.500000
180.056000 132346.900000
180.080500 1401607.400000
181.016300 295434.300000
183.080300 320947.300000
188.049300 2684652.500000
189.057000 4013614.000000
190.064900 28148996.000000
191.072700 18034958.000000
192.080500 7880055.000000
193.051900 1030955.100000
193.064600 638283.900000
193.075900 283901.300000
193.088200 370337.000000
194.060100 526338.200000
195.044200 136770.000000
196.051600 968544.400000
196.075400 470474.600000
198.022700 311843.000000
199.030700 5421008.000000
201.033800 623740.900000
201.057000 1641401.600000
202.064900 2571250.000000
203.060300 638659.600000
203.072700 9772216.000000
204.055500 349140.400000
204.068100 1265782.000000
204.080500 1744686.000000
205.075900 17871574.000000
206.083800 2400382.500000
207.067600 1554629.400000
213.033800 2108181.500000
214.041700 1412879.000000
215.060200 5888030.500000
216.068100 4142581.500000
217.075800 10783275.000000
218.083700 12012506.000000
219.091500 3627603.000000
220.075500 2396862.000000
221.046800 638782.200000
221.070400 139806.900000
224.026000 3092717.500000
225.033800 477977.200000
226.041500 1883486.100000
227.049300 1466094.100000
229.075700 1665259.100000
230.071100 757346.000000
231.078900 3482851.200000
232.086700 3381278.500000
234.078600 612583.000000
235.086400 358441.700000
237.033600 363990.700000
238.041500 611690.800000
239.037000 2789513.500000
240.044700 1079929.400000
241.052000 627315.600000
244.086600 321943.900000
245.094500 632672.800000
246.102400 1191118.800000
247.110100 128203.100000
251.036600 282591.800000
252.044500 2523281.500000
253.052400 453768.900000
265.052300 481787.700000
266.047900 1187452.900000
267.055400 609473.800000

>ms2peaks
50.015100 2269442.500000
51.022900 1789640.400000
52.018100 105240.000000
53.002200 580214.400000
53.038500 1087124.200000
53.997400 97975.600000
55.029000 926829.700000
57.044700 32391186.000000
60.983900 112545.800000
61.007100 548644.300000
61.979100 621544.600000
62.015000 1969302.800000
63.022800 18326104.000000
64.018100 98397.000000
64.030600 326314.000000
65.002200 146995.600000
65.038500 1612350.200000
66.046300 575625.100000
72.983900 1265558.600000
74.015000 2730611.000000
75.022800 10533707.000000
76.018000 619202.800000
76.030600 927369.000000
77.038400 2816629.800000
78.033800 291004.300000
78.046300 337608.200000
81.033300 169444.000000
84.983800 788398.600000
86.014900 325831.700000
86.999600 307488.600000
87.022700 715598.500000
88.018100 408692.000000
88.030600 838298.400000
89.038400 93638136.000000
90.033600 646060.100000
90.046300 2007398.800000
91.041600 403158.200000
91.054100 1718805.500000
93.033500 165590.800000
93.057200 291270.900000
95.049000 4013394.000000
96.044300 112573.400000
96.983900 331538.700000
98.014900 159654.900000
98.999500 701265.100000
99.010200 1629752.900000
99.022800 799121.100000
100.018000 11520416.000000
102.033700 1770766.400000
102.046300 764420.700000
103.041600 1002793.500000
104.049400 1912609.500000
105.044600 2639129.500000
108.983800 525993.500000
110.999500 1261219.200000
113.038400 968852.000000
114.033700 1618401.500000
114.046200 116008.900000
115.041700 828670.700000
115.054100 10441717.000000
116.049300 1329331.000000
117.057100 1452088.200000
118.028600 1968839.600000
118.052100 133772.000000
119.049100 108004.900000
120.044300 173303.700000
122.999400 2593535.000000
123.994900 306776.000000
124.007300 509502.400000
125.002500 178481.000000
125.015300 104842.000000
125.038400 913068.500000
126.046300 1353922.800000
127.041600 1025912.600000
127.054000 466156.900000
128.049400 520365.100000
128.061800 543881.100000
129.010000 1500293.100000
129.044600 878980.600000
130.039900 2040044.400000
130.052600 356520.200000
134.060200 108183.600000
135.994800 642964.600000
137.002500 147874.400000
137.038400 922529.200000
138.010400 2108539.000000
138.046300 535156.300000
139.005600 4417407.500000
139.054100 9787299.000000
140.049300 3442802.800000
140.061600 702808.100000
145.064800 139172.800000
146.059400 111272.900000
149.015700 105283.300000
149.038400 734034.600000
150.010400 486509.900000
150.046300 6111828.500000
151.018300 807578.000000
151.041500 471529.800000
151.054000 3212557.800000
152.049600 639593.400000
152.061900 6166626.000000
153.044900 169396.500000
153.057200 1138646.000000
153.069700 475523.400000
154.005100 111395.600000
154.039900 155774.700000
155.060200 744108.200000
161.038400 615515.300000
162.010300 281809.200000
162.033400 105352.900000
162.046300 1717594.000000
163.054000 28720400.000000
164.000800 2024062.100000
164.050000 3353816.800000
164.061800 20704152.000000
165.069700 36709616.000000
166.065000 1065115.600000
167.048800 360896.400000
167.072700 133883.900000
168.056800 7721513.000000
169.064600 8480056.000000
170.059900 1017267.600000
174.046300 1137601.000000
175.041800 751974.200000
175.053900 1014127.400000
176.049500 405327.600000
176.061900 4480631.000000
177.057100 9619020.000000
178.064900 7590166.000000
178.077700 434148.900000
179.060200 4287364.000000
179.072500 2351633.800000
180.055700 281635.500000
180.080700 425649.600000
183.080200 94481.600000
188.049300 11026210.000000
189.044500 256995.200000
189.057200 3244977.200000
190.064900 29519064.000000
191.072700 4479651.000000
192.067700 515885.000000
192.080500 303847.400000
193.052000 1146938.400000
193.064700 1264436.900000
194.036600 125598.900000
194.059800 1593197.900000
196.051700 2749478.800000
196.075800 778287.200000
198.023000 121319.800000
199.030800 2304889.000000
201.057000 4151113.500000
202.052600 280559.100000
202.064900 2352629.800000
203.060200 1730712.600000
203.072700 2215148.500000
204.055600 1382393.600000
204.068000 1542294.000000
204.080000 700895.600000
205.075900 7160288.500000
206.083700 171278.200000
207.067700 553988.800000
213.033900 724304.600000
215.060100 4849579.500000
216.068100 2316873.000000
217.075800 3606265.000000
218.083700 3311154.500000
219.091600 444840.700000
220.075500 929007.600000
221.047100 570957.300000
221.070900 101191.900000
224.025800 694639.200000
225.034700 166432.900000
229.076300 590079.800000
230.071200 1429085.900000
231.079000 1142281.000000
232.087100 112990.200000
239.036800 1159689.900000
240.044200 114565.100000
244.086500 129032.300000
252.044600 122802.100000

>ms2peaks
50.015100 4446187.500000
51.022900 3917277.800000
52.018200 154011.700000
53.002100 658831.500000
53.038600 980734.500000
53.997400 91987.400000
55.017800 104576.900000
55.029000 879561.700000
57.044700 16464960.000000
60.983900 94885.500000
61.007200 1264966.500000
61.979100 717025.400000
62.015000 5403953.000000
63.022900 32218746.000000
64.018000 484411.800000
64.030700 621736.700000
65.002100 293781.000000
65.038500 3394833.500000
66.046400 447133.000000
72.983800 2063772.400000
74.015000 6671078.500000
75.022800 13610261.000000
76.018000 1284391.400000
76.030600 1788522.000000
77.038400 2625537.000000
78.033700 285831.800000
78.046300 592651.000000
81.033400 330804.100000
84.983900 1434153.800000
86.014900 963720.300000
86.999500 129768.100000
87.022800 2576465.200000
88.018000 915206.300000
88.030600 1268284.400000
89.038500 55550344.000000
90.033800 628927.000000
90.046400 1360788.100000
91.041500 299194.300000
91.054200 1220815.500000
92.049300 78019.200000
94.041200 102953.800000
95.049000 3407813.000000
96.044300 107314.500000
96.983800 699960.100000
98.015000 1383205.000000
98.999500 515604.100000
99.010200 3744070.800000
99.022800 1949249.500000
100.018100 8609722.000000
100.030600 569505.437500
101.025700 63953.900000
102.033700 1392074.800000
102.046300 1612568.900000
103.041500 807454.000000
104.049400 883501.400000
105.044600 2276623.500000
108.983700 477551.800000
110.999500 543766.900000
111.022800 679080.500000
113.038400 3547699.200000
114.033700 1847358.800000
114.046400 376339.200000
115.054100 12383207.000000
116.049300 825267.200000
117.057100 673227.500000
118.028600 1098497.000000
119.049100 98287.400000
120.044200 171400.900000
122.999400 1594171.600000
123.994900 83362.900000
124.007600 98035.400000
125.038500 1605599.400000
126.046300 3281927.000000
127.041500 1186691.900000
127.054000 501068.600000
128.049400 616522.200000
128.062000 548373.200000
129.010200 517137.200000
129.044500 1061773.600000
129.057200 144232.100000
130.039800 1231706.600000
135.994900 89529.000000
137.038500 2434232.200000
138.010400 557407.400000
138.033700 766843.500000
138.046200 1239257.600000
139.005600 1761117.800000
139.054100 10575281.000000
140.049300 4648904.000000
143.049000 390383.300000
145.064700 367983.300000
146.059800 277281.800000
148.030400 84339.000000
149.015100 125840.400000
149.038500 1763134.200000
150.046300 12910427.000000
151.041600 921082.900000
151.054100 2841496.500000
152.049400 887545.100000
152.061900 4469364.000000
153.044400 280007.800000
153.057100 730388.600000
153.069900 105468.300000
154.040000 159282.400000
155.060200 690021.800000
161.038400 2301333.800000
162.034400 538900.900000
162.046300 3572407.200000
163.054100 41456948.000000
164.049400 4629155.000000
164.061800 7581692.500000
165.069700 6561453.000000
166.065000 295005.200000
167.049000 534709.500000
167.072800 87589.400000
168.056800 3116747.200000
169.064600 7348102.000000
170.060000 868090.500000
174.046300 2228994.000000
175.041600 1965601.100000
175.053700 676219.400000
176.049900 554764.100000
176.061900 2469245.500000
177.057100 7886512.500000
178.065000 3206791.800000
179.060200 3396798.500000
179.072800 459161.200000
180.055800 266001.700000
188.049300 11962938.000000
189.044400 327251.500000
189.057200 2148917.500000
190.064900 12159044.000000
191.073000 689804.900000
192.068100 90255.500000
193.052200 833627.500000
193.065000 673156.700000
194.036000 600466.900000
194.059900 1783086.200000
196.051700 1019662.000000
196.075300 98979.100000
199.030800 422499.800000
201.057100 2227132.000000
202.052300 675079.000000
202.064600 585707.000000
203.060100 1809071.800000
203.072600 440355.900000
204.055500 1437890.500000
204.067700 700197.400000
204.080400 77484.300000
205.076000 740366.900000
207.068200 106939.500000
212.026200 128261.400000
215.060300 1637432.600000
216.067800 792969.900000
217.075900 741617.900000
218.083700 432611.800000
220.075300 276409.500000
221.047300 277714.900000
230.071000 394417.200000

