>compound EQ92417535
>parentmass 764.4791
>ionization [M+H]+
>formula C38H69NO14
>rt 582.000000
>profile orbitrap
#smiles_iso CC[C@@H]1[C@@]([C@@H]([C@H](C(=O)[C@@H](C[C@@]([C@@H]([C@H]([C@@H]([C@H](C(=O)O1)C)O[C@H]2C[C@@]([C@H]([C@@H](O2)C)O)(C)OC)C)O[C@H]3[C@@H]([C@H](C[C@H](O3)C)[N+](C)(C)[O-])O)(C)OC)C)C)O)(C)O
#smiles_can CCC1C(C(C(C(=O)C(CC(C(C(C(C(C(=O)O1)C)OC2CC(C(C(O2)C)O)(C)OC)C)OC3C(C(CC(O3)C)[N+](C)(C)[O-])O)(C)OC)C)C)O)(C)O
#inchikey KDRPFIWYMNONLJ-KCBOHYOISA-N
#pubchem_id 11320230
#mb_accession EQ344601,EQ344602,EQ344603,EQ344604,EQ344605,EQ344606,EQ344607,EQ344608,EQ344609

>ms2
113.059400 581117.600000
114.091300 3527756.500000
116.106900 2188255.000000
123.080100 415846.800000
128.106900 549699.000000
156.101900 2750600.200000
174.112400 2920630.500000
307.190400 451331.800000
365.232200 1967112.900000
379.248000 1660956.600000
383.243600 467296.400000
393.228400 491951.400000
397.256900 439527.700000
556.347000 1554734.200000
574.360300 952913.600000
588.374600 9801125.000000
606.384500 405385120.000000

>ms2
55.054100 728207.100000
57.033300 1176383.400000
57.069800 397524.500000
58.065100 793221.000000
59.049100 203140.100000
60.044300 274070.500000
62.060000 1504824.100000
65.038500 240896.300000
67.054200 2529629.500000
69.033300 636141.600000
69.069800 3466751.000000
70.065100 3477561.500000
71.049000 343462.100000
71.072800 443835.400000
72.044300 258244.200000
72.080700 697932.800000
73.064800 242481.600000
74.060000 235254.800000
75.043900 235759.700000
79.054000 117844.400000
81.069700 490030.000000
83.049100 17006326.000000
84.080700 2201420.200000
85.028300 2065823.900000
85.064700 2372634.500000
86.060000 2049264.800000
95.049100 3681471.200000
95.085500 770629.800000
97.064800 13060347.000000
98.096500 898617.900000
99.067800 248824.400000
99.080300 921032.600000
99.104200 793063.500000
100.112000 4140545.200000
101.023300 121281.600000
102.091300 1457498.100000
107.085400 793618.500000
109.064800 4513018.500000
109.101100 5504483.500000
111.043800 623833.800000
111.080400 876389.900000
111.116900 544945.200000
112.112100 213258.800000
113.059600 51971644.000000
114.091300 16155406.000000
115.075300 2588193.200000
116.070700 657192.300000
116.106900 5324366.500000
119.085300 694238.700000
121.101200 15425703.000000
123.080300 116893504.000000
125.059700 994860.700000
125.096000 5425001.500000
126.091200 340251.100000
127.075300 3793857.000000
127.111600 1839515.500000
128.106900 12381024.000000
129.054600 452356.700000
129.091000 320183.400000
130.086200 220132.800000
132.065500 706165.500000
133.101100 318670.500000
135.080300 572566.800000
135.116500 845339.600000
137.096000 8919133.000000
139.075200 703038.200000
139.111700 2951589.200000
140.106900 357656.800000
141.054700 217855.300000
141.090800 569893.600000
143.070200 1786441.500000
143.106800 182791.000000
146.117500 3012326.500000
147.080300 224663.000000
147.116800 1084213.600000
149.096100 310900.200000
149.132400 4935977.500000
151.075100 647023.800000
151.111700 805536.400000
151.148300 249684.100000
153.090900 6201213.500000
155.106500 2388719.500000
156.101900 8310007.500000
157.085800 1374110.100000
158.117500 4567342.000000
159.116900 1510645.000000
159.125200 287556.000000
161.132200 394013.600000
163.075400 242725.400000
163.111700 2717829.000000
165.090900 4144949.000000
165.127400 2730203.500000
167.106600 696091.300000
167.143000 4266630.000000
169.085800 1403832.500000
169.122200 590133.400000
171.101500 5524024.500000
173.132600 332020.500000
174.112400 25848458.000000
175.111600 1453834.200000
177.127300 10654963.000000
179.106500 1096339.600000
179.143000 578960.300000
181.085700 1417989.100000
181.122200 3616276.500000
183.101500 14093948.000000
183.137900 1166359.800000
185.117100 973141.800000
185.132500 199879.100000
187.148000 1955437.400000
188.128300 210748.400000
189.127000 344783.900000
189.163600 676262.200000
191.106600 315856.900000
191.143000 337725.500000
192.122900 7306694.500000
193.122300 11899563.000000
195.137900 15850967.000000
197.117200 1931752.500000
199.096400 1300987.000000
199.148400 262425.600000
201.163700 590246.200000
203.106500 881821.100000
203.143300 621681.600000
205.122500 425837.000000
205.158700 5373049.500000
207.138100 434197.900000
207.174100 520306.300000
209.117100 359913.800000
209.153400 748538.500000
211.132800 2561585.800000
213.148500 1568259.100000
215.143000 1228097.400000
217.158900 647232.900000
219.138200 119455.100000
219.174700 238318.600000
221.117200 8226840.500000
221.153500 2455032.000000
223.133100 693615.600000
223.169300 2363352.500000
225.164200 118626.600000
227.178900 389653.300000
229.158700 768167.200000
231.138100 1094266.000000
233.153500 8604043.000000
235.133500 252192.400000
235.169200 949484.900000
239.127700 6137866.000000
243.174300 1016230.300000
245.189900 5126225.500000
247.169000 704224.400000
249.148400 1797098.100000
251.164100 10510071.000000
253.158900 442760.200000
259.133000 545430.500000
261.148600 223403.300000
261.184800 1181582.600000
263.200500 7076443.000000
265.179900 1222986.200000
267.158800 623012.700000
271.154100 323437.800000
271.168800 2364464.200000
277.143300 1350258.200000
279.159000 6069489.000000
289.179700 19357440.000000
291.195200 1763946.600000
301.216600 495856.200000
303.231600 487988.500000
307.190300 20888978.000000
311.200700 291927.100000
320.206700 251165.600000
321.206000 2659823.000000
325.201000 1350095.800000
329.211000 2535034.500000
335.185200 5915497.500000
339.216700 541547.500000
347.221700 11447831.000000
353.195900 1971875.125000
365.232300 19304502.000000
379.248000 5967088.500000
383.242800 3670041.800000
393.227200 9862391.000000
397.258500 313743.300000
411.237700 3207023.200000
425.253100 555671.000000
538.337400 1574236.875000
556.348300 2161153.800000
574.358600 9410035.000000
588.374400 452462.000000
606.384800 52430236.000000

>ms2
55.017800 291415.100000
55.054200 3658047.800000
56.049500 383815.400000
57.033500 4884547.500000
57.069900 2500528.200000
58.065100 1903960.800000
59.049100 777610.600000
60.044400 734540.500000
62.060000 2247087.500000
65.038500 859978.100000
67.054200 10287218.000000
69.033400 3502788.000000
69.069800 14474916.000000
70.065100 7466586.500000
71.049100 1181763.500000
71.072900 722543.400000
71.085500 379192.100000
72.044300 997362.500000
72.080700 2133588.000000
73.064700 908547.100000
74.060000 329124.300000
75.044000 204167.100000
79.054100 1108971.100000
81.069900 3125770.000000
82.065000 289903.300000
83.049100 33324732.000000
84.080700 6034041.000000
85.028400 4015660.800000
85.064700 5272719.500000
86.060000 3819517.800000
87.044100 486908.000000
87.067800 237687.200000
87.080500 363894.300000
88.075600 1204812.500000
91.054200 771985.500000
93.069900 2182517.000000
95.049100 9185705.000000
95.085500 4721938.500000
97.064800 21911624.000000
98.060000 305286.100000
98.096400 2553222.000000
99.044000 236669.700000
99.080400 1672324.500000
99.104200 589701.200000
100.075700 210899.800000
100.112000 4060678.800000
101.023400 470199.100000
101.059700 265035.800000
102.091300 1243718.100000
103.038900 377690.900000
105.069900 1681851.100000
107.085500 4945210.000000
109.064800 15062931.000000
109.101200 14672812.000000
110.096400 346835.100000
111.044000 2411889.500000
111.080400 2570264.800000
111.116700 989998.800000
113.059600 33290730.000000
113.096000 1953630.800000
114.091300 8027637.500000
115.075300 2418714.000000
116.070600 1276209.100000
116.107000 2111822.000000
117.054500 183365.200000
117.069700 190335.600000
119.085500 4649517.000000
121.101200 32059692.000000
123.080300 135262144.000000
125.059700 2904851.200000
125.096100 12571362.000000
126.091100 359551.100000
127.075300 4228501.000000
127.111700 2028956.800000
128.106900 8769626.000000
129.054600 1071419.900000
129.091000 468997.300000
129.114700 541454.300000
131.085500 330987.900000
132.065500 3096623.200000
133.101100 2004114.100000
135.080400 1870703.900000
135.116700 3000191.200000
137.096100 24753912.000000
139.075300 1404916.100000
139.111700 3163498.800000
140.106900 687939.900000
141.054600 617903.200000
141.090900 743454.600000
143.070300 1865983.800000
145.101200 1137410.900000
146.117400 510625.200000
147.080400 1079481.400000
147.116800 5096165.500000
149.096100 1736071.400000
149.132500 8919445.000000
151.075300 5644744.000000
151.111700 3386318.500000
151.148000 287412.700000
153.090900 6586100.500000
153.127100 496222.200000
155.070300 238716.500000
155.106500 2046579.200000
156.101900 2088623.100000
157.085800 747856.000000
157.101100 813131.000000
158.117500 1677836.800000
159.116800 5388337.500000
161.095900 941376.600000
161.132400 631773.700000
163.075100 537677.200000
163.111700 5097261.000000
163.148100 310181.300000
164.119300 232948.200000
165.091000 10078945.000000
165.127400 4951495.000000
167.106600 607080.900000
167.143000 2763222.800000
169.085900 1445541.900000
169.122200 259777.200000
171.101600 1525173.900000
171.116600 729823.200000
172.124700 360563.500000
173.096000 283260.100000
173.132500 1237076.100000
174.112500 6122691.000000
175.111700 5331248.000000
175.148100 443555.100000
177.127300 8894582.000000
179.106500 1293283.000000
179.143100 630109.800000
181.085900 1556081.800000
181.122200 1539289.000000
183.101600 5167125.000000
183.137600 410108.200000
185.132300 834281.600000
187.111300 527795.500000
187.148100 4408583.500000
189.127200 953851.300000
189.163700 596420.900000
191.106500 585792.900000
191.142800 889622.000000
192.122900 1714711.900000
193.122300 11787802.000000
195.137900 5207012.000000
197.117400 1124856.200000
197.132000 536779.100000
199.096400 309317.100000
199.148000 473969.700000
201.127100 326075.400000
201.163800 584757.000000
203.106500 1340447.500000
203.142900 1363461.000000
205.122400 507903.600000
205.158700 3548939.000000
207.137900 505511.200000
209.153400 196723.500000
211.132800 1384744.800000
211.148100 262917.200000
213.127000 260352.300000
215.143000 1620812.800000
217.159200 331074.700000
217.194900 276241.800000
219.174200 280096.400000
221.117200 2726218.000000
221.153500 1449923.000000
223.132800 257783.800000
223.169200 342751.600000
225.163800 660629.600000
227.179300 364898.000000
229.158600 1080294.600000
231.137900 1195455.800000
233.153500 4687054.500000
235.132500 194569.900000
235.169200 220299.600000
239.127800 817513.700000
243.174200 789009.900000
245.189900 1807036.800000
247.168800 496976.600000
249.148300 869679.800000
251.164200 2175139.000000
253.158600 451469.600000
259.132400 327342.000000
261.148600 182063.500000
261.184200 366278.400000
263.200400 618979.400000
265.179500 205146.500000
267.158400 222814.700000
271.169000 1205631.400000
277.143300 242820.600000
279.159000 674731.200000
289.179700 1950109.500000
291.195100 267291.100000
303.231900 223681.900000
307.190200 622262.800000
329.211200 550335.100000
347.222100 573593.700000
365.231100 211610.400000
393.225800 237427.800000

>ms2
55.017800 621690.200000
55.054200 7318075.000000
56.049500 757016.100000
57.033500 6237827.500000
57.069900 3527694.800000
58.065100 2453922.800000
59.049100 1192218.800000
60.044400 867436.100000
62.060000 1532104.000000
65.038600 1734820.000000
67.054200 19257250.000000
67.989300 176585.400000
68.049400 276958.000000
69.033500 4792645.500000
69.069900 17135278.000000
70.065100 6454297.000000
71.049100 1677030.900000
71.073000 855728.400000
71.085500 329835.500000
72.044300 1381398.900000
72.080700 2603291.200000
73.028400 256584.500000
73.052200 222510.200000
73.064700 1110075.000000
74.060000 357553.500000
77.038300 427299.700000
79.054200 3656002.200000
81.069900 7725828.500000
82.065200 579511.900000
83.049100 38546948.000000
84.080800 6610224.000000
85.028400 3819770.200000
85.064800 4233889.500000
86.060000 2966897.000000
87.044100 683750.300000
87.067900 384179.900000
87.080500 297437.300000
88.075700 2154284.000000
91.054200 2869307.200000
93.069900 4943836.500000
95.049100 10023242.000000
95.085500 9091651.000000
97.028400 738684.600000
97.064800 12463696.000000
98.060100 250427.000000
98.096400 2918769.500000
99.044100 232832.300000
99.080400 1271237.100000
99.104100 222523.400000
100.075700 360595.700000
100.112000 3027344.200000
101.023400 387892.000000
101.059700 609367.900000
102.091300 564822.200000
103.054200 355135.600000
105.069900 5696873.500000
106.077700 263325.900000
107.085500 8159019.000000
108.056900 198736.900000
109.064800 15039008.000000
109.101200 15201299.000000
110.096400 203357.600000
111.044000 1823656.100000
111.080400 2469499.800000
111.116900 284852.200000
113.059700 12071393.000000
113.096100 1389740.500000
114.091400 2292654.800000
115.075400 824380.600000
116.070600 738996.000000
116.106900 583586.100000
117.069800 680683.900000
119.085600 9087183.000000
121.101200 25685322.000000
122.072700 388077.500000
123.080400 102909552.000000
124.088300 206721.000000
125.059700 1865465.400000
125.096100 7446957.500000
126.091300 192226.900000
127.075300 2029052.900000
127.111700 837345.400000
128.107000 2706767.800000
129.054700 183472.000000
129.069800 314703.800000
129.091000 189639.400000
129.114700 306614.800000
131.085500 1363185.400000
132.065500 2883815.200000
133.075900 559904.600000
133.101100 2556208.500000
135.080400 2093572.600000
135.116700 2498151.000000
136.088300 458119.600000
137.096100 19360750.000000
139.075300 1096234.400000
139.111700 1504596.200000
140.107000 517119.500000
141.054500 350564.600000
141.091000 358804.600000
142.077700 345345.800000
143.070300 267144.200000
143.085700 381168.900000
144.093400 687659.300000
145.101100 2095775.100000
147.080400 1494081.400000
147.116800 5141741.500000
149.096100 1541494.800000
149.132500 3609348.500000
150.104100 110444.200000
151.075400 3902267.800000
151.111800 2934297.800000
152.083100 177304.000000
153.091000 2019364.800000
153.127400 322876.400000
155.106600 629542.400000
156.093300 259562.800000
156.102000 379174.900000
157.101200 1674477.200000
158.109100 432040.200000
158.117400 223496.200000
159.116800 4078344.000000
160.088100 316497.500000
161.096100 887199.900000
161.132400 865218.900000
163.075300 511429.600000
163.111700 4019958.200000
163.148100 285926.300000
164.119600 650904.400000
165.091000 3461773.500000
165.127400 2784545.200000
167.106900 199455.300000
167.142700 392737.500000
169.085800 257382.100000
169.101200 257784.000000
170.109200 457928.400000
171.101500 179717.500000
171.116700 683259.400000
172.124700 731150.300000
173.096000 353950.800000
173.132600 1279572.400000
174.104200 228970.000000
174.112400 951770.100000
175.111800 3712181.000000
175.148000 270885.800000
176.119400 263001.300000
177.127400 3057926.800000
179.106800 621176.900000
179.142800 187344.700000
181.085800 483639.700000
181.122200 434548.300000
183.101700 348860.400000
183.116600 202991.700000
185.132400 634877.400000
187.111900 281006.200000
187.148100 1841707.600000
188.119700 186155.800000
189.127300 525643.900000
191.106800 317604.000000
191.142800 247727.400000
193.122400 2238021.000000
195.137900 616681.200000
197.132500 277082.500000
199.148400 104775.000000
200.119400 224277.900000
201.127500 312429.300000
201.163800 269800.000000
203.106500 435439.900000
203.142900 517753.900000
205.159000 726134.200000
210.140400 262156.400000
211.132800 230860.900000
213.127300 203693.600000
215.143100 498893.900000
221.116900 232566.200000
221.153700 302527.600000
225.163600 208589.300000
229.158700 243440.500000
231.137900 169869.500000
233.153100 420481.500000
249.148500 169722.600000
251.164000 205844.500000

>ms2
53.997500 191518.300000
55.017800 973297.700000
55.054200 14065284.000000
56.049500 1210690.800000
57.033500 5874393.000000
57.069900 3047627.800000
58.065100 3525622.200000
59.049100 1361838.900000
60.044400 781800.100000
62.060000 1112355.900000
65.038600 3159600.800000
67.054200 26861600.000000
67.989300 81608.200000
68.049500 286766.300000
69.033500 5249273.000000
69.069900 15318933.000000
70.065100 5750890.000000
71.049100 1925189.500000
71.072900 914170.400000
71.085600 244361.600000
72.044400 1790657.600000
72.080700 2951949.000000
73.028400 314589.600000
73.052200 251700.000000
73.064800 970809.200000
74.059900 430067.200000
75.044100 88642.800000
77.038400 434698.500000
79.054200 7867016.000000
80.062000 79993.400000
81.069900 10527988.000000
82.065100 581908.600000
83.049100 37407884.000000
84.080800 7198662.500000
85.028400 3097384.000000
85.064800 2810161.200000
86.060000 2140368.800000
87.044100 525188.200000
87.067900 456545.200000
87.080500 73099.100000
88.075700 2469962.500000
91.054200 7254694.000000
93.069900 7472476.500000
95.049200 7759677.500000
95.085500 10763705.000000
97.028400 481486.000000
97.064800 6384630.000000
98.060200 301363.400000
98.096400 2863186.500000
99.044200 97780.000000
99.080400 787853.300000
99.104300 181507.500000
100.075700 256018.700000
100.112100 2489898.000000
101.023400 106345.600000
101.059700 698211.700000
102.091400 276822.900000
103.054200 1153167.400000
104.062000 90268.800000
105.044800 770489.400000
105.069900 11922062.000000
106.077700 370331.000000
107.049200 496603.700000
107.085500 7239089.500000
108.056900 641730.900000
108.093400 77194.800000
109.064800 12105400.000000
109.101200 10048493.000000
110.072500 74302.600000
111.044000 1104320.900000
111.080400 1667767.900000
113.059700 3231254.200000
113.096000 614757.000000
114.091300 854366.100000
115.054200 326468.800000
115.075300 229309.900000
116.070700 181504.900000
116.107000 163560.900000
117.069800 1445643.000000
119.085600 9899110.000000
120.093500 211580.200000
121.064800 876779.600000
121.101200 14202146.000000
122.072600 1077103.400000
123.080400 71482688.000000
124.088300 250629.500000
125.059700 1046858.300000
125.096100 3454124.500000
127.075400 587177.900000
127.111700 186182.300000
128.061900 302048.600000
128.107000 713382.800000
129.069800 850585.200000
130.077800 265431.200000
131.085500 1662140.200000
132.065600 845280.400000
133.064800 302160.900000
133.076000 812310.900000
133.101200 2375332.000000
134.109000 102753.800000
135.080400 1924212.200000
135.116800 1006327.400000
136.088300 742548.000000
137.096100 8607946.000000
139.075300 512256.400000
139.111700 597415.900000
140.106900 378036.300000
142.077700 798917.800000
143.085600 656713.300000
144.093400 1179054.500000
145.064800 228552.400000
145.101100 1833340.600000
146.072700 89112.900000
147.080400 995457.000000
147.116800 2905004.000000
149.096200 1084460.800000
149.132600 851257.100000
150.103900 87013.400000
151.075400 988030.600000
151.111700 1034684.700000
152.083200 260275.700000
153.091000 427675.300000
155.085600 292156.700000
155.106500 93654.700000
156.093500 430426.400000
157.101200 1658787.200000
158.108900 557931.000000
159.080500 305316.900000
159.116800 1925197.800000
160.088300 430113.200000
161.096100 700965.600000
161.132700 213962.100000
162.104100 102916.200000
163.075100 230264.900000
163.111700 1797330.800000
164.119700 457751.700000
165.091100 877019.600000
165.127500 751256.800000
168.093500 74756.900000
169.101100 260236.500000
170.109200 516968.300000
171.116900 427728.500000
172.088200 184123.600000
172.124600 597847.900000
173.095900 265778.800000
173.132300 563152.200000
174.104000 192842.000000
174.112100 79479.100000
175.111800 1234212.200000
176.119700 77518.200000
177.127400 976717.400000
179.106600 315483.400000
181.085500 87072.800000
181.101000 100443.300000
183.117000 105787.200000
185.132600 226509.400000
186.103600 86214.700000
187.111900 256050.100000
187.148000 260413.500000
188.119400 103199.400000
189.127300 244388.900000
193.122200 292264.600000
195.116800 255458.800000
197.132500 93801.300000
201.127200 257264.300000
203.142900 94416.100000
213.127100 77739.500000
215.142900 102366.600000

>ms2
53.997500 291861.000000
55.017900 1467007.800000
55.054300 21247176.000000
56.049500 1291766.000000
57.033500 4882640.500000
57.057300 314732.800000
57.069900 2210751.000000
58.065100 3519745.800000
59.049100 1197936.800000
60.044400 538244.200000
61.028400 155031.400000
62.060000 973610.900000
65.038600 4171183.500000
66.046300 94871.000000
67.054200 30393350.000000
67.989200 163393.600000
68.049400 318349.000000
69.033500 3814888.000000
69.069900 10287906.000000
70.065100 4630280.500000
71.012700 251506.100000
71.049100 1494774.200000
71.072900 1174003.400000
72.044400 1616265.000000
72.080800 2466042.800000
73.028400 163010.000000
73.052100 370302.700000
73.064800 858566.900000
74.036200 47087.500000
74.060000 356050.900000
75.043900 76915.800000
77.038500 842445.500000
78.008600 73020.500000
78.046400 97334.300000
79.054200 12931330.000000
80.062000 406365.900000
81.069900 11623323.000000
82.065100 524675.800000
83.012700 1765717.800000
83.049100 30389562.000000
84.080800 6421873.000000
85.028400 2500778.200000
85.064800 1539122.000000
86.060000 1479632.000000
87.044100 161701.200000
87.067800 355712.700000
87.080300 48374.700000
88.075700 1216671.600000
91.054300 10988509.000000
92.062000 163646.800000
93.069900 7119666.500000
94.065300 98693.700000
94.077800 286649.800000
95.049200 6624450.500000
95.085500 8813226.000000
96.057000 51309.100000
96.080800 65442.700000
97.028500 242587.800000
97.064800 2975567.000000
98.060100 408011.600000
98.096400 2176496.500000
99.080600 230533.700000
100.075600 253359.800000
100.112000 1277323.000000
101.023400 55779.800000
101.059700 422448.200000
102.091400 91639.800000
103.054200 2543589.000000
104.062100 242754.700000
105.044800 1347608.500000
105.069900 14742013.000000
106.077700 720621.900000
107.049200 875582.200000
107.085500 4403383.500000
108.056900 1223789.000000
108.093300 76260.200000
109.064800 9387555.000000
109.101200 4789291.500000
110.072500 81742.900000
111.044000 403043.700000
111.080500 849318.400000
113.059700 934039.500000
113.096100 88818.900000
114.091400 354951.000000
115.054200 658922.600000
116.062100 375472.600000
116.070500 53932.500000
117.069900 1665948.100000
118.077700 186583.000000
119.060400 511797.700000
119.085600 8747978.000000
120.093400 224650.900000
121.064800 950326.500000
121.101200 6065025.000000
122.072700 1097124.900000
123.080400 40617468.000000
124.088400 198550.600000
125.059700 531072.400000
125.096200 842525.500000
127.075300 207659.300000
128.062000 676059.000000
128.107100 82606.800000
129.069800 1311457.000000
130.077800 614101.900000
131.085500 1246077.100000
132.065400 70021.900000
132.093400 90477.800000
133.065100 289823.000000
133.076000 822722.800000
133.101200 1438631.500000
134.109100 85041.600000
135.080400 1258364.900000
135.116700 419781.700000
136.088400 694136.600000
137.096100 3117632.800000
138.067600 90933.000000
139.075400 157879.500000
139.111900 70526.700000
140.107100 251256.900000
141.069900 485912.300000
142.077700 1137162.400000
143.085600 1012519.100000
144.093400 728738.700000
145.064800 411465.100000
145.101300 1101646.200000
146.072800 140707.600000
147.080500 533400.100000
147.116800 907582.200000
148.088200 76240.700000
149.096200 665352.000000
149.132600 182639.500000
150.104100 64050.400000
151.075400 246344.400000
151.111600 293366.000000
152.083100 155019.000000
153.070300 72567.000000
153.090800 55642.100000
155.060300 49254.000000
155.085500 406536.300000
156.093400 451673.800000
157.101200 1131844.600000
158.108900 418880.900000
159.080300 291165.600000
159.117000 438642.600000
160.088100 298110.800000
161.096200 620107.300000
162.104000 56124.700000
163.075500 82810.200000
163.111600 855344.200000
164.119600 57680.700000
165.069900 91705.900000
165.091000 71816.900000
165.127300 71393.300000
167.085600 93900.700000
168.093600 48204.000000
169.101200 224104.000000
170.109000 176870.400000
171.079900 52620.100000
171.116600 295113.600000
172.088100 88519.700000
172.124900 187620.700000
173.096100 237833.100000
173.132000 78085.800000
175.111900 447736.800000
177.127400 294025.800000
179.107300 49054.600000
181.101300 158165.400000
182.108800 45821.800000
183.116400 140240.200000
185.095900 76193.900000
185.132100 54204.800000
186.103800 51055.200000
187.111600 84638.000000
189.090400 57137.700000
195.116800 180830.600000
197.133000 47581.300000
200.119400 54987.700000

>ms2
53.997500 366053.900000
54.033900 52434.500000
55.017900 1700771.000000
55.054300 22376972.000000
56.049500 1779831.200000
57.033500 2190401.200000
57.057300 493302.700000
57.069900 772611.900000
58.065100 2761596.500000
59.049100 994303.100000
60.044400 332385.500000
62.060100 287762.100000
63.022900 148430.900000
65.038600 7169475.500000
66.046400 466124.400000
67.054200 19658914.000000
67.989400 143564.700000
68.049500 853800.700000
69.033500 1816695.000000
69.069900 3255546.200000
70.065100 2026807.800000
71.012800 61683.300000
71.049100 552239.400000
71.073000 992753.300000
72.044400 881119.300000
72.080800 1371388.400000
73.052200 237626.600000
73.064800 247677.600000
74.036200 61347.500000
74.060100 81580.500000
74.096400 39080.700000
75.044000 65076.600000
77.038500 1241442.100000
78.008600 56713.000000
78.046300 294157.500000
79.054200 14370069.000000
80.062100 727167.100000
81.033500 500641.200000
81.069900 5175310.000000
82.041300 73902.200000
82.065200 437622.300000
83.012700 1229416.800000
83.049100 11238587.000000
84.080800 3146393.000000
85.028400 984457.000000
85.064800 341822.900000
86.060100 303647.500000
87.067800 205917.200000
88.075600 165233.400000
90.046500 59923.900000
91.054300 14346600.000000
92.062000 254469.500000
93.069900 3110671.000000
94.041300 222579.000000
94.065200 72245.300000
94.077800 170071.700000
95.049200 7652762.500000
95.085500 2256360.800000
96.057000 132874.900000
96.080700 38562.600000
97.064900 533720.200000
98.060100 83627.900000
98.096500 937111.900000
100.075700 54562.200000
100.112100 207079.300000
102.046500 70812.200000
103.054200 3520658.000000
104.062100 738196.800000
105.044800 3780239.200000
105.069900 7815541.000000
106.077700 343754.200000
107.049200 1584695.800000
107.085600 922660.000000
108.057000 1373664.600000
109.064800 2937742.800000
109.101300 483199.100000
111.080400 168452.000000
115.054300 1643206.600000
116.062100 343825.500000
117.069900 1811565.800000
118.077800 142663.200000
119.060400 307607.700000
119.085600 2684589.800000
120.093400 58839.600000
121.064800 1078229.200000
121.101200 423828.100000
122.072600 921623.300000
123.080500 6455340.000000
125.059700 153171.100000
125.096300 46508.100000
128.062100 1331248.800000
129.069900 1637301.200000
130.077900 364348.600000
131.049800 36655.600000
131.085600 303087.400000
132.093200 54369.300000
133.064800 135531.900000
133.076000 88596.200000
133.101100 239316.100000
135.080500 453255.700000
136.088300 182356.500000
137.096200 236102.200000
138.067600 38863.800000
140.106600 46867.200000
141.069900 1038593.400000
142.077800 910226.300000
143.085600 512525.700000
144.093400 148643.000000
145.064900 349220.900000
145.101200 84858.900000
147.080400 158275.000000
147.116800 52391.700000
149.096200 87465.400000
152.062300 69804.100000
153.069800 194598.700000
154.077600 147653.900000
155.060400 206570.800000
155.085400 385831.500000
156.093300 147253.300000
157.064800 41089.500000
157.101300 207246.200000
159.080300 350677.400000
160.088500 53178.900000
161.096400 48737.200000
163.111600 207624.700000
165.070200 270714.300000
166.077900 82631.900000
167.085600 75067.900000
171.080900 36734.000000
175.112000 43609.000000

>ms2
53.997500 545808.900000
54.033900 135206.100000
55.017900 1528561.800000
55.054200 19425912.000000
56.049500 1721009.600000
57.033500 1827824.100000
57.057300 498063.100000
57.069900 508820.800000
58.028700 134484.700000
58.065100 2101378.000000
59.049100 867371.900000
60.044400 235275.300000
61.028400 35347.900000
62.060000 221027.400000
63.022800 61614.200000
65.038600 7612564.500000
66.046400 533803.900000
67.054200 14591380.000000
67.989200 83500.100000
68.049500 799335.700000
69.033500 1553850.500000
69.057300 153005.300000
69.069900 2181317.500000
70.065100 1528265.000000
71.012700 136799.000000
71.049100 404984.800000
71.072900 663900.600000
72.044300 697860.500000
72.080700 1177562.900000
73.052200 142021.900000
73.064800 314528.500000
74.060000 133617.800000
75.044000 44115.000000
77.038500 1339560.100000
78.008700 77262.500000
78.046400 505031.800000
79.054200 13140507.000000
80.062000 573760.700000
81.033400 378263.200000
81.069900 3841950.800000
82.041300 38026.800000
82.065100 468421.400000
83.012700 882851.600000
83.049100 7025438.500000
84.080800 2477118.200000
85.028400 595946.200000
85.064800 162516.500000
86.060100 244503.300000
87.067800 59132.500000
88.075700 52354.000000
89.038400 72868.400000
90.046300 131482.800000
91.054200 13505690.000000
92.062000 197785.900000
93.069900 2344316.200000
94.041300 255357.000000
94.065100 34352.400000
94.077700 149969.900000
95.049200 8074004.500000
95.085500 1377709.900000
97.064900 321179.600000
98.060000 188134.400000
98.096400 545794.600000
100.112000 125364.500000
102.046300 68313.900000
103.054200 3212256.200000
104.062100 661868.900000
105.044800 3798762.200000
105.069900 5443534.000000
106.077500 244085.500000
107.049100 1809857.500000
107.085500 492263.800000
108.057000 1210491.800000
109.064800 1788166.800000
109.101200 254338.600000
111.044200 37399.200000
111.080500 53826.700000
115.054300 1918026.600000
116.062000 419936.300000
117.069800 1426905.900000
119.060400 79815.300000
119.085600 1264886.500000
121.064800 580512.700000
121.101100 145722.800000
122.072600 443662.000000
123.080400 3020172.800000
128.062000 1760504.000000
129.069800 1376392.600000
130.077700 232173.100000
131.049300 82179.800000
131.085500 292790.400000
133.064900 64877.200000
133.076000 53741.200000
133.101200 124189.200000
135.080400 330594.000000
137.096100 59375.400000
138.067600 43791.200000
141.069900 1091410.800000
142.077800 589959.100000
143.085700 368834.100000
145.064800 300831.500000
145.101000 45820.100000
146.072200 38157.000000
147.080400 175281.500000
148.088300 56809.900000
149.096200 48917.500000
152.062100 131342.500000
153.069600 214404.500000
154.077300 40588.100000
155.060500 306467.800000
155.085500 275402.900000
156.093600 58903.400000
157.064600 38409.800000
157.101200 136371.300000
159.080300 217847.000000
163.111700 68304.800000
165.069800 227982.100000
167.085700 73734.400000

>ms2
53.997400 489329.100000
54.033900 59928.800000
55.017900 1750035.500000
55.054300 21301314.000000
56.049500 1707015.900000
57.033500 2039248.900000
57.057300 454759.200000
57.069900 590622.800000
58.028800 139715.900000
58.065100 2683745.800000
59.049100 900939.400000
60.044400 289693.700000
61.028400 33942.900000
62.060100 168546.300000
63.022900 69492.100000
65.038600 7826796.000000
66.046400 536032.200000
67.054200 15510187.000000
67.989200 143270.400000
68.049500 873581.000000
69.033500 1553046.900000
69.057300 150656.700000
69.069900 2183041.000000
70.065100 1414867.600000
71.012700 182904.200000
71.049200 391931.400000
71.072900 890374.400000
72.044400 799054.900000
72.080800 1279059.000000
73.052200 74839.100000
73.064800 241083.200000
74.036300 67945.900000
74.060000 80194.000000
75.044000 50024.200000
77.038500 1627589.600000
78.008700 166235.800000
78.046400 545737.800000
79.054200 13976725.000000
80.062000 735711.500000
81.033500 416297.400000
81.069900 3863489.000000
82.041300 67047.000000
82.065100 403446.400000
83.012800 908852.800000
83.049100 8085323.000000
84.080800 2430127.000000
85.028400 679432.300000
85.064900 263990.200000
86.060000 233988.600000
87.067900 147015.600000
88.075600 47827.400000
89.038600 34748.100000
90.046400 45445.400000
91.054300 15032212.000000
92.062100 170848.800000
93.069900 2354399.800000
94.041400 223361.500000
94.065100 43761.000000
94.077800 154950.000000
95.049200 7807283.000000
95.085500 1635233.400000
96.080700 38931.100000
97.064800 333336.000000
98.060000 85019.200000
98.096400 584791.800000
100.112200 131392.400000
102.046400 75686.100000
103.054200 3660693.000000
104.062000 604580.100000
105.044800 4019432.000000
105.069900 6311539.500000
106.077700 299694.200000
107.049100 2054079.200000
107.085600 542684.500000
108.056900 1138777.500000
109.064800 1697229.200000
109.101200 234812.200000
111.080600 56124.600000
115.054300 2209021.500000
116.062000 384616.400000
117.069900 1679928.500000
118.077800 47662.200000
119.060400 166907.300000
119.085500 1792707.500000
121.064800 803791.400000
121.101000 183905.600000
122.072600 626549.400000
123.080400 3555564.200000
125.059700 42584.000000
128.062100 1585323.100000
129.069900 1502178.000000
130.077600 299184.700000
131.049300 81601.700000
131.085600 297967.200000
133.064800 125129.600000
133.101100 82175.600000
135.080600 330561.200000
136.088400 59821.700000
137.096500 43379.600000
141.069800 1080190.800000
142.077700 663748.500000
143.085600 473971.700000
145.064600 383578.300000
145.101200 79082.100000
147.080500 133989.900000
149.095900 55009.100000
151.075800 45459.100000
152.062000 185991.100000
153.069900 201274.700000
154.077500 61755.800000
155.060400 211422.400000
155.085600 300727.900000
156.093400 56458.200000
157.065100 41433.300000
157.101200 211073.900000
159.080400 227794.500000
163.111500 121474.800000
165.069400 278601.500000
166.077600 63951.000000
167.085500 72268.100000
179.106900 35707.900000

