>compound EQ92478209
>parentmass 174.1277
>ionization [M+H]+
>formula C12H15N
>rt 252.000000
>profile orbitrap
#smiles_iso CC(CC1=CC=CC=C1)NCC#C
#smiles_can CC(CC1=CC=CC=C1)NCC#C
#inchikey UUFAJPMQSFXDFR-UHFFFAOYSA-N
#pubchem_id 200718
#mb_accession EQ328101,EQ328102,EQ328103,EQ328104,EQ328105,EQ328106,EQ328107,EQ328108,EQ328109

>ms2peaks
51.022900 1136739.500000
56.049500 50101204.000000
65.038400 1255614.600000
82.065000 2528282.800000
91.054200 883825152.000000
119.085500 882620928.000000
174.127700 195886224.000000

>ms2peaks
51.022800 1392414.900000
56.049500 44052184.000000
65.038500 1328579.900000
77.038400 1249294.800000
82.065000 1896685.100000
89.038100 1909741.500000
91.054200 958358144.000000
104.061900 1152931.800000
119.085500 839468224.000000
174.127700 156810928.000000

>ms2peaks
56.049400 34076484.000000
65.038400 1963028.500000
82.065000 1798436.400000
91.054200 1584675072.000000
119.085500 226704176.000000
174.127600 7844712.000000

>ms2peaks
56.049500 27867778.000000
65.038500 5871616.000000
91.054200 1764218624.000000
119.085500 35737860.000000

>ms2peaks
56.049500 19255226.000000
65.038500 17390464.000000
79.054200 2065580.600000
91.054200 1889383424.000000
119.085400 6006670.000000

>ms2peaks
56.049500 9137461.000000
63.022800 2049236.800000
65.038600 50501280.000000
79.054200 2577367.500000
91.054200 1648984832.000000

>ms2peaks
50.015000 2072799.900000
51.022800 2026282.100000
53.002200 3427624.000000
56.049500 3172863.800000
63.022900 8345750.500000
65.038500 288373152.000000
77.038600 1790381.800000
79.054200 2107396.500000
91.054200 1228367616.000000
95.049200 2748726.200000
103.054300 2223863.500000
104.062100 1331620.900000
105.044700 1476942.600000
115.054200 1283861.400000

>ms2peaks
50.015100 5783561.500000
51.022900 7149609.500000
53.002200 9507631.000000
53.038600 1371340.200000
53.997400 2024659.800000
62.015100 2718059.500000
63.022900 27776582.000000
65.038600 488371328.000000
77.038600 3073635.800000
78.046400 3023384.200000
79.054200 1271198.800000
90.046300 990143.200000
91.054200 562936128.000000
95.049100 4346244.500000
103.054200 2843193.000000
105.044600 2801196.000000
115.054200 1058247.800000

>ms2peaks
50.015100 10401692.000000
51.022900 21170112.000000
53.002200 14526138.000000
53.038600 2601577.200000
53.997400 2673348.000000
61.007300 1667155.200000
62.015100 8825203.000000
63.022900 43152660.000000
65.038600 404248320.000000
77.038500 4823624.500000
78.008600 534852.100000
78.046400 4878935.500000
89.038500 2555232.500000
91.054200 189699008.000000
95.049100 5843440.500000
103.054200 2512760.500000
105.044700 2966719.500000
115.054200 1134770.500000

