>compound EQ92090929
>parentmass 379.1242
>ionization [M+H]+
>formula C19H23ClN2O2S
>rt 1086.000000
>profile orbitrap
#smiles_iso CCCCCCCCSC(=O)OC1=CC(=NN=C1C2=CC=CC=C2)Cl
#smiles_can CCCCCCCCSC(=O)OC1=CC(=NN=C1C2=CC=CC=C2)Cl
#inchikey JTZCTMAVMHRNTR-UHFFFAOYSA-N
#pubchem_id 41463
#mb_accession EQ320801,EQ320802,EQ320803,EQ320804,EQ320805,EQ320806,EQ320807,EQ320808,EQ320809

>ms2peaks
57.069900 5068396.000000
68.013000 333468.300000
69.069900 339081.800000
71.085500 7702130.500000
77.038400 518206.800000
145.104600 1030017.800000
207.032000 213311856.000000
319.157400 27410072.000000
351.129400 99092288.000000

>ms2peaks
55.054200 422019.900000
57.069900 22754464.000000
68.013100 356174.500000
69.069900 5915937.000000
71.085500 26155222.000000
77.038500 621743.100000
104.049000 620077.800000
111.116900 689085.400000
145.104600 1974834.100000
207.032000 315576672.000000
319.157300 2506184.800000
351.130100 348783.900000

>ms2peaks
53.002200 514298.500000
53.038600 229600.700000
55.054300 928302.200000
57.069900 23495362.000000
67.989300 259080.800000
68.013000 2201154.200000
69.069900 6847305.500000
71.085500 17923698.000000
77.038600 703818.300000
95.049200 664043.600000
103.989800 1131505.600000
104.049500 11918607.000000
105.044700 376759.800000
161.015200 552727.800000
179.037100 1899269.100000
207.032100 222971936.000000

>ms2peaks
51.022900 194334.500000
53.002200 630684.000000
53.038600 1690158.100000
53.997500 171372.100000
55.054300 1446048.600000
57.069900 18034074.000000
61.979200 1001065.400000
68.013100 14266191.000000
69.069900 4805117.500000
71.085500 7924834.500000
77.038500 3023921.800000
81.033500 203806.200000
95.049200 6320012.000000
103.989800 4755454.500000
104.049500 44959656.000000
105.044800 4204207.000000
115.054300 486420.000000
116.049600 508529.800000
116.062100 186498.700000
118.065100 268123.900000
126.046400 1906834.500000
138.010500 811972.700000
140.026200 576166.500000
143.060500 892592.100000
144.044400 279459.900000
144.068100 271802.700000
161.015300 2167565.200000
171.055300 868719.700000
179.037200 6337741.000000
205.016800 319917.600000
207.032100 125837072.000000

>ms2peaks
50.015100 288529.700000
51.022900 485607.400000
53.002200 906359.000000
53.038600 4637090.000000
53.997500 327158.700000
55.017900 227203.200000
55.054300 1471053.400000
57.069900 11586861.000000
61.010700 185509.000000
61.979200 3357571.500000
68.013100 33873828.000000
69.069900 2641080.000000
71.085500 2386402.200000
75.994800 163772.700000
77.038500 6973209.500000
81.033600 611333.400000
81.069900 45410.000000
91.054300 185081.500000
94.041300 372914.500000
95.049200 17819604.000000
103.989800 5629967.500000
104.049500 41173024.000000
105.044800 9728869.000000
106.041800 61124.500000
109.064900 70186.400000
115.054300 1195171.200000
116.049500 1198072.200000
116.062100 244699.700000
117.057300 295603.000000
118.065000 286998.100000
125.015400 199182.500000
126.046500 5829369.000000
138.010500 1938548.100000
140.026200 992782.200000
143.060500 1604007.100000
144.044400 407348.200000
144.068400 584001.400000
152.026200 216303.700000
161.015300 2016792.800000
171.055300 602074.000000
179.037100 4687043.500000
205.016400 357218.900000
207.032200 34570008.000000

>ms2peaks
50.015100 587523.400000
51.023000 1116443.100000
53.002200 951413.900000
53.038600 5899471.000000
53.997500 238259.500000
55.017900 504716.400000
55.054300 1100907.900000
57.069900 6379625.000000
60.984000 67554.800000
61.010600 50217.800000
61.979200 4512993.500000
62.963200 53638.900000
65.002200 49796.700000
65.038600 43824.700000
67.054300 47611.000000
68.013100 42099884.000000
68.997200 68642.100000
69.069900 1212774.100000
71.085500 655236.100000
75.994900 265289.900000
77.038600 8925617.000000
81.033500 662991.800000
89.038600 223787.800000
91.054400 276836.800000
94.041300 385475.300000
95.049200 22435348.000000
103.989800 3700933.500000
104.049500 18761416.000000
105.044800 12489848.000000
106.041900 67033.300000
109.064700 72134.100000
115.054300 1526842.000000
116.049500 1078199.800000
116.062000 265283.300000
117.057300 483564.000000
118.065000 180942.000000
125.015300 225521.600000
125.038600 82948.500000
126.046500 8843649.000000
138.010600 1760308.900000
140.026300 455580.500000
143.060400 1024967.200000
144.044400 189328.500000
144.057000 46821.500000
144.068200 581715.900000
152.026200 56433.200000
161.015400 744839.700000
171.055400 216736.800000
179.037100 1674705.100000
205.016800 254164.100000
207.032100 5620992.000000

>ms2peaks
50.015200 1403762.100000
51.023000 4518861.500000
53.002200 976950.400000
53.038600 4880854.000000
53.997500 364788.300000
55.017900 203570.100000
55.054300 604697.600000
57.069900 1220944.800000
60.984100 55699.700000
61.010700 66543.100000
61.979200 4551483.500000
62.963200 147834.500000
63.022900 75017.400000
65.002200 123188.800000
65.038600 385794.000000
67.054300 77720.700000
68.013100 32925242.000000
69.070000 134642.300000
73.979200 50794.400000
74.015100 274821.000000
75.022900 76111.900000
75.994800 222718.900000
76.030700 507558.100000
77.038600 8137247.500000
78.008700 42941.000000
78.046400 62355.500000
81.033500 620564.700000
85.979200 33881.400000
86.963400 213316.600000
87.022800 50605.000000
89.038600 669342.400000
90.046500 135802.100000
91.054300 292025.800000
94.041400 307568.500000
95.049200 16794448.000000
98.015200 242958.400000
99.023000 50343.900000
100.030900 184066.200000
102.034000 43394.900000
103.989800 621211.100000
104.049500 2872795.500000
105.044800 10010296.000000
106.041800 64408.000000
115.054300 1391291.100000
116.049500 441442.500000
116.062100 37207.300000
117.057400 393173.700000
125.015500 45215.200000
125.038600 58896.700000
126.046500 8842003.000000
130.040000 59519.400000
138.010500 247520.400000
143.060500 287616.200000
144.068100 136142.000000
179.037100 55545.600000
205.017000 41369.400000
207.032400 44720.800000

>ms2peaks
50.015200 3778661.800000
51.023000 10432427.000000
52.018300 53495.800000
52.030800 76592.600000
53.002300 1060250.000000
53.038600 2986497.500000
53.997500 395103.200000
54.009900 30299.000000
55.017900 179025.400000
55.054300 327634.400000
57.070000 166245.800000
60.984100 47893.900000
61.979300 4539648.000000
62.963300 358662.700000
63.023000 431923.400000
65.002200 277068.400000
65.038600 561070.800000
66.010000 56014.700000
66.046500 62162.400000
67.005300 39236.800000
67.054300 38221.900000
68.013100 21806234.000000
68.997100 39545.500000
72.983900 107743.100000
73.979300 135718.700000
74.015100 1309410.500000
75.023000 360341.500000
75.994900 141925.700000
76.030800 1183863.100000
77.038600 6127515.500000
78.008800 48666.000000
78.046300 45082.600000
81.033600 307402.400000
81.069900 34242.900000
85.979300 55300.500000
86.015100 158567.800000
86.963300 249132.600000
87.023000 283649.300000
89.038600 1082789.600000
90.046500 238441.700000
91.054300 66412.600000
94.041400 284594.700000
95.049200 9466268.000000
98.015200 968242.000000
99.023100 137461.800000
100.030800 529587.600000
102.033800 56177.900000
103.989700 147221.400000
104.049500 1155822.000000
105.044800 5478225.000000
111.023100 52564.900000
115.054300 873616.900000
116.049600 73121.500000
117.057400 170404.500000
125.015500 50465.800000
125.038500 60975.300000
126.046500 4425861.500000
130.040200 67976.100000

>ms2peaks
50.015200 5270461.500000
51.023000 12950010.000000
52.018300 112268.500000
52.030800 160148.900000
53.002300 907794.900000
53.038600 1065831.100000
53.997500 323565.500000
55.054300 47351.000000
60.984000 42978.300000
61.979300 2868102.000000
62.015200 154315.609400
62.963300 400012.800000
63.022900 769924.600000
65.002200 350381.000000
65.038600 418937.200000
66.010100 120064.100000
66.046500 30183.000000
67.005300 40169.900000
67.054200 27695.200000
68.013100 9411077.000000
72.983900 56105.600000
74.015100 1927855.600000
75.023000 444379.700000
76.030800 797067.400000
77.038600 2384287.200000
78.008500 34348.100000
81.033500 152521.000000
85.979300 56488.700000
86.015100 434334.600000
86.963300 303863.800000
87.023000 636128.400000
89.038600 782629.800000
90.046500 72065.200000
91.054300 39269.500000
94.041400 50590.200000
95.049200 2946231.200000
98.015200 1094041.200000
99.022900 134936.200000
100.030900 310361.800000
104.049600 368382.800000
105.044800 1757096.000000
111.022900 55668.300000
115.054200 420686.300000
126.046500 892080.100000

