>compound EQ92694373
>parentmass 200.0852
>ionization [M+H]+
>formula C8H13N3OS
>rt 438.000000
>profile orbitrap
#smiles_iso CC(C)(C)C1=NN=C(NC1=O)SC
#smiles_can CC(C)(C)C1=NN=C(NC1=O)SC
#inchikey MIWRSUQXSCLDNV-UHFFFAOYSA-N
#pubchem_id 135502804
#mb_accession EQ009101,EQ009102,EQ009103,EQ009104,EQ009105,EQ009106,EQ009107,EQ009108,EQ009109

>ms2
57.069700 14016739.000000
84.080700 2295733.500000
130.043300 4909115.500000
144.022600 2677966.500000
172.090200 60397832.000000
185.061800 2391780.200000
200.085000 1584046592.000000

>ms2
57.069800 34154064.000000
74.005600 5019210.500000
84.080700 4868539.500000
89.016700 2152671.800000
97.064800 1828106.600000
112.075700 2785677.800000
116.027600 6248951.000000
130.043300 9897780.000000
144.022600 5652728.000000
157.066400 2966808.200000
172.090200 150621904.000000
185.061800 1970746.900000
200.085100 1445045376.000000

>ms2
57.069900 143684000.000000
69.069800 1261742.500000
74.005800 18518846.000000
74.989900 726891.500000
82.065000 1188882.600000
84.080700 22252064.000000
89.016800 33914084.000000
97.064700 5535533.000000
112.075600 3930195.200000
114.996100 1819757.500000
116.027700 101531992.000000
124.086900 3382593.200000
126.102600 1723217.000000
127.086400 1711474.200000
130.043300 17725288.000000
142.043100 1393072.800000
144.022600 10040292.000000
156.058600 3081948.800000
157.066800 45728812.000000
172.090200 543628608.000000
185.061700 5862406.000000
200.085100 641339456.000000

>ms2
53.002200 1442653.100000
57.069900 210845792.000000
58.065200 969853.100000
61.010600 1595906.500000
62.005900 8261798.000000
67.989200 698267.100000
68.024200 1240341.200000
68.049500 745839.400000
69.069800 3183011.500000
74.005800 32033360.000000
74.989900 818776.900000
82.065100 1171862.900000
84.080800 28394238.000000
89.016800 145461184.000000
97.064800 3641144.200000
101.004200 3290383.200000
112.075600 1936385.500000
114.996200 2378975.500000
116.027700 277410976.000000
124.087000 3316642.000000
126.102600 3530275.800000
127.086600 1317565.000000
130.043400 11054150.000000
142.043400 20338106.000000
144.022600 4006083.200000
155.063900 686985.100000
156.059000 21787324.000000
157.066800 151849472.000000
170.038500 1508378.800000
172.090200 427292704.000000
185.061800 5530107.500000
200.085200 123816760.000000

>ms2
53.002200 1155096.100000
53.997400 341151.800000
55.054200 271559.000000
57.069900 161791520.000000
58.065100 348114.100000
61.010600 1298899.200000
62.005900 16490492.000000
67.054200 741694.900000
67.989200 790055.100000
68.024300 2149228.500000
68.049400 1981085.600000
69.008300 788522.300000
69.069900 2800725.200000
70.040000 2310256.500000
70.065200 793553.100000
71.024000 347443.300000
74.005900 34511016.000000
74.989800 657908.000000
82.065100 402399.300000
83.060300 990906.700000
84.080800 13482710.000000
89.016800 202330912.000000
97.064900 1299562.600000
101.004200 12503439.000000
109.076000 294778.400000
110.071200 893930.500000
114.996000 984177.200000
115.019900 2138919.000000
116.027700 196580736.000000
124.087000 1255958.000000
126.102500 2000660.900000
129.035600 826200.600000
130.043400 3967650.200000
138.066300 344592.800000
141.035400 778450.600000
142.043400 65477748.000000
144.022700 807854.200000
155.063900 228096.700000
156.059000 62943504.000000
157.066900 119717208.000000
170.038400 3290664.800000
172.090300 110388760.000000
185.061600 1388167.400000
200.085200 9047405.000000

>ms2
53.002200 2400496.200000
53.997500 1122238.900000
54.033800 836200.300000
55.054200 298536.600000
56.049500 775950.200000
57.069900 121782584.000000
58.065100 772346.600000
59.966500 262160.200000
59.990300 567038.200000
61.010600 1752080.200000
62.005900 27429834.000000
67.041600 392288.300000
67.054200 885645.000000
67.989200 1145377.600000
68.024300 2953483.800000
68.049500 5301863.500000
69.008300 1218854.600000
69.044700 198132.700000
69.069900 2587100.000000
70.040000 2836692.500000
70.065200 628901.600000
73.993200 2235227.000000
74.005900 39215212.000000
74.989900 334856.600000
80.049500 227707.500000
82.065000 392109.400000
83.060400 2683173.500000
84.068200 3129498.200000
84.080800 6943387.500000
89.016800 182302496.000000
97.064900 231852.900000
101.004200 31150444.000000
108.055500 220359.600000
110.071300 1459578.500000
114.012100 307511.000000
114.037200 242332.800000
115.019900 3783820.800000
115.032600 227032.000000
116.027700 98452144.000000
124.087100 277865.900000
126.102500 990311.400000
127.019800 709053.400000
129.035500 1207709.900000
130.043300 1678966.000000
132.022900 195939.300000
141.035400 2036745.100000
142.043400 104231728.000000
156.059000 97718184.000000
157.066800 52472128.000000
170.038500 2188156.500000
172.090300 19414102.000000
185.061900 255859.000000
200.085600 349024.900000

>ms2
53.002200 3646675.000000
53.038600 318309.800000
53.997500 1056400.600000
54.033800 4668166.000000
55.029100 666565.800000
55.054200 1057860.500000
56.049500 2146260.800000
57.069900 51161324.000000
57.974600 181832.100000
58.982400 1131270.800000
58.995000 163999.500000
59.966400 807441.200000
59.990200 2560864.800000
61.010600 1545692.200000
62.005900 28466156.000000
65.038600 200613.900000
66.033700 222235.700000
67.041700 3600365.000000
67.054200 363438.000000
67.989300 944685.100000
68.024300 3104619.800000
68.049500 17440262.000000
69.008300 1812166.200000
69.044700 1502197.800000
69.057300 167635.600000
69.069800 244273.700000
70.040000 2592466.800000
70.065100 326090.200000
71.024000 219894.200000
71.990200 293354.700000
72.998100 187418.900000
73.993300 7048730.500000
74.005900 41006744.000000
75.001100 1223238.900000
80.049500 354555.900000
81.044700 217417.100000
82.052400 214038.400000
82.065100 231217.800000
83.060300 11935806.000000
84.068200 9978779.000000
84.080800 847345.800000
84.985500 280256.200000
85.969500 334283.400000
87.001200 336321.500000
89.016800 71019480.000000
94.039900 251557.900000
100.021600 880633.400000
101.004200 50957136.000000
108.055500 1474346.500000
110.071200 1444679.500000
112.021600 257561.900000
114.012100 987256.100000
114.037100 511332.800000
115.019800 1776415.200000
115.032500 300464.500000
116.027700 11362429.000000
127.019800 4861490.000000
129.035400 272330.200000
132.022400 1319158.200000
140.027800 800083.200000
141.035500 10862633.000000
142.043400 58502664.000000
146.038500 616635.400000
156.059000 57944332.000000
157.066800 3149887.000000
170.038400 252565.600000

>ms2
52.018200 157820.400000
53.002200 3872114.500000
53.038600 1383254.200000
53.997500 1134560.600000
54.033800 4845743.000000
55.029000 491816.200000
55.054200 721504.100000
56.049500 2000853.400000
57.069900 12010284.000000
58.065000 167666.400000
58.982400 2229791.000000
58.994900 184485.900000
59.966400 1164740.900000
59.990200 4268370.000000
61.010700 750767.700000
62.005900 13365623.000000
65.038600 153727.200000
66.033800 569987.600000
67.029100 226588.600000
67.041700 3573355.000000
67.989200 1245041.800000
68.024300 2626780.000000
68.049500 15850033.000000
69.008300 2318647.000000
69.044700 2513345.000000
69.057300 731413.800000
70.040000 1402936.400000
70.065000 196656.900000
71.990200 718046.700000
72.998000 141074.400000
73.993300 12334123.000000
74.005900 27500786.000000
75.001100 809834.000000
78.008600 164206.400000
80.049400 309002.800000
81.044700 589902.300000
82.052500 1004117.200000
82.065000 218166.500000
83.060300 11226060.000000
84.068200 3476556.000000
84.985500 734019.400000
85.969500 684822.100000
89.016800 13187300.000000
94.040000 143438.800000
98.005600 312240.300000
100.021600 218551.900000
101.004200 28617008.000000
108.055500 1257540.900000
110.071300 675425.400000
112.021600 1163303.000000
114.012100 627531.900000
115.019900 544941.700000
116.027700 1046985.400000
126.012400 409114.600000
127.019900 4677765.000000
132.022600 224700.400000
140.027600 1763331.000000
141.035500 9068770.000000
142.043400 8322556.000000
146.038500 261773.600000
156.059000 7086675.500000

>ms2
52.018100 307544.600000
53.002200 4901450.000000
53.038600 2127144.200000
53.997500 2184275.000000
54.033800 5061681.000000
55.029000 596607.100000
55.054100 676543.300000
56.049500 2248290.000000
57.057300 230575.171900
57.069900 4190571.000000
57.974600 321332.800000
58.982400 4340338.500000
59.966400 1442269.800000
59.990300 7735226.500000
61.010600 237763.700000
62.005900 7199602.000000
66.033800 994195.600000
67.029000 705112.000000
67.041700 2391618.000000
67.989300 983734.300000
68.024300 2031223.000000
68.036900 1320928.375000
68.049500 9353198.000000
69.008300 2854464.800000
69.044700 2028330.100000
69.057200 631877.400000
70.039900 808505.100000
70.994900 190439.406300
71.990300 2296901.000000
73.993300 13595758.000000
74.005900 18309888.000000
75.001100 282858.300000
78.008600 186702.400000
80.049300 277205.200000
81.044700 269560.300000
82.052500 1044770.800000
83.060300 4987679.500000
84.068200 699628.800000
84.985500 1230866.000000
85.969600 943832.000000
87.001000 124154.200000
89.016800 1778075.800000
98.005800 172853.000000
101.004200 10388093.000000
108.055500 575919.900000
110.071300 175064.100000
112.021400 502538.400000
115.019900 608737.000000
116.027600 152686.100000
126.012100 276125.200000
127.019900 1310660.800000
140.027700 1353783.900000
141.035600 2397739.200000
142.043500 607815.100000
156.059000 437184.300000

