>compound EQ93536785
>parentmass 270.18519999999995
>ionization [M+H]+
>formula C18H23NO
>rt 444.000000
>profile orbitrap
#smiles_iso CC1=CC=CC=C1C(C2=CC=CC=C2)OCCN(C)C
#smiles_can CC1=CC=CC=C1C(C2=CC=CC=C2)OCCN(C)C
#inchikey QVYRGXJJSLMXQH-UHFFFAOYSA-N
#pubchem_id 4601
#mb_accession EQ327601,EQ327602,EQ327603,EQ327604,EQ327605,EQ327606,EQ327607,EQ327608,EQ327609

>ms2
88.075700 1280980.800000
178.077600 1761964.900000
181.101100 1093461376.000000

>ms2
153.069800 1634425.100000
165.069200 4661297.000000
166.077500 15987739.000000
179.085300 3393347.200000
181.101100 1113158400.000000

>ms2
88.075700 989476.900000
103.054100 1921272.200000
115.054000 2048288.500000
141.069800 4775430.000000
152.061900 1029015.400000
153.069800 21256936.000000
165.069800 28116066.000000
166.077700 249041344.000000
179.085600 28560980.000000
180.092900 1920964.900000
181.101100 797682048.000000
183.080700 1268197.400000
193.075900 1376221.400000

>ms2
103.054200 8240966.500000
115.054200 5185755.000000
141.069900 29639874.000000
152.062000 2743472.500000
153.069900 44874412.000000
164.062100 730811.500000
165.070000 147632240.000000
166.077700 572994368.000000
178.077800 3671310.000000
179.085600 66183040.000000
180.093400 6901622.000000
181.101100 295929344.000000
183.080500 2876374.800000
193.076200 4089352.800000

>ms2
53.038600 1168234.900000
77.038500 762247.100000
79.054200 752336.200000
95.049200 978376.800000
103.054200 15378955.000000
105.044800 698423.300000
115.054200 11591978.000000
116.062000 1063094.900000
141.069900 67506936.000000
152.062000 8623758.000000
153.069900 35713840.000000
164.061800 1081026.400000
165.069900 324328768.000000
166.077700 515113760.000000
178.077700 19367246.000000
179.085500 65060068.000000
180.093400 7735218.500000
181.101100 52549256.000000
183.080000 1772170.200000
193.076000 2240729.200000

>ms2
53.038600 3094240.200000
77.038500 2974856.200000
79.054200 1955723.200000
91.054300 1413708.500000
95.049100 5463149.500000
102.046400 822985.400000
103.054200 22774608.000000
105.044700 3123936.000000
115.054200 24319682.000000
116.062100 1942146.000000
128.062000 1619332.100000
129.069900 1771848.100000
139.053800 1137521.600000
141.069900 98761744.000000
142.078000 647335.100000
152.062000 16793882.000000
153.069800 23181410.000000
164.061700 2980350.500000
165.069900 567403776.000000
166.077700 344103232.000000
177.069700 748124.800000
178.077700 48642156.000000
179.085500 46027224.000000
180.093400 4581154.500000
181.101100 6800189.500000
183.080500 1035797.300000
193.075800 714938.100000

>ms2
50.015100 1142936.500000
51.022900 2101775.000000
53.038600 6448246.000000
63.022800 1571767.900000
65.038500 2082767.900000
77.038500 8649914.000000
78.046400 1951842.600000
79.054200 1606255.200000
89.038500 2441502.500000
91.054200 7251541.000000
95.049100 16535658.000000
102.046400 2812272.000000
103.054200 13835189.000000
104.062000 1510510.200000
105.044700 11530670.000000
115.054200 96023416.000000
116.062000 1485666.100000
126.046300 818623.600000
127.054300 1110136.200000
128.062000 4705167.000000
129.069800 1043369.600000
139.054200 9356616.000000
140.062100 995001.800000
141.069900 55997692.000000
145.064900 785216.800000
151.054200 984194.300000
152.062000 29155356.000000
153.069800 4119513.200000
155.060500 1859359.500000
163.054000 4053976.200000
164.062000 16976034.000000
165.069900 701042752.000000
166.077700 37027516.000000
168.056900 4897387.500000
169.064600 2221173.800000
176.062400 2275426.200000
177.069700 4419064.000000
178.077700 74174096.000000
179.060400 886553.400000
179.085400 10077808.000000
196.051400 2076489.800000

>ms2
50.015100 4701488.000000
51.022900 7717318.000000
53.038600 6951668.000000
62.015100 1385847.600000
63.022900 8776739.000000
65.038600 8220096.500000
75.022800 1021588.400000
76.030700 974287.600000
77.038500 11353160.000000
78.046400 4033957.500000
79.054200 770696.100000
81.033500 675878.400000
87.022800 1771312.000000
89.038600 14657058.000000
91.054200 12449153.000000
95.049200 20512358.000000
102.046400 4439724.500000
103.054200 6435612.000000
104.061900 864255.500000
105.044800 11162779.000000
113.038400 1697747.600000
115.054200 144342976.000000
126.046400 3896583.000000
127.054200 1908219.900000
128.062000 8957891.000000
138.046500 877446.000000
139.054200 42007540.000000
140.061900 2022144.900000
141.069800 12987901.000000
145.064800 837452.400000
150.046400 3285943.800000
151.054500 2499479.200000
152.062100 35195360.000000
153.069800 1666028.200000
155.060300 1921037.900000
163.054200 29487640.000000
164.062100 61357168.000000
165.069900 477389600.000000
166.077800 1733583.900000
168.056900 19911626.000000
169.064800 7372369.500000
176.062100 11791558.000000
177.069800 11000292.000000
178.077700 42365000.000000
179.060400 2041170.000000
179.085600 1756818.600000
196.051900 7250187.000000

>ms2
50.015100 10516429.000000
51.022900 15741960.000000
53.038600 4505708.000000
55.017900 185719.000000
62.015100 6057701.000000
63.022900 27735706.000000
65.038600 21372912.000000
74.015000 2799841.800000
75.022900 3698262.200000
76.030700 3119415.200000
77.038500 10785685.000000
78.046400 6486546.500000
79.054100 178231.200000
81.033600 336000.200000
86.015000 2118165.500000
87.022900 5812617.000000
88.030800 716649.600000
89.038600 37496800.000000
91.054200 11179634.000000
94.041400 284260.900000
95.049100 15072202.000000
102.046400 8708419.000000
103.054200 2985645.500000
105.044700 8811231.000000
113.038600 6178029.000000
114.046300 881810.900000
115.054200 140595504.000000
125.038600 619089.200000
126.046400 8779299.000000
127.054200 1596701.800000
128.062100 7851657.000000
137.038700 1506435.100000
138.046400 2733369.200000
139.054200 73189152.000000
140.062000 1767483.400000
141.069700 1834490.100000
145.064700 855040.400000
150.046400 7124173.500000
151.054100 3786452.200000
152.062100 23998708.000000
153.069700 301419.300000
155.060200 1573691.800000
162.046200 2429075.200000
163.054200 84808936.000000
164.062000 65024968.000000
165.069900 155218288.000000
168.057000 26512816.000000
169.064800 12278681.000000
176.062000 16374407.000000
177.069900 6326971.500000
178.077700 9858958.000000
179.060500 3667933.800000
196.051900 8910727.000000

