>compound EQ94134859
>parentmass 405.1576
>ionization [M+H]+
>formula C21H25ClN2O4
>rt 564.000000
>profile orbitrap
#smiles_iso C1C[N+](CCN1C(C2=CC=CC=C2)C3=CC=C(C=C3)Cl)(CCOCC(=O)O)[O-]
#smiles_can C1C[N+](CCN1C(C2=CC=CC=C2)C3=CC=C(C=C3)Cl)(CCOCC(=O)O)[O-]
#inchikey IVDOUUOLLFEMJQ-UHFFFAOYSA-N
#pubchem_id 45038602
#mb_accession EQ338101,EQ338102,EQ338103,EQ338104,EQ338105,EQ338106,EQ338107,EQ338108,EQ338109

>ms2
99.091600 516285.900000
112.099400 4815657.000000
146.081100 3260427.000000
187.107700 4303579.000000
188.115400 499152.800000
201.046000 8615822.000000
229.065500 406197.800000
241.065400 1016144.900000
312.139000 1055722.000000
387.147300 1400275.500000
388.154900 4035264.200000
405.157500 374773728.000000

>ms2
56.049300 432119.800000
58.065100 2583956.200000
68.049400 159733.600000
69.057200 230844.600000
70.065000 533991.500000
71.072900 359984.300000
72.080700 254882.100000
73.088500 1454298.800000
83.060200 210879.500000
84.068200 2237044.500000
84.080700 1522238.100000
85.076000 153330.100000
86.060000 273824.200000
97.076000 2126623.800000
99.091700 12571934.000000
104.061800 438294.000000
111.091600 1456631.900000
112.099500 13259695.000000
113.107300 171269.800000
114.091300 1573175.600000
130.065100 175675.000000
132.065500 8658062.000000
138.023200 260471.200000
146.081200 26429588.000000
147.089000 814324.900000
148.096800 263753.900000
158.081100 517342.400000
159.091700 737163.400000
160.096800 1222919.000000
164.026300 185581.900000
165.069300 908156.900000
166.077400 837457.000000
173.104800 445240.200000
179.085600 1017765.600000
185.092100 282312.500000
186.100000 344254.700000
187.107700 15090500.000000
188.115900 171381.200000
189.046400 328674.600000
189.123400 316511.900000
201.046500 144194480.000000
206.096400 4684564.000000
214.054300 217854.900000
216.057400 2173680.200000
217.041500 2594803.200000
228.057400 5600241.000000
229.065300 13537838.000000
240.057400 16228370.000000
241.065300 31410804.000000
242.073000 36895708.000000
254.073100 258901.800000
268.088500 367699.500000
271.099100 254524.900000
283.099600 2322340.800000
284.107400 5149014.500000
285.115500 1545257.200000
286.123800 343561.800000
299.130900 25504236.000000
311.130900 427585.600000
312.138900 3523715.200000
313.146600 3044778.200000
387.147100 2293939.200000
388.154900 3260985.000000
405.157700 45500924.000000

>ms2
56.049500 1336854.200000
58.065100 4460367.000000
68.049400 263846.600000
69.057200 243730.100000
70.065100 1340646.100000
71.060300 456492.400000
71.072900 276755.300000
72.080700 380282.900000
73.088500 260403.800000
82.065200 210816.500000
83.060300 446661.100000
84.068200 2693736.500000
84.080700 1506559.600000
85.076000 231532.700000
86.060000 2755935.000000
86.096300 335329.000000
91.054100 294189.200000
97.076000 1949970.800000
98.083800 275512.900000
99.091700 13096448.000000
100.075600 607116.400000
103.039000 517936.300000
103.054200 225073.100000
104.062000 2408961.200000
111.091600 1679596.600000
112.099500 1783611.600000
114.091400 1542471.900000
125.015200 244686.200000
130.065100 353724.000000
132.065500 13188821.000000
137.015300 228184.300000
138.023100 1829245.600000
146.081100 6818288.500000
153.069900 983994.900000
158.081300 588217.800000
159.091600 560340.200000
160.096900 1432309.900000
164.026100 220119.400000
165.069800 7915044.500000
166.077700 24497832.000000
179.085500 4734710.500000
183.080400 1648684.800000
187.107700 9314736.000000
189.046600 361259.900000
193.076200 2248067.000000
199.030800 333553.800000
201.046500 203094128.000000
206.096400 8237998.500000
214.054300 226647.500000
215.062600 255139.000000
216.057400 1954193.000000
217.041100 516192.100000
228.057500 21621838.000000
229.065300 2632329.000000
240.057500 22684982.000000
241.065200 3278892.500000
242.073100 20466858.000000
256.088300 897473.900000
268.089000 215022.800000
283.099700 1924425.800000
285.115300 2687231.200000
299.131000 8177422.000000
313.147000 398010.300000

>ms2
56.049500 3350923.200000
58.065100 4662424.000000
68.049400 607214.800000
69.057200 165829.900000
70.065100 3392777.800000
71.060300 726572.900000
71.072900 258094.200000
72.080700 600649.400000
78.046400 334248.500000
82.065000 572700.800000
83.060300 882840.600000
84.068200 3930538.800000
84.080700 1313352.100000
85.076000 361321.400000
86.060000 7272755.000000
86.096300 573720.100000
91.054200 1190811.800000
97.076000 1232320.200000
98.060100 447547.700000
98.083800 1046597.800000
99.091600 10663057.000000
100.075600 889779.400000
103.038900 1086644.900000
103.054200 1852674.600000
104.062000 3870046.200000
105.069800 728490.600000
111.091600 1416324.600000
112.099300 313737.300000
114.091300 823482.400000
125.015300 850605.800000
128.049500 215698.100000
129.102200 189180.900000
130.065100 855762.900000
132.065500 7422225.500000
137.015300 1231467.400000
138.023000 2562109.000000
139.030800 685815.900000
144.065300 428561.900000
146.081100 1768562.400000
146.096500 167876.500000
152.061900 222448.100000
153.069900 963606.100000
154.077600 420264.400000
158.081100 607227.900000
159.091500 197287.200000
160.096800 829774.100000
164.026200 441214.300000
165.069900 37157412.000000
166.077700 108506808.000000
179.085500 5812090.000000
181.065000 201719.000000
182.072700 224214.200000
183.080400 4413829.500000
187.107600 3090710.200000
193.076100 6566637.500000
194.096400 196156.000000
199.031000 1464161.600000
200.038600 158073.500000
201.046500 150458368.000000
206.096400 5918449.000000
207.105300 305267.100000
215.062600 630712.900000
216.057400 1718294.500000
227.049400 438840.200000
228.057400 23313860.000000
240.057400 14437859.000000
241.065300 413538.700000
242.073000 9335123.000000
256.087900 288746.800000
268.088500 172638.000000
271.099300 573466.400000
283.099700 679658.400000
285.115400 951654.800000
299.130800 1373386.100000

>ms2
56.049500 5818244.000000
58.065100 3594239.500000
68.049400 724500.300000
70.065100 3796164.500000
71.060400 321313.400000
72.080800 554295.400000
78.046400 814317.900000
79.054100 172993.800000
82.065100 631979.200000
83.060300 918966.600000
84.068200 2630202.800000
84.080700 820744.300000
85.075900 200893.100000
86.060000 5939808.000000
86.096400 655361.400000
91.054200 1307118.000000
95.049200 164557.700000
97.076100 767067.800000
98.060100 359110.200000
98.083900 1180351.500000
99.091700 6316680.000000
100.075700 308214.700000
102.046400 190802.600000
103.038900 1077250.200000
103.054200 3129055.200000
104.049400 336411.400000
104.062000 2418301.800000
105.069900 1575688.400000
111.091600 620724.800000
116.049500 1149189.900000
125.015300 1051597.500000
128.049400 1227652.900000
130.065200 889236.600000
132.065600 1464796.000000
137.015300 1295990.200000
138.010500 413901.500000
138.023100 1334185.200000
139.030800 668070.900000
139.054000 214786.200000
144.065400 381457.800000
146.059900 723500.000000
146.081300 365078.700000
152.061900 598362.100000
153.069900 544372.700000
154.077600 342214.800000
158.081100 303837.400000
160.096800 172271.100000
163.053700 203201.900000
164.026200 585880.500000
164.061600 393660.100000
165.069900 76349448.000000
166.077700 145070608.000000
178.077700 980308.400000
179.085500 3885722.800000
180.093400 262030.800000
181.064800 198439.300000
183.080400 3663982.800000
187.107700 430470.400000
193.076100 4990080.500000
193.088600 2220846.000000
194.096400 155777.800000
199.030900 2396469.000000
201.046600 44825960.000000
205.088800 271288.900000
206.096500 2589966.000000
207.104400 272083.300000
215.062400 194589.900000
216.057400 873611.600000
227.049700 624701.200000
228.057500 14266214.000000
240.057400 6662097.500000
242.073100 2342705.500000
283.099700 236277.100000

>ms2
56.049500 6961619.000000
58.065100 3149280.500000
63.022800 177706.100000
65.038500 158216.500000
68.049400 973302.200000
70.028600 290741.900000
70.065100 4268255.500000
71.060200 177333.600000
72.080700 516767.200000
75.022800 160675.800000
77.038400 284070.800000
78.046400 1367226.800000
79.054100 412635.700000
82.065200 511977.500000
83.060300 1292804.100000
84.044300 238333.800000
84.068200 1850219.600000
84.080800 432317.600000
86.060000 3221306.800000
86.096400 406836.500000
89.038400 243556.300000
91.054200 1381132.000000
95.049200 347861.200000
97.076000 505904.300000
98.060000 379481.600000
98.083900 815586.200000
99.091700 3378161.200000
100.075700 187395.900000
102.046300 495343.100000
103.038900 606330.200000
103.054200 4698469.000000
104.049500 619040.700000
104.062000 1610012.200000
105.044700 255937.600000
105.069800 1057737.500000
111.091600 198298.300000
112.007500 195364.600000
115.054100 611362.200000
116.049500 3213045.800000
125.015300 1049628.100000
128.049400 2419150.200000
129.044600 239853.800000
130.065100 770537.400000
132.065600 238442.400000
134.060300 287888.900000
137.015200 1218571.400000
138.010500 844902.300000
138.023100 452904.000000
139.030600 382022.900000
139.053900 584893.800000
146.059900 845783.100000
150.010500 200433.500000
152.061900 805404.500000
153.069800 292421.100000
162.010900 405502.800000
164.026000 313285.700000
164.061900 1475824.600000
165.069900 153887952.000000
166.077600 132909616.000000
168.056600 506181.100000
178.077700 2341274.800000
179.085400 1844772.400000
180.021200 162958.900000
180.093300 229547.400000
183.080400 1368862.000000
192.080800 420856.700000
193.076100 1932520.100000
193.088600 5581908.000000
199.030900 3548214.500000
201.046500 8474239.000000
204.080900 266436.100000
205.088700 272738.800000
206.096500 1218281.000000
207.104300 213930.400000
216.057600 271262.800000
227.049500 703451.300000
228.057400 6708887.500000
240.057400 2456802.000000
242.072900 458261.500000

>ms2
53.038600 471261.700000
56.049500 5766832.500000
58.065100 1909336.600000
63.022700 509111.400000
65.038600 989891.700000
68.049400 656235.600000
70.028700 691715.600000
70.065100 2647704.800000
72.080700 263042.300000
72.983900 419593.300000
75.022900 551046.200000
77.038500 533141.300000
78.046400 1175342.200000
79.054200 428631.000000
82.065000 262621.200000
83.060300 1519143.900000
84.044400 346379.500000
84.068200 628130.200000
86.060000 519114.800000
89.038600 1794789.400000
90.046400 694186.200000
91.054300 1253252.600000
95.049200 1504564.500000
97.075900 301986.900000
98.083800 336159.700000
98.999600 1392478.800000
99.091700 586166.200000
102.046400 688173.100000
103.054200 2847628.500000
104.049400 695096.400000
105.044700 788860.900000
105.069900 351141.400000
115.054200 4583889.500000
116.049500 3603195.000000
117.057300 293332.400000
125.015400 912907.100000
128.049500 1241697.200000
129.044500 582359.700000
137.015100 241873.300000
138.010600 743087.800000
139.005600 235740.900000
139.054200 4140300.200000
140.062000 260177.400000
146.059900 251036.500000
149.015400 964508.100000
150.010800 275038.200000
152.061900 1040786.600000
163.054200 3109573.200000
164.062100 8214844.000000
165.069900 230595952.000000
166.077700 21878320.000000
168.056900 2954911.500000
169.064100 297359.300000
178.077700 2289467.000000
192.080700 1176333.200000
193.088700 3070550.800000
196.051800 1308609.600000
199.030900 3181404.800000
204.080800 459425.300000
227.050100 302025.100000
228.057300 278035.200000

>ms2
50.015100 328246.900000
51.022900 290693.600000
53.038600 450429.900000
54.033900 225585.100000
56.049500 2998187.800000
58.065100 864347.400000
62.015100 465791.300000
63.022900 2432492.500000
65.038600 2484258.200000
68.049400 463551.000000
70.028700 817438.300000
70.065100 739915.600000
72.983900 1899459.100000
74.015100 273653.600000
75.022900 1305258.000000
77.038500 707504.700000
78.046400 570645.700000
79.054200 192422.500000
82.065100 213807.000000
83.060300 1080749.800000
84.044300 279938.100000
84.068300 285353.000000
86.015000 200497.900000
87.022800 510952.000000
88.030800 226466.600000
89.038600 5321662.500000
90.046400 1230710.400000
91.054200 1591031.600000
95.049200 1680501.500000
98.999600 2311842.200000
102.046400 825675.900000
103.054200 822533.100000
104.049500 261981.200000
105.044700 908588.300000
113.038500 980228.900000
114.046400 531581.900000
115.054200 17844744.000000
116.049400 1179763.600000
117.057100 317518.300000
119.049100 200857.100000
122.999400 338694.200000
125.015400 517548.100000
126.046400 764446.400000
128.049500 248924.200000
128.062000 287352.000000
129.044600 444712.000000
132.057100 341642.700000
136.007300 413086.000000
138.010600 204537.900000
138.046200 491404.600000
139.054200 15118606.000000
140.061900 612646.300000
149.015400 1415939.100000
150.046300 338646.200000
152.062000 1141283.000000
155.060300 292862.000000
162.023200 194589.900000
163.054300 16210286.000000
164.062100 19768636.000000
165.069900 179133696.000000
166.077700 1347256.400000
168.056900 9314004.000000
169.064600 675269.600000
176.062400 266415.900000
177.069400 327784.200000
178.077700 831172.600000
192.080700 383360.400000
193.089000 400084.100000
196.051900 3187352.800000
199.031000 909687.300000
204.080700 187301.900000

>ms2
50.015100 632887.200000
51.022900 478905.000000
53.002200 350850.500000
53.038600 416709.700000
54.033800 194075.200000
55.041700 77596.800000
56.049500 1652690.900000
58.065100 453018.400000
62.015100 1855009.800000
63.022900 8393704.000000
64.030700 185694.000000
65.038600 4594607.500000
66.046400 157999.100000
68.049500 327323.200000
70.028700 737993.900000
70.065100 261914.400000
72.983900 3481769.200000
74.015000 1188601.500000
75.022900 2365362.800000
76.030700 588030.400000
77.038500 643541.900000
78.046400 398489.100000
83.060400 609091.800000
84.044400 180489.800000
86.015100 1095532.600000
87.022900 2379684.000000
88.030700 773332.400000
89.038600 11336808.000000
90.046400 877274.900000
91.054200 2251098.500000
95.049100 1568395.100000
98.015100 359344.500000
98.999600 1829376.500000
100.030800 192378.400000
101.038600 177765.300000
102.046400 1004862.000000
103.054300 427958.200000
105.044800 704104.600000
113.038600 3507290.200000
114.046400 988378.400000
115.054200 33045496.000000
116.049500 264842.400000
117.057300 138485.600000
118.041200 212818.800000
122.999500 381248.900000
125.015200 245693.300000
126.046500 1840788.600000
127.054300 151879.600000
128.062000 210328.900000
129.044800 338185.400000
132.057000 523122.900000
136.007600 291972.700000
137.038600 876922.000000
138.046400 1045356.100000
139.054200 29129010.000000
140.062100 757804.200000
149.015300 660587.100000
150.046400 1101874.900000
151.054300 148117.600000
152.061900 945222.600000
155.060400 181420.800000
162.046400 1213435.400000
163.054300 37739760.000000
164.062100 23870728.000000
165.069900 76675048.000000
167.048900 138372.500000
168.057000 12364187.000000
169.064900 684805.500000
176.062200 550725.600000
177.070000 84353.800000
178.077700 239277.800000
179.060700 177236.400000
196.051900 5474859.500000
199.031300 134832.700000

