>compound EQ94381369
>parentmass 471.34690000000006
>ionization [M+H]+
>formula C30H46O4
>rt 1014.000000
>profile orbitrap
#smiles_iso C[C@]12CC[C@](C[C@H]1C3=CC(=O)[C@@H]4[C@]5(CC[C@@H](C([C@@H]5CC[C@]4([C@@]3(CC2)C)C)(C)C)O)C)(C)C(=O)O
#smiles_can CC1(C2CCC3(C(C2(CCC1O)C)C(=O)C=C4C3(CCC5(C4CC(CC5)(C)C(=O)O)C)C)C)C
#inchikey MPDGHEJMBKOTSU-YKLVYJNSSA-N
#pubchem_id 10114
#mb_accession EQ326301,EQ326302,EQ326303,EQ326304,EQ326305,EQ326306,EQ326307,EQ326308,EQ326309

>ms2peaks
471.346800 419646944.000000

>ms2peaks
81.069800 1182242.200000
93.069900 376244.000000
95.049000 376821.200000
95.085500 4073428.800000
97.064700 344914.100000
107.085500 1855687.500000
109.101100 2330315.200000
111.080300 467799.200000
119.085500 1760784.800000
121.101100 2630970.000000
123.080400 381202.300000
123.116700 1995476.900000
133.101100 1361465.200000
135.080000 540469.400000
135.116700 6054877.000000
137.132400 748152.800000
139.111700 1009182.100000
145.101300 435076.400000
147.116700 1027264.300000
149.096100 1070376.400000
149.132500 1362206.800000
153.127300 590134.400000
159.116800 855085.000000
161.096200 478311.400000
161.132500 2318257.200000
163.148100 1332350.500000
171.116600 346003.900000
173.132400 1355505.800000
175.111900 360729.100000
175.148100 5291796.000000
177.163700 5054238.000000
179.142900 1529987.000000
187.148000 1048546.800000
189.163700 12205682.000000
191.179300 5661539.500000
193.158700 636883.600000
199.148100 1284901.800000
201.163700 1087464.400000
203.179500 622988.900000
205.158500 346853.200000
207.174300 2063841.100000
209.189900 598380.100000
213.163700 844378.900000
215.143000 424636.300000
215.179400 723649.900000
217.158700 8691790.000000
219.174200 599918.800000
221.153400 1311482.900000
227.179200 852509.600000
229.195100 336672.000000
231.174200 823183.300000
235.169200 17772826.000000
241.194900 767587.900000
245.153900 1150037.100000
245.190000 1788661.600000
249.148600 361929.900000
253.194900 683625.200000
255.210600 915333.400000
257.190200 489388.200000
259.205600 777274.700000
261.148100 617786.800000
261.184600 354507.700000
263.164100 9828865.000000
267.210900 742156.400000
269.226300 433087.100000
271.205400 2447535.800000
273.184600 687555.800000
273.221200 659752.200000
275.200600 472555.800000
277.179700 1258389.900000
285.221000 804412.100000
289.180100 363944.700000
289.216400 833595.500000
291.195400 2608592.000000
299.200700 818483.800000
301.215400 519223.300000
303.196100 579372.200000
303.231400 392562.400000
313.215900 649680.600000
315.232300 742746.500000
317.211100 15155573.000000
327.232800 324243.800000
329.210800 508176.300000
331.225800 727548.000000
357.242000 384277.400000
389.320600 2303185.800000
407.330800 8284127.500000
425.341400 9775707.000000
435.325800 2898044.800000
453.336500 6519768.500000
471.346800 305628096.000000

>ms2peaks
51.022800 43452.700000
53.038500 194513.500000
55.054200 1279412.100000
57.033500 411018.900000
57.069900 938433.300000
59.049100 378907.500000
65.038400 46902.300000
67.054200 1987292.000000
69.033500 984541.700000
69.069800 2810297.200000
71.049100 486805.600000
71.085400 249690.600000
73.064600 156334.600000
77.038400 254113.500000
79.054100 1165912.800000
81.069900 9141947.000000
83.049100 3893021.000000
83.085500 2169735.200000
85.064700 1007489.900000
91.054200 1054515.200000
93.069900 6453717.000000
95.049100 1926463.200000
95.085500 21018038.000000
97.064800 2074689.400000
97.101200 1470361.100000
99.080400 428317.400000
105.069900 3914165.200000
107.085500 16359955.000000
109.064800 2050998.500000
109.101200 12038744.000000
111.080400 1846383.800000
111.116800 583154.100000
113.059500 59732.600000
113.096100 355175.400000
117.069700 229839.100000
119.085500 13155084.000000
120.093100 58708.800000
121.064800 1945468.800000
121.101200 18450996.000000
123.080400 2495028.500000
123.116800 9011090.000000
125.059800 295414.200000
125.096100 1571144.400000
127.075300 69243.600000
127.111900 192730.000000
129.069500 38305.000000
131.085600 1509852.100000
133.101200 9962343.000000
135.080400 5063802.000000
135.116800 24128274.000000
137.096100 1479274.800000
137.132500 2744849.000000
139.075300 723807.400000
139.111700 3168855.000000
141.091000 553296.700000
141.127100 68686.000000
143.085600 768566.100000
145.101200 3422933.500000
146.108500 56198.900000
147.080500 592671.800000
147.116800 6907204.000000
149.096100 21033890.000000
149.132500 5733590.500000
151.075200 169777.800000
151.111800 1522248.900000
151.148100 324594.000000
153.090800 274254.100000
153.127400 1324276.100000
155.085600 84284.900000
156.093200 43612.700000
157.101200 2645215.000000
159.080800 313857.500000
159.116800 4747527.500000
161.096100 2639167.500000
161.132500 8471110.000000
163.111700 2138472.200000
163.148100 3611807.800000
165.091300 302934.500000
165.127400 908750.800000
165.164000 189018.800000
167.106800 1032879.900000
169.101200 485733.200000
171.116800 2762817.500000
173.095900 421387.400000
173.132500 8044312.000000
175.111800 2059043.200000
175.148100 15608374.000000
177.127400 1364713.200000
177.163800 7350643.500000
179.106600 1108940.200000
179.142900 1407865.200000
181.122100 331566.300000
183.116900 679573.600000
184.124800 81150.600000
185.132500 1474121.600000
187.111900 431869.900000
187.148100 3941140.200000
189.127400 1831352.800000
189.163800 27973320.000000
191.142900 954063.600000
191.179400 2981712.000000
193.122400 643822.800000
193.158900 832784.700000
195.116600 69930.100000
197.132400 1905456.100000
199.148100 5360202.000000
201.127300 731185.400000
201.163700 2890880.800000
203.106600 100342.400000
203.143000 1106436.500000
203.179500 785973.300000
205.122200 542283.600000
205.158800 560875.100000
207.137900 345334.300000
207.174400 1357771.600000
209.132400 215627.100000
209.189500 59577.600000
211.148200 1446995.900000
213.163800 3558989.000000
215.143100 4951916.000000
215.179500 2031389.200000
217.158700 10164135.000000
217.194600 581757.800000
219.138100 1251124.600000
219.174300 522809.500000
221.153600 1778133.200000
223.148000 89599.300000
225.163700 927759.600000
227.143300 263192.600000
227.179400 2828564.500000
228.187000 56771.000000
229.158700 1507136.000000
229.195100 1548473.500000
231.174500 1558316.600000
231.211100 156918.000000
233.153700 543400.800000
233.190300 226428.200000
235.169300 13753084.000000
237.163600 256663.600000
237.184400 68270.400000
239.179500 796253.600000
241.195000 1913241.400000
243.138200 284576.600000
243.174600 510232.900000
243.210700 1580334.800000
245.153600 2400179.000000
245.190000 3004010.200000
247.169300 216973.400000
249.149700 372024.200000
249.184900 61396.800000
251.179800 169484.800000
252.187500 50926.800000
253.195000 4300925.000000
255.174200 217386.500000
255.210600 1073888.400000
257.153900 338045.200000
257.189800 2214769.500000
257.226400 202252.400000
259.169100 824319.600000
259.205800 586072.500000
261.148500 3589885.000000
261.185000 330189.600000
263.164200 3101241.800000
265.194800 427758.800000
267.210600 2021497.400000
269.190100 276194.600000
269.225700 482017.800000
271.205600 10032956.000000
273.184900 1155167.800000
273.221100 435862.000000
275.164100 645122.700000
275.200400 730196.200000
277.180100 1000706.900000
277.216300 100908.700000
279.211400 297050.500000
281.226700 380477.700000
283.205400 453334.800000
285.185500 557456.100000
285.220900 1405494.200000
287.164400 58082.000000
287.200400 697989.400000
287.236300 76487.100000
289.180000 555966.700000
289.216300 1153390.800000
291.195500 1611589.900000
293.226400 281611.700000
297.221900 288426.400000
299.200500 2875269.000000
299.236900 261974.200000
301.179900 95843.700000
301.216300 813428.300000
303.195400 1119612.900000
303.232000 438733.200000
311.200700 232314.600000
311.237500 494181.400000
313.216200 1228032.000000
313.252800 63893.800000
315.195500 102442.000000
315.232300 425539.900000
317.211200 19319510.000000
319.242100 166234.400000
323.236000 60416.300000
325.216500 235337.300000
327.232500 443641.600000
327.267600 215940.100000
329.211200 962235.600000
329.246800 96773.600000
331.226700 1099347.500000
337.252800 85696.500000
339.232000 245930.300000
341.247400 274800.700000
343.227000 208590.800000
345.242200 93613.700000
351.267700 266345.700000
355.263600 175433.000000
357.242300 196824.800000
359.257100 80697.500000
365.247900 199152.200000
368.270600 74887.400000
379.263000 232815.700000
379.336100 62493.500000
383.257600 68274.800000
389.320200 1314468.800000
407.331000 4510415.000000
425.341400 3317804.800000
435.325900 1386206.000000
453.336600 1362758.100000
471.347000 12277888.000000

>ms2peaks
51.022800 92174.500000
53.002200 192765.500000
53.038500 402930.700000
55.017900 259167.200000
55.054200 4318723.500000
57.033500 698315.600000
57.069900 1500363.000000
59.049100 538388.600000
65.038500 410537.600000
67.054200 6420772.500000
67.989300 56279.900000
69.033500 2384632.200000
69.069900 5354284.500000
71.049100 766623.200000
71.085500 211751.600000
73.064800 99922.700000
77.038400 387738.800000
79.054200 5477638.500000
81.069900 16546799.000000
83.049100 6371232.000000
83.085500 2716937.800000
85.064800 848821.700000
91.054200 4895496.500000
93.069900 15825471.000000
95.049200 2350570.200000
95.085500 26084172.000000
97.064800 2759963.200000
97.101200 1207995.100000
99.080400 266786.300000
103.054300 213302.600000
105.069900 11219196.000000
107.085500 26931624.000000
109.064800 3207127.200000
109.101200 12609427.000000
111.080400 2019563.000000
113.059600 49203.800000
113.096100 96227.800000
115.054100 95920.700000
116.062100 166546.800000
117.069900 1070020.000000
118.077800 36024.300000
119.085600 21373758.000000
120.093300 191667.000000
121.064800 2867764.500000
121.101200 23956496.000000
123.080400 2764314.000000
123.116800 6169593.000000
125.059800 322313.000000
125.096100 1282982.500000
127.075300 63220.600000
128.061600 164851.400000
129.069900 627412.700000
130.077800 214578.800000
131.085600 4275209.500000
132.093300 57587.500000
133.101200 13994231.000000
134.109200 78198.600000
135.080400 8906799.000000
135.116800 14492850.000000
137.096100 1642359.800000
137.132500 1284661.200000
139.075400 235890.200000
139.111800 2178386.800000
141.069800 88820.600000
141.090900 154100.500000
142.077800 288370.100000
143.085600 1903248.600000
144.093400 345847.500000
145.101200 6075653.000000
146.072600 60986.100000
146.109100 239270.000000
147.080500 981876.600000
147.116800 8693649.000000
149.096200 25521112.000000
149.132500 2542531.000000
151.075400 83543.600000
151.111700 1139330.400000
153.090800 207903.800000
153.127600 379002.300000
155.085500 790802.300000
156.093400 462338.800000
157.101200 4607385.000000
158.109000 341949.400000
159.080400 708308.800000
159.116800 6186844.500000
160.124700 463067.400000
161.096100 2690459.200000
161.132500 5788486.500000
163.111700 2388732.800000
163.148100 1254579.400000
165.069400 44362.200000
165.091300 174188.300000
165.127400 366428.100000
167.106600 374463.800000
169.101200 1182961.500000
170.108800 206266.000000
171.116800 3720866.500000
172.124600 251648.900000
173.096000 1034518.800000
173.132600 9627711.000000
174.104200 48065.300000
174.140400 94161.500000
175.111800 2173532.200000
175.148200 7935053.500000
177.127500 771784.300000
177.163800 952430.200000
179.106600 198474.900000
179.143000 69389.500000
181.101200 77749.800000
181.121800 43237.700000
182.109000 413051.900000
183.117000 1289332.500000
184.125000 322328.200000
185.132500 1844498.500000
186.103600 45755.800000
187.111900 389731.600000
187.148100 3105295.200000
189.127400 1259465.500000
189.163800 9220598.000000
191.143000 674244.100000
191.179200 314183.900000
193.100700 55953.700000
193.122600 56432.300000
193.158800 136686.500000
195.116900 251352.300000
196.124700 241966.900000
197.132500 2589859.800000
198.140300 205378.000000
199.148200 3803434.800000
201.127600 774990.700000
201.163800 1203072.400000
203.106500 72721.200000
203.143200 604582.800000
203.179400 254542.400000
205.122300 191822.500000
205.158800 213933.500000
207.174400 95135.300000
209.132400 390790.100000
210.140400 192994.500000
211.148200 2081218.900000
212.155900 83791.800000
213.163800 2368528.500000
215.143100 3535087.500000
215.179400 769492.900000
217.158800 1690058.100000
217.195000 94947.500000
219.138300 334968.700000
221.153700 83701.700000
223.148000 360386.500000
224.155800 241662.200000
225.163900 658291.400000
227.143000 199638.600000
227.179500 1122429.100000
228.187500 90742.300000
229.158600 655433.100000
229.195100 653611.900000
231.174400 353853.900000
233.153600 93687.700000
235.148900 42301.600000
235.169400 783126.800000
237.163500 212742.200000
238.171600 249001.700000
239.179500 728656.400000
241.195100 673660.200000
243.137900 238578.800000
243.174400 239649.400000
243.211000 689467.400000
245.153600 473659.800000
245.189600 330532.600000
247.168300 70155.600000
251.179100 162883.200000
252.187000 91705.000000
253.195100 1999770.800000
255.174400 150913.700000
255.211100 301221.800000
257.153500 162838.000000
257.189900 555146.600000
259.168900 153903.200000
259.205300 47908.900000
261.148500 893950.600000
263.163600 61315.300000
265.195200 184889.500000
267.210800 657730.400000
271.205700 1564107.800000
273.184700 91504.100000
275.163900 241219.800000
275.200800 166531.000000
277.180700 51245.500000
279.209900 65720.200000
281.225300 59897.600000
283.205500 49734.700000
285.185700 143438.900000
285.221500 189180.100000
287.164100 54159.300000
287.200800 88490.300000
289.216500 54517.200000
291.194900 65651.100000
293.227000 45672.100000
297.222100 52306.600000
299.200900 505523.800000
301.180300 45278.900000
303.195000 95993.200000
313.216200 257648.600000
317.211100 914198.300000
327.232100 50127.500000
407.331200 72725.500000

>ms2peaks
50.015000 45816.800000
51.022800 72956.100000
52.030500 40086.600000
53.002200 481760.100000
53.038600 992109.100000
55.017900 516502.700000
55.054300 6907461.000000
57.033500 701641.100000
57.069900 1177420.600000
59.049200 541473.700000
63.022900 47807.200000
65.038600 1218038.100000
66.046400 45260.900000
67.054200 10671104.000000
67.989200 88594.600000
69.033500 2449292.800000
69.069900 5417576.000000
71.049100 480659.300000
71.085600 54305.400000
73.064800 143906.700000
77.038500 738727.200000
78.046300 54855.100000
79.054200 10735701.000000
80.062000 47367.200000
81.069900 16490060.000000
83.049100 4548871.500000
83.085500 1708279.400000
85.064800 359882.900000
91.054300 12683779.000000
92.062100 88190.600000
93.069900 18662886.000000
94.041200 45657.200000
94.077800 65209.000000
95.049200 3068506.800000
95.085500 20395008.000000
97.064800 1787619.000000
97.101200 588585.200000
99.080400 73503.200000
103.054200 814202.100000
104.062000 156199.900000
105.044800 954627.100000
105.069900 17702816.000000
106.077700 348163.900000
107.085500 21151292.000000
108.056700 44759.900000
108.093400 43336.000000
109.064800 3341828.000000
109.101200 6643286.500000
111.080400 1187573.200000
115.054200 668386.000000
116.062100 380285.000000
117.069900 2427097.000000
118.077700 166305.000000
119.085600 20373486.000000
120.093300 269952.700000
121.064800 3306983.500000
121.101200 15767750.000000
122.072400 79587.000000
123.080400 2150084.200000
123.116800 2095429.600000
125.059800 83750.300000
125.096100 562406.200000
128.062100 614275.100000
129.069900 1525096.100000
130.077800 713546.600000
131.085600 5938284.000000
132.093400 174728.800000
133.064900 517077.100000
133.101200 10267097.000000
134.072600 86569.200000
134.108700 79232.800000
135.080500 8667072.000000
135.116800 4180782.800000
137.096100 865203.100000
137.132600 289966.100000
139.075300 63488.700000
139.111800 666497.200000
141.069900 340371.600000
142.077800 1412623.100000
143.085600 2889193.200000
144.093400 1039761.400000
145.101200 6002550.500000
146.072700 157046.000000
146.109000 304705.200000
147.080500 1034077.600000
147.116800 4586838.000000
149.096200 11463894.000000
151.111700 324425.000000
153.069900 171880.100000
153.127500 53090.400000
154.077500 89727.800000
155.085500 1094274.900000
156.093400 1332773.900000
157.101200 3496549.000000
158.072900 58182.800000
158.109100 1066295.000000
159.080500 885667.200000
159.116900 4066960.500000
160.088200 301524.200000
160.124600 437917.200000
161.096100 1404057.600000
161.132600 1835860.000000
163.111700 879359.200000
163.148200 166673.500000
167.085500 278191.800000
168.093300 314300.800000
169.101200 1620346.800000
170.109000 508340.500000
171.116800 2359991.800000
172.088200 173378.200000
172.124800 265278.800000
173.096100 713473.000000
173.132600 4004486.500000
174.103700 60001.200000
174.140300 203466.700000
175.111800 817123.700000
175.148100 1777136.600000
177.127600 227610.300000
179.085900 170741.600000
181.101000 489922.400000
182.108900 816989.600000
183.117000 1161909.400000
184.124700 557605.400000
185.096300 144682.600000
185.132500 761416.900000
186.103700 82663.200000
186.140700 64823.300000
187.112000 335773.100000
187.148100 1021540.900000
189.127600 301434.600000
189.163900 1403505.900000
191.142900 184691.600000
193.100800 71663.200000
194.108900 69016.800000
195.117100 448472.600000
196.124700 441114.300000
197.132600 1390332.100000
198.140300 245885.800000
199.111700 82530.800000
199.148100 1283467.500000
200.119600 185415.500000
201.127600 342688.800000
201.163800 298425.500000
203.142900 78927.800000
205.121800 47122.100000
209.132600 405672.600000
210.140200 147355.600000
211.148300 816817.800000
212.155800 54832.200000
213.127200 60214.700000
213.163600 540476.200000
215.143100 687566.600000
215.178900 82357.300000
217.158600 87440.100000
223.148000 250340.900000
224.156000 92058.500000
225.163800 267864.700000
227.143100 82723.800000
227.179200 192187.100000
229.158800 147685.400000
229.195700 46372.200000
237.163900 201307.300000
238.171500 162347.100000
239.178700 158682.300000
243.137300 54389.600000
243.175100 49631.100000
251.179800 68110.200000
253.195200 84853.900000
261.149100 61567.200000

>ms2peaks
50.015100 217007.800000
51.022800 267405.700000
53.002200 704657.400000
53.038600 2557096.500000
53.997400 55810.600000
55.017900 946200.100000
55.054300 11856199.000000
57.033500 865754.500000
57.069900 1233486.500000
59.049200 823516.500000
63.022800 50727.700000
65.038600 3138781.200000
66.046400 247113.400000
67.054200 17551538.000000
67.989300 167467.000000
69.033500 2733104.500000
69.069900 5220909.000000
71.049200 356643.000000
71.085500 40977.400000
73.064900 93871.100000
77.038500 1857194.500000
78.046400 215871.800000
79.054200 20617896.000000
80.062100 305573.200000
81.069900 19296442.000000
83.049100 3912865.200000
83.085500 978047.000000
85.064700 352873.100000
91.054200 31246766.000000
92.062100 345103.600000
93.069900 22023628.000000
94.041400 163446.000000
94.077800 277211.700000
95.049200 7166420.500000
95.085500 17251848.000000
97.064800 1590325.000000
102.046500 46353.100000
103.054200 2634441.500000
104.062100 568108.400000
105.044800 3271904.000000
105.069900 31095700.000000
106.041400 91557.900000
106.077700 726543.400000
107.049100 1051932.900000
107.085500 16415830.000000
108.057000 243543.000000
108.093200 168308.600000
109.064800 3855475.000000
109.101200 3690152.800000
111.080500 881421.200000
115.054300 2275540.000000
116.062100 1328318.200000
117.069900 5037532.000000
118.077700 421850.900000
119.060500 1629310.600000
119.085600 21046764.000000
120.056900 71616.200000
120.093300 517050.400000
121.064800 3296758.800000
121.101200 9629098.000000
122.072400 273083.400000
123.080500 1848302.600000
123.116800 706163.400000
125.059900 58357.200000
125.096200 279844.300000
128.062100 2179814.200000
129.069900 3720124.500000
130.077800 1569848.200000
131.085600 7688521.500000
132.057100 64171.500000
132.093400 355572.600000
133.064800 726020.500000
133.076000 622369.400000
133.101200 7056118.500000
134.072500 326591.800000
134.109000 83523.500000
135.080400 8328380.000000
135.116800 1243954.000000
137.096100 372963.000000
137.132500 63662.600000
139.111900 270440.400000
141.069900 1848746.000000
142.077800 3295394.200000
143.085600 4300456.500000
144.093300 1667085.400000
145.064800 604307.600000
145.101200 5794007.500000
146.072500 389997.500000
146.109300 266832.100000
147.080400 668857.100000
147.116800 2405041.500000
148.088300 72189.800000
149.096100 5654437.000000
151.112000 81961.200000
152.061600 47666.400000
153.070000 634094.100000
154.077800 314181.800000
155.060400 259802.800000
155.085500 2025318.100000
156.093400 2339929.000000
157.101200 2689575.200000
158.072400 288893.600000
158.109000 1338847.800000
159.080600 805229.700000
159.116800 2290121.000000
160.088500 340996.800000
160.124700 256041.000000
161.096100 818942.200000
161.132500 575296.400000
163.111700 284469.200000
163.147600 53512.500000
165.069900 263494.100000
166.077700 61998.700000
167.085600 1125447.600000
168.093300 486342.000000
169.101200 1796565.000000
170.109100 579542.900000
171.080500 153179.800000
171.116900 1217007.400000
172.087900 156351.800000
172.124600 162045.900000
173.096100 433634.800000
173.132600 1527937.000000
174.104400 134252.400000
175.111700 308569.200000
175.148100 467986.900000
178.077000 50251.100000
179.085500 265913.800000
180.093400 160320.600000
181.101100 1168440.600000
182.109100 783894.600000
183.116900 1126865.800000
184.124700 284350.700000
185.095900 273433.200000
185.132300 430039.000000
186.103600 69867.500000
186.140100 39248.100000
187.112000 276497.500000
187.148100 206993.100000
189.127300 84378.500000
189.163400 86320.500000
192.093100 69428.500000
193.101400 188848.000000
194.109200 218365.800000
195.116800 673881.900000
196.124900 387154.100000
197.132500 758157.900000
198.140800 137996.500000
199.111600 222649.400000
199.148300 319847.600000
200.119300 67127.000000
201.127200 219962.800000
209.132700 269226.700000
210.140300 84852.000000
211.148600 290018.900000
213.127200 91820.900000
213.164100 48132.100000
215.143000 229501.700000
223.148100 296970.200000
225.163800 47350.800000
227.142900 68909.400000
227.179700 37887.500000
235.148100 69613.900000
237.163700 52831.100000

>ms2peaks
50.015100 498958.000000
51.022900 553851.100000
53.002200 877380.500000
53.038600 4434414.000000
53.997500 238408.900000
55.017900 943849.700000
55.054300 9923028.000000
57.033500 263631.700000
57.069900 380096.000000
59.049200 414420.600000
63.022800 258175.800000
65.038600 7833332.500000
66.046300 343586.100000
67.054200 12496660.000000
67.989300 83103.500000
69.033500 968553.400000
69.069900 1352091.800000
71.049200 126654.800000
77.038600 3649031.200000
78.046400 922007.600000
79.054200 20795830.000000
80.062000 420775.800000
81.033500 444396.400000
81.069900 8115885.500000
83.049100 827245.200000
83.085500 70729.200000
89.038400 139677.000000
91.054300 40019532.000000
92.062100 757651.900000
93.069900 7119571.000000
94.041300 371978.900000
94.077800 86129.700000
95.049200 12444361.000000
95.085600 3848477.500000
97.064800 378002.300000
102.046600 272310.900000
103.054200 4945334.000000
104.062100 1305652.900000
105.044800 6231443.500000
105.069900 17842824.000000
106.041600 68102.500000
106.077700 513491.600000
107.049100 979246.600000
107.085500 2673585.000000
108.057000 255184.200000
109.064900 1671824.100000
109.101200 284919.300000
111.080400 84068.300000
115.054300 6136524.000000
116.062100 2090342.500000
117.069900 4692399.500000
118.077700 450286.400000
119.049200 313519.800000
119.060500 992307.600000
119.085600 5735010.500000
120.057300 127101.100000
120.093300 68359.500000
121.064800 1278612.800000
121.101200 771059.100000
122.072600 130549.700000
123.080400 288127.100000
127.054100 223628.200000
128.062100 5585040.000000
129.069900 4918580.500000
130.077800 1338196.500000
131.049100 215133.400000
131.085600 2610042.200000
132.057100 163806.000000
132.093500 62840.800000
133.064700 350102.300000
133.076000 148631.500000
133.101200 909356.800000
135.080500 1661619.100000
141.069900 4127201.500000
142.077800 2650893.200000
143.085600 2492415.000000
144.057200 240928.000000
144.093400 445827.300000
145.064800 826654.200000
145.101300 1068537.100000
146.072600 73431.600000
147.080400 168030.300000
149.096300 340527.400000
152.062100 621498.000000
153.069900 1508092.400000
154.077800 722063.800000
155.060500 602688.700000
155.085500 1503787.900000
156.093300 690680.400000
157.064900 176116.300000
157.101200 656539.400000
158.072700 75668.100000
158.109200 67135.100000
159.080600 284321.700000
159.116800 254901.300000
160.088400 58871.300000
165.069900 1103941.900000
166.077800 484409.100000
167.085600 1195807.600000
168.093500 282602.900000
169.064400 54724.800000
169.101200 674694.500000
170.109000 138126.400000
171.080400 211928.100000
171.116700 137017.900000
178.077400 242392.000000
179.085600 446907.800000
180.093300 177149.500000
181.101300 495857.700000
182.109000 145451.000000
183.116900 277556.900000
184.124500 46557.900000
185.096400 42525.600000
185.132400 48778.900000
191.085300 67119.100000
192.093200 168513.200000
193.100900 196784.100000
194.108600 59244.500000
195.116800 139625.800000

>ms2peaks
50.015100 1587293.100000
51.023000 1863845.500000
52.030700 40267.800000
53.002200 1374148.000000
53.038600 5971235.500000
53.997500 297710.800000
55.017900 793214.100000
55.054300 5992875.500000
57.033500 130094.700000
57.069900 65118.900000
59.049100 216609.900000
62.015100 40882.400000
63.022900 488459.800000
65.038600 13329867.000000
66.046400 513883.900000
67.054300 6426236.000000
67.989300 173480.000000
68.997100 48561.500000
69.033500 351906.800000
69.069900 364120.800000
75.023000 67643.700000
76.030600 43041.400000
77.038600 4623325.500000
78.046400 1870286.100000
79.054200 13461682.000000
80.062100 308155.300000
81.033500 581587.600000
81.069900 2321289.500000
83.049200 52641.200000
89.038600 465533.300000
90.046400 56677.900000
91.054300 31250306.000000
92.062100 503345.600000
93.070000 1649747.800000
94.041300 525347.300000
94.077800 40271.400000
95.049200 14998127.000000
97.064700 51242.300000
102.046500 566761.400000
103.054300 4653497.000000
104.062100 1043817.600000
105.044800 7644647.500000
105.070000 6369724.500000
106.077800 166878.800000
107.049100 558597.800000
107.085600 268335.600000
108.057200 59957.300000
109.064900 447000.400000
115.054300 9537265.000000
116.062100 1246847.100000
117.070000 2329827.200000
118.077700 77429.000000
119.049300 209009.100000
119.060400 177007.100000
119.085700 963542.500000
120.057300 55265.200000
121.064900 233311.500000
126.046500 124651.400000
127.054300 605274.400000
128.062100 7771993.000000
129.069900 3092749.500000
130.077800 446094.900000
131.049100 327447.800000
131.085500 468904.300000
132.057100 32342.200000
133.064900 77579.200000
133.101100 62926.700000
135.080600 70764.900000
139.054300 50028.600000
141.069900 3993712.000000
142.077800 975796.900000
143.085800 515270.900000
144.057100 144210.800000
145.064900 632062.500000
145.101300 174399.400000
147.080300 33574.900000
152.062200 1347256.500000
153.070000 1565394.800000
154.077700 384053.000000
155.060400 1093158.800000
155.085600 618530.600000
157.064900 185039.000000
165.070000 1857742.100000
166.077700 396818.800000
167.085700 489812.900000
168.093300 42073.100000
169.064600 151296.100000
169.101100 58712.100000
178.077800 699312.200000
179.086000 367264.500000
180.093300 49204.200000
189.069900 68722.800000
191.085900 63546.100000
193.101700 43051.700000

>ms2peaks
50.015100 2887483.200000
51.023000 4888117.500000
52.030800 65838.600000
53.002200 1851044.800000
53.038600 5763154.000000
53.997500 414132.200000
55.017900 576375.300000
55.054300 3016626.500000
57.033500 45743.200000
57.069800 39157.200000
59.049200 60856.300000
62.015100 200239.500000
63.022900 1429258.200000
65.038600 16442513.000000
66.046400 643202.100000
67.054200 2736816.800000
67.989300 116493.700000
68.997100 29379.000000
69.033600 74877.300000
69.069900 69804.300000
75.022900 275589.500000
76.030700 74927.600000
77.038600 4830508.500000
78.046400 2620164.200000
79.054200 7390232.000000
80.062100 132690.800000
81.033500 483245.900000
81.069900 618514.500000
83.049200 40429.600000
89.038600 1366522.200000
90.046400 32482.100000
91.054300 21205634.000000
92.062000 161474.400000
93.069900 320474.900000
94.041400 461142.800000
95.049200 13750648.000000
102.046400 1291252.600000
103.054300 3521826.000000
104.062100 533463.100000
105.044800 6965743.000000
105.069900 2026023.500000
106.041600 51551.500000
107.049200 419008.300000
109.064700 64150.700000
115.054300 12092715.000000
116.062100 918917.700000
117.069900 912035.100000
119.049300 155607.500000
119.085800 160049.600000
126.046500 391676.900000
127.054200 828018.200000
128.062100 7204767.000000
129.069900 1603966.600000
130.077800 70038.100000
131.049200 208288.800000
131.085900 36093.800000
133.064900 32395.600000
139.054200 321530.500000
141.069900 2642958.500000
142.077700 283941.300000
143.085300 116409.600000
145.064900 621028.900000
152.062100 2183233.500000
153.070000 978706.400000
154.077800 129099.700000
155.060400 1117211.900000
155.085600 79119.500000
157.064800 62298.500000
165.070000 2128681.500000
166.077700 147684.200000
167.085500 138540.100000
169.065000 344753.500000
178.077800 507270.600000
179.085800 57228.800000
189.069600 120440.700000
191.085600 33883.400000

