>compound EQ94511026
>parentmass 386.1311
>ionization [M+H]+
>formula C20H17F2N3O3
>rt 282.000000
>profile orbitrap
#smiles_iso C1CN(CCN1)C2=C(C=C3C(=C2)N(C=C(C3=O)C(=O)O)C4=CC=C(C=C4)F)F
#smiles_can C1CN(CCN1)C2=C(C=C3C(=C2)N(C=C(C3=O)C(=O)O)C4=CC=C(C=C4)F)F
#inchikey XBHBWNFJWIASRO-UHFFFAOYSA-N
#pubchem_id 56208
#mb_accession EQ362001,EQ362002,EQ362003,EQ362004,EQ362005,EQ362006,EQ362007,EQ362008,EQ362009

>ms2
299.097000 225756.400000
342.141400 6892147.500000
368.120200 2876583.800000
386.131000 125820712.000000

>ms2
58.065100 166930.300000
70.065100 656430.000000
258.072200 137180.200000
267.093100 122700.400000
272.075200 185361.000000
273.083200 359915.500000
279.093200 103521.200000
280.088000 70919.800000
281.088200 216688.600000
285.083300 1891383.000000
293.095700 300499.200000
294.103500 340894.800000
297.082000 130828.700000
299.099100 20270272.000000
313.102100 54429.100000
322.135200 6897565.000000
325.078100 77830.000000
325.115200 274087.400000
340.125700 1275854.200000
342.141300 48610460.000000
343.089100 196476.700000
366.125700 127186.500000
368.120600 20365064.000000
386.131000 42641544.000000

>ms2
56.049500 373328.400000
58.065100 293082.200000
68.049400 46581.800000
70.065100 1381078.800000
71.072800 70472.800000
85.075800 58507.900000
136.055800 94068.100000
148.055600 53057.600000
155.060300 65291.100000
159.091800 71789.300000
164.050400 55605.400000
171.091900 101074.600000
175.066700 69113.800000
189.082300 181225.200000
201.066200 87653.300000
203.061400 198117.400000
210.071400 57531.200000
221.072100 86652.000000
224.087300 61449.600000
229.069600 69961.300000
237.082600 68577.800000
238.066100 282735.000000
239.074000 51949.500000
242.077700 98517.500000
243.073000 127963.800000
244.081200 82117.700000
250.090100 45998.800000
251.097900 142748.200000
252.081700 63101.000000
255.072800 73293.900000
256.056500 309356.600000
257.064700 576237.300000
258.072400 444558.700000
261.082400 62273.300000
263.097700 46789.700000
264.093000 62103.900000
265.077100 64027.800000
265.101100 55233.900000
265.113700 45904.700000
267.093100 635518.100000
268.081200 53284.100000
269.064900 52828.500000
269.087800 108325.100000
270.096400 300677.700000
271.068000 59969.000000
271.080400 616994.100000
271.103200 132758.500000
272.075500 955743.900000
272.088700 147967.300000
273.083300 1018553.600000
278.085000 68769.400000
278.108600 70539.100000
279.092900 1589820.600000
280.088100 349499.500000
281.088500 1309817.800000
282.072400 119712.000000
283.067600 278983.800000
284.075800 184717.500000
285.083500 5680166.500000
286.091400 349093.500000
289.054900 210951.400000
291.093300 70697.500000
291.117000 70948.200000
292.088300 633224.500000
292.124400 684467.500000
293.095500 1187700.600000
293.108400 140756.000000
294.103800 1322720.000000
297.083400 704817.900000
298.091000 46229.900000
299.099000 41753900.000000
304.125000 76111.700000
305.109200 104867.800000
306.103300 202265.300000
307.111400 298007.200000
311.062000 69645.300000
311.098900 368010.700000
312.094800 96299.700000
312.130600 259338.800000
313.102000 72900.900000
320.083100 417696.200000
320.119200 714062.400000
321.128000 117077.800000
322.135100 5398483.000000
324.130500 130113.800000
325.079000 285545.400000
325.115100 329204.700000
338.093300 369057.500000
340.090700 49600.000000
340.125700 866687.500000
342.141300 5331815.500000
343.089000 379263.600000
348.114300 2925438.000000
366.125000 3355316.800000
368.120600 15329517.000000
386.131100 25485790.000000

>ms2
56.049500 810416.700000
58.065100 327313.300000
68.049500 161249.700000
70.065100 972743.000000
71.072800 66050.500000
83.060300 109136.000000
84.068200 26803.100000
85.075900 44595.700000
103.054100 40027.900000
109.044900 351535.600000
110.040100 153208.200000
115.054300 82564.900000
116.049500 161344.200000
117.057300 166952.200000
121.044900 224071.900000
122.040100 127266.000000
123.024000 93380.000000
124.055800 23699.900000
128.049600 290732.800000
129.044700 27419.500000
130.065100 248589.600000
131.060600 83981.400000
133.044800 177389.000000
134.040100 293525.800000
134.060000 179750.000000
135.047800 221521.900000
136.055700 502643.100000
137.063500 53995.500000
138.034900 126153.900000
138.071300 26180.500000
142.065100 54003.700000
143.060100 68716.200000
144.044400 24201.600000
144.055600 77497.000000
144.080700 25601.400000
146.040100 82666.000000
147.023900 46027.500000
148.055700 1154305.600000
149.051000 63753.700000
150.034900 84705.200000
150.071600 90399.000000
151.066400 52823.500000
152.050700 146161.800000
154.065900 43194.500000
155.060400 670172.700000
156.044400 212861.000000
156.068200 57168.500000
157.075800 78400.100000
158.040100 102218.100000
158.059900 20182.800000
158.083800 82225.200000
159.055100 23818.700000
159.091700 78476.900000
160.043200 62200.900000
160.055600 86954.800000
161.051200 168052.500000
161.063800 26363.700000
162.035100 258829.100000
162.045600 22513.900000
162.071700 86804.200000
163.066500 45813.300000
164.050700 209888.700000
169.076100 194260.700000
170.071400 91691.700000
171.091700 1236849.000000
173.050900 120199.400000
174.034900 26535.700000
174.058900 514201.300000
175.066700 526168.900000
176.050700 239205.000000
177.046000 56363.200000
178.065900 19794.400000
179.061800 79873.500000
180.045500 597931.200000
181.076200 24467.900000
182.083700 66287.700000
183.054400 80756.500000
183.061800 208767.984400
184.055700 41059.300000
184.063100 85688.100000
185.051000 157649.700000
186.035100 26600.900000
186.058900 108683.200000
186.071400 44578.000000
188.050700 45979.000000
188.074600 26062.900000
189.082300 2011844.500000
190.065200 99374.800000
191.061600 105998.600000
191.097800 129033.900000
194.061100 61341.300000
195.056300 42642.600000
196.087100 23894.100000
198.072400 19720.400000
201.051400 157649.900000
201.065900 430524.300000
203.061500 871045.400000
204.045500 44564.300000
204.069600 51526.800000
204.080800 89098.500000
205.076900 54934.500000
207.056800 25029.500000
208.055600 104449.600000
209.063600 563248.300000
210.071500 473801.800000
211.079200 111504.600000
216.062100 53495.600000
219.056600 58398.900000
221.072200 363792.600000
222.071400 240142.600000
223.066600 120851.200000
224.074700 45107.100000
224.087000 351485.200000
225.082100 212233.500000
226.046100 46602.300000
226.065900 47206.800000
227.054000 270877.200000
228.062100 332388.200000
229.069800 1007763.400000
230.077500 60652.900000
231.049100 62325.300000
231.072800 66739.000000
231.092100 88703.300000
234.071500 153621.800000
235.066800 59295.900000
235.079400 113284.600000
236.050900 48028.000000
236.074400 139674.200000
236.086900 47339.700000
237.058600 100660.600000
237.082400 645117.900000
238.066400 821180.500000
239.053600 94371.900000
239.074100 160471.400000
239.097700 23946.400000
240.061900 247646.800000
240.081500 26365.700000
241.056800 39355.700000
241.069800 95025.700000
242.065200 49872.300000
242.077300 418150.100000
243.073100 288551.500000
244.080500 560095.400000
245.064800 354389.700000
246.096500 113720.900000
248.073900 76305.900000
248.086600 25279.500000
249.070000 41928.200000
249.082100 317028.200000
250.090100 540400.600000
251.073800 56567.200000
251.085900 58947.400000
251.097900 589183.200000
252.069300 61696.800000
252.081900 259596.500000
252.093600 55540.900000
252.105800 62793.200000
253.068800 58669.000000
253.079200 24729.400000
253.089400 22640.200000
254.064500 54311.100000
254.077900 73988.600000
255.050700 194051.390600
255.072900 1101804.000000
256.057000 2074440.000000
256.079000 374620.400000
257.064800 1674773.100000
257.087600 585738.250000
258.072500 895160.700000
259.043600 55587.100000
259.067500 72610.200000
259.086700 70020.300000
260.074400 83842.800000
261.082500 418290.500000
262.065600 19474.000000
262.077500 82186.900000
262.090500 82142.500000
263.061600 56941.500000
263.085300 479392.700000
263.098100 303646.300000
264.093300 798233.600000
264.105800 143679.100000
265.077100 286805.800000
265.100700 173316.400000
265.114000 135510.900000
266.109200 178934.000000
267.072600 160150.000000
267.092900 497944.300000
268.057200 45709.000000
268.080500 189063.900000
269.065600 98055.500000
269.088500 650470.300000
270.072500 242460.700000
270.096400 3662494.000000
271.067100 435570.100000
271.080400 1130337.400000
271.102600 246341.484400
272.075400 801146.200000
272.088300 502277.500000
272.117300 88803.200000
273.083500 1664801.800000
274.090100 20628.100000
275.084600 40273.200000
275.098300 74907.000000
276.093300 297664.500000
277.078600 132217.700000
277.101100 695523.800000
278.072700 28226.600000
278.085500 180050.400000
278.108200 148984.300000
279.092900 3987424.000000
280.089200 199918.812500
280.124100 43128.300000
281.088500 1750983.000000
282.072300 378291.500000
282.096800 77153.500000
283.067800 642830.600000
283.104000 72415.200000
284.052500 94823.200000
284.075500 602028.200000
285.083500 5111640.500000
286.091000 131914.300000
287.038800 42034.900000
289.054500 574562.800000
290.072000 24004.200000
290.109000 125975.000000
291.079800 159884.400000
291.092900 199366.200000
291.116800 476272.500000
292.088100 1849539.200000
292.124400 1562681.600000
293.072500 82416.400000
293.095700 495533.100000
293.109000 209447.800000
294.103700 766832.900000
296.076000 22752.900000
297.083600 1263946.100000
298.054800 55937.000000
298.091300 23816.300000
299.099100 19133718.000000
302.062900 102761.700000
302.108800 91398.000000
304.087600 142880.100000
304.124600 178974.600000
305.073200 81339.200000
305.094700 160725.400000
305.110500 26208.800000
306.103800 345701.600000
307.111200 91474.400000
309.083700 59851.600000
310.115400 43491.800000
311.063000 344887.100000
311.099000 137797.400000
312.093400 45792.200000
312.130600 453918.800000
316.066200 41910.300000
318.067400 58162.000000
318.104200 130877.000000
319.111700 149487.000000
320.083100 2348792.000000
320.119300 1270398.100000
322.135100 485732.900000
323.082100 51669.900000
324.130700 406235.800000
325.078900 545708.800000
329.073400 331735.800000
338.093500 1946578.000000
340.090000 45378.100000
340.125900 230865.300000
342.141300 181487.000000
343.089200 223536.600000
348.114300 2369438.200000
352.108900 51215.200000
366.125000 2521287.000000
368.120600 2913108.500000
386.131100 4698057.000000

>ms2
53.002200 12343.400000
53.038600 19127.800000
54.033800 13676.300000
55.017900 10999.900000
56.049500 853217.100000
57.057300 25659.000000
58.065100 279162.400000
63.022900 22773.800000
65.038600 17243.100000
68.013000 60838.600000
68.049400 239803.400000
69.044800 14573.600000
70.065100 542676.600000
71.060300 13742.900000
77.038500 22653.200000
80.049400 23005.000000
83.029100 161801.900000
83.060300 86210.300000
84.068200 26444.500000
85.075900 17056.300000
89.038500 422396.800000
90.033800 12713.600000
90.046300 17738.200000
91.054300 60354.900000
92.049600 13162.400000
94.065100 27392.300000
95.049200 50938.600000
97.044700 23099.000000
98.040000 12282.700000
102.046400 13688.700000
103.054200 242523.900000
104.049500 115806.600000
105.044800 25518.800000
107.029200 448830.000000
108.024400 16891.900000
108.037000 110985.000000
109.044800 1034890.800000
110.040000 328327.200000
111.047600 14592.600000
113.039700 51701.400000
114.033900 26920.400000
115.041600 11453.300000
115.054200 152908.600000
116.049500 567023.200000
117.057300 288401.100000
118.028700 16003.300000
118.065000 67339.700000
119.049300 17985.300000
120.037000 57649.600000
121.044800 401418.700000
122.040100 480722.000000
123.024100 187830.900000
123.035300 180965.500000
123.047900 70446.900000
123.060600 26401.600000
124.055600 94978.100000
127.054300 10944.600000
128.049500 1160471.200000
129.044800 253214.500000
129.057300 66250.300000
130.065100 609189.100000
131.060400 241119.100000
132.024100 17476.900000
132.044200 14260.000000
133.044800 319786.400000
134.040100 1127015.900000
134.060000 377036.700000
135.047900 654266.600000
136.055800 606904.100000
137.051000 43380.800000
137.063600 54325.600000
138.035000 174082.300000
138.071400 22897.100000
140.049600 81492.500000
141.044800 19072.100000
141.057500 15945.500000
142.052600 20217.300000
142.065100 124512.800000
143.060400 123859.500000
143.073000 84981.400000
144.044300 78700.500000
144.055600 248845.700000
144.068200 14688.300000
144.080800 77670.000000
145.076300 15335.100000
146.040100 356634.900000
146.060200 51382.800000
147.024100 143396.000000
147.047900 113839.100000
148.055700 3004607.500000
149.039700 14931.400000
149.051100 153892.300000
149.063500 69100.900000
150.035100 141840.200000
150.058900 23696.300000
150.071300 93527.700000
151.042600 18639.100000
151.066700 62760.500000
152.050700 487212.300000
153.044700 22000.100000
154.065500 78458.200000
155.060400 1246253.200000
156.044400 273181.100000
156.055100 23394.500000
156.068300 219916.800000
157.045000 14135.600000
157.076200 68642.700000
158.040200 263722.200000
158.059700 20458.800000
158.083900 60618.500000
159.048600 17066.900000
159.055300 53210.000000
159.091800 42599.400000
160.043300 135552.700000
160.055700 112188.400000
161.051100 277452.600000
161.063500 55901.800000
162.035100 298924.300000
162.046100 114620.900000
162.071400 172720.800000
163.042700 26920.200000
163.066700 25495.700000
164.050600 320254.600000
165.070900 11108.000000
166.065900 15407.900000
167.060600 19640.200000
168.044500 14502.300000
168.055800 25629.500000
168.068500 22813.000000
169.076000 305125.900000
170.071600 83435.600000
170.084100 17499.300000
171.091700 1197175.400000
172.055700 25409.700000
173.051000 374303.100000
174.058900 1902480.000000
175.066700 657853.900000
176.050600 253426.100000
176.074500 71987.000000
177.046200 46680.100000
177.069900 53722.800000
177.082200 14332.000000
178.053500 12772.700000
178.065800 41140.500000
179.061400 66466.700000
180.045600 789682.400000
181.044900 11707.800000
182.052600 17259.300000
182.071300 15534.500000
182.083900 76379.000000
183.060800 711190.000000
184.055700 172442.500000
184.063400 135501.400000
185.051100 200222.600000
185.063700 70890.100000
185.071000 13528.500000
186.047500 20551.600000
186.058800 341878.200000
186.071700 56255.500000
187.066800 64110.200000
188.043100 41764.000000
188.050600 61863.000000
188.074200 168061.900000
189.045500 80522.600000
189.082300 1526926.500000
190.065200 274753.600000
191.061300 87266.300000
191.073400 19924.400000
191.098000 76709.000000
192.045500 16040.600000
194.061000 106964.400000
195.048000 31368.400000
195.056800 65991.600000
196.055800 112110.300000
196.068500 56739.000000
196.086600 22829.100000
197.051200 15326.500000
197.063300 24479.200000
197.076100 62240.600000
198.072600 133697.900000
200.042700 16541.900000
201.051100 798602.200000
201.065400 318804.100000
202.046000 106601.000000
202.054100 47213.200000
203.061600 1078370.000000
204.037500 15013.400000
204.045700 54612.400000
204.061600 14268.100000
204.070900 13600.600000
204.080800 128051.100000
205.076900 49201.900000
207.047400 22693.900000
207.057400 119153.800000
208.055800 798834.100000
209.063700 1916621.400000
210.071500 670878.600000
211.079200 274193.300000
212.050500 55381.300000
214.046000 41868.800000
214.057400 14220.400000
214.066000 55979.500000
215.053100 75820.000000
216.061900 265138.600000
217.077500 22784.100000
219.056500 67491.000000
220.056100 54620.200000
221.063100 84260.600000
221.072400 192181.800000
222.071400 675846.100000
223.066800 547731.700000
223.079300 196862.800000
224.051300 38753.200000
224.074600 138523.300000
224.087200 473246.400000
225.082200 171221.300000
226.046400 245668.700000
226.066200 83258.900000
226.089400 93220.900000
227.054200 1991056.400000
228.062000 1059706.000000
229.069800 2442419.200000
230.040300 21367.500000
230.065200 140937.900000
230.077700 92099.200000
231.048700 59232.500000
231.073200 71392.100000
231.091400 87657.500000
232.056600 60857.600000
233.063600 55219.400000
234.058700 72959.000000
234.071600 270503.300000
235.066700 198675.800000
235.079500 180188.500000
236.051700 115035.400000
236.062300 52871.600000
236.074600 368191.200000
236.087000 88715.400000
237.058900 237225.800000
237.082300 1253789.400000
238.046400 51024.900000
238.066500 690675.400000
239.053900 288016.800000
239.072900 100949.750000
239.097300 35499.900000
240.062000 808950.600000
240.082100 52945.900000
241.057100 100774.500000
241.070000 227448.400000
242.065100 155099.400000
242.077700 650672.100000
243.072500 241125.000000
244.056600 90918.700000
244.080600 1521165.600000
245.064800 656151.900000
246.060100 16078.600000
246.072700 43735.200000
246.096400 99120.500000
247.066700 133169.800000
248.074500 171735.600000
248.087100 44639.800000
249.069800 106998.100000
249.082200 707504.100000
250.066800 83721.500000
250.090100 1039541.200000
251.061900 57197.900000
251.074100 137438.000000
251.085600 164129.500000
251.098100 339098.200000
252.069300 77329.200000
252.082100 252130.600000
252.093400 48408.200000
253.056100 26189.300000
253.069900 209034.000000
254.041100 48347.400000
254.065000 287576.400000
254.077800 141334.300000
255.049400 549567.200000
255.072900 4746346.500000
256.057000 3428014.500000
256.078200 424390.500000
257.064700 1349826.900000
257.086900 361045.600000
258.072400 565667.300000
259.044100 97411.300000
259.067500 119808.400000
259.086400 47488.300000
260.074700 327437.000000
261.069700 26744.500000
261.082200 469989.000000
262.065600 22386.400000
262.077400 253809.200000
262.090500 122529.800000
263.061700 91610.100000
263.085400 859199.100000
263.098200 302339.800000
264.072000 108618.453100
264.093300 963449.300000
264.105800 137029.500000
265.056500 23802.200000
265.077500 306693.600000
265.101000 114780.100000
265.113800 92426.300000
266.109200 85252.200000
267.073100 374662.300000
267.093100 161674.600000
268.057600 82870.700000
268.080400 247105.800000
269.088500 1135384.600000
270.059500 185896.600000
270.072700 508833.400000
270.096300 2908197.500000
271.043700 52169.800000
271.067300 710847.000000
271.080600 802897.400000
271.104600 78937.700000
272.075400 270475.600000
272.088400 271324.700000
272.117300 37293.300000
273.083400 1112276.000000
274.077300 60097.700000
274.090000 37290.800000
275.085200 92337.500000
275.098300 70173.800000
276.093200 462739.700000
277.077500 156897.900000
277.101000 361095.300000
278.071600 27668.000000
278.085100 212346.900000
278.109000 56745.000000
279.073600 94595.200000
279.092900 1574932.500000
280.077800 12474.200000
280.088300 68475.700000
281.051900 52276.700000
281.088600 793955.900000
282.036400 46872.900000
282.059300 53845.400000
282.072500 279588.200000
282.096200 22956.200000
283.067700 841466.500000
283.103100 46284.600000
284.052900 81846.000000
284.075500 366547.800000
285.083400 1938966.200000
286.091200 22549.800000
287.039000 112206.700000
289.054500 535969.200000
290.072400 88902.200000
290.108800 171403.200000
291.093300 152373.700000
291.116500 284991.500000
292.088100 931730.800000
292.124100 266772.500000
293.072500 45088.900000
294.103700 128180.100000
296.075500 18642.100000
297.083500 954382.300000
298.055300 76105.700000
299.099200 2547190.000000
302.062100 23174.200000
302.109600 47927.200000
304.087700 133259.600000
304.124200 72611.300000
305.073100 77039.000000
305.095200 24675.800000
306.104100 164424.000000
309.083500 48704.500000
310.115400 21066.200000
311.062600 458036.800000
312.130600 17413.700000
316.065600 59159.400000
318.067000 65685.800000
318.102900 112435.100000
319.112500 23251.200000
320.083000 694696.800000
320.119700 197671.800000
323.083600 40265.900000
324.130500 96965.700000
325.078400 152810.700000
329.073400 354961.500000
338.093600 549546.000000
340.126100 14030.700000
343.088500 21286.900000
348.114500 142813.300000
352.108300 12378.200000
366.125000 153189.500000
368.120200 88519.000000
386.131300 156736.000000

>ms2
50.015100 15753.600000
51.022900 45181.900000
53.002200 72902.300000
53.038600 51869.000000
54.033900 11178.900000
56.049500 727022.200000
57.057300 27129.200000
58.065200 162748.000000
59.029100 14402.200000
63.022800 109543.100000
65.038600 41965.500000
68.013100 18656.800000
68.049500 285208.500000
69.044700 24018.600000
70.065100 326432.000000
71.029100 21470.600000
71.060300 11660.300000
74.015100 22637.900000
75.022900 240086.300000
77.038400 113971.593800
80.049400 22971.400000
81.013500 12833.200000
81.044800 18072.400000
83.029100 480756.100000
83.060300 80501.400000
84.036900 46438.200000
87.023000 45459.400000
89.038600 1153574.200000
90.033800 55912.100000
90.046400 50101.300000
91.054300 154882.600000
92.049500 22690.900000
94.065100 69932.500000
95.029000 99901.800000
95.049200 145799.000000
96.036900 106768.300000
96.044400 46649.500000
97.044700 49069.100000
98.040200 23865.600000
101.038500 127030.500000
102.033800 14220.400000
102.046400 92520.600000
103.054200 464900.400000
104.049400 206264.700000
105.044800 185286.800000
107.029200 1315932.400000
108.024400 59536.800000
108.037000 418489.000000
109.044800 1284880.900000
110.040100 302927.800000
112.031900 17767.300000
113.039600 126302.800000
114.033900 85384.700000
115.041700 48311.200000
115.054200 328353.900000
116.049500 670458.600000
117.044900 16898.900000
117.057300 269107.600000
118.028700 19459.700000
118.065200 58958.400000
119.049300 139457.900000
120.037000 162105.800000
120.044400 45906.500000
121.032400 43047.700000
121.044800 529105.200000
122.040100 794194.600000
123.024100 237987.700000
123.035300 444767.800000
123.047900 117098.100000
123.060500 24986.800000
124.055700 105594.200000
126.034200 26411.300000
127.041700 24012.800000
127.054500 17976.300000
128.049500 1917718.400000
129.044700 777910.800000
129.057300 195193.900000
130.065200 550052.200000
131.060400 231853.100000
131.073400 12380.300000
132.024300 63221.700000
132.044400 59721.000000
133.032300 77717.700000
133.044800 402362.300000
134.040100 1798593.100000
134.060000 389963.300000
135.047800 958863.100000
136.019100 23320.800000
136.055700 395797.600000
137.051000 54692.800000
137.063400 14298.600000
138.034900 65626.500000
140.026800 18943.700000
140.049600 145745.300000
141.044600 59044.200000
141.057400 95012.600000
142.052700 69548.800000
142.065200 151112.600000
143.060500 226127.700000
143.073100 125858.100000
144.044500 51738.400000
144.055600 218408.400000
144.068500 18552.300000
144.080800 75886.000000
145.076100 41963.000000
146.040100 570890.200000
146.060000 113913.200000
147.024200 191964.400000
147.035300 63788.600000
147.047900 187293.200000
148.055700 3066927.200000
149.039800 26475.700000
149.051100 185144.900000
149.063500 122203.900000
150.034900 82942.500000
150.058800 44435.600000
150.071300 66179.400000
151.042900 74902.100000
151.054200 12540.000000
151.066700 12738.300000
152.050600 562515.100000
153.044800 77587.700000
154.039800 53197.900000
154.052600 60327.200000
154.065400 28005.600000
155.060400 1212647.000000
156.044600 131586.600000
156.055600 23679.000000
156.068200 376115.500000
157.045100 51018.400000
157.076100 56707.400000
158.040100 543466.400000
159.035300 26629.100000
159.048100 42425.600000
159.055100 48257.800000
160.043200 187734.200000
160.055600 54334.300000
161.051200 268087.400000
161.063600 53751.900000
162.035100 169654.800000
162.046300 119329.800000
162.071600 122590.400000
163.042800 56157.900000
163.054100 105003.804700
163.066900 27331.800000
164.050600 324075.800000
165.022100 18775.800000
165.044700 51269.200000
165.070100 12387.500000
166.052700 51573.400000
166.065800 15520.000000
167.060600 39770.100000
168.056000 78671.700000
168.068300 43483.900000
169.064800 21966.800000
169.076100 196016.700000
170.052700 81345.000000
170.071100 25346.200000
170.083700 43538.000000
171.054800 39104.200000
171.091700 433029.300000
172.055600 47369.100000
173.051100 1031171.800000
174.058900 1936307.200000
175.035600 20337.800000
175.066700 312947.000000
176.043700 20737.900000
176.050700 148723.600000
176.062100 51451.600000
176.074600 68858.800000
177.045900 54786.100000
177.058200 45645.200000
177.069900 73169.600000
178.053800 16664.100000
178.065600 45941.400000
179.037800 20974.500000
179.060900 66733.800000
180.045500 522829.900000
181.044700 258339.700000
181.076000 56026.200000
182.039900 68029.100000
182.052600 158041.200000
182.071300 20408.900000
182.083800 19519.400000
183.060600 1049492.100000
184.055700 315988.100000
184.063300 118133.400000
185.051100 123589.800000
185.063800 104610.500000
185.071200 19249.500000
186.048500 81206.700000
186.058900 388073.300000
186.071600 67749.000000
187.055500 63410.100000
187.066700 87536.200000
188.042900 81979.600000
188.050000 104198.900000
188.074500 83746.500000
189.045700 87322.500000
189.057500 59283.200000
189.082300 332474.600000
190.065100 414304.900000
191.061600 26543.000000
191.072700 66629.600000
192.045200 41664.700000
194.040300 14657.300000
194.052600 21722.200000
194.060800 88225.700000
195.048400 132666.300000
196.055900 340021.700000
196.068500 116739.000000
197.051100 108241.400000
197.063500 150912.200000
197.076100 25748.800000
198.071800 222096.500000
199.035400 63895.400000
200.043300 269946.400000
201.051100 2053243.900000
202.046100 287444.600000
202.054000 30110.900000
202.065800 61323.800000
203.053700 203881.300000
203.061600 651509.600000
203.072800 49396.800000
204.038100 148631.900000
204.055100 45270.800000
204.062200 49405.000000
204.081000 122472.200000
206.040100 52617.100000
207.048600 101814.100000
207.060400 115071.617200
208.055800 1993033.600000
209.063600 2901168.000000
210.071400 523814.300000
211.066900 82176.500000
211.079300 232913.200000
212.051400 92049.200000
213.038600 19406.000000
214.046100 176872.400000
214.058600 61295.100000
214.066200 64344.600000
215.053400 256751.200000
216.061700 510550.300000
217.077400 43121.400000
218.060800 21170.900000
219.048000 66248.600000
219.057200 23669.500000
220.055900 135741.200000
221.051000 71626.800000
221.063500 217700.100000
221.072500 19983.400000
222.059300 92773.200000
222.071400 1210711.100000
223.066800 732718.700000
223.079100 198010.100000
224.051400 80723.100000
224.074600 172673.000000
224.087100 299541.800000
225.049600 18549.700000
225.058800 70756.600000
225.082300 80652.900000
226.046300 1100088.500000
226.066300 119090.300000
226.090000 135200.800000
227.054200 5099896.000000
228.062000 2210637.000000
229.057400 484907.500000
229.069900 2171490.500000
230.041300 44141.100000
230.065900 137775.000000
231.047200 20110.100000
231.072800 57577.900000
231.091700 48355.700000
232.033000 47474.800000
232.056000 107580.100000
233.052300 18707.900000
233.063600 83393.300000
234.059000 247678.400000
234.071500 231146.600000
235.066800 633854.200000
235.079200 181802.000000
236.051900 131474.400000
236.062400 68871.500000
236.074600 568834.900000
236.086800 80281.800000
237.059100 233230.031300
237.082200 703765.700000
238.047300 120253.900000
238.066500 529420.500000
239.054000 531804.900000
239.074000 42598.600000
240.062000 1293050.600000
241.057000 262871.200000
241.069900 232259.700000
242.065000 230896.000000
242.077700 618682.700000
243.049100 44781.900000
243.071900 184854.900000
244.058300 111648.601600
244.080600 1341906.200000
245.064700 463218.000000
246.059800 19140.900000
246.072500 45248.700000
246.096000 18936.800000
247.066500 197184.400000
248.074700 243107.400000
248.086600 21603.200000
249.069800 97114.900000
249.082200 863936.800000
250.066200 98318.500000
250.090000 696780.900000
251.061700 110824.800000
251.074000 78247.600000
251.085700 90863.600000
251.098200 108518.600000
252.061700 78838.400000
252.082300 85594.400000
253.056700 184095.800000
253.069800 205870.800000
254.065200 719937.900000
254.077600 105009.700000
255.049300 601443.900000
255.072900 4897203.000000
256.056900 3199757.000000
257.064600 415289.400000
257.086500 101024.800000
258.059800 27785.100000
258.072700 148144.800000
259.044500 85366.900000
259.066700 46109.000000
259.086800 18714.500000
260.074500 307455.100000
261.069400 33281.400000
261.082200 271907.900000
262.077700 402882.500000
262.089900 58285.200000
263.061900 71154.800000
263.085400 656919.400000
263.098300 155491.500000
264.093500 223644.600000
264.106200 27971.400000
265.056200 23938.800000
265.077400 166016.800000
265.100800 64993.600000
266.064900 42739.300000
267.072700 342132.400000
268.056700 94460.200000
268.080500 247805.300000
269.064900 128313.900000
269.088500 788713.400000
270.059600 159814.800000
270.072600 539087.600000
270.095600 426682.100000
271.044000 58795.300000
271.067500 509822.600000
271.080700 290877.700000
272.075600 23996.000000
272.088400 48623.300000
273.083300 224415.100000
274.077800 96713.600000
274.090400 20007.000000
275.085800 83316.600000
276.069400 55149.600000
276.093200 291786.800000
277.077200 136736.200000
277.100700 75212.300000
278.085100 69078.500000
278.109900 16057.200000
279.073400 67932.800000
279.092900 258682.800000
280.079300 34031.700000
281.051700 21241.600000
281.088800 219887.700000
282.036700 19955.300000
282.059000 58165.200000
282.072500 86527.100000
283.067600 493888.300000
284.075500 50380.100000
285.083500 439078.200000
287.038600 104852.800000
289.054700 235217.900000
290.072400 72192.100000
290.108400 93950.500000
291.093400 51408.700000
291.116700 49079.900000
292.088100 255258.700000
295.067900 11886.300000
297.083300 364981.300000
299.099300 135211.700000
304.088800 45461.500000
305.073800 18184.600000
306.104200 21979.600000
311.062700 128550.200000
318.067300 22387.300000
318.103500 23365.200000
320.082900 21616.300000
325.079200 16766.700000
329.072700 74111.600000
338.093300 25444.500000

>ms2
50.015100 105330.900000
51.022900 115990.900000
52.018100 10341.900000
53.002200 213554.800000
53.038600 171595.800000
54.033800 24773.800000
55.017900 16527.900000
56.049500 434478.400000
57.013500 387173.200000
58.065200 90123.400000
59.029200 55009.700000
62.015100 72663.800000
63.023000 497223.800000
64.018200 12920.500000
65.038600 81905.600000
66.046300 9614.000000
68.013100 14926.800000
68.049500 167642.100000
69.044700 25625.000000
70.021300 18176.500000
70.065200 59452.100000
71.029200 43563.900000
74.015100 183995.600000
75.022900 1368263.500000
76.018100 43830.600000
76.030700 39756.300000
77.002200 15196.400000
77.038500 245509.000000
78.033800 64343.700000
78.046400 50588.100000
79.017900 16792.900000
80.049500 20688.100000
81.013500 166328.700000
81.044800 15241.800000
82.021400 52880.900000
83.029100 1225249.600000
84.037000 112313.800000
87.022900 94923.600000
88.018200 25362.300000
88.030800 71413.600000
89.038600 1611520.000000
90.033900 120690.700000
90.046500 141030.100000
91.054300 153609.200000
92.049500 46835.200000
93.013600 20287.000000
94.021300 101103.700000
95.029200 235540.600000
95.049200 449768.400000
96.037000 233973.600000
96.044400 137934.400000
97.032400 13743.100000
97.044900 42696.900000
98.040000 21437.500000
99.022900 123318.200000
100.018200 69766.600000
100.030900 19443.600000
101.038600 274823.600000
102.033900 131194.800000
102.046500 286052.100000
103.041700 63189.200000
103.054300 283363.300000
104.049500 222165.700000
105.013500 72495.100000
105.044800 293381.700000
106.021400 80633.800000
107.029200 3668349.000000
108.024500 140772.500000
108.037000 804810.800000
109.044900 884801.200000
110.040000 129081.200000
111.047900 16021.600000
112.031800 41321.900000
113.039600 303958.000000
114.034000 219795.300000
115.041700 125686.500000
115.054300 281113.900000
116.049600 296697.900000
117.044800 21169.000000
117.057400 184165.900000
118.028900 40715.300000
118.065300 17175.500000
119.029200 23983.300000
119.049300 231541.500000
120.037100 447103.900000
120.044400 63785.000000
121.032300 87522.600000
121.044800 230343.200000
122.040100 706367.400000
123.035300 665145.700000
124.018500 12729.900000
124.055500 15454.800000
125.038800 24886.500000
126.034000 171250.200000
127.041800 125235.300000
128.049500 1229706.000000
129.044700 1069916.100000
129.057300 202920.900000
130.040100 161982.600000
130.065200 207533.200000
131.029300 155576.800000
131.060300 70831.200000
131.072900 12645.900000
132.024500 228116.900000
132.037100 44897.100000
132.044500 48674.700000
133.032300 249559.600000
133.044900 542510.200000
134.040100 1008105.000000
134.060000 117550.100000
135.047900 581598.000000
136.019600 12971.100000
136.055800 136215.100000
138.034200 39511.200000
138.046700 13701.000000
140.036900 23346.000000
140.049600 159777.700000
141.044800 54130.300000
141.057200 67870.600000
142.052800 83288.500000
142.065100 69605.900000
143.029100 16383.100000
143.060300 75906.600000
143.072900 23600.300000
144.037200 49079.300000
144.044400 59097.700000
144.055700 77711.100000
145.032400 24430.700000
146.040100 784250.700000
146.060000 117554.400000
147.024200 131726.900000
147.035400 101127.000000
147.047900 172328.000000
148.055800 1100509.000000
149.038800 72421.900000
149.051100 71012.800000
149.063700 24314.500000
150.035300 47184.400000
150.046600 19731.000000
150.071800 13715.500000
151.035400 93627.800000
151.042900 47211.800000
151.054500 16919.500000
152.050500 188249.900000
153.044800 171198.600000
153.057600 10830.500000
154.040100 232311.500000
154.052900 14411.300000
154.065700 20022.200000
155.060400 474756.500000
156.037100 83391.900000
156.068200 164403.800000
157.045100 320198.900000
157.052000 41507.100000
158.040200 636526.800000
159.035400 59793.800000
159.048000 64124.200000
160.043400 93958.100000
160.055500 24562.200000
161.039100 81757.000000
161.051300 85011.000000
161.063800 11721.700000
162.034900 52731.300000
162.046400 126204.300000
162.071400 15600.900000
163.042900 17969.400000
163.054300 305194.500000
164.050200 188742.900000
165.022400 11595.000000
165.045000 67994.900000
166.052600 104949.900000
167.029400 13185.300000
167.060500 21583.600000
168.037200 118229.000000
168.044100 17521.900000
168.055700 15419.200000
168.068200 22532.800000
169.044800 71002.900000
169.065000 93637.900000
169.076000 58742.200000
170.040100 46275.600000
170.052800 284052.700000
170.059600 23696.200000
171.047900 68823.700000
171.054900 30369.100000
172.056000 88358.700000
173.051100 1242081.100000
174.046900 49295.500000
174.058900 404950.600000
175.035500 257504.400000
175.042000 28404.800000
175.054000 57500.600000
175.066600 78117.800000
176.030800 109621.400000
176.043200 38380.300000
176.050300 93328.600000
176.062100 82345.000000
177.045400 37176.200000
177.057600 82115.100000
177.069900 20551.300000
178.065200 57345.000000
179.029500 18363.900000
179.037900 21830.400000
179.060600 44265.000000
180.037000 138622.900000
180.045600 79743.200000
181.044800 1703347.400000
182.040200 453547.600000
182.052700 334836.700000
183.048700 105540.900000
183.060600 696604.600000
184.032300 24658.400000
184.055900 228520.200000
184.063500 17700.700000
185.051000 64769.700000
185.063700 167913.000000
185.071000 16375.200000
186.047800 178275.400000
186.058900 110641.500000
186.071400 16087.800000
187.042700 18570.700000
187.055100 211381.750000
188.043000 257575.700000
188.049900 419791.100000
189.038500 41645.200000
189.057600 151730.900000
190.046400 20393.200000
190.065100 220000.700000
191.073000 38663.200000
192.037000 41877.600000
192.045200 11245.600000
193.032300 13367.900000
193.044900 46632.700000
193.052500 12793.500000
193.064900 78378.100000
194.040200 39228.900000
194.052600 199928.700000
194.060600 96969.200000
195.048000 480985.800000
195.061000 85006.400000
196.055900 464536.000000
196.068600 125813.500000
197.051100 215460.600000
197.063500 99257.900000
198.071500 128154.100000
199.035400 883151.600000
200.030600 82620.200000
200.043200 754004.400000
201.051000 2564656.800000
202.046300 671020.900000
202.065600 113655.100000
203.054000 279403.900000
203.061500 212334.700000
203.072700 33819.900000
204.038200 456991.600000
204.055200 65110.900000
204.081000 40690.500000
205.045300 41032.100000
206.040300 590257.200000
207.048000 493651.700000
207.060200 83420.800000
208.055900 3563075.200000
209.063700 1359452.400000
210.058600 69775.600000
210.071300 91711.900000
211.043300 103404.700000
211.055700 40297.800000
211.066700 73782.600000
211.078400 22546.700000
212.041600 100937.200000
212.050700 96395.800000
213.038300 92713.300000
214.046000 223759.500000
214.058800 102406.700000
215.053100 250439.300000
216.061400 284305.800000
217.032900 18163.400000
218.060700 15943.300000
219.048000 232709.000000
220.056000 320568.400000
221.051200 196327.900000
221.063600 320584.500000
222.046500 93754.300000
222.059400 77077.600000
222.071400 958832.400000
223.066700 373016.500000
223.077500 25682.300000
224.031200 13407.800000
224.074500 50365.400000
224.086600 21108.200000
225.038600 68791.000000
225.049400 27840.300000
225.059800 118831.800000
226.046400 3724571.500000
227.054200 4067119.200000
228.062100 761544.900000
229.057300 258215.700000
229.069900 160060.200000
230.040200 14464.200000
231.048300 10990.600000
232.033200 210261.400000
232.056000 168006.300000
233.051000 150241.500000
233.063600 96520.500000
234.058800 457322.100000
234.071400 110112.800000
235.066900 376974.200000
235.078700 43130.100000
236.050300 61758.700000
236.062100 55771.900000
236.073900 136628.900000
237.038600 57060.600000
237.058900 52165.700000
237.082700 52845.200000
238.046900 104812.000000
238.066800 189125.300000
239.037900 60245.900000
239.054200 356795.900000
240.061900 680582.100000
241.057500 204233.200000
241.069100 34673.200000
242.064800 70755.400000
242.077700 80046.100000
243.048700 66812.400000
243.073200 47381.300000
244.056600 75791.500000
244.080700 21865.200000
246.046200 40570.600000
246.071900 13187.000000
247.066700 187875.000000
248.074600 117760.800000
249.069900 18886.800000
249.082000 157233.400000
250.066300 31541.200000
250.090200 49116.200000
251.062800 11318.800000
252.050200 27223.200000
252.062100 107654.900000
253.057400 442129.300000
253.070000 77031.100000
254.041400 56873.400000
254.065200 398285.300000
255.049500 171001.300000
255.072800 239238.200000
256.056900 500970.700000
257.028300 13662.300000
258.035700 19296.500000
258.058400 11281.700000
259.043900 22723.100000
259.066700 46198.800000
260.074200 78758.600000
261.069700 59937.900000
261.082700 47027.000000
262.077400 93020.000000
263.061200 17550.200000
263.085500 41121.900000
265.056300 11392.900000
266.065700 18841.300000
267.072600 67858.200000
268.056500 23338.700000
268.080800 23256.100000
269.064500 22898.200000
269.089500 11487.000000
270.059900 34647.100000
270.072900 38778.500000
271.067800 19781.600000
275.084900 14635.500000
276.069800 14569.400000
277.077400 17297.100000
279.072500 10913.600000
283.068400 23857.300000
297.082200 10075.500000

>ms2
50.015100 251160.000000
51.023000 256325.500000
52.018200 52480.900000
53.002200 294512.800000
53.038600 196957.800000
55.017800 24718.200000
56.049500 249331.200000
57.013500 1381107.200000
58.065100 46230.800000
59.029100 94918.800000
61.007300 87471.700000
62.015100 379034.400000
63.022900 1270043.100000
64.018100 46739.900000
64.030800 19163.900000
65.002200 19518.400000
65.026000 12733.800000
65.038600 173561.600000
66.046500 24433.600000
68.005700 46783.800000
68.049500 44658.500000
69.013500 45572.400000
69.044600 16481.300000
70.021300 120568.300000
70.065200 16302.700000
71.029200 58839.600000
74.015100 926987.600000
75.022900 3669458.000000
76.018100 182037.200000
76.030700 160228.700000
77.002200 90138.900000
77.038500 327805.300000
78.033800 124150.200000
78.046500 84435.500000
79.017800 16947.100000
79.041500 19844.400000
81.013500 754093.900000
82.008800 62905.300000
82.021300 131116.700000
83.029100 1529893.100000
84.037000 119256.200000
86.015000 123986.046900
87.010500 51406.700000
87.023000 372382.800000
88.018200 200050.800000
88.030700 141539.000000
89.038600 1601751.000000
90.033900 109348.800000
90.046500 115996.900000
91.041600 18642.200000
91.054200 147437.300000
92.005700 10333.500000
92.025600 21113.600000
92.049500 16848.200000
93.013600 79288.300000
94.021400 241132.100000
95.029200 258702.300000
95.049200 520738.900000
96.024300 19775.900000
96.037000 225656.300000
96.044400 183959.700000
97.032400 11333.400000
97.044800 20298.600000
98.015200 162467.100000
98.040000 15273.800000
99.022900 527798.200000
100.018200 263876.400000
101.019700 24015.500000
101.038600 271079.100000
102.033900 195251.800000
102.046500 388442.400000
103.041600 58586.400000
103.054300 82132.300000
104.049500 114316.200000
105.013500 267559.700000
105.044700 387944.900000
106.008900 44350.900000
106.021300 238049.800000
107.029200 4431697.000000
108.024400 226289.400000
108.037000 453358.100000
109.044800 448031.000000
110.015300 21771.800000
110.040000 21330.500000
111.010300 10427.900000
111.022900 47945.700000
112.018100 20883.600000
112.031900 40791.300000
113.026100 42807.800000
113.039500 322918.400000
114.033900 284015.300000
115.041600 188467.200000
115.054300 220018.100000
116.049500 158375.800000
117.057300 62974.200000
118.021300 11565.900000
118.028800 42082.000000
119.029400 49130.000000
119.049200 192323.600000
120.037100 453230.700000
120.044400 64404.200000
121.032300 59747.200000
121.044800 109092.600000
122.040100 392209.300000
123.023000 185777.400000
123.035300 607525.200000
124.018200 78151.000000
125.019800 45769.200000
125.038700 103536.200000
126.034000 306930.500000
127.041700 137379.600000
128.049500 754001.100000
129.044700 738002.200000
129.057300 93257.700000
130.008600 11895.700000
130.040100 217349.000000
130.065300 61644.600000
131.029200 468862.300000
132.024500 352054.000000
132.037000 92329.300000
133.032300 175163.900000
133.044800 546048.100000
134.040100 501736.000000
134.060200 55234.900000
135.047900 231924.800000
136.031000 12412.100000
136.055900 24820.500000
137.038800 108502.000000
138.011200 21723.200000
138.033800 76353.100000
138.046700 10960.200000
140.026900 25630.300000
140.037000 41804.300000
140.049600 124165.600000
141.044700 17252.200000
141.057400 67657.200000
142.021900 11425.500000
142.052700 19182.400000
142.065000 39533.600000
143.029300 51421.000000
143.060400 14425.700000
144.037000 188020.500000
144.044500 67002.900000
144.055800 46983.500000
145.032300 63428.800000
146.040100 496388.800000
146.052700 53951.500000
146.060200 67626.000000
147.023500 110596.200000
147.035300 147794.600000
147.047900 87857.600000
148.018300 19653.400000
148.030900 18586.400000
148.055700 367414.900000
149.019700 54986.700000
149.038700 241816.843800
149.051100 44281.100000
150.034400 103653.800000
150.046500 155644.000000
151.035500 296394.400000
151.042000 43962.700000
151.054700 15698.800000
152.030600 21124.600000
152.050500 77690.700000
152.062300 16194.500000
153.044700 161190.800000
153.057700 10952.800000
154.040100 257292.900000
155.029300 348561.600000
155.060400 158924.400000
156.024500 43835.800000
156.037100 162758.500000
156.043700 19606.300000
156.068200 25037.800000
157.045000 570300.500000
157.052000 46328.200000
158.040200 772467.400000
159.048000 50357.200000
160.043300 49288.500000
161.038700 466003.100000
162.027600 40285.600000
162.034200 65625.700000
162.046400 148887.900000
162.071700 10889.500000
163.042000 55052.800000
163.054300 331917.000000
164.043300 25692.600000
164.049700 226410.300000
165.045000 42709.300000
166.021900 11471.200000
166.052600 46229.500000
167.029100 52747.000000
167.049200 52195.500000
168.037100 594638.000000
168.044200 48276.200000
169.032400 70787.800000
169.044800 117532.200000
169.065000 96002.600000
170.040300 69465.400000
170.052800 362716.700000
170.059700 25197.200000
171.048000 63647.100000
171.054800 12539.800000
172.055900 64021.500000
173.019400 36059.300000
173.051100 370019.100000
174.027500 45028.600000
174.034300 88474.000000
174.046500 152018.800000
174.058900 55985.800000
175.035400 589271.000000
175.042000 107667.300000
175.053900 79031.400000
176.030700 275514.600000
176.043100 24942.100000
176.050100 56561.800000
177.045100 39246.800000
177.057400 74994.300000
178.065000 47252.500000
179.029200 514255.400000
179.060400 66336.800000
180.024500 41859.000000
180.037200 382837.000000
180.044900 30120.500000
181.044800 3551482.000000
182.040100 1006190.600000
182.052100 147300.328100
183.048300 107580.600000
183.060700 308684.000000
184.032100 50984.800000
184.055600 176081.000000
185.063400 58057.700000
186.034800 108129.300000
186.047600 100201.200000
187.042000 55229.600000
187.055400 340947.200000
188.042900 272838.900000
188.049700 900021.400000
189.038400 40080.000000
189.045300 14107.200000
189.057600 183834.400000
190.045700 11510.100000
190.065200 119355.900000
191.029200 15456.000000
191.049000 21840.400000
192.037100 151541.300000
192.044700 33508.200000
193.032500 120088.800000
193.052500 16797.600000
193.064800 97092.000000
194.040800 92531.200000
194.052700 300608.400000
194.060400 79226.700000
195.048000 609432.100000
195.061000 41817.100000
196.055800 322698.600000
196.068600 39935.800000
197.051100 213611.900000
197.063600 18899.400000
198.027300 79737.600000
199.035400 2998708.000000
200.030700 403298.400000
200.043300 548939.800000
201.038000 77358.600000
201.050800 1231365.800000
202.046300 470049.500000
202.064900 107024.200000
203.061000 79970.300000
204.038400 296740.900000
204.055000 76880.000000
205.045300 144207.300000
206.040200 2317400.500000
207.048000 610985.100000
207.060300 75131.200000
208.055900 1989196.500000
209.063600 350626.900000
210.026700 12350.300000
210.058400 45309.000000
210.071500 12040.400000
211.042800 100846.200000
211.055400 53198.400000
212.027200 87598.400000
212.050500 107547.300000
213.037800 186008.100000
214.045800 189779.700000
214.056900 14418.500000
214.067100 16869.700000
215.041500 84809.000000
215.053200 36020.300000
217.032500 62208.800000
219.048100 311073.000000
220.055700 295285.900000
221.051000 218055.800000
221.063500 239773.800000
222.047100 126336.906300
222.060500 26538.000000
222.071400 249246.200000
223.066600 107261.800000
224.030900 151887.600000
225.038900 240899.300000
225.049900 42065.200000
225.060300 70969.100000
226.046400 3905015.000000
227.054100 917049.400000
228.062900 38547.900000
229.057600 11278.800000
230.040600 54561.600000
231.048000 10970.900000
232.033200 177645.900000
232.044800 21256.600000
232.055500 138360.100000
233.051300 235494.500000
233.062800 37172.400000
234.058900 218100.500000
234.071500 38275.700000
235.066100 49289.300000
236.050600 16601.300000
236.073900 14618.900000
237.021600 13154.100000
237.038600 53685.800000
238.046600 80626.700000
238.066400 67575.300000
239.053000 109273.400000
240.061800 196591.800000
241.057000 57782.200000
242.064100 12058.900000
243.048900 56480.600000
244.057000 16199.500000
246.045800 14173.500000
247.066800 134675.200000
252.049500 79555.000000
252.061200 25574.800000
253.058000 102728.500000
254.065100 46629.600000
255.049200 12347.500000
256.057100 45246.400000
257.028400 42501.500000
258.035700 15508.100000
259.066700 18893.500000
260.074300 20412.800000
261.069700 12821.700000

>ms2
50.015100 386185.800000
51.023000 287246.400000
52.018200 64627.000000
53.002200 277998.100000
53.038600 94016.800000
54.033900 14493.700000
55.017900 15350.500000
56.049500 107818.000000
57.013500 2465604.200000
59.029200 123274.600000
61.007300 313503.800000
62.015100 711871.100000
63.023000 1710183.600000
64.018200 119873.400000
64.030800 19995.100000
65.002200 48719.500000
65.026000 18042.700000
65.038600 132583.100000
68.005700 133482.900000
68.049400 19106.600000
69.013500 102900.700000
70.021400 202833.900000
71.029200 37186.900000
74.015100 2216653.500000
75.022900 4445779.000000
76.018100 303048.400000
76.030700 190577.500000
77.038500 250329.600000
78.033900 95168.900000
78.046400 69511.400000
79.017900 10596.400000
79.041700 11607.700000
80.049400 13255.600000
81.013500 1680767.000000
82.008800 150626.900000
82.021300 127877.500000
83.029200 1238418.800000
84.037000 88139.500000
85.007300 181662.343800
86.015100 366959.000000
87.010500 121847.100000
87.023000 641655.300000
88.018200 246132.400000
88.030800 172811.000000
89.038600 863103.900000
90.033900 53178.300000
90.046500 60529.600000
91.041700 15795.400000
91.054300 52414.300000
92.005700 54147.700000
92.025800 13398.000000
93.013600 125037.100000
94.021400 349386.200000
95.029100 168324.700000
95.049200 333187.700000
96.024400 16198.100000
96.037000 141278.800000
96.044500 72240.500000
97.032300 10518.400000
98.015200 602941.700000
99.023000 924823.800000
100.018200 416724.100000
100.030700 117820.800000
101.019800 105675.100000
101.038700 150669.500000
102.033900 147232.100000
102.046500 213306.600000
103.041800 24453.100000
103.054300 39916.200000
104.049400 45194.200000
105.013600 728482.200000
105.044800 195632.100000
106.008800 82471.400000
106.021400 257287.100000
107.029200 3590573.500000
108.024400 199247.900000
108.037000 168873.000000
109.044900 172466.900000
110.015200 223495.800000
111.010300 50105.300000
111.023000 163039.200000
112.018200 103946.100000
113.026000 41044.000000
113.039300 297000.100000
114.033900 207365.800000
115.041700 62828.500000
115.054300 99177.300000
116.049500 49386.500000
117.057300 20327.000000
118.021400 56669.500000
118.028800 21746.800000
119.029200 62221.900000
120.037100 304816.000000
120.044300 23354.800000
121.032200 61606.200000
122.015200 193616.390600
122.040100 144603.100000
123.023000 510454.700000
123.035400 322979.800000
124.018300 177807.000000
125.019900 146566.300000
125.038800 112445.600000
126.034000 209846.200000
127.041700 69386.200000
128.049500 258082.300000
129.013500 167352.093800
129.044700 368515.700000
130.008900 45877.100000
130.040100 117175.800000
131.029200 813528.000000
132.024500 361613.900000
132.037100 64339.100000
133.032300 63074.400000
133.044900 378305.700000
134.040100 138411.700000
135.047800 53816.200000
136.031500 53301.700000
137.038700 117783.800000
138.011200 17798.600000
138.034100 73389.200000
140.049600 93655.000000
141.057200 20633.600000
142.021400 54938.800000
142.065400 17807.800000
143.029200 85219.300000
144.037000 257401.300000
145.032500 80993.700000
146.040200 174613.500000
146.053100 17015.100000
146.060200 13008.700000
147.023100 152373.421900
147.035300 103673.100000
147.047700 23922.100000
148.018200 111700.300000
148.030700 54048.100000
148.055900 74381.500000
149.019800 205343.500000
149.038800 172745.700000
150.034300 83809.300000
150.046500 244357.600000
151.035600 339997.400000
151.041800 41385.300000
152.030600 19255.200000
152.050000 67889.900000
152.062400 12062.800000
153.044700 57509.800000
153.057600 17678.900000
154.040100 144521.100000
155.029200 854245.900000
156.024600 117891.400000
156.037100 181309.300000
157.045000 411554.100000
158.040100 497268.900000
161.038700 680597.000000
162.027400 60182.100000
162.046400 94683.500000
163.041400 16339.800000
163.054400 226157.300000
164.043800 12765.100000
164.049600 112269.200000
165.044800 21042.100000
166.021400 24058.700000
167.029300 91927.500000
167.049100 40956.000000
168.037200 870601.900000
168.044100 57542.100000
169.032600 60383.000000
169.044900 35353.600000
170.040900 74239.200000
170.052900 175240.300000
170.060000 18593.100000
171.047700 47805.700000
173.019800 158035.500000
173.051300 69928.700000
174.027500 77286.800000
174.034400 50328.600000
174.046600 227619.900000
175.035400 410521.400000
175.042000 145321.900000
176.030700 218248.300000
176.062200 22140.800000
177.057300 46738.600000
179.029300 1604874.800000
180.024900 212070.500000
180.037000 593599.700000
181.044900 2445923.000000
182.040200 788433.400000
182.052900 54444.600000
183.048100 15382.700000
183.060700 66530.200000
184.055600 47184.100000
186.027400 134050.015600
186.034100 249827.200000
186.047500 41277.700000
187.042200 107335.300000
187.055300 207607.300000
188.042800 114950.700000
188.049700 507196.100000
189.057400 43258.100000
190.065200 15361.600000
191.029300 14802.400000
191.048400 15172.700000
192.037000 190030.800000
192.044400 23473.600000
193.032400 181235.800000
193.045000 32410.400000
193.064800 20795.800000
194.040600 86223.200000
194.052800 184204.100000
194.060500 25073.100000
195.047900 312128.700000
195.056100 16020.700000
196.055900 83677.800000
197.051000 86456.800000
198.027700 213334.400000
199.035400 2601528.500000
200.030600 507291.700000
200.043100 83043.300000
201.037800 13410.300000
201.050700 242299.500000
202.046200 130478.200000
202.065000 39765.200000
203.061100 13940.800000
204.037800 72713.300000
204.055800 51466.200000
205.032400 157948.609400
205.045200 120939.100000
206.040300 2102742.800000
207.048000 280297.000000
207.058200 17769.400000
208.055900 414331.100000
209.063600 44095.200000
210.027400 22940.800000
211.043300 40238.500000
211.055700 18147.200000
212.027100 199068.700000
212.041700 72113.000000
212.051000 43661.900000
213.038400 67343.000000
214.045500 55567.000000
215.041800 37175.300000
217.032200 42606.800000
219.048000 166757.500000
220.056100 122831.200000
221.052500 68848.900000
221.063400 61025.100000
222.046400 64902.800000
222.071000 19067.700000
224.030800 371176.900000
225.038800 256465.100000
226.046500 977457.800000
227.053300 97631.900000
230.040200 20066.700000
232.032900 42551.100000
232.043700 23871.800000
232.055800 40690.300000
233.051400 73742.500000
234.059100 23489.600000
237.021800 40938.400000
237.038400 17170.800000
239.038100 15143.500000
239.054500 43577.100000
240.062200 20292.600000
247.066800 13826.600000
252.049100 19233.800000
257.028200 41634.900000

