>compound EQ94174797
>parentmass 372.0288
>ionization [M+H]+
>formula C13H11Cl2F4N3O
>rt 708.000000
>profile orbitrap
#smiles_iso C1=CC(=C(C=C1Cl)Cl)C(CN2C=NC=N2)COC(C(F)F)(F)F
#smiles_can C1=CC(=C(C=C1Cl)Cl)C(CN2C=NC=N2)COC(C(F)F)(F)F
#inchikey LQDARGUHUSPFNL-UHFFFAOYSA-N
#pubchem_id 80277
#mb_accession EQ372301,EQ372302,EQ372303,EQ372304,EQ372305,EQ372306,EQ372307,EQ372308,EQ372309

>ms2peaks
70.039900 540262.000000
158.975500 516187.200000
372.028700 32622522.000000

>ms2peaks
70.039900 10520430.000000
89.038300 11309.400000
149.015200 99901.700000
150.023100 143799.900000
158.976300 11091890.000000
176.966900 197543.600000
184.992000 908983.800000
204.998300 779287.200000
254.024800 49798.900000
302.996200 135761.156300
372.028800 7285520.000000

>ms2peaks
59.029100 22319.200000
70.039900 9377242.000000
89.038100 21746.200000
149.015300 530119.600000
150.023100 1123642.000000
158.976200 18120368.000000
176.966900 306468.100000
184.992000 764320.500000
204.998200 165094.100000
372.028800 77475.700000

>ms2peaks
59.029200 36307.000000
70.040000 7562914.000000
89.038200 26314.900000
98.999500 36830.000000
115.054200 472927.400000
122.999600 249874.700000
124.007500 50033.700000
125.015300 24013.600000
132.960600 23636.900000
134.052400 21192.100000
149.015400 586355.400000
150.023100 1343702.400000
158.976300 19812186.000000
170.029000 20464.100000
176.966900 335382.100000
184.992000 161292.800000

>ms2peaks
51.004100 29056.600000
59.029100 36425.300000
63.022900 18476.800000
70.040000 6405576.500000
72.983700 35976.700000
89.038500 174388.900000
98.999600 243099.400000
115.054300 1248197.800000
122.999600 1566839.000000
124.007500 403998.400000
125.015200 29312.400000
132.960600 160265.500000
134.052400 23803.800000
149.015400 537723.000000
150.023100 697133.600000
158.976300 17444706.000000
176.966900 307023.400000

>ms2peaks
51.004100 68242.500000
59.029200 21531.300000
62.015000 14545.700000
63.022800 52714.800000
65.038600 31034.800000
70.039900 5229865.000000
72.983900 154927.300000
74.999600 14801.900000
87.022900 13679.900000
88.030700 23663.900000
89.038600 872767.800000
93.033500 20548.400000
96.983900 70548.900000
98.999600 870789.600000
108.960700 12787.000000
114.046400 27528.600000
115.054200 1702633.100000
122.999600 3829854.800000
124.007500 1198562.800000
125.015200 45547.400000
132.057000 15081.000000
132.960600 486866.700000
133.044800 39082.300000
134.052300 27012.300000
140.990200 16438.300000
141.998000 15199.900000
149.015300 450504.100000
150.023100 188475.800000
155.996700 24516.500000
158.976300 12277606.000000
176.966900 235974.600000
182.976100 15005.700000

>ms2peaks
51.004100 136357.300000
61.007300 13218.400000
62.015100 82059.600000
63.022900 352894.900000
64.030700 14700.100000
65.038600 37931.200000
70.040000 3067899.500000
71.976000 4583.100000
72.983900 1190185.600000
74.999500 59692.300000
76.030700 6822.800000
79.017900 5168.300000
82.945000 53988.400000
83.029100 5202.600000
87.022900 53146.300000
88.030700 198150.800000
89.038600 4333088.000000
90.046400 36765.400000
92.025600 18988.600000
93.033600 24933.500000
95.049100 6673.300000
96.984000 445783.500000
98.999600 1847942.600000
100.007400 22462.300000
103.054200 6625.600000
106.945000 22702.100000
107.029200 67382.400000
108.960700 16256.300000
113.038500 48012.200000
114.046500 77779.900000
115.054200 1587071.400000
116.990100 16486.700000
118.041300 18961.500000
120.020600 38002.400000
122.999600 4289540.500000
124.007500 1437488.100000
125.015500 27060.200000
128.002300 6723.300000
132.057000 47933.700000
132.960600 845101.100000
133.044800 72838.200000
139.005700 4483.900000
140.990300 34174.400000
141.998200 18994.800000
149.015300 142495.800000
155.997200 22768.100000
158.976300 2540021.000000
176.966800 52574.000000

>ms2peaks
51.004100 213282.000000
53.002200 17788.700000
57.013500 14360.500000
61.007300 49077.200000
62.015100 375498.700000
63.022900 1128342.600000
64.030700 31291.400000
65.038600 81304.300000
66.974600 14282.900000
70.040000 1660575.000000
72.983900 2539686.000000
74.015100 22482.600000
74.999600 65193.200000
75.022900 44657.600000
76.030700 6205.300000
79.017800 22244.300000
81.013500 13458.700000
82.945000 211091.100000
83.029100 14346.800000
86.015100 28083.900000
87.023000 140804.800000
88.030800 358420.600000
89.038600 5883458.500000
90.046400 26006.000000
90.974600 13108.400000
95.049100 11570.800000
96.984000 771817.400000
98.999600 1196682.400000
102.046400 18082.800000
106.945000 76044.100000
107.029200 98876.000000
108.960600 21160.200000
113.038600 99434.200000
114.046400 43514.700000
115.054300 1092666.400000
116.990200 10707.200000
118.041300 13383.700000
120.020600 80106.600000
122.999600 1593595.400000
124.007500 349579.000000
132.057000 32019.000000
132.960700 465390.000000
133.044800 78538.400000
149.015200 35487.300000
158.976300 208825.000000

>ms2peaks
50.015000 24226.600000
51.004100 304650.900000
53.002200 30732.100000
57.013500 41127.000000
61.007300 177333.600000
62.015100 1010418.200000
63.022900 2293092.800000
64.030800 34861.100000
65.038600 162780.100000
66.974500 20680.500000
70.040000 822845.800000
71.976100 10327.300000
72.983900 3086161.200000
74.015100 62917.500000
74.999600 36148.100000
75.022900 84041.200000
76.030700 21069.300000
79.017800 56990.200000
81.013500 16412.800000
82.040000 4527.400000
82.945000 291099.700000
83.029200 24436.800000
86.015100 90407.500000
87.023000 199460.900000
88.030800 319927.300000
89.038600 4504824.000000
90.046400 16473.500000
90.974600 15342.200000
95.049200 15834.500000
96.984000 705531.200000
98.999600 511930.800000
102.046400 18932.800000
105.044900 10431.400000
106.945000 84589.400000
107.029200 77093.700000
108.960700 17180.800000
113.038600 80363.100000
114.046400 19245.700000
115.054300 496264.700000
118.041600 4864.700000
120.020600 64785.500000
122.999600 415573.300000
124.007600 45745.400000
132.057000 17475.600000
132.960600 118911.700000
133.044800 46797.500000
158.976400 11853.400000

