>compound EQ94389168
>parentmass 177.1022
>ionization [M+H]+
>formula C10H12N2O
>rt 66.000000
>profile orbitrap
#smiles_iso CN1[C@@H](CCC1=O)C2=CN=CC=C2
#smiles_can CN1C(CCC1=O)C2=CN=CC=C2
#inchikey UIKROCXWUNQSPJ-VIFPVBQESA-N
#pubchem_id 854019
#mb_accession EQ328201,EQ328202,EQ328203,EQ328204,EQ328205,EQ328206,EQ328207,EQ328208,EQ328209

>ms2peaks
80.049400 26030906.000000
98.060000 15471281.000000
146.060100 6095945.500000
149.070800 1255172.500000
177.102300 969470400.000000

>ms2peaks
80.049400 37481348.000000
98.060000 21507454.000000
146.060200 8457588.000000
149.071000 1873170.600000
177.102300 987685952.000000

>ms2peaks
70.065100 2441681.800000
80.049400 252717984.000000
94.065200 726865.500000
98.060100 107815232.000000
106.065100 1117158.800000
118.065100 8085482.000000
119.073000 852067.000000
120.080800 5244991.000000
146.060100 34732808.000000
148.075900 1153506.500000
149.071000 6833069.000000
159.091700 2580946.200000
160.075500 1037465.700000
177.102300 632128320.000000

>ms2peaks
53.038600 1429554.600000
58.028700 635844.900000
68.049500 1878782.500000
70.065100 9282109.000000
80.049500 427761568.000000
91.054400 943505.800000
94.065200 1381884.000000
96.044400 578635.000000
98.060100 146559008.000000
106.065100 1674042.000000
117.057300 848436.200000
118.065200 13494818.000000
119.073000 722088.600000
120.080800 9087161.000000
132.080700 569548.200000
134.060100 814100.200000
135.091700 721196.600000
146.060100 29962478.000000
148.075900 908242.400000
149.071000 5635073.000000
149.107400 532754.300000
159.091700 2849103.500000
160.075900 525041.400000
177.102400 185240688.000000

>ms2peaks
53.038600 3127631.800000
58.028800 949633.500000
68.049500 4157483.500000
70.065200 22939782.000000
78.033800 742155.700000
80.049500 525163008.000000
91.054300 3410000.500000
92.049600 1074788.600000
94.065100 1111021.800000
96.044500 1534410.800000
98.060100 153460000.000000
103.054200 540906.600000
106.065200 1827743.800000
117.057400 1998666.900000
118.065200 17124176.000000
119.073000 776081.100000
120.080800 11703022.000000
128.049400 586368.600000
132.080800 980954.000000
134.060200 615497.200000
144.068300 830958.800000
146.060100 18463842.000000
149.071000 3598924.000000
159.091700 1883726.100000
177.102400 42648856.000000

>ms2peaks
51.022900 505672.600000
53.002300 700087.200000
53.038600 7628402.000000
56.049500 558371.400000
58.028700 770814.400000
65.038600 512246.100000
68.049500 4100761.000000
69.033500 1255661.100000
70.065100 34481776.000000
78.033800 1127311.600000
79.041600 484199.600000
80.049400 481823200.000000
91.054300 5437050.000000
92.049600 1418703.900000
93.057300 668866.600000
94.065200 957667.000000
96.044400 3365165.200000
98.060100 110966888.000000
106.065200 2018749.800000
110.060100 705284.100000
117.057300 4014467.800000
118.065100 13447050.000000
120.080800 7496601.500000
128.049400 513424.600000
130.065100 737630.800000
134.060100 583289.400000
144.068200 715708.100000
146.060100 6317386.000000
149.071000 1547621.200000
159.091700 573905.000000
177.102200 5256892.500000

>ms2peaks
51.023000 995949.600000
53.038600 24015988.000000
55.041700 498883.400000
58.028800 546238.000000
65.038600 2191860.000000
68.049500 4406736.000000
69.033400 1003864.900000
70.065200 35691564.000000
78.033900 2650432.000000
79.041600 1182607.900000
79.054300 451395.800000
80.049500 354456320.000000
90.046400 470161.900000
91.054300 6956424.500000
92.049600 1068742.200000
93.057300 1218169.500000
94.065100 496448.600000
95.049100 471161.900000
96.044400 8301812.000000
98.060100 37664124.000000
103.054300 548014.500000
105.044700 503183.100000
106.065200 1587781.000000
110.060200 895267.200000
117.057400 5272046.500000
118.065200 5380445.500000
120.080900 2097242.200000
146.060000 796156.600000

>ms2peaks
50.015200 1159968.600000
51.023000 3468077.000000
53.038600 48869880.000000
54.033900 1297946.900000
55.017900 562072.400000
55.041700 921812.900000
58.028800 593432.200000
65.038700 3796075.800000
68.049500 2711374.500000
69.033600 880745.400000
70.065200 22006562.000000
77.038600 527371.000000
78.033900 4457460.000000
79.041700 2053023.800000
80.049500 231679056.000000
89.038600 1102582.400000
90.046400 1489363.500000
91.054300 4860763.500000
92.049600 1000661.200000
93.057400 1181262.200000
95.049300 1173376.200000
96.044500 11445177.000000
98.060100 8612608.000000
104.049500 448899.700000
105.044800 549745.300000
106.065200 685260.500000
110.060300 259544.300000
117.057400 4879711.000000
118.065200 2534449.800000

>ms2peaks
50.015200 1985425.500000
51.023000 6513736.500000
52.030900 721895.600000
53.038600 45053388.000000
53.997500 135480.900000
54.033900 2520435.000000
55.017900 579770.200000
55.041700 1273036.900000
56.049400 128083.500000
58.028800 406999.800000
65.038600 2837096.200000
66.046400 134012.500000
67.041700 391201.200000
68.049500 1795653.600000
69.033600 486906.400000
70.065100 7096012.500000
77.038600 500047.400000
78.033900 3758228.800000
79.041700 2014444.200000
80.049500 98861560.000000
83.036500 111667.200000
89.038600 2247008.000000
90.046400 1275855.100000
91.054300 2317271.000000
92.049600 527647.100000
93.057300 927028.900000
95.049100 534058.900000
96.044400 9222157.000000
98.060100 1293226.400000
104.049400 198248.600000
105.044700 443120.700000
106.065200 188711.400000
117.057400 2259340.500000
118.065200 1150898.200000

