>compound EQ95807608
>parentmass 311.0171
>ionization [M+H]+
>formula C10H15O5PS2
>rt 468.000000
>profile orbitrap
#smiles_iso CC1=C(C=CC(=C1)OP(=S)(OC)OC)S(=O)(=O)C
#smiles_can CC1=C(C=CC(=C1)OP(=S)(OC)OC)S(=O)(=O)C
#inchikey ZDHYERRNXRANLI-UHFFFAOYSA-N
#pubchem_id 19578
#mb_accession EQ359901,EQ359902,EQ359903,EQ359904,EQ359905,EQ359906,EQ359907,EQ359908,EQ359909

>ms2
91.054000 1100513.000000
109.004900 1191994.000000
124.981900 26278166.000000
127.015400 4108856.500000
137.041900 11764892.000000
142.992600 21253614.000000
154.998100 822377.400000
185.008700 955876.500000
201.058000 943388.100000
217.035100 6845735.500000
217.062500 2236939.800000
232.031600 10562471.000000
233.039600 12505816.000000
247.055200 2924462.000000
248.026700 896146.900000
278.990700 11909360.000000
297.001500 13050794.000000
311.016800 762730944.000000

>ms2
62.018400 430252.400000
77.038300 151821.800000
78.994200 3533134.200000
79.054100 930216.200000
91.054100 5871034.000000
93.010000 392733.000000
94.961800 188723.400000
104.062000 9584880.000000
105.069800 19616234.000000
107.049000 759635.900000
109.004600 3922552.800000
110.966100 386464.900000
121.010600 343098.900000
121.064700 982710.600000
122.018400 512562.100000
122.072500 817653.200000
123.026200 3428186.500000
123.044200 483971.700000
124.034000 730937.100000
124.982000 113407712.000000
127.015400 78247632.000000
135.025600 271428.500000
136.034100 4264163.000000
136.051800 647767.100000
137.041900 67760096.000000
138.049600 1803505.600000
139.015600 451828.900000
139.021100 6432218.000000
141.030900 401114.800000
142.992600 106123072.000000
151.020800 175216.400000
152.982700 443336.000000
153.036700 177882.900000
154.044600 478043.100000
154.998200 3055842.200000
157.008300 3490254.500000
166.998300 616612.900000
168.006000 516679.700000
168.986900 595252.900000
169.031700 663681.400000
169.985300 1511458.200000
185.008900 2388784.800000
185.026800 571602.400000
185.036200 2547556.200000
197.037800 1006620.400000
199.051800 3901200.800000
200.005400 27125014.000000
201.003800 2433600.000000
201.013300 7993874.000000
201.057900 4944617.500000
202.992600 589489.100000
215.029300 800724.700000
215.046900 563518.600000
216.000500 3326378.800000
217.008300 2439184.200000
217.035100 41874784.000000
217.062400 6582673.500000
219.023900 4422510.500000
230.969900 1328100.600000
231.023700 834864.900000
232.031700 56392536.000000
233.039500 50457416.000000
234.964600 164383.500000
246.964600 7767388.500000
247.055100 12622573.000000
248.026600 865103.500000
248.980200 6412395.500000
264.974800 2209445.000000
278.990800 51780312.000000
297.001400 95232424.000000
311.016900 150884768.000000

>ms2
58.994900 143265.900000
62.018400 2979661.500000
62.989900 275106.300000
65.038500 2407989.000000
67.054200 1090067.200000
77.038500 455731.600000
78.013400 360712.300000
78.046300 1640930.000000
78.994300 26126684.000000
79.054200 2715773.000000
80.061900 332120.500000
85.010600 331464.800000
89.038500 324888.600000
90.046400 148614.700000
91.054200 8370814.500000
92.062000 1971437.200000
93.010000 642431.200000
93.033500 1863171.400000
93.069900 1386713.800000
94.041300 1144690.600000
94.962000 680967.900000
95.049100 912788.500000
97.004900 333722.700000
97.010700 409577.100000
99.026300 438412.300000
103.054200 1268631.000000
104.062000 16791964.000000
105.069900 29472064.000000
106.041300 285359.800000
107.049000 2275310.000000
108.056800 313161.200000
109.004800 3836561.000000
109.010400 689922.900000
109.064600 690315.400000
110.018300 312984.200000
110.966200 319257.600000
111.026300 888009.200000
119.049200 499690.900000
119.060400 489034.200000
119.085500 364212.500000
120.056900 469777.000000
121.010500 1125411.600000
121.028300 952964.900000
121.064800 4123133.200000
122.018400 3248869.500000
122.036200 2279192.500000
122.072600 2235209.800000
123.026300 9675567.000000
123.044000 1670502.600000
124.034100 1668294.100000
124.982100 102072864.000000
126.013500 339697.100000
127.015400 133524320.000000
134.018400 179851.400000
135.026200 1121496.900000
136.034100 6278241.000000
136.051800 729101.600000
137.041900 33528896.000000
138.013400 1964414.800000
138.049700 5762925.500000
139.021200 42813196.000000
141.031100 521793.500000
141.036800 310423.700000
142.992600 112729928.000000
152.029200 432232.700000
152.982700 857861.500000
152.992300 383852.900000
153.036800 467736.600000
154.007900 724193.900000
154.044600 389216.900000
154.998200 553824.100000
155.026300 166807.000000
157.008200 4135311.200000
166.998500 502889.800000
167.025800 418571.100000
167.979200 4888827.000000
168.006000 329276.100000
168.987100 8517813.000000
169.031300 870788.600000
169.985700 1022499.200000
169.994900 6554448.000000
170.993300 339429.700000
173.036100 782073.900000
181.994700 704003.300000
182.966500 290984.900000
183.974200 442492.900000
184.981900 745074.900000
185.026700 1769981.000000
185.036200 3829171.800000
185.989800 927722.300000
186.997700 1307383.000000
187.042300 1964042.600000
187.051000 237252.100000
197.037900 8447199.000000
199.051800 4530000.500000
200.005500 56546056.000000
200.977500 599783.000000
201.003800 4577960.000000
201.013400 9392898.000000
201.058000 2978702.000000
202.992500 1781396.100000
214.992800 442439.800000
215.029300 660124.800000
215.046700 327124.900000
216.000600 3143911.000000
216.027500 1403994.900000
216.954100 1200568.500000
217.008300 1607032.600000
217.035200 16577755.000000
217.062400 1609017.500000
218.016100 339335.900000
219.023900 7069082.000000
230.969700 2442590.500000
231.023800 964772.300000
232.031700 8887417.000000
233.039500 9615187.000000
234.964700 467935.900000
246.964700 27206840.000000
247.055000 2169170.000000
248.980200 1810624.600000
264.975100 5194170.500000
278.990800 25001562.000000
297.001400 19088152.000000
311.017000 2755646.500000

>ms2
51.022800 129794.900000
53.038500 635170.900000
55.017800 139725.700000
58.995000 536991.800000
59.966400 375883.100000
61.010700 138745.800000
62.018400 6127163.500000
62.945200 810858.600000
62.989900 901528.000000
65.038500 8146956.000000
66.046400 1163056.100000
67.054200 2755608.800000
70.994900 143785.400000
74.989700 138735.000000
77.038500 1913300.000000
78.013400 937687.000000
78.046300 4904111.500000
78.994300 64188816.000000
79.054200 6411366.000000
81.009900 114570.100000
81.033400 132006.900000
84.002900 152937.800000
85.010600 469438.400000
89.038600 408079.100000
90.046400 542875.200000
91.054200 12196828.000000
92.062000 3752284.500000
93.010000 1841727.500000
93.033500 3823212.500000
93.069800 2455663.200000
94.041300 4918530.000000
94.962000 422992.900000
94.971500 336528.600000
95.049100 3773785.500000
97.004900 1327512.500000
97.010600 1856726.600000
98.018300 644994.200000
99.026300 661084.800000
103.054200 3211843.500000
104.062000 10139003.000000
105.033500 2112488.200000
105.044800 1265835.800000
105.069900 23515514.000000
106.041300 1030147.100000
107.049100 3993487.800000
108.002600 306409.500000
108.056700 758988.900000
109.004900 2966236.500000
109.010600 2290126.000000
109.064700 932978.100000
110.018400 1363495.100000
110.966400 458637.900000
111.026300 4492140.000000
112.999800 128679.500000
119.049100 731489.400000
119.060300 515072.300000
120.056800 682148.100000
121.010600 3581776.500000
121.028400 1329310.600000
121.064800 5143037.000000
122.018500 4415883.500000
122.036200 2995551.000000
122.072600 1848385.100000
123.026300 11611122.000000
123.043900 2636488.200000
124.034100 2685934.800000
124.982100 62667496.000000
126.013300 1056120.100000
127.015400 113797992.000000
128.976800 183536.400000
135.026200 2804307.000000
135.997800 752280.500000
136.034100 3959808.000000
137.005500 2005888.100000
137.041900 14318937.000000
138.013300 2764480.000000
138.049700 2922466.000000
139.021200 52905124.000000
139.984400 847569.600000
141.031000 624515.400000
141.036800 490103.300000
142.992600 78520784.000000
151.021200 295634.200000
151.984200 767720.100000
152.028900 654329.000000
152.982700 782247.400000
152.992300 453711.700000
153.010000 414920.800000
153.036800 457955.500000
154.008200 1248222.800000
154.044900 367679.800000
154.971600 964702.100000
155.016200 351421.100000
155.025600 513090.800000
157.008300 2824266.500000
165.990400 283533.300000
166.998500 182030.400000
167.025500 527621.600000
167.979300 13884661.000000
168.987100 25351984.000000
169.994900 14385360.000000
170.993300 180531.100000
173.036100 1020254.300000
181.995000 737603.600000
182.966400 2242866.500000
183.974200 1364183.600000
184.982000 1245877.200000
185.026700 1413941.600000
185.036300 899017.900000
185.989800 1117483.200000
186.997600 1742938.800000
187.042200 618900.600000
187.051300 150908.400000
197.037800 2357039.000000
198.943600 595122.100000
199.051700 1199205.000000
200.005500 16592086.000000
200.977100 602056.000000
201.003700 2031012.600000
201.013300 1962297.500000
201.058000 737755.700000
202.992500 2002061.800000
214.992700 183568.200000
216.000600 1014243.000000
216.027400 1849591.500000
216.954200 765175.500000
217.007900 549942.900000
217.035200 2770500.800000
217.062600 155235.100000
218.016500 173388.300000
219.024000 2424223.200000
230.970000 583031.900000
231.023800 422081.600000
232.031300 311119.000000
233.039600 465040.900000
246.964700 11362859.000000
247.018800 976310.100000
248.980400 162293.500000
264.974900 1219408.100000
278.991000 2091669.500000
297.000900 554046.400000

>ms2
50.015100 279793.900000
51.022800 497432.700000
53.002200 97267.700000
53.038600 1619279.600000
55.017800 649000.100000
55.054200 156992.500000
58.995000 658897.900000
59.966400 863904.600000
61.010600 419428.100000
62.018400 7442028.000000
62.945200 3035109.200000
62.989900 1529298.200000
62.999400 358160.800000
63.022800 287669.500000
65.038600 14661870.000000
66.046400 3680075.000000
67.054200 6014033.000000
68.979200 114248.600000
70.995000 587049.100000
73.010500 160332.200000
74.989700 109881.200000
77.038500 4388667.000000
78.013400 1089493.400000
78.046400 9202051.000000
78.994300 83813664.000000
79.054200 8864915.000000
80.061900 171582.300000
81.009900 94427.100000
81.033400 394229.700000
84.002800 566827.700000
85.010500 652932.700000
89.038500 1386689.200000
90.046400 987567.600000
91.054200 18205662.000000
92.062000 3727490.000000
93.010000 3286528.200000
93.033500 3622264.800000
93.069900 2471829.500000
94.041300 8434220.000000
94.971400 590215.000000
95.049100 10814934.000000
97.004900 2235951.200000
97.010600 3545870.800000
98.018500 908406.900000
98.984100 412080.700000
99.026300 503886.200000
103.054200 5632664.000000
104.062000 4614116.000000
105.033400 2492916.000000
105.044700 3850805.800000
105.069900 17005300.000000
106.041200 936017.400000
107.004400 324393.100000
107.049100 4586964.000000
108.002700 1205539.500000
108.056800 1142266.500000
109.005000 1187293.400000
109.010600 3179049.200000
109.064700 730613.700000
110.018400 2137197.200000
111.026200 9340538.000000
112.999600 376127.800000
113.014900 120203.200000
119.049200 705051.100000
119.060300 601698.600000
120.056800 311626.600000
121.010600 7326736.500000
121.028300 995487.300000
121.064700 3094185.200000
122.018400 4642598.000000
122.036200 1077904.500000
122.072600 578282.400000
123.026200 9396159.000000
123.044000 2106448.000000
124.034100 1917556.100000
124.982100 28814722.000000
126.013400 731151.000000
127.015400 69919336.000000
128.976900 629589.900000
134.018300 282187.600000
135.026200 3367877.800000
135.997800 755343.400000
136.007200 318769.600000
136.034100 1042781.100000
137.005500 3804682.000000
137.014700 1050426.800000
137.041900 4831234.000000
138.013400 2086510.000000
138.049700 1003081.300000
139.021200 35918172.000000
139.984300 2959211.500000
141.031400 237497.800000
141.036800 267404.800000
142.992600 42389944.000000
151.020900 148897.000000
151.984400 2043497.500000
152.001900 106399.300000
152.029000 384990.300000
152.982800 491726.400000
152.992200 338889.900000
153.000400 136763.300000
153.010000 424917.900000
153.036800 350248.400000
154.008000 855177.500000
154.971400 2340277.800000
155.025300 166333.100000
157.008300 965667.900000
159.020600 130287.900000
166.971500 124731.100000
166.998300 90648.900000
167.025600 375608.000000
167.979300 14110158.000000
168.987100 30505790.000000
169.994900 7312071.000000
170.948600 157564.700000
170.993200 91265.100000
172.981900 96432.900000
173.036100 412764.700000
181.994900 261664.200000
182.966400 2352509.000000
183.974100 635778.000000
184.981900 1389697.800000
185.026800 358416.600000
185.035500 223106.200000
185.989900 651731.600000
186.997400 898174.200000
197.038100 163660.500000
198.943500 570828.800000
199.051400 101939.700000
200.005400 1741403.900000
200.976900 330595.700000
201.003800 359596.900000
201.984800 149662.100000
202.992600 1298802.900000
216.027200 716933.500000
217.007900 242471.000000
217.034700 140838.300000
218.015700 91102.300000
219.023700 274927.700000
246.964700 1649099.600000
247.018800 164407.200000

>ms2
50.015000 675582.800000
51.022900 692761.400000
52.030800 68173.900000
53.002200 284340.200000
53.038600 2548532.200000
55.017800 1135569.100000
55.054200 252105.600000
57.987100 259606.900000
58.995000 620518.200000
59.966400 1313395.900000
61.010600 122661.800000
62.018500 5390214.500000
62.945300 4828264.000000
62.989900 2067526.500000
62.999400 1428814.200000
63.022800 639976.200000
63.943500 92738.800000
65.038600 16451728.000000
66.046400 5441338.000000
67.054200 7954167.500000
67.989200 79327.700000
68.979300 388469.700000
70.995000 1104068.800000
73.010500 120245.900000
74.989900 102173.800000
77.038500 6780374.000000
78.013400 552839.100000
78.046400 10480148.000000
78.994300 64036556.000000
79.054200 9499389.000000
80.062100 237098.200000
81.010000 324972.400000
81.033500 394455.200000
81.987100 146759.600000
82.994900 123132.800000
84.002800 862417.400000
84.974200 365109.000000
85.010600 667148.200000
89.038500 3057206.500000
90.046500 970261.400000
91.054200 19259746.000000
92.062000 2594784.500000
93.010000 3629868.000000
93.033500 1644568.200000
93.069800 1542847.100000
94.041300 7682804.000000
95.049100 14874868.000000
96.002800 134069.100000
96.012300 89940.100000
97.005000 1945289.600000
97.010600 3575850.800000
98.018400 671485.600000
98.984100 471348.800000
99.026400 249432.700000
102.046300 90555.100000
103.054200 5560926.500000
104.062000 2074189.200000
105.033500 2428655.800000
105.044700 5685003.500000
105.069900 8239134.500000
106.041300 993680.500000
107.004500 1175235.600000
107.012600 376028.800000
107.049100 4121572.200000
108.002800 1535400.500000
108.012200 302627.300000
108.056900 775758.500000
109.004700 289622.800000
109.010600 3652021.000000
109.064800 374865.200000
110.018500 1774041.900000
110.989900 335816.700000
111.026300 6543996.500000
112.999700 154488.200000
113.015200 68986.600000
119.049300 527215.600000
119.060600 111467.700000
121.010600 10072467.000000
121.028300 838470.400000
121.064700 1358661.400000
122.018500 3728737.800000
122.036200 344506.800000
123.026300 5423402.500000
123.044100 568238.900000
123.997800 111869.000000
124.034100 1161821.900000
124.982100 9791161.000000
126.013500 451568.800000
127.015400 30300980.000000
128.976900 810789.600000
134.018400 310650.900000
135.026200 2996251.200000
135.997500 236402.000000
136.007500 123443.200000
136.034000 262732.200000
137.005600 3531212.200000
137.014500 809368.100000
137.041900 1085989.600000
138.013300 840023.800000
138.049600 135680.700000
138.976600 1164325.900000
139.021200 12063919.000000
139.984300 3815593.800000
141.031100 75236.300000
142.992600 15627410.000000
151.984400 1606201.100000
152.029100 93711.500000
152.982700 110998.900000
152.992400 326243.600000
153.000300 141684.600000
153.009900 413754.700000
154.008300 275389.600000
154.971500 2527329.500000
157.008300 333200.200000
159.020100 70299.700000
166.971800 121837.500000
167.025500 127787.500000
167.979300 6784167.500000
168.987100 21741932.000000
169.995000 1242726.400000
170.948400 73059.500000
172.982100 94185.600000
182.966500 858076.200000
183.973900 113328.000000
184.982100 457164.300000
185.989800 387204.200000
186.997600 158132.900000
198.943800 115713.300000
200.005600 97146.200000
202.992300 641672.500000
216.027200 77616.400000

>ms2
50.015100 3021696.200000
51.022900 3675237.200000
52.030700 408405.100000
53.002200 714977.400000
53.038600 5203078.500000
53.997400 80081.700000
55.017800 1758901.600000
55.054200 243436.300000
56.979400 82664.100000
57.987200 590622.200000
58.995000 824124.900000
59.966400 1829596.000000
61.010600 150869.000000
62.015100 435397.200000
62.018400 2390165.200000
62.945300 8564727.000000
62.989900 1734912.000000
62.999400 3234427.500000
63.022900 3236784.800000
63.943600 147725.000000
64.030700 743872.100000
65.038600 20165730.000000
66.046400 7883994.500000
67.054200 6881631.000000
67.989200 89659.200000
68.979300 1891328.900000
69.987200 307914.700000
70.994900 2617550.200000
76.030700 267611.200000
77.038500 9240958.000000
78.046400 12526937.000000
78.994300 29210394.000000
79.054200 7741686.000000
79.947900 133435.200000
80.061900 119407.900000
81.010000 569078.600000
81.033500 600337.800000
81.987200 621731.200000
82.994900 399911.900000
84.002800 975524.800000
84.974200 463457.000000
85.010500 555719.600000
89.038500 7838123.500000
90.046500 734510.800000
91.054200 16910532.000000
92.062000 533276.100000
93.010000 2904523.200000
93.033600 663885.200000
93.069900 238702.300000
94.041300 3455388.500000
95.049100 15849214.000000
96.002700 734058.600000
96.012400 482107.400000
97.005100 1061443.500000
97.010600 4993174.500000
98.018500 280444.400000
98.984100 263757.300000
102.046400 301915.300000
103.054200 4449602.000000
104.061900 452975.200000
105.033500 1223502.400000
105.044700 8448613.000000
105.069900 1496405.200000
106.041300 457648.300000
107.004500 1395907.900000
107.049100 1850217.500000
108.002800 1939513.200000
109.010600 3726711.500000
109.020100 372720.218800
110.018400 700659.700000
110.989900 245516.100000
111.020500 327724.000000
111.026200 1136000.100000
112.999800 65736.700000
113.015100 79049.100000
119.049100 261826.500000
119.060300 95709.100000
121.010600 13799343.000000
122.018400 4359275.000000
123.026200 1361898.200000
123.997700 280193.200000
124.982000 860493.600000
125.005600 140320.900000
127.015400 3815209.500000
128.976900 412883.700000
134.018500 510039.800000
135.026200 1864356.800000
136.007200 117656.500000
137.005500 1915674.200000
137.014900 254166.600000
138.013700 118616.100000
138.976500 1818957.600000
139.021200 798130.600000
139.984300 998310.400000
142.992600 1757602.800000
151.984500 426807.000000
153.010300 88537.200000
154.971500 936457.200000
167.979300 729893.600000
168.987100 6645005.500000

>ms2
50.015100 5616967.000000
51.022900 8673412.000000
52.030800 890122.200000
53.002200 1538889.400000
53.038600 4330497.500000
53.997400 270657.900000
55.017800 1639555.800000
56.988800 112399.200000
57.987100 1023077.000000
58.995000 981881.900000
59.966400 2147168.000000
61.007200 389715.400000
61.010700 70881.600000
62.015100 1468955.800000
62.018500 794067.600000
62.945300 7707996.000000
62.989900 1128748.000000
62.999400 3027019.000000
63.022900 8692771.000000
63.943500 73587.500000
64.030700 1137827.200000
65.038600 17052346.000000
66.046400 4770973.500000
67.054200 2295608.000000
67.989200 103541.900000
68.979300 4056094.000000
68.988800 251806.700000
69.987100 702864.400000
70.995000 2189667.000000
74.015000 265051.700000
75.022900 438162.800000
76.030700 281423.900000
77.038500 6921930.500000
78.046400 8684359.000000
78.994300 8322207.500000
79.017800 487767.300000
79.054200 2633471.200000
79.948000 364410.800000
81.009900 347534.400000
81.033600 636111.100000
81.069900 67082.900000
81.987100 651854.800000
82.994900 302007.200000
84.002700 676725.600000
84.974300 108903.300000
85.010600 380880.100000
89.038500 9105671.000000
90.046500 304983.700000
91.054200 9846207.000000
92.061900 59669.300000
92.979200 139211.300000
93.010000 1374657.900000
93.033500 125534.900000
94.041300 970374.300000
94.995000 640885.800000
95.049100 11013493.000000
96.002800 359576.900000
96.012300 355004.200000
97.005100 510160.300000
97.010600 2931160.200000
98.984100 314475.800000
102.046400 137807.200000
103.054200 1369950.600000
105.033500 587636.400000
105.044700 6934527.000000
106.041500 120030.100000
107.004400 811147.200000
107.012700 65570.200000
107.049100 874317.700000
108.002800 1153076.600000
108.012600 65572.400000
109.010600 1757715.900000
110.018500 125430.000000
110.989800 95842.800000
111.020500 110123.100000
111.026300 61105.500000
121.010600 11328410.000000
122.018400 1170559.000000
123.026200 74446.600000
123.997700 126943.400000
125.005500 119652.100000
127.015400 272053.500000
134.018400 313528.600000
135.026200 348288.000000
136.007500 97950.100000
137.005400 409569.600000
138.976600 986432.300000
154.971100 79654.300000
167.978700 64476.900000
168.987100 636179.900000
278.990900 56916.800000

>ms2
50.015100 7316095.500000
51.022900 12385444.000000
52.030800 1284336.600000
53.002200 1752632.600000
53.038600 3104980.200000
53.997400 221244.400000
55.017800 791436.200000
56.979400 107337.600000
56.988900 269736.700000
57.987200 838586.800000
58.995000 832682.800000
59.966400 2093985.100000
61.007300 721005.100000
61.010600 66226.600000
62.015100 3427640.200000
62.018500 226792.800000
62.945300 6680971.500000
62.999400 1661348.100000
63.022900 14495335.000000
63.943600 87788.800000
64.030700 921970.100000
65.002100 680833.750000
65.038600 11913733.000000
66.046400 1984058.900000
67.054200 630414.900000
67.989300 127092.100000
68.979300 5575227.500000
68.988800 382222.600000
69.987200 598344.600000
70.994900 1474329.800000
74.015000 536788.200000
75.022900 494496.500000
76.030600 295495.700000
77.038500 5049679.500000
78.046400 4188093.200000
78.994300 2335125.500000
79.017700 265956.100000
79.054100 951648.800000
79.947900 245912.800000
80.988800 232740.453100
81.010000 116809.400000
81.033400 271617.400000
81.987100 679233.500000
82.994900 224223.900000
84.002800 370565.000000
84.974200 68034.800000
89.038500 7613721.000000
90.046400 136489.800000
91.054200 3584644.500000
92.979300 390452.100000
93.009900 236134.100000
93.033400 57891.200000
94.041200 219458.700000
94.994900 586766.900000
95.049100 6273275.500000
96.002800 271284.500000
97.010600 1585037.400000
98.984100 367471.000000
102.046200 54761.800000
103.054100 299813.700000
105.044700 4256825.500000
107.004500 593586.100000
107.049000 264450.500000
108.002700 544803.000000
109.010500 660124.900000
121.010600 5920028.500000
122.018500 94512.100000
134.018600 131090.300000
137.005400 101503.600000
138.976400 112855.500000

