>compound EQ96477464
>parentmass 89.0709
>ionization [M+H]+
>formula C3H8N2O
>rt 138.000000
>profile orbitrap
#smiles_iso CCN(C)N=O
#smiles_can CCN(C)N=O
#inchikey RTDCJKARQCRONF-UHFFFAOYSA-N
#pubchem_id 25418
#mb_accession EQ344901,EQ344902,EQ344903,EQ344904,EQ344905,EQ344906

>ms2peaks
61.039600 13475552.000000
72.044400 1047384.900000
89.070900 8068568.000000

>ms2peaks
61.039600 13840867.000000
72.044400 1325673.900000
89.070900 8187585.000000

>ms2peaks
61.039600 13063961.000000
72.044400 1119929.800000
89.070900 7867388.000000

>ms2peaks
61.039600 12675281.000000
72.044400 1192757.400000
89.070900 6127481.500000

>ms2peaks
61.039600 10218962.000000
72.044400 1240850.600000
89.070900 2087724.500000

>ms2peaks
56.013100 19019.000000
61.039700 6980327.500000
72.044400 944896.800000
89.070900 727433.800000

