>compound EQ97664566
>parentmass 134.07130000000004
>ionization [M+H]+
>formula C7H7N3
>rt 348.000000
>profile orbitrap
#smiles_iso CC1=CC=CC2=NNN=C12
#smiles_can CC1=CC=CC2=NNN=C12
#inchikey CMGDVUCDZOBDNL-UHFFFAOYSA-N
#pubchem_id 122499
#mb_accession EQ279101,EQ279102,EQ279103,EQ279104,EQ279105,EQ279106,EQ279107,EQ279108,EQ279109

>ms2peaks
53.038500 2473533.000000
77.038300 7015631.000000
79.054200 64242100.000000
95.049100 6710116.000000
105.044900 3158259.500000
106.065100 45786468.000000
134.071200 1774385920.000000

>ms2peaks
53.038500 2177554.000000
77.038300 6109678.000000
79.054200 57892444.000000
95.049100 5786814.500000
105.044800 2793350.000000
106.065100 39583192.000000
134.071200 1677492736.000000

>ms2peaks
53.038600 4538116.500000
77.038400 13307280.000000
78.033700 1761080.000000
79.054200 137498864.000000
80.049400 2618561.000000
95.049200 15983518.000000
96.044400 3441231.200000
105.044800 7994527.500000
106.065100 75696040.000000
134.071200 1495008512.000000

>ms2peaks
50.015100 1142816.400000
51.022900 1318833.100000
53.038600 18116106.000000
55.017900 1163244.100000
65.038500 2129987.800000
66.033800 1000192.200000
66.046400 4888198.000000
67.041700 2825378.500000
77.038500 48469220.000000
78.033800 5323504.000000
78.046400 3034574.000000
79.054200 340306848.000000
80.049400 8672447.000000
81.033400 2222171.200000
89.038500 3732372.500000
91.041600 1118555.100000
94.041400 1234870.800000
95.049100 71134016.000000
96.044400 8919525.000000
104.049400 2316924.500000
105.044800 34983376.000000
106.065100 137884272.000000
134.071200 979496256.000000

>ms2peaks
50.015100 3021074.200000
51.022800 3246136.500000
53.038600 40375264.000000
54.033800 1178943.600000
55.017900 2627823.800000
63.022900 1018489.000000
65.038500 4026780.500000
66.033900 1795633.600000
66.046400 9760665.000000
67.041600 7968459.500000
77.038500 113645488.000000
78.033800 10000030.000000
78.046400 4677866.000000
79.054200 422342688.000000
80.049400 13516928.000000
81.033500 5071907.000000
89.038600 7140343.000000
91.041700 3101141.800000
94.041400 2013517.900000
95.049100 159842496.000000
96.044400 14574545.000000
104.049500 2460572.800000
105.044700 80485576.000000
106.065100 127296472.000000
134.071200 460784800.000000

>ms2peaks
50.015100 7036820.000000
51.022900 7587184.500000
53.038600 59943044.000000
54.033800 2123714.200000
55.017900 3858073.000000
56.049500 513032.100000
63.022900 2047769.500000
65.038600 8809374.000000
66.033800 2617677.200000
66.046400 13752376.000000
67.041600 12089145.000000
77.038500 154199696.000000
78.033800 12052346.000000
78.046400 5914077.000000
79.054200 339161056.000000
80.049400 18779444.000000
81.033500 6853655.500000
89.038600 8132264.500000
90.033800 1207538.400000
91.041700 5822327.500000
94.041300 3125224.800000
95.049100 235385408.000000
96.044400 13438473.000000
104.049600 3374687.200000
105.044800 125854288.000000
106.065100 76226400.000000
134.071300 170027920.000000

>ms2peaks
50.015100 26045370.000000
51.023000 32583564.000000
52.018200 765119.800000
53.038600 79612144.000000
53.997400 283198.300000
54.033900 4633613.500000
55.017900 4340397.500000
56.049500 883337.900000
63.022900 8302833.500000
64.018200 401656.000000
64.030700 2099780.000000
65.002200 1170756.600000
65.038600 15207527.000000
66.033800 3992670.800000
66.046400 14177255.000000
67.041700 16769235.000000
77.038500 204859152.000000
78.033800 10821458.000000
78.046400 7861870.000000
79.054200 116986096.000000
80.049400 15233942.000000
81.033500 7227929.500000
89.038600 6185416.000000
90.033900 1171700.600000
91.041700 9138863.000000
92.037100 285149.800000
94.041300 3319695.800000
95.049200 256538800.000000
96.044400 7168937.000000
104.049500 5948255.000000
105.044800 130753864.000000
106.041800 884373.700000
106.065100 15720809.000000
134.071300 15964740.000000

>ms2peaks
50.015100 46675520.000000
51.023000 99729240.000000
52.018200 1569274.000000
52.030800 425704.800000
53.002200 3404208.500000
53.038600 60563280.000000
53.997500 350685.100000
54.033900 4390247.000000
54.046500 408818.000000
55.017900 1915256.800000
56.049500 378048.700000
62.015100 1360260.200000
63.022900 14017857.000000
64.018200 1533562.500000
64.030800 4616431.500000
65.002200 2415683.800000
65.026100 1318639.900000
65.038600 14479293.000000
66.033800 3792558.500000
66.046400 9182522.000000
67.041700 14060944.000000
75.022900 718659.100000
77.038500 144011808.000000
78.033800 5291184.500000
78.046400 7279904.000000
79.054200 25955488.000000
80.049400 7261915.000000
81.033500 5681677.500000
89.038600 3144224.800000
90.033800 1110697.800000
91.041700 7396276.500000
92.037000 438879.000000
94.041300 2769944.500000
95.049200 158254896.000000
96.044400 2111020.200000
104.049500 5561082.500000
105.044800 84369216.000000
106.041700 424718.500000
106.065100 1685268.600000
134.071200 1210705.000000

>ms2peaks
50.015200 61841352.000000
51.023000 150785120.000000
52.018200 3402984.200000
52.030800 1209936.800000
53.002200 5175694.000000
53.038600 33928916.000000
53.997500 991058.900000
54.033800 3781123.500000
54.046500 326808.500000
55.017800 1294043.100000
56.049600 310757.600000
62.015100 3776118.200000
63.022900 20169024.000000
64.018100 1836384.600000
64.030800 3878419.000000
65.002200 5237098.000000
65.026000 1927054.200000
65.038600 9448954.000000
66.033900 2091082.000000
66.046400 3486882.000000
67.041700 7237447.000000
75.022900 1385301.200000
77.038600 68598200.000000
78.033800 2490997.800000
78.046400 4856402.500000
79.054200 5004554.500000
80.049500 4002637.500000
81.033500 2660083.200000
89.038600 1059005.800000
91.041700 3383023.200000
92.037000 206284.100000
94.041400 1071419.600000
95.049200 70794384.000000
96.044300 1226458.900000
104.049500 3467092.500000
105.044800 39097224.000000
106.041600 192695.600000

