>compound EQ98939723
>parentmass 288.1747
>ionization [M+H]+
>formula C21H21N
>rt 450.000000
>profile orbitrap
#smiles_iso CN(CC=CC1=CC=CC=C1)CC2=CC=CC3=CC=CC=C32
#smiles_can CN(CC=CC1=CC=CC=C1)CC2=CC=CC3=CC=CC=C32
#inchikey OZGNYLLQHRPOBR-UHFFFAOYSA-N
#pubchem_id 73342
#mb_accession EQ358101,EQ358102,EQ358103,EQ358104,EQ358105,EQ358106,EQ358107,EQ358108,EQ358109

>ms2
91.054100 1561726.000000
115.053800 3674747.800000
117.069800 664284160.000000
141.069800 167924960.000000
146.096400 6315356.000000
165.069900 3282006.200000
170.096400 43017396.000000
257.132300 3092165.000000
288.174600 444298848.000000

>ms2
91.054200 3022018.500000
115.054100 10777018.000000
117.069800 1041123520.000000
141.069800 371254848.000000
146.096400 5450931.000000
165.069900 1572863.100000
170.096400 23962740.000000
257.132500 1834967.500000
288.174600 13024508.000000

>ms2
63.022800 1024028.100000
91.054200 11835491.000000
115.054300 52586204.000000
116.062000 1232732.500000
117.069800 965560512.000000
141.069800 444551584.000000
146.096500 2868937.200000
170.096400 10390253.000000

>ms2
51.022800 814254.600000
63.022800 1141497.400000
65.038500 993374.600000
91.054200 50223144.000000
115.054200 189340288.000000
116.062100 4535848.500000
117.069800 764206976.000000
141.069800 474149760.000000
146.096300 957351.600000
170.096300 3374851.500000

>ms2
51.022800 677385.900000
65.038500 2307257.500000
89.038500 754093.200000
91.054200 141599952.000000
114.046200 729367.800000
115.054200 401122912.000000
116.062000 9303706.000000
117.069800 471748544.000000
133.064800 970115.800000
139.053900 805585.100000
141.069800 446063264.000000
143.060200 834357.100000

>ms2
50.015000 715939.300000
51.022800 807945.800000
62.014900 691735.700000
63.022700 2086144.800000
65.038500 7786532.000000
78.046400 717192.500000
89.038500 2383504.800000
91.054200 248144192.000000
114.046100 812156.400000
115.054200 588364928.000000
116.062000 16862318.000000
117.069800 233839056.000000
133.064700 903944.400000
139.054100 1609908.500000
140.061700 831570.400000
141.069800 344746624.000000
143.060300 917677.800000

>ms2
51.022800 768782.900000
53.002200 1677877.600000
62.014900 2102355.500000
63.022900 13233464.000000
65.038600 48345320.000000
77.038400 2403233.000000
78.046400 1773373.900000
87.022800 688394.600000
89.038600 19453644.000000
91.054200 350173216.000000
95.049200 1888669.600000
102.046400 4754803.500000
105.044700 1666380.900000
114.046400 1423171.800000
115.054200 683454016.000000
116.062000 13782442.000000
117.069800 32967496.000000
139.054200 6553747.500000
140.062000 1825952.800000
141.069800 82425112.000000

>ms2
50.015100 3684189.000000
51.022800 1674845.000000
53.002200 2907562.000000
53.038600 1339787.800000
53.997400 875767.600000
61.007300 1635448.100000
62.015100 7331252.500000
63.022900 40733040.000000
65.038600 130699592.000000
74.015000 1566393.200000
75.022900 3070476.500000
76.030700 2085243.400000
77.038500 3229955.200000
78.046400 2464520.800000
87.022900 2519458.500000
89.038600 84343360.000000
90.046400 558563.100000
91.054200 257572032.000000
95.049100 3805914.000000
102.046400 8116712.500000
105.044800 2600542.200000
113.038400 1440541.100000
114.046300 2437079.000000
115.054200 506200032.000000
116.062000 6615024.000000
117.069800 3557285.500000
126.046300 987652.400000
132.057200 681694.300000
139.054200 14356474.000000
140.062200 1325792.600000
141.069800 11459822.000000

>ms2
50.015100 10302042.000000
51.022900 5698841.000000
52.030700 316196.500000
53.002200 7267770.000000
53.038600 1439962.800000
53.997500 2234204.200000
61.007200 4721322.000000
62.015100 21874458.000000
63.022900 93348464.000000
64.030700 343074.400000
65.038600 184916416.000000
74.015000 5784212.500000
75.022800 8866220.000000
76.030700 5026021.000000
77.038400 3345638.500000
78.046300 2569382.200000
86.015000 1851511.500000
87.022900 6072873.000000
88.030700 1646089.500000
89.038500 123539992.000000
90.046400 866447.000000
91.054200 125931912.000000
95.049100 2914011.500000
98.015100 326254.100000
102.046400 8529210.000000
105.044700 2555207.500000
113.038500 3939443.500000
114.046400 2586840.500000
115.054200 247087728.000000
116.061900 1874690.000000
118.041200 602339.100000
126.046400 998823.500000
132.056800 1194331.000000
139.054100 14447803.000000
140.061600 260065.600000
141.069800 1005602.900000

