>compound EQ99319899
>parentmass 277.0869
>ionization [M+H]+
>formula C12H18Cl2N2O
>rt 276.000000
>profile orbitrap
#smiles_iso CC(C)(C)NCC(C1=CC(=C(C(=C1)Cl)N)Cl)O
#smiles_can CC(C)(C)NCC(C1=CC(=C(C(=C1)Cl)N)Cl)O
#inchikey STJMRWALKKWQGH-UHFFFAOYSA-N
#pubchem_id 2783
#mb_accession EQ359201,EQ359202,EQ359203,EQ359204,EQ359205,EQ359206,EQ359207,EQ359208,EQ359209

>ms2peaks
57.069900 4192833.800000
168.044000 960550.100000
173.986000 581718.400000
203.013600 249964928.000000
221.024200 1042712.900000
259.076100 351730624.000000
277.086700 159618784.000000

>ms2peaks
57.069800 17454456.000000
131.060300 4909894.000000
132.068100 15281190.000000
167.037000 11692641.000000
168.044800 8375919.500000
173.986700 1066451.800000
203.013500 598462464.000000
221.024300 1663429.600000
259.076200 76329160.000000
277.086800 5856367.500000

>ms2peaks
57.069900 36161056.000000
60.044400 356314.800000
104.049200 348368.800000
131.060400 39666612.000000
132.068100 141087536.000000
140.026000 1908896.000000
151.018300 4153163.000000
167.037000 66004912.000000
168.044800 100664456.000000
169.028900 340532.000000
173.987100 614127.200000
176.003300 637934.300000
185.987100 12860887.000000
203.013600 318422944.000000
221.024300 3061054.800000
259.076200 1018635.400000

>ms2peaks
53.002200 365580.200000
57.069800 39001228.000000
60.044300 621768.200000
104.049200 1473105.400000
131.060400 44431392.000000
132.068100 201431856.000000
133.075900 2973904.200000
140.026000 7833270.500000
141.033900 847580.700000
151.018300 14349841.000000
152.026200 1199915.000000
153.021300 429737.100000
158.976000 350581.900000
160.979300 364202.200000
167.037000 71238352.000000
168.044800 195814736.000000
169.028700 411341.400000
173.987200 1148431.400000
176.003000 846228.700000
185.987100 10020288.000000
189.981900 268908.500000
190.989700 1476260.500000
203.013600 48723492.000000
221.024300 1944453.400000

>ms2peaks
53.002200 292393.700000
57.069800 32164476.000000
60.044300 374382.900000
77.038500 324796.400000
93.057300 394679.000000
104.049400 6507779.000000
105.057200 2304219.800000
106.065100 2020979.500000
113.015000 710490.400000
116.049200 315666.200000
127.018200 345274.200000
131.060300 36133912.000000
132.068100 186588656.000000
133.075900 14735437.000000
134.059700 593122.700000
140.026000 29580748.000000
141.033800 3618322.000000
150.010400 390976.800000
151.018300 19797698.000000
152.026100 3455991.500000
153.021300 1814710.200000
158.976000 473402.500000
160.979100 977776.700000
167.037000 56356636.000000
168.044700 170618624.000000
169.028700 404927.300000
173.987200 2540358.000000
176.002900 401029.000000
185.987000 2562896.800000
189.981600 1063838.600000
190.989600 1661283.600000
203.013700 3072007.200000

>ms2peaks
51.022800 158746.800000
53.002200 382566.100000
57.069900 20542428.000000
60.044300 291151.300000
77.038400 650857.600000
78.046300 433049.100000
79.041600 413071.900000
80.049400 1129476.800000
89.038600 295713.600000
92.049300 488965.300000
93.057300 655902.100000
95.049000 568697.100000
96.044300 154022.400000
104.049400 17171564.000000
105.044800 619363.600000
105.057300 8301612.500000
106.065100 8057920.000000
113.015100 1774803.100000
115.041500 158789.700000
116.049300 1342747.200000
117.057200 1535901.600000
122.999700 303572.200000
124.007400 164190.000000
127.018200 1189425.600000
131.060400 31608674.000000
132.068200 153763200.000000
133.076000 26353514.000000
134.060000 1896686.600000
140.026100 62070568.000000
141.033900 5621431.500000
144.055700 385756.000000
145.968500 434104.100000
150.010500 757914.100000
151.018300 20337986.000000
152.026100 4642440.000000
153.021300 3839145.000000
158.976100 402539.300000
160.979300 2323666.000000
161.987200 294679.500000
166.029400 475533.400000
167.037000 40602192.000000
168.044800 84176560.000000
173.963100 543777.800000
173.987100 4394836.000000
185.987000 377287.500000
189.981800 1193306.600000
190.989500 637731.100000

>ms2peaks
50.015100 461350.500000
51.022800 512222.800000
52.018000 165120.700000
53.002200 644148.100000
53.038600 1802472.800000
53.997400 134093.600000
55.017800 155979.100000
55.054300 88285.200000
57.069900 6582572.000000
60.044400 142037.200000
61.979200 282309.300000
63.022900 826265.800000
65.038500 722498.600000
66.046300 310772.100000
67.041600 510062.100000
67.989200 156322.300000
72.983900 92463.600000
75.022800 735616.500000
77.038400 3455924.500000
78.033700 986054.100000
78.046400 3040796.000000
79.041600 1894992.900000
79.054100 2024743.000000
80.049400 5410572.500000
81.033400 90347.400000
81.057300 534547.800000
88.030700 342375.000000
89.038500 5144819.000000
90.033800 1800116.900000
90.046400 394507.100000
91.041700 748231.500000
92.049400 1986712.400000
93.057300 1627132.800000
95.049100 5157541.500000
96.044300 2336683.200000
98.999600 694956.500000
100.007300 256201.900000
102.033800 425733.800000
103.041600 269520.100000
104.049400 47505560.000000
105.044700 4089652.500000
105.057300 20788632.000000
106.065100 22342708.000000
108.044400 591703.300000
109.052300 104957.900000
110.999500 110852.800000
111.031500 125698.500000
112.007300 107033.700000
113.015200 3614194.500000
114.010500 376969.900000
114.033800 513181.300000
115.041600 1839540.100000
116.049400 4585509.000000
117.044500 420010.000000
117.057200 7162603.000000
118.052500 1076683.100000
120.044300 317625.400000
122.999500 1733632.900000
124.007400 1523127.600000
125.002700 802188.200000
126.010500 1231097.400000
127.018300 2548411.800000
129.010200 237725.800000
130.040000 687474.800000
130.052300 115567.100000
131.060400 35408600.000000
132.068200 70246768.000000
133.076000 11937561.000000
134.059900 4963610.500000
137.047300 215876.100000
138.010600 1187844.000000
139.006000 806341.900000
139.018400 910965.600000
140.026100 81664808.000000
141.033800 2224191.500000
144.055700 1710919.600000
145.968000 637038.300000
150.010400 331111.000000
151.018300 12070438.000000
152.013400 300124.300000
152.026200 1961427.800000
153.021300 5153504.500000
160.979300 2468204.200000
161.987000 168290.400000
166.029400 350087.900000
167.037000 10272724.000000
168.044800 5600385.000000
172.955500 262218.900000
172.966400 124789.800000
173.987200 3095571.200000
189.981900 248091.700000

>ms2peaks
50.015100 2134280.200000
51.022900 2925753.800000
52.018100 286847.100000
52.030700 155179.600000
53.002200 1034000.200000
53.038600 4756977.000000
53.997500 349215.300000
54.033800 149255.000000
55.017800 438793.200000
55.054200 97045.000000
57.069900 1822627.500000
61.007200 110056.800000
61.979200 607914.000000
62.015100 1153185.600000
63.022900 4766303.500000
64.018100 272048.900000
64.030800 268250.700000
65.026000 115268.000000
65.038500 1677221.600000
66.033800 109159.100000
66.046300 639566.300000
67.041600 1355947.800000
67.989200 279623.800000
72.983900 1254937.100000
74.015000 429324.700000
75.022800 3361652.200000
76.018100 632038.100000
76.030700 290689.400000
77.038500 9750729.000000
78.033800 2013029.500000
78.046400 7250934.500000
79.041600 2946792.500000
79.054200 4297933.000000
80.049400 6141062.000000
81.033400 723688.800000
81.057300 368363.300000
86.999600 119365.400000
87.022900 100225.300000
88.030700 1336213.600000
89.038500 13356749.000000
90.033800 4714940.500000
90.046400 1304993.600000
91.041600 1830249.000000
92.049400 1732211.600000
93.057300 1231543.400000
94.041100 221925.800000
95.049100 12581497.000000
96.044300 4299740.500000
96.983900 155840.900000
98.999600 1424532.900000
100.007300 289090.500000
101.002700 138126.800000
102.033800 1024663.300000
103.041700 426733.200000
104.049400 59336916.000000
105.044700 9460665.000000
105.057300 13486019.000000
106.065100 14870222.000000
108.044400 750819.100000
108.984000 149916.500000
109.052100 68516.000000
110.999600 453333.100000
111.031500 472818.200000
112.007300 419361.500000
113.015200 3591222.500000
114.010500 773448.100000
114.033700 1240562.500000
115.041600 1927676.000000
116.049400 4297401.000000
117.057200 7416438.500000
118.052400 1290972.200000
120.044300 283715.600000
122.060000 74245.300000
122.999500 1837103.200000
124.007400 887731.300000
125.002700 870155.200000
125.015400 101817.700000
126.010500 961838.200000
127.018200 2314134.800000
129.010000 238325.700000
129.044300 90822.400000
130.039800 1095586.200000
131.060400 22749356.000000
132.068200 20772398.000000
133.076000 949991.800000
134.059900 2042960.900000
137.047600 60829.200000
138.010500 1212951.200000
139.006000 903753.300000
139.018300 331284.400000
140.026100 34492408.000000
141.033800 103613.200000
144.055600 861260.200000
145.967800 79307.500000
150.010200 121136.200000
151.018300 3367283.500000
152.013300 65884.100000
152.026600 63186.200000
153.021300 1270354.800000
160.979300 821286.900000
166.029100 95719.900000
167.037100 773906.000000
168.044700 95157.900000
172.966500 154515.800000
173.987300 512371.100000

>ms2peaks
50.015100 4841409.000000
51.023000 9473321.000000
52.018200 696189.200000
52.030700 875309.300000
53.002200 1463863.200000
53.038600 6263062.500000
53.997400 350763.000000
54.033900 551229.200000
55.017900 536467.900000
55.054100 79459.200000
57.069900 437260.500000
58.065100 96521.700000
61.007300 405333.500000
61.979200 829382.700000
62.015100 3262536.200000
63.022900 9408491.000000
64.018200 1163887.100000
64.030700 643320.100000
65.026000 287368.100000
65.038600 2314828.000000
66.033800 278848.300000
66.046400 759387.900000
67.041600 1460716.900000
67.989200 290845.200000
72.983900 2482918.800000
74.015100 2044376.500000
75.022900 5574145.000000
76.018100 1455226.800000
76.030700 602407.100000
77.038500 10898622.000000
78.033800 3224259.800000
78.046400 7723123.000000
79.041600 2510567.800000
79.054200 2940663.200000
80.049400 4209037.500000
81.033500 871865.100000
81.057300 76956.400000
86.999700 134761.800000
87.022900 449147.500000
88.018100 536643.875000
88.030800 1453559.900000
89.038600 14384880.000000
90.033800 2816797.500000
90.046400 1774697.100000
91.041700 1763457.900000
92.049500 974407.800000
93.057300 292202.800000
94.041400 281497.500000
95.049100 14884721.000000
96.044400 4276269.000000
96.984000 378713.200000
98.999600 1529759.500000
100.007500 260070.300000
101.002800 125472.600000
102.033800 805547.100000
103.041600 364366.700000
104.049400 42948124.000000
105.044700 10744688.000000
105.057300 5490725.500000
106.065100 4423116.500000
108.044300 356686.600000
108.984000 278822.800000
110.999700 145769.000000
111.031400 368808.800000
112.007400 258380.700000
113.015200 1218434.600000
114.010500 588393.400000
114.033900 884057.800000
115.041600 839098.200000
116.049400 1426133.000000
117.057300 2870509.800000
118.052500 579581.500000
120.044400 259349.800000
122.059900 86426.300000
122.999500 878717.700000
124.007500 102952.300000
125.002800 280138.300000
126.010600 124501.400000
127.018200 695161.700000
129.009900 78111.100000
129.044800 248026.000000
130.040100 716191.300000
130.052600 63767.300000
131.060400 8447561.000000
132.068200 4683636.000000
134.060000 452356.400000
138.010600 649287.500000
139.005700 306931.100000
140.026100 6432412.000000
144.055700 224960.600000
150.010200 73781.600000
151.018500 487092.900000
153.021600 80514.000000
160.979000 69803.900000

