>compound EQ99483150
>parentmass 204.0995
>ionization [M+H]+
>formula C10H12F3N
>rt 348.000000
>profile orbitrap
#smiles_iso CC(CC1=CC(=CC=C1)C(F)(F)F)N
#smiles_can CC(CC1=CC(=CC=C1)C(F)(F)F)N
#inchikey MLBHFBKZUPLWBD-UHFFFAOYSA-N
#pubchem_id 15897
#mb_accession EQ346801,EQ346802,EQ346803,EQ346804,EQ346805,EQ346806,EQ346807,EQ346808,EQ346809

>ms2
109.044500 1386437.400000
159.041600 626226048.000000
167.066500 1454253.900000
172.048800 1087985.200000
184.093300 1524343.800000
187.072800 879021056.000000
204.099500 446021120.000000

>ms2
109.044500 1637088.000000
159.041500 1114597888.000000
167.066700 2018642.200000
187.072800 697983040.000000
204.099500 186292832.000000

>ms2
109.044300 2734518.000000
147.060200 2700878.200000
159.041500 1731275648.000000
187.072800 97882312.000000
204.099400 6490604.000000

>ms2
109.044700 26084580.000000
139.035600 4344036.500000
147.060100 2714191.200000
159.041500 1819915136.000000
187.072700 6261450.000000

>ms2
90.046000 1813182.600000
109.044800 235964576.000000
119.029000 2663697.200000
139.035300 35007472.000000
147.035300 13762687.000000
147.060400 2983901.200000
159.041500 1746710528.000000

>ms2
57.013400 1082497.100000
63.022800 1127838.400000
75.022900 3186144.500000
83.029100 6164580.000000
89.038500 3919721.500000
90.046400 5539369.000000
95.029100 1699790.400000
99.022900 2313523.200000
109.044800 613939200.000000
119.029100 9761217.000000
123.035300 1339541.800000
133.025800 2709419.200000
137.039700 5280277.000000
139.035300 68890752.000000
146.052700 2365786.800000
147.035300 53117068.000000
155.060400 1586265.400000
158.033800 1606714.100000
159.041500 1014399936.000000

>ms2
53.002200 1461395.200000
57.013400 5775346.500000
59.029100 4500733.000000
63.022900 7499470.500000
64.030700 1124122.500000
65.038500 1969269.200000
66.046400 1963155.200000
75.004100 1469457.400000
75.022900 12458810.000000
77.002100 16326749.000000
83.029100 102305600.000000
89.038600 56542800.000000
90.046400 36232536.000000
93.013500 4065273.200000
95.029100 4226728.500000
98.015100 4986914.500000
99.022900 58285536.000000
107.029000 1940603.500000
108.036800 2140606.800000
109.044800 980567424.000000
113.019500 2479257.800000
115.054200 1825448.600000
119.029200 42891248.000000
123.035200 4415622.000000
133.025900 10034305.000000
137.039700 8737542.000000
138.027600 2681585.800000
139.035400 42648092.000000
141.025800 10720660.000000
146.052600 5029016.000000
147.035300 95857896.000000
151.035500 1278208.200000
155.060300 1124239.600000
158.033700 5716678.500000
159.041600 159211856.000000

>ms2
50.015100 1491216.400000
51.022900 1266646.900000
53.002200 2105259.800000
57.013500 33901300.000000
59.029100 21246158.000000
62.015000 5098604.000000
63.022900 52300920.000000
64.030700 6158044.500000
65.038500 2817226.200000
66.046400 2145688.500000
68.994600 2247255.200000
69.013400 1191340.200000
74.015000 4937950.000000
75.004000 4170510.200000
75.022900 17764012.000000
77.002100 20882178.000000
81.013500 4391881.000000
83.029100 294078272.000000
87.022900 1473076.200000
89.038500 141760704.000000
90.046400 35118340.000000
91.054100 2009279.600000
93.013500 17744862.000000
95.010200 876264.400000
95.029100 3080997.800000
95.049100 1839552.800000
98.015100 33860052.000000
99.022900 129230240.000000
101.019700 837919.600000
102.046300 1133097.500000
107.029100 5682293.500000
108.036900 3786998.800000
109.044800 496671488.000000
111.024100 1197267.900000
113.019700 6962612.500000
113.039600 1656212.800000
114.027600 1153983.200000
115.054200 3783065.500000
119.029200 24824078.000000
120.036900 1050938.900000
123.035200 3348302.800000
125.019600 1021632.300000
127.035400 1857481.000000
131.030100 3136869.800000
132.018100 3735267.500000
133.025900 4335967.000000
137.039700 3215911.500000
138.027500 6231458.500000
139.035300 6351677.000000
141.025800 14445900.000000
146.052600 4281967.000000
147.035300 35044064.000000
151.035500 1412831.500000
158.033800 3851784.000000
159.041600 9029090.000000

>ms2
50.015100 4332384.500000
51.022900 2927854.000000
53.002200 4360152.000000
53.997500 509505.300000
57.013500 111811280.000000
59.029100 33455430.000000
61.007200 4139851.000000
62.015100 19087554.000000
63.022900 122387864.000000
64.030700 10628842.000000
65.019700 425036.500000
65.038500 4175805.000000
66.046300 893448.400000
68.994600 6240477.500000
69.013500 2708667.200000
71.029200 374887.800000
74.015000 20060284.000000
75.004000 7548001.000000
75.022900 27008246.000000
76.030600 1099762.500000
77.002100 8922558.000000
81.013500 9479902.000000
83.029100 327582304.000000
87.022900 2854170.800000
89.038500 165312832.000000
90.046400 14740135.000000
91.054200 2142433.000000
93.013500 29038018.000000
95.010200 361192.900000
95.029100 542096.200000
95.049100 2545363.200000
96.037000 460820.300000
98.015100 100985152.000000
99.022900 108592576.000000
101.019700 1296598.500000
102.046400 1085356.900000
105.044700 951812.500000
107.029100 12101944.000000
108.036900 3438704.000000
109.044800 155548816.000000
113.019600 4058427.000000
114.027600 1562415.500000
115.054200 4549811.000000
119.029100 5884582.500000
120.037000 1783643.000000
123.035300 1033101.900000
125.019700 907388.800000
125.038700 373009.800000
126.046400 940099.200000
127.035500 497566.100000
131.030000 1535198.600000
132.018000 4062626.000000
133.025900 423232.200000
138.027400 4455939.500000
141.025800 6957189.500000
146.052400 1568803.200000
147.035200 5211145.000000
151.035100 422411.900000
157.025700 365047.100000
158.033800 1258340.900000
164.043300 353212.100000

