>compound EQ04122628
>parentmass 158.1187
>ionization [M-H]-
>formula C8H17NO2
>rt 210.000000
>profile orbitrap
#smiles_iso CC(C)C[C@@H](CC(=O)O)CN
#smiles_can CC(C)CC(CC(=O)O)CN
#inchikey AYXYPKUFHZROOJ-ZETCQYMHSA-N
#pubchem_id 5486971
#mb_accession EQ312951,EQ312952,EQ312953,EQ312954,EQ312955

>ms2peaks
130.017100 13751.500000
140.108100 36551.400000
158.118500 1185666.400000

>ms2peaks
82.029900 2331.200000
130.017200 15162.400000
140.108100 37557.900000
158.118600 1215701.700000

>ms2peaks
82.029900 2900.700000
130.017300 8342.200000
140.108100 29374.700000
158.118600 390393.700000

>ms2peaks
82.029900 901.800000
130.017200 3921.900000
140.108100 14133.900000
158.118600 109544.900000

>ms2peaks
82.029800 1119.900000
130.017400 896.000000
140.108200 4440.600000
158.118700 13089.600000

