>compound EQ05475234
>parentmass 421.20320000000004
>ionization [M-H]-
>formula C23H31FO6
>rt 558.000000
>profile orbitrap
#smiles_iso CC(=O)OCC(=O)[C@]1(CC[C@@H]2[C@@]1(C[C@@H]([C@]3([C@H]2CCC4=CC(=O)CC[C@@]43C)F)O)C)O
#smiles_can CC(=O)OCC(=O)C1(CCC2C1(CC(C3(C2CCC4=CC(=O)CCC43C)F)O)C)O
#inchikey SYWHXTATXSMDSB-GSLJADNHSA-N
#pubchem_id 225609
#mb_accession EQ324051,EQ324052,EQ324053,EQ324054,EQ324055

>ms2
59.013800 432545.700000
73.029500 691.000000
101.024400 3845.800000
123.081400 588.000000

>ms2
59.013800 456034.100000
73.029400 5332.400000
101.024300 3634.700000
123.081400 1759.100000

>ms2
59.013800 345429.100000
73.029400 5003.300000
85.029400 846.600000
101.024300 1546.500000
123.081600 9378.500000

>ms2
59.013800 279671.400000
71.013900 867.500000
73.029400 2355.600000
85.029500 1027.400000
95.050200 860.200000
101.024400 995.500000
123.081600 10657.800000

>ms2
59.013800 225480.200000
73.029400 2480.200000
95.050100 795.100000
121.065800 1093.100000
123.081600 10588.300000

