>compound EQ06109671
>parentmass 297.0768
>ionization [M-H]-
>formula C17H14O5
>rt 540.000000
>profile orbitrap
#smiles_iso CC(=O)CC(C1=CC=CO1)C2=C(C3=CC=CC=C3OC2=O)O
#smiles_can CC(=O)CC(C1=CC=CO1)C2=C(C3=CC=CC=C3OC2=O)O
#inchikey JFIXKFSJCQNGEK-UHFFFAOYSA-N
#pubchem_id 54689800
#mb_accession EQ309151,EQ309152,EQ309153,EQ309154,EQ309155,EQ309156

>ms2
57.034600 77561.800000
117.034700 47953.800000
123.045300 102166.000000
161.024400 3136488.100000
177.055700 149350.100000
211.039500 67411.700000
213.055900 41135.600000
240.042800 836249.700000
255.066300 56001.600000
279.065800 29494.800000
297.076600 17723369.400000

>ms2
57.034600 455520.200000
69.034600 19571.600000
81.034600 25345.800000
83.013900 40265.200000
93.034600 57456.500000
95.050400 7781.500000
108.021700 32804.500000
109.065900 35569.100000
117.034600 211921.000000
120.021500 12776.700000
123.045200 530150.000000
133.065800 22256.700000
135.045200 53874.900000
149.060700 165656.500000
159.045000 33241.800000
161.024400 7693544.200000
174.032100 10180.200000
177.055600 623589.800000
183.044800 22034.600000
184.053000 9992.800000
187.040000 9153.000000
195.045200 96769.000000
199.040100 9689.500000
203.034400 33933.900000
206.022300 8790.400000
209.061100 34538.700000
211.040000 296608.600000
211.076400 109444.200000
212.048000 64208.100000
213.055700 204749.500000
215.034900 78465.600000
227.071300 39917.000000
235.076600 22199.300000
237.055600 39044.600000
239.035200 69630.900000
240.042800 4770979.500000
251.070800 47030.000000
253.050700 41666.300000
253.086600 33055.100000
255.066200 159428.100000
261.056000 10481.400000
269.082000 58183.300000
279.066000 118691.900000
297.076700 4607515.300000

>ms2
57.034600 837679.600000
65.039600 5209.200000
67.018900 9011.200000
69.034700 22454.500000
79.055400 21146.900000
80.026800 25952.900000
81.034600 49461.400000
83.013900 52618.100000
91.018900 7311.200000
92.026700 19387.400000
93.034600 144824.600000
95.013900 7237.600000
95.050300 29053.200000
107.050200 106798.100000
108.021700 151468.600000
109.066000 17728.400000
117.034700 1076593.400000
119.013800 10472.900000
120.021600 34128.500000
121.029400 5922.800000
123.045200 361964.000000
133.029500 28339.300000
133.065900 46841.100000
134.037400 17589.000000
135.045200 141301.200000
149.060700 389511.300000
159.045300 57021.600000
161.024400 4490471.900000
167.050100 29303.500000
169.065600 9387.000000
175.040000 18995.500000
177.055700 332814.200000
181.065600 7694.300000
183.045000 115113.000000
183.081700 20534.800000
184.053100 40120.200000
185.024300 9652.300000
185.060600 27160.400000
187.040100 17262.000000
193.065300 10382.700000
195.045100 172985.900000
196.052600 8931.800000
197.060200 6401.100000
199.040300 41829.000000
203.034800 19168.400000
206.021400 7162.300000
209.060700 77509.300000
211.040100 1967521.000000
212.047900 118187.100000
213.055700 157310.200000
215.034900 140478.900000
223.039500 5688.500000
225.055400 37548.200000
227.071000 40016.200000
235.076900 17019.000000
237.055800 54710.200000
239.035100 110067.100000
240.042800 2302780.400000
244.038100 9272.300000
251.071100 36728.700000
253.050500 19058.600000
255.066200 39330.800000
261.055400 17418.600000
269.081900 24808.300000
279.066000 8037.500000
297.076700 161183.800000

>ms2
57.034600 764293.800000
65.039700 4144.000000
67.019000 8419.500000
69.034600 35403.900000
79.055400 19434.800000
80.026800 31209.300000
81.034600 62265.400000
83.013800 29694.700000
91.018900 43228.100000
92.026800 25199.300000
93.034600 184778.100000
95.013900 35096.600000
95.050300 43837.600000
107.050300 156311.700000
108.021700 136811.900000
109.029400 7918.300000
109.065900 16335.700000
117.034700 1665360.900000
119.013800 30591.600000
120.021800 37508.000000
121.029400 6112.900000
123.045200 175291.300000
131.050300 17954.900000
133.029600 34662.100000
133.065800 35169.100000
134.037400 21330.300000
135.045300 125391.900000
143.050300 5354.400000
145.029700 7215.000000
149.060700 291579.200000
157.065600 6431.300000
159.045100 43178.400000
160.017300 4809.800000
161.024400 2281143.400000
165.071100 8110.100000
167.050000 65574.600000
169.065900 22066.000000
174.032400 4964.800000
175.040100 17871.700000
177.055700 134619.300000
181.066500 5154.300000
183.045100 164430.800000
183.081700 36126.000000
184.053100 24761.800000
185.024500 9468.200000
185.060600 10117.500000
187.040100 18861.600000
193.065900 17469.700000
195.045100 156165.300000
196.053100 21365.300000
199.039700 19126.900000
209.060700 55076.600000
211.040000 2615895.500000
212.047800 54336.000000
213.056100 53191.400000
215.034900 74575.100000
223.040400 5016.400000
225.055700 32934.500000
227.071400 22000.400000
237.056500 33903.900000
239.034900 101542.200000
240.042800 538460.600000
244.038400 5295.000000
251.071500 24301.200000
253.050800 8134.600000
255.066300 4912.800000
297.076900 7855.000000

>ms2
57.034600 741053.100000
65.003300 8523.600000
65.039800 18852.100000
67.018900 10458.300000
69.034700 5721.700000
79.055400 7056.900000
80.026800 9566.600000
81.034600 50184.300000
83.013900 30143.200000
91.018900 179204.700000
92.026800 35618.800000
93.034600 185581.400000
95.013900 34978.100000
95.050300 22310.600000
107.050300 237929.500000
108.021700 113175.400000
109.029500 9025.800000
109.066000 5859.600000
117.034700 2132557.200000
119.013800 52714.100000
120.021800 19307.400000
121.029700 11897.600000
123.045400 44949.800000
131.050100 10449.900000
133.029500 34203.100000
133.065900 18006.400000
134.037300 7591.100000
135.045200 90180.800000
139.055200 6189.800000
143.050400 19904.700000
145.029600 9015.000000
149.060700 155667.300000
155.050600 5832.400000
157.065600 6291.600000
159.045100 20716.800000
160.016400 4479.500000
161.024400 797658.800000
165.070900 8101.900000
167.050200 150240.000000
169.066000 12547.400000
177.055600 24317.000000
181.066000 28172.700000
183.045000 268876.300000
183.081300 22062.400000
184.052800 7099.400000
185.024000 15996.200000
185.060600 5703.200000
195.045100 122204.000000
197.060600 9048.100000
209.060900 37475.300000
210.032100 15693.900000
211.040000 3325122.300000
213.055800 8322.900000
225.056000 16716.600000
237.055700 26227.600000
239.035000 76068.500000
240.042800 34711.900000

>ms2
57.034600 584599.300000
65.003300 62788.100000
65.039700 39469.300000
67.019000 7546.900000
69.034800 4777.300000
80.026700 4504.600000
81.034600 52673.700000
83.013900 16373.000000
91.019000 487184.700000
92.026800 34132.600000
93.034600 153258.200000
95.013900 33450.100000
95.050200 15790.000000
107.050300 167141.500000
108.021800 97300.700000
109.029600 4409.000000
117.034700 1788788.100000
119.013900 59136.300000
120.021900 9739.100000
121.029500 6727.200000
123.045100 8652.000000
131.050100 7466.800000
133.029800 30594.600000
133.065800 7552.700000
135.045200 42517.800000
139.055300 20571.000000
143.050200 16804.500000
145.029500 4445.400000
149.060800 39916.300000
155.050300 38086.900000
159.045200 4520.300000
161.024400 195202.400000
167.050200 298087.200000
169.066300 17096.900000
181.065900 17869.200000
183.045100 310257.800000
185.024600 18438.000000
195.045200 113570.000000
209.060800 16479.900000
210.032100 49665.700000
211.040000 2640294.900000
239.035200 21167.700000

