>compound EQ06152483
>parentmass 249.0089
>ionization [M-H]-
>formula C9H12ClO4P
>rt 558.000000
>profile orbitrap
#smiles_iso COP(=O)(OC)OC1=C(C2C1CC=C2)Cl
#smiles_can COP(=O)(OC)OC1=C(C2C1CC=C2)Cl
#inchikey GBAWQJNHVWMTLU-UHFFFAOYSA-N
#pubchem_id 62773
#mb_accession EQ311451,EQ311452,EQ311453,EQ311454,EQ311455,EQ311456

>ms2peaks
88.008800 1012.800000
130.017200 958.200000
131.013600 27160.700000
159.008400 3799.500000
174.023900 1187.700000
175.020400 84877.300000
193.031200 5943.400000
203.015400 107297.800000
221.025900 159131.000000
231.029500 2892.100000

>ms2peaks
88.008800 2592.700000
130.017200 2724.100000
131.013700 31983.400000
159.008300 1488.900000
174.023900 1152.000000
175.020400 64493.800000
193.030900 2432.100000
203.015400 28151.200000
221.025900 43413.500000
231.029300 3149.100000

>ms2peaks
88.008700 1060.200000
93.034500 2648.300000
131.013700 29380.900000
159.008400 736.400000
175.020400 8166.100000
203.015300 1314.900000
203.034800 900.600000
221.025300 1286.400000
231.029300 1045.500000

>ms2peaks
78.959100 734.400000
93.034700 3403.000000
130.017200 871.600000
131.013600 24995.200000
175.020400 2424.000000
203.034700 979.400000
231.029900 996.600000

>ms2peaks
78.959100 1211.200000
93.034600 3468.300000
130.017300 717.700000
131.013600 25164.800000

>ms2peaks
78.959000 1076.700000
93.034600 3160.500000
131.013700 22959.600000

