>compound EQ07724841
>parentmass 319.0047
>ionization [M-H]-
>formula C15H10Cl2N2O2
>rt 540.000000
>profile orbitrap
#smiles_iso C1=CC=C(C(=C1)C2=NC(C(=O)NC3=C2C=C(C=C3)Cl)O)Cl
#smiles_can C1=CC=C(C(=C1)C2=NC(C(=O)NC3=C2C=C(C=C3)Cl)O)Cl
#inchikey DIWRORZWFLOCLC-UHFFFAOYSA-N
#pubchem_id 3958
#mb_accession EQ313851,EQ313852,EQ313853,EQ313854,EQ313855,EQ313856

>ms2peaks
102.034900 515174.300000
151.990900 238286.800000
179.001700 266945.800000
179.985600 134408.300000
227.038100 116787.300000
228.022300 81392.500000
255.033100 690744.800000
283.027900 57526876.700000
291.009700 3079053.400000
319.004500 9748617.500000

>ms2peaks
102.035000 7312591.500000
116.014200 150820.500000
126.011700 319969.100000
146.024800 138500.500000
151.006900 36256.300000
151.990900 2720579.900000
154.006000 129677.600000
173.035800 74045.600000
179.001800 1006034.400000
179.985900 1161762.600000
200.027300 271735.800000
219.056300 190319.000000
227.038400 764389.500000
228.022200 891126.900000
247.051600 306972.300000
254.025200 182728.900000
255.033200 3563561.900000
266.025500 52667.800000
282.020400 132374.100000
283.027900 31276012.300000
291.010000 235159.300000
319.004700 45770.400000

>ms2peaks
65.998600 22830.000000
102.035000 13253478.400000
116.014400 470571.400000
126.011700 121480.100000
143.024900 28976.100000
144.009300 109780.400000
145.040800 26863.500000
146.024700 129535.000000
151.006800 297627.600000
151.990900 3747763.200000
160.990900 33649.500000
173.035600 199476.000000
176.985800 36249.200000
179.001900 1652016.200000
179.985900 1033192.200000
191.061900 25995.000000
192.045600 92105.600000
200.027500 324883.000000
218.048400 74695.300000
219.056400 461053.300000
227.038300 669328.700000
228.022300 951236.700000
237.067200 25856.600000
246.043700 51166.600000
247.051200 226039.700000
253.017500 156821.500000
254.025400 214661.600000
255.033200 1275674.100000
256.017500 37853.100000
266.025100 126442.900000
282.020400 105268.300000
283.027900 2445130.600000

>ms2peaks
65.003400 19532.500000
65.998600 93823.000000
102.035000 10377479.100000
116.014300 875938.500000
126.011600 27649.000000
143.025200 19612.000000
144.009400 130004.633900
145.040800 33491.800000
151.006800 590895.800000
151.990900 2526296.100000
154.006200 20107.800000
160.991400 32696.700000
173.035500 162920.200000
176.985900 33463.200000
179.001800 1687111.500000
179.985900 480816.400000
191.061900 107190.100000
192.045500 92710.400000
200.027200 282934.900000
206.996900 18194.700000
218.048500 162478.500000
219.056400 330410.800000
227.038300 435122.000000
228.022300 684999.100000
246.043800 42600.500000
247.051600 129330.000000
253.017300 324278.500000
254.025600 79643.200000
255.033400 395296.900000
266.025400 102641.000000
283.028000 213864.600000

>ms2peaks
65.998500 140590.000000
74.003600 86329.200000
88.019300 29371.500000
102.035000 4829505.600000
116.014400 707992.300000
125.014700 25049.700000
143.024500 22959.300000
144.009300 75656.700000
145.040800 33032.900000
146.024700 43749.800000
151.006800 629338.200000
151.990900 992083.600000
160.991300 40593.400000
164.050800 72071.000000
173.035800 23348.200000
179.001800 958398.000000
179.985700 82083.500000
191.062100 162251.900000
192.045600 90843.500000
200.027100 86175.300000
218.048700 44780.800000
219.055600 152625.700000
227.038300 107850.200000
228.022100 246395.200000
253.017600 257485.900000

>ms2peaks
65.003300 25016.100000
65.998600 218021.000000
74.003800 30806.100000
88.019400 74801.900000
102.035000 1739360.600000
116.014400 406025.900000
125.014300 41888.500000
143.024800 29626.700000
144.009100 20531.300000
146.025000 26300.500000
151.007000 384406.100000
151.990900 466943.900000
164.050400 26940.900000
179.001700 421315.700000
191.061700 81721.600000
192.045500 37410.800000
218.048300 25508.200000
219.055700 71164.500000
228.022400 69531.500000
253.017600 225757.100000

