>compound EQ09953129
>parentmass 422.8195
>ionization [M-H]-
>formula C13H8Br2Cl2O2
>rt 990.000000
>profile orbitrap
#smiles_iso C1=C(C=C(C(=C1CC2=C(C(=CC(=C2)Cl)Br)O)O)Br)Cl
#smiles_can C1=C(C=C(C(=C1CC2=C(C(=CC(=C2)Cl)Br)O)O)Br)Cl
#inchikey TYBHZVUFOINFDV-UHFFFAOYSA-N
#pubchem_id 84907
#mb_accession EQ329851,EQ329852,EQ329853,EQ329854,EQ329855,EQ329856

>ms2peaks
78.918900 944475.800000
204.905900 2151188.000000
342.893300 193079.900000
422.819600 15509893.000000

>ms2peaks
78.918900 5739895.500000
204.906100 21586860.000000
342.893100 1014255.400000
386.843100 113153.300000
422.819500 3025327.200000

>ms2peaks
78.918900 8737013.000000
124.979900 75102.200000
204.906100 20099960.000000
342.892900 173877.900000
386.843100 47536.800000
422.819800 37431.600000

>ms2peaks
78.918900 16728031.000000
124.979900 209956.100000
204.906000 8410505.000000

>ms2peaks
78.918900 22317640.000000
89.003300 44969.800000
124.979900 224141.600000
204.906000 2249258.000000

>ms2peaks
78.918900 25084430.000000
89.003300 100808.900000
124.979900 144500.600000
204.906100 442736.800000

