>compound EQ09797734
>parentmass 321.0051
>ionization [M-H]-
>formula C11H12Cl2N2O5
>rt 348.000000
>profile orbitrap
#smiles_iso C1=CC(=CC=C1[C@H]([C@@H](CO)NC(=O)C(Cl)Cl)O)[N+](=O)[O-]
#smiles_can C1=CC(=CC=C1C(C(CO)NC(=O)C(Cl)Cl)O)[N+](=O)[O-]
#inchikey WIIZWVCIJKGZOK-RKDXNWHRSA-N
#pubchem_id 5959
#mb_accession EQ307051,EQ307052,EQ307053,EQ307054,EQ307055,EQ307056

>ms2
61.988400 50317.300000
70.946100 183237.300000
82.946100 125781.400000
84.009200 345246.500000
86.024800 55205.100000
98.024900 50088.800000
121.029600 1087437.100000
122.024500 250649.800000
125.951900 1019638.000000
126.936000 1014508.800000
134.001500 254070.200000
148.040500 300476.400000
150.019600 235094.800000
151.027500 3254092.800000
152.035300 21684207.200000
159.032400 53850.700000
160.040500 130383.000000
164.035600 59762.800000
166.014700 46634.500000
175.051500 45231.700000
176.035300 4541439.700000
179.046100 26536.200000
191.046800 28843.900000
194.045800 9889068.000000
207.041100 395734.200000
219.041000 593074.500000
237.051700 1134086.500000
249.051700 2911145.500000
257.033500 16933487.100000
321.005100 25854479.800000

>ms2
61.988400 63477.500000
70.946200 136880.400000
78.035000 343905.000000
82.946100 693628.700000
84.009100 455657.000000
86.024800 48767.500000
98.024800 163039.400000
105.021900 44186.600000
106.029700 56015.900000
118.042500 209762.200000
121.029600 3160487.200000
122.024800 302170.600000
125.952000 420051.400000
126.936000 1090827.100000
134.001300 61228.500000
135.032600 37959.300000
136.040500 111277.700000
148.040500 1369389.900000
150.019800 361647.700000
151.027500 8895643.500000
152.035300 27217121.800000
153.054100 42494.800000
159.032400 331563.600000
160.040100 70589.200000
161.036100 45820.600000
162.019700 142841.500000
164.035800 45221.700000
166.014500 171701.700000
175.051400 128688.700000
176.035200 4587453.700000
179.046200 254837.400000
191.046800 37465.000000
192.030300 28007.100000
194.045900 1464421.400000
207.041200 47176.400000
219.041100 510187.900000
237.052400 35124.500000
249.051800 466474.100000
257.033400 1004181.600000
321.005000 236546.100000

>ms2
61.988300 24625.600000
70.946100 116676.100000
71.013900 59633.900000
78.034900 1409682.700000
79.019000 33082.600000
82.946100 1134574.100000
84.009200 405968.500000
86.024900 55701.600000
92.026700 48001.800000
93.034800 32428.000000
98.024800 75766.500000
105.022100 122091.700000
106.029900 147024.400000
117.034800 76577.100000
118.042600 176961.000000
121.029600 8298395.200000
122.024900 376262.600000
123.032500 101830.300000
124.040200 101050.300000
125.951800 116860.200000
126.936000 427251.900000
135.032700 220253.200000
136.040500 156643.400000
146.037400 169135.200000
148.040500 1110864.000000
150.019700 140169.200000
151.027500 6893090.200000
152.035300 11718709.100000
153.054400 27026.900000
159.032600 390071.100000
161.035700 148558.300000
162.019700 182358.600000
164.035400 55512.400000
166.014500 50564.000000
175.050800 34798.200000
176.035200 711623.300000
179.046200 289148.900000
192.030000 26322.000000
194.045900 44587.900000
219.041300 29051.200000

>ms2
65.998700 22774.300000
70.946100 58494.700000
71.013900 41433.300000
78.034900 1540093.000000
79.019000 119803.700000
82.946100 1604753.000000
84.009100 386479.300000
86.024800 47286.800000
90.034800 23686.300000
92.026700 38996.700000
93.034700 127377.100000
98.024800 35756.600000
105.022100 172408.900000
105.034700 32560.900000
106.029900 272403.500000
117.034700 152116.300000
118.042600 54261.000000
121.029600 10420871.900000
122.024900 501018.500000
123.032400 56626.000000
124.040500 135821.000000
126.935900 191979.800000
135.032700 306631.500000
136.040200 124300.500000
146.037300 47834.700000
148.040600 718855.400000
150.019600 49369.500000
151.027500 5637747.500000
152.035300 5269069.500000
159.032600 364414.100000
161.035800 119904.900000
162.019700 160986.000000
176.034800 207931.700000
179.046100 121810.400000

>ms2
65.998600 39809.700000
71.013700 23622.500000
78.035000 818421.000000
79.019000 46715.000000
82.946100 1183536.200000
84.009100 200841.600000
92.026700 47257.300000
93.034700 160316.000000
105.022000 63586.800000
105.034600 61421.400000
106.029900 113121.600000
108.021900 125243.300000
117.034800 191264.800000
121.029600 10441959.400000
122.024900 407402.300000
123.033100 25466.100000
124.040300 100628.700000
135.032600 230761.700000
136.040500 39434.500000
147.045200 57070.600000
148.040700 156642.400000
151.027500 2793210.100000
152.035300 749469.700000
159.032500 230816.000000
161.035700 61561.200000
162.019700 109221.300000
164.035800 35113.400000

>ms2
78.034900 416948.700000
79.019100 54580.700000
82.946100 904756.700000
84.009200 54859.400000
90.035100 26807.000000
91.018900 125364.336000
92.026700 150719.000000
93.034700 177435.100000
105.034600 38317.500000
106.030000 118062.100000
108.021900 192508.500000
117.034800 147448.300000
120.021800 101996.587000
121.029600 8736611.300000
122.025000 189447.600000
124.040400 54739.800000
135.032700 107726.800000
147.045300 76745.800000
148.040700 37801.000000
151.027400 863604.700000
152.035600 59665.400000
159.032600 36521.500000
161.035600 31877.900000
162.019800 36950.600000

