>compound EQ10607736
>parentmass 340.1336999999999
>ionization [M-H]-
>formula C15H23N3O4S
>rt 102.000000
>profile orbitrap
#smiles_iso CCN1CCCC1CNC(=O)C2=C(C=CC(=C2)S(=O)(=O)N)OC
#smiles_can CCN1CCCC1CNC(=O)C2=C(C=CC(=C2)S(=O)(=O)N)OC
#inchikey BGRJTUBHPOOWDU-UHFFFAOYSA-N
#pubchem_id 5355
#mb_accession EQ302751,EQ302752,EQ302753,EQ302754,EQ302755,EQ302756

>ms2
61.970600 9668.600000
63.962400 2809.800000
77.965400 3710.600000
78.973000 3536.700000
79.981100 172035.000000
122.061100 4973.100000
156.012400 374086.200000
184.007300 4027.100000
186.023000 219807.800000
261.148500 5877.900000
340.133400 2803784.400000

>ms2
61.970600 47073.700000
63.962300 17601.700000
77.965500 24828.900000
79.981100 678191.000000
92.050600 13117.700000
93.034500 3268.900000
93.960400 3214.600000
107.050300 3977.500000
120.045400 3069.500000
122.061200 34333.000000
156.012500 2468084.800000
158.028000 14276.300000
172.007400 6033.100000
184.007400 17073.900000
186.023000 276653.700000
200.002300 3660.600000
261.148300 64063.300000
340.133400 374718.100000

>ms2
61.970600 118069.800000
63.962400 59170.500000
77.965500 22786.600000
78.973000 22853.200000
79.981100 811868.200000
92.050600 60053.600000
93.034500 5977.900000
93.960400 6174.900000
107.050300 5653.500000
120.045600 10370.400000
122.061200 26838.700000
139.993700 6753.200000
156.012500 2536611.600000
158.028000 4603.300000
163.051200 3479.700000
172.007700 6035.500000
184.007300 9841.600000
186.022900 24500.700000
200.002300 3080.500000
261.148200 112159.300000

>ms2
61.970600 184025.100000
63.962400 115745.200000
77.965500 28245.400000
78.973200 21789.900000
79.981100 1198085.600000
92.050600 107116.800000
93.034600 7825.900000
93.960500 11061.000000
107.037700 3669.800000
107.050200 6035.300000
120.045500 23391.800000
122.061200 19685.600000
139.993700 11527.900000
156.012500 1762447.400000
163.051400 7922.100000
172.007700 4009.800000
184.007200 6595.700000
186.023200 4318.900000
261.148200 77104.400000

>ms2
61.970600 333344.300000
63.962400 192643.900000
77.965500 32476.100000
78.973300 29248.000000
79.981100 1703130.000000
92.050600 192102.300000
93.034600 15569.000000
93.960400 18610.000000
106.029800 5254.800000
107.037600 5969.500000
107.050200 1836.700000
120.045500 46030.000000
122.061200 8245.000000
139.993800 12466.200000
148.040400 3615.800000
156.012500 736978.000000
163.051400 12096.800000
261.148200 24276.300000

>ms2
61.970600 578053.000000
63.962400 278820.800000
77.965500 38381.700000
78.973400 42307.400000
79.981200 1723236.600000
80.965100 4388.500000
91.018900 3481.600000
92.050600 210873.600000
93.034600 23715.100000
93.960400 25255.100000
95.013900 3002.000000
106.029900 4679.000000
107.037800 3375.900000
107.050400 1798.500000
108.045500 3153.000000
120.045500 48963.900000
139.993800 8712.700000
147.032600 1777.600000
148.040400 3174.000000
156.012500 200697.300000
163.051400 4584.800000
261.148700 3080.000000

