>compound EQ10532092
>parentmass 217.1081
>ionization [M-H]-
>formula C10H18O5
>rt 1368.000000
>profile orbitrap
#smiles_iso CC(C)(C)OC(=O)OC(=O)OC(C)(C)C
#smiles_can CC(C)(C)OC(=O)OC(=O)OC(C)(C)C
#inchikey DYHSDKLCOJIUFX-UHFFFAOYSA-N
#pubchem_id 90495
#mb_accession EQ315651,EQ315652,EQ315653,EQ315654,EQ315655,EQ315656

>ms2
61.988500 712.000000
130.017200 20644.200000
131.013500 3735.400000
199.024300 18413.800000

>ms2
61.988200 753.200000
130.017200 23423.400000
131.013600 4644.900000
199.024200 28414.500000

>ms2
130.017200 18151.000000
131.013600 6772.100000
199.024200 23287.000000

>ms2
130.017200 11549.600000
131.013600 6166.500000
199.024300 9753.900000

>ms2
61.988500 925.600000
130.017200 5568.000000
131.013700 2657.800000

>ms2
130.017200 3669.700000
131.013500 1218.200000

