>compound EQ11766578
>parentmass 355.1122
>ionization [M-H]-
>formula C19H20N2O3S
>rt 360.000000
>profile orbitrap
#smiles_iso CCC1=CN=C(C=C1)CCOC2=CC=C(C=C2)CC3C(=O)NC(=O)S3
#smiles_can CCC1=CN=C(C=C1)CCOC2=CC=C(C=C2)CC3C(=O)NC(=O)S3
#inchikey HYAFETHFCAUJAY-UHFFFAOYSA-N
#pubchem_id 4829
#mb_accession EQ328651,EQ328652,EQ328653,EQ328654,EQ328655,EQ328656

>ms2
150.014400 37534.600000
284.111500 59224.800000
312.106500 742456.500000
355.112300 34027856.000000

>ms2
114.973500 59942.100000
117.034500 6900.300000
119.050400 27686.800000
150.014500 453045.200000
151.022100 13924.300000
178.009600 108334.400000
193.020400 26875.700000
284.111500 223480.900000
312.106600 1222663.200000
327.117100 32521.100000
355.112400 1710007.800000

>ms2
71.967700 29797.500000
114.973500 47958.500000
117.034800 29549.000000
118.042600 27705.300000
119.050300 152786.800000
121.029900 6661.400000
145.029600 7850.700000
149.006600 39805.200000
150.014500 948189.600000
151.022300 46819.000000
178.009500 231799.500000
193.020300 43431.000000
284.111600 31049.100000
312.106400 138733.600000
355.112300 9552.600000

>ms2
71.967500 56189.900000
114.973300 8473.600000
117.034700 162847.700000
118.042500 48633.300000
119.050300 211381.900000
121.029400 40627.500000
145.029400 8246.700000
149.006700 142116.800000
150.014500 917565.700000
151.022400 48058.000000
178.009400 47990.700000
193.020400 10197.300000

>ms2
56.980500 6775.200000
71.967600 64553.800000
106.042400 12436.800000
114.973300 6989.200000
116.026900 9648.300000
117.034700 397518.600000
118.042600 34798.100000
119.050300 161088.700000
121.029600 15151.900000
145.029500 14664.600000
147.999000 9021.800000
149.006700 314684.600000
150.014500 445720.000000
151.022500 7901.800000

>ms2
56.980500 6298.500000
71.967500 67890.600000
116.026800 8828.300000
117.034800 549421.300000
118.042500 7536.600000
119.050400 134764.400000
145.029700 26084.200000
147.998900 14350.100000
149.006700 342251.300000
150.014500 158475.700000

