>compound EQ11727214
>parentmass 314.0201
>ionization [M-H]-
>formula C14H9ClF3NO2
>rt 774.000000
>profile orbitrap
#smiles_iso C1CC1C#C[C@]2(C3=C(C=CC(=C3)Cl)NC(=O)O2)C(F)(F)F
#smiles_can C1CC1C#CC2(C3=C(C=CC(=C3)Cl)NC(=O)O2)C(F)(F)F
#inchikey XPOQHMRABVBWPR-ZDUSSCGKSA-N
#pubchem_id 64139
#mb_accession EQ329251,EQ329252,EQ329253,EQ329254,EQ329255,EQ329256

>ms2peaks
65.039600 276325.600000
68.995700 12058166.000000
111.006400 689015.500000
126.011600 273415.100000
149.021700 190828.800000
151.990700 300167.400000
161.022000 1475797.200000
200.027400 2093029.800000
201.011100 164343.500000
202.006800 177047.100000
208.040600 175614.800000
210.011500 395491.400000
214.047500 2960195.500000
216.022200 1590048.400000
221.993400 273962.700000
226.006500 279153.400000
230.017900 12623941.000000
241.999100 11138088.000000
244.017100 19763138.000000
245.024700 260299.600000
245.993800 274780.000000
246.012700 589142.200000
247.972800 262581.800000
250.024100 6280045.000000
254.001500 508492.000000
264.023400 373856.500000
270.030300 3757131.500000
274.007700 1237808.400000
278.042900 175277.900000
286.025800 180800.400000
294.013800 677922.600000
296.009700 770659.900000
314.020300 102427128.000000

>ms2peaks
65.039700 521536.500000
68.995800 57265884.000000
90.035000 395266.400000
111.006400 963524.500000
111.025400 65874.000000
120.990600 61751.200000
126.011600 669003.500000
149.021900 367272.200000
151.990900 1511791.800000
161.022100 2222795.000000
164.050600 207781.600000
166.006400 85319.100000
170.061000 66725.700000
175.025000 86960.900000
180.045400 232619.700000
190.006500 189838.500000
192.022100 235388.600000
194.040800 239771.500000
198.011600 233219.600000
200.027300 5860855.500000
201.011400 343404.800000
202.006800 949873.400000
203.985300 568563.400000
208.040600 725926.100000
210.011800 1020010.900000
214.047500 1336981.400000
215.014400 109626.600000
216.022200 5212551.000000
218.001000 73162.200000
218.017600 63429.100000
218.037500 105595.900000
221.993000 1445356.100000
226.006600 1602286.200000
228.022300 233602.200000
230.017900 3628914.800000
241.999200 15538038.000000
243.008600 177134.200000
244.017100 30711442.000000
245.025300 238734.100000
245.993700 285947.700000
246.012800 1670056.400000
247.973200 1301867.000000
249.015700 77187.700000
250.024100 7890807.500000
254.001600 1013214.900000
264.023200 235256.600000
265.982700 60754.600000
266.018300 163075.800000
270.030600 1270652.900000
272.010900 66567.200000
274.008000 1130991.800000
285.989200 237043.600000
286.025000 188301.600000
294.014100 566190.100000
296.009700 1336549.000000
314.020300 6331108.000000

>ms2peaks
65.039700 1288696.000000
68.995800 76319936.000000
90.035000 500481.000000
91.019000 202998.400000
108.025600 95738.400000
111.006200 98573.500000
116.014200 281969.500000
120.990700 210972.200000
123.995900 87392.000000
126.011600 189634.200000
147.995900 188744.700000
151.990900 1753867.400000
152.050600 281697.900000
161.022100 600510.700000
164.050700 424422.800000
166.030000 94627.300000
170.061000 266240.400000
174.034600 298842.800000
178.006600 98850.000000
180.045400 617100.400000
188.998500 84828.100000
190.006700 99079.700000
190.029900 101033.000000
194.041200 340943.400000
198.011700 440124.200000
198.056100 241667.200000
200.027400 2616611.500000
201.011100 85483.800000
202.006700 1649250.000000
203.985700 307831.000000
206.022400 464152.900000
208.040600 2082102.200000
210.011800 940122.500000
210.035800 86941.700000
214.047100 76644.500000
215.014600 622761.300000
216.022300 2801170.000000
218.001200 400801.000000
221.992900 3001982.500000
226.006600 1452628.600000
230.017800 416458.700000
241.999100 5713638.000000
243.009300 322633.700000
244.017100 7446349.000000
245.993700 163932.400000
246.012700 879060.100000
247.973300 688120.400000
249.016300 227473.900000
250.024100 2219686.800000
254.001600 312007.000000
296.009500 260015.800000

>ms2peaks
65.039700 1452195.400000
68.995800 72776680.000000
90.034900 364543.400000
91.018900 244133.800000
108.025500 93552.600000
116.014300 353784.300000
120.990700 323767.700000
123.996200 74040.700000
138.034800 157241.800000
147.996000 185044.200000
151.990900 694539.200000
152.050500 339146.300000
162.035100 251057.200000
164.050800 436764.900000
166.029700 379540.400000
170.060900 338447.100000
174.011400 98377.100000
174.034900 311924.700000
179.037700 81171.100000
180.045700 600021.600000
188.998600 76870.600000
190.030100 190752.800000
194.040900 98343.800000
198.011700 724180.900000
198.056300 80243.100000
199.019800 193865.500000
200.027300 611521.800000
202.006700 816832.500000
206.022300 805340.600000
208.040500 1400812.900000
210.011400 325256.000000
215.014500 604169.600000
216.022200 514146.400000
218.001200 287465.800000
221.992800 2494029.800000
226.006800 598095.500000
241.999100 1089305.400000
244.017100 840648.600000
246.012600 182598.000000
249.015700 81886.200000
250.023900 197958.200000

>ms2peaks
65.003300 183631.500000
65.039700 1438488.200000
65.998500 175964.200000
68.995800 65558776.000000
76.019200 66914.600000
90.034900 207197.400000
91.019000 275744.800000
116.014400 353859.000000
120.990700 325660.200000
138.034900 237404.400000
147.996000 88118.500000
151.990600 185408.200000
152.050600 98295.500000
162.035100 298467.200000
164.050600 224010.200000
166.029800 258531.500000
174.011400 99102.900000
174.034600 281496.700000
179.037400 167252.400000
180.045500 349999.700000
198.011900 598789.200000
202.006300 86201.300000
206.022500 493990.900000
208.040500 454697.400000
215.014300 190370.100000
218.001200 66996.100000
221.992900 849048.100000
241.998900 95340.100000

>ms2peaks
65.003300 228081.400000
65.039700 1132170.100000
65.998600 251441.200000
68.995800 48929488.000000
74.003700 62442.400000
76.019400 169393.100000
87.011400 90249.000000
88.019300 84603.500000
90.035100 88199.500000
91.019000 87737.800000
98.003700 158136.000000
116.014200 92205.100000
120.990800 81727.400000
138.034900 219368.400000
146.003300 84493.600000
147.996600 54969.300000
151.990600 59102.600000
152.050800 59533.400000
162.035100 280771.700000
164.050600 75200.500000
166.029300 75206.500000
170.061000 50628.200000
180.045700 49469.000000
186.016000 83957.400000
198.011500 237478.000000
206.022500 223434.000000
208.040200 77331.300000
215.013300 53613.000000
221.992700 95279.800000

