>compound EQ12717880
>parentmass 345.08739999999995
>ionization [M-H]-
>formula C12H18N4O6S
>rt 726.000000
>profile orbitrap
#smiles_iso CCCN(CCC)C1=C(C=C(C=C1[N+](=O)[O-])S(=O)(=O)N)[N+](=O)[O-]
#smiles_can CCCN(CCC)C1=C(C=C(C=C1[N+](=O)[O-])S(=O)(=O)N)[N+](=O)[O-]
#inchikey UNAHYJYOSSSJHH-UHFFFAOYSA-N
#pubchem_id 29393
#mb_accession EQ309951,EQ309952,EQ309953,EQ309954,EQ309955,EQ309956

>ms2peaks
77.965500 798214.400000
234.124200 589610.400000
241.003900 439826.000000
281.125600 10585327.500000
345.087400 344970477.500000

>ms2peaks
61.970600 962546.900000
63.962400 699412.500000
65.014500 1389782.100000
65.998500 1333889.100000
67.030200 176933.200000
73.029500 159350.400000
77.014600 402822.200000
77.965500 9342252.700000
78.973300 763114.500000
79.981200 3693511.500000
89.014600 441075.300000
90.009800 144513.700000
91.030200 755174.300000
92.014200 151379.400000
92.025500 137853.900000
93.009500 539711.800000
95.025100 196069.600000
96.009100 860461.200000
97.040900 150760.900000
105.009500 337187.400000
106.017300 971654.700000
107.025100 1070750.100000
108.032900 1771884.500000
109.017000 145710.500000
109.040400 139846.500000
116.025600 2032436.200000
117.009600 152831.100000
118.041200 872845.300000
119.025200 1964463.600000
120.020400 206570.600000
120.056900 642142.900000
121.028200 196123.200000
121.040800 536969.600000
123.020000 166452.500000
124.027700 166770.000000
129.033300 1013796.900000
131.048800 629641.600000
131.061700 156629.800000
132.020300 182478.600000
132.033000 158301.300000
132.056700 176947.900000
133.028200 730874.000000
134.036000 2175392.900000
135.020100 1196956.600000
135.043800 1221965.500000
136.051700 1090137.600000
137.035500 576091.900000
144.056700 133255.100000
144.069500 178361.700000
145.028100 483531.200000
146.036000 1482520.800000
147.043900 5753152.200000
147.056200 820172.900000
148.027900 785000.800000
148.051700 548655.100000
149.035700 709903.500000
150.030900 2513461.100000
151.038700 598129.600000
152.022700 333374.100000
156.056600 288206.900000
157.064500 786117.000000
158.072300 758909.500000
159.056600 508287.900000
160.051500 1203041.000000
160.064300 572209.600000
161.072000 2056585.000000
162.030900 557456.000000
163.026100 607363.800000
163.087900 160346.100000
164.022900 147826.900000
164.046700 499679.500000
165.041800 452824.100000
171.067700 376328.000000
172.051800 392002.000000
172.075800 676875.000000
173.059400 855928.500000
174.067200 6687134.200000
175.051400 909090.300000
175.075000 937474.800000
176.033800 541640.500000
176.046600 411978.900000
176.059200 138789.200000
176.082900 1581278.300000
177.041800 135252.300000
177.066700 186863.200000
180.029000 4521630.900000
182.020900 4507478.000000
186.010400 415114.300000
187.124100 513667.100000
189.054200 133754.700000
190.062500 582273.700000
191.021200 2200942.500000
191.070100 2369455.200000
192.029000 955477.500000
192.995300 494529.800000
198.981900 340152.600000
200.997200 145197.800000
203.057500 3272505.000000
204.065200 499881.300000
204.077500 158289.600000
208.031400 143152.400000
211.005800 782439.600000
212.013600 927611.400000
212.997100 149459.600000
220.060300 627849.800000
221.068000 1616913.000000
222.034400 1115285.700000
222.088600 185986.300000
223.042100 398281.100000
224.013900 330137.000000
224.049900 358392.600000
225.010100 140814.500000
225.021600 320254.500000
226.988100 1414441.500000
227.000700 452078.900000
228.008700 1221157.600000
228.058000 634479.300000
234.124800 7764364.800000
238.029300 512130.500000
238.071000 1464161.300000
239.037300 160290.700000
240.044800 2780117.500000
241.003800 4242421.200000
244.003500 1007124.600000
256.040000 2249339.400000
258.055400 1034143.300000
268.027500 507539.700000
269.035100 1199456.100000
272.034900 868062.400000
272.993600 235677.300000
281.125500 48046046.300000
282.109900 562452.800000
283.050300 632718.800000
285.030300 333839.000000
286.050500 582087.500000
299.045500 3782199.300000
309.066500 810349.900000
345.087500 127283741.900000

>ms2peaks
57.993500 70109.200000
61.970600 2334935.500000
63.962400 1174283.900000
64.006700 170609.400000
64.019300 425523.800000
65.014500 2848252.600000
65.998500 2893959.900000
67.030200 129545.400000
68.014200 452482.000000
73.029500 358773.900000
74.003600 87466.100000
77.014500 647310.400000
77.965500 21999560.100000
78.973300 1415906.100000
79.981200 6313205.800000
88.019200 97957.200000
89.014500 1950001.200000
89.998400 110820.600000
90.009700 144533.500000
90.022400 140784.900000
91.030200 1745501.000000
92.014200 574248.500000
93.009400 1182618.000000
93.045700 137953.300000
94.029900 326183.300000
95.013700 97717.600000
95.025200 353785.200000
96.009100 937414.700000
96.045600 115069.200000
97.040600 354185.100000
102.009900 808046.700000
102.022500 84567.900000
103.030200 92329.300000
104.038000 85687.700000
105.009300 145543.900000
105.022000 462961.200000
105.045700 185238.400000
106.017300 1531497.500000
106.041200 87363.700000
107.025100 2110235.100000
108.032900 950331.600000
108.045500 118234.700000
109.017000 151404.200000
109.040700 292929.900000
115.030300 142454.200000
116.025500 6430294.100000
117.009500 340270.400000
117.045700 100076.600000
118.041300 1984346.500000
119.025100 2833918.300000
120.020300 114255.000000
120.032800 137345.200000
120.056800 1612496.000000
121.028500 114688.100000
121.040800 1699159.800000
122.025000 558075.900000
122.048600 568680.900000
123.020100 426640.300000
124.027800 670201.500000
129.033300 1565156.100000
130.017300 102458.500000
130.027900 91847.300000
130.041100 469427.400000
131.048900 1361063.000000
131.061400 403038.000000
132.033000 1019188.000000
132.056700 500736.800000
133.028300 1454787.400000
133.040700 728967.700000
133.077000 131029.200000
134.036000 2173531.000000
134.048600 316069.200000
134.061200 333114.600000
135.020200 1056905.100000
135.043900 701210.900000
135.056600 306180.500000
136.051600 1583994.900000
136.064100 127728.200000
137.035600 576860.100000
142.040900 87899.700000
143.061400 166436.700000
144.020200 361609.100000
144.056800 484699.800000
144.069300 716488.900000
145.028100 1231729.200000
145.040700 313449.000000
145.064400 109978.000000
145.077200 148152.800000
146.036000 1931515.200000
146.048500 141715.200000
146.059800 143160.500000
146.072200 598402.400000
147.020100 435941.000000
147.043800 6631041.700000
147.056200 1150319.700000
148.015100 172283.800000
148.027900 1030239.000000
148.051600 434804.200000
149.035500 1172671.900000
149.071900 351307.300000
150.030900 2018827.900000
151.038600 663243.500000
152.022700 1104017.400000
156.056700 496395.600000
157.051600 430546.200000
157.064500 1203663.600000
158.036100 470707.100000
158.048300 107511.700000
158.072300 802242.500000
159.031100 86362.000000
159.043800 160569.000000
159.056700 702546.000000
159.080100 138668.200000
160.038900 148743.700000
160.051700 1368604.200000
160.064200 805489.400000
161.059200 167822.800000
161.072000 2912449.800000
162.031000 1518082.300000
163.014900 360475.500000
163.026100 908078.900000
163.038600 194609.100000
163.051100 172854.500000
163.087800 142097.500000
164.010200 158440.300000
164.022700 193764.200000
165.041700 149296.300000
165.984400 93105.600000
171.067700 482867.300000
172.051700 480047.000000
172.074800 128149.200000
173.059400 1001474.900000
174.067200 6947426.800000
175.051100 952109.500000
175.074900 533484.000000
176.034000 330338.400000
176.046600 337463.200000
176.059000 164595.900000
176.082900 675040.300000
177.041600 427335.700000
177.066900 222770.100000
178.026000 81357.900000
180.028900 1465947.000000
182.020900 2417961.900000
186.010500 981279.400000
186.054700 456001.000000
187.062500 127634.800000
187.124200 392301.900000
188.046500 82992.600000
189.054100 131015.000000
190.062200 441992.700000
191.021300 1247683.000000
191.070000 1118357.100000
192.029000 1698544.500000
192.995000 498623.300000
194.002900 654782.300000
194.987100 372885.800000
196.018500 100695.100000
197.002500 191511.600000
198.982300 79465.100000
199.018200 422272.800000
200.997700 171374.000000
202.049700 178587.400000
203.057500 2381172.100000
204.065200 794715.300000
204.077700 97993.600000
205.036700 223466.900000
207.010400 91239.200000
208.031200 141330.800000
211.005700 1025226.500000
212.013600 1427256.500000
212.997500 486914.200000
220.018300 180355.800000
220.060400 115252.800000
221.068000 1127301.300000
221.997600 106592.500000
222.034400 799406.300000
222.088200 183248.300000
223.042100 1062274.700000
224.013600 517137.000000
224.049800 492379.800000
225.009200 146279.500000
225.021400 316473.200000
225.033100 107034.700000
225.992300 122592.200000
226.988100 2040211.400000
227.000800 1221809.900000
228.008600 2078778.300000
228.057300 420746.300000
234.124400 1119948.400000
238.029600 584601.100000
238.069600 83528.900000
239.037300 181975.800000
240.007900 196667.300000
240.045200 956815.700000
241.003800 3791231.000000
244.003400 1576104.000000
251.025000 310786.300000
255.990500 407389.900000
256.039800 700192.600000
258.055400 691594.300000
267.019600 444070.700000
268.027400 1429765.800000
269.034900 403883.700000
272.034700 511181.400000
272.993700 1162810.100000
281.035100 421032.000000
281.125500 3814639.800000
282.110600 89234.600000
283.050500 397076.500000
285.029200 147975.700000
286.050900 145572.000000
299.046000 1615452.900000
309.066700 82882.300000
345.087600 3551836.300000

>ms2peaks
50.003500 109573.700000
57.993500 126104.500000
61.970600 3160146.100000
63.011500 83600.500000
63.962500 2029163.600000
64.019300 887317.100000
65.014500 3969298.600000
65.998500 4153987.700000
67.030200 343428.900000
68.014200 722558.000000
73.029500 386355.200000
74.003700 150235.100000
76.019200 321398.700000
77.014500 1039039.000000
77.965600 31077526.400000
78.973300 1667812.600000
79.981200 7619482.800000
81.021900 97460.300000
88.006700 160234.500000
88.019200 135663.700000
89.014500 3616671.600000
89.998600 171366.700000
90.009700 177981.700000
90.022400 151809.800000
90.035000 90950.100000
91.030200 1910729.600000
92.014300 888964.700000
93.009500 1493171.100000
93.045800 171399.400000
93.960400 154378.700000
94.029800 621608.000000
95.014200 78243.400000
95.025100 369641.500000
96.009100 519533.700000
97.040800 225063.300000
101.014700 73659.900000
102.009800 944124.200000
102.022400 167004.000000
104.025500 80801.400000
104.038100 159477.100000
105.009400 677771.000000
105.022000 512322.500000
105.045800 334820.800000
106.017300 1968670.300000
106.041000 132139.700000
107.025100 1771923.200000
107.037700 117123.900000
108.033100 945043.400000
108.045600 173757.500000
108.056700 119486.800000
109.017000 139698.700000
109.040700 441262.700000
115.030200 384041.300000
116.025500 7782224.900000
117.009500 445688.400000
117.033400 86731.900000
117.046000 471559.800000
118.041200 1559857.500000
119.025100 2831769.500000
120.009100 177190.500000
120.020400 161366.200000
120.032900 439429.400000
120.045500 159607.100000
120.056800 1900866.200000
121.040800 2907093.000000
122.024800 1014478.500000
122.048600 541224.300000
123.020000 333705.000000
123.056500 91671.600000
124.027900 744954.000000
129.033400 1402392.600000
130.017100 176876.100000
130.041000 438333.100000
131.024900 104003.700000
131.048900 1801873.100000
131.061500 304433.000000
132.020200 133914.600000
132.033000 1999556.200000
132.056700 406012.600000
132.069300 174471.100000
133.028400 1050891.300000
133.040800 1188367.700000
133.077300 197631.100000
134.025000 160201.600000
134.036100 1479806.400000
134.048500 525389.900000
134.061400 611721.300000
135.020300 1051936.300000
135.043900 538819.100000
135.056400 473093.000000
136.051600 1414515.900000
136.064100 165727.100000
137.035700 497792.300000
142.040900 353941.100000
143.061400 448964.400000
144.020200 468275.700000
144.056700 498083.600000
144.069300 588060.600000
145.028200 929311.200000
145.040600 524872.000000
145.064700 149331.600000
145.077100 334037.200000
146.036000 1737004.800000
146.048600 861153.000000
146.059600 139774.400000
146.072400 830695.600000
147.020000 531499.900000
147.043800 6414620.700000
147.056200 1382919.900000
148.015100 136237.500000
148.028000 1196230.400000
148.051700 482429.200000
149.035600 1267326.700000
149.072100 350461.600000
150.030800 824242.600000
151.038800 411968.400000
152.022800 973493.700000
156.056700 527125.400000
157.051900 388216.700000
157.064500 1117264.200000
158.036000 589533.700000
158.048500 153621.700000
158.072100 785805.300000
159.031300 97888.500000
159.043700 347293.100000
159.056700 602601.600000
159.079900 331768.500000
160.039300 195437.000000
160.051800 1213380.200000
160.064200 1197558.600000
161.035700 546520.200000
161.059300 162301.000000
161.072000 2074215.100000
162.030900 1591097.000000
163.014900 441435.100000
163.026100 592138.600000
163.039100 157764.200000
163.051300 129353.500000
163.087800 88224.500000
164.010300 441632.900000
164.046600 115649.900000
165.041900 134469.100000
171.067800 297844.300000
172.051700 566287.000000
173.059500 778390.700000
174.067200 3768579.300000
175.026100 355049.600000
175.051400 714081.000000
175.074800 359959.000000
176.033500 394326.800000
176.046500 325688.300000
176.058900 105458.100000
176.082600 174171.400000
177.041900 793266.900000
177.066700 179010.500000
180.029000 109716.500000
182.021000 917207.900000
183.023500 345720.800000
186.010500 836766.000000
186.054400 349601.000000
187.062500 544559.000000
187.124000 83696.500000
188.046400 77587.800000
190.062000 392300.700000
191.021100 727875.400000
192.029100 1358720.400000
192.994900 414323.000000
194.002900 675156.300000
194.986800 493452.200000
196.018700 385665.900000
197.002400 441328.100000
199.018300 433162.200000
200.997200 317091.600000
202.049900 225494.900000
203.057500 1245393.300000
204.065300 581835.900000
204.077800 123910.300000
205.036300 154918.100000
211.005600 1095829.600000
212.013600 742480.800000
212.997600 351906.300000
220.018300 176386.500000
221.068100 415337.700000
221.997900 125891.100000
222.034200 1067874.200000
223.042100 1125154.400000
224.013400 485171.400000
224.050000 91008.200000
225.033700 142908.000000
226.988100 1083894.100000
227.000700 1086546.700000
228.008400 1570947.100000
238.029100 314529.000000
239.037500 98629.200000
240.008100 172184.300000
240.044800 189908.900000
241.003700 2669696.400000
244.003600 911900.200000
251.024900 653952.200000
255.991100 137002.000000
256.039900 160879.100000
258.055700 151597.200000
267.019300 1047486.600000
268.027300 1279215.700000
272.035200 104627.200000
272.993400 821155.700000
281.035200 98328.400000
281.126000 176373.900000
283.049600 103207.200000
299.045300 364757.200000
309.067200 117131.600000
345.086700 152875.100000

>ms2peaks
57.993400 143914.600000
61.970600 5427322.400000
63.011500 88008.700000
63.962500 3614029.600000
64.006700 333065.700000
64.019300 869770.300000
65.014500 6601660.400000
65.998500 4991578.400000
67.030200 169427.900000
68.014300 522595.800000
73.029600 109513.000000
74.003800 139630.000000
76.019300 425230.800000
77.014500 999423.800000
77.965600 34221299.200000
78.973300 1749360.900000
79.981200 7113881.700000
81.022000 76660.300000
88.006700 181169.700000
88.019200 125233.900000
89.014600 5713405.100000
89.998500 437764.700000
90.009800 325256.600000
90.022300 131543.700000
90.035000 137186.200000
91.030200 1758799.500000
92.014200 1256605.500000
92.025400 134540.000000
93.009400 919712.500000
93.045900 325933.000000
93.960500 183640.900000
94.029900 938120.700000
95.013900 92340.100000
96.009100 361402.100000
97.040700 161324.900000
102.009800 628048.700000
102.022300 180816.000000
103.030400 131863.300000
104.038000 176325.900000
105.009400 370391.000000
105.022000 461122.300000
105.033300 419140.600000
105.046000 367196.200000
106.017400 1506201.600000
106.029800 121238.600000
106.041200 95488.700000
107.025200 1409956.800000
107.037700 98336.200000
108.032900 337991.900000
108.045500 150702.900000
108.056700 117369.900000
109.040900 558416.200000
114.009900 402484.600000
115.030300 978658.300000
116.025500 5996192.900000
117.009500 108436.800000
117.033600 159157.500000
117.046000 545944.000000
118.030100 194409.700000
118.041200 1164369.300000
118.066500 79905.800000
119.025100 2821039.500000
119.061500 144010.800000
120.009100 346655.600000
120.020500 160372.600000
120.032900 331129.300000
120.045100 91803.800000
120.056800 960536.000000
121.040800 3354770.500000
122.024800 1165307.800000
122.048600 349229.600000
124.027500 108995.900000
129.033300 1020949.800000
130.017100 123283.800000
130.040900 177092.200000
130.053500 338688.800000
131.025000 375208.100000
131.048900 1988535.400000
131.061600 322276.500000
132.020200 386228.900000
132.033000 2352784.700000
132.056300 232687.300000
132.069300 191456.700000
133.028400 722907.900000
133.040800 1926343.200000
133.077000 161381.100000
134.024900 168459.000000
134.036000 1022246.500000
134.048700 152580.400000
134.061500 224195.700000
135.020200 804415.300000
135.056500 442714.300000
136.051700 868805.800000
136.063900 104550.600000
137.035600 173841.600000
142.041200 698269.200000
143.061500 790567.800000
144.020200 162262.300000
144.056500 597773.300000
144.069300 183652.500000
145.027800 555731.200000
145.040800 1009626.900000
145.064400 82266.300000
145.077100 405724.200000
146.036100 1286121.900000
146.048700 979917.300000
146.072400 597552.000000
147.019900 645562.600000
147.043800 4455400.100000
147.056400 1420383.000000
148.027800 856806.000000
148.051700 299976.800000
149.035600 1000193.000000
150.030900 128416.800000
152.023100 136426.300000
156.056900 917194.800000
157.051900 114718.700000
157.064500 771771.800000
158.036000 376290.400000
158.048600 317223.600000
158.072300 319317.700000
159.043700 194073.300000
159.056500 756271.300000
159.080400 125917.000000
160.039300 318097.800000
160.051600 1146984.400000
160.064300 1021274.800000
161.023100 140677.000000
161.035500 330598.900000
161.059600 89855.600000
161.072000 800535.900000
162.031100 929434.600000
163.015000 462247.100000
163.025900 91210.800000
163.051500 172076.800000
165.984400 69943.700000
169.051800 757217.000000
170.059500 117494.600000
171.067800 89609.700000
172.051700 183931.400000
173.059600 420926.500000
174.067400 976373.300000
175.026200 99272.300000
175.051100 414887.600000
175.075800 91121.900000
176.046600 319148.800000
177.041500 346346.900000
182.020900 131226.800000
183.023100 348459.200000
186.010200 352170.700000
187.062200 666424.300000
188.046700 305874.600000
190.062300 149754.300000
191.021300 142067.300000
192.029000 197575.600000
192.995000 174000.300000
194.003200 386392.700000
194.987000 339922.700000
196.018500 128951.500000
197.002800 459341.200000
199.018500 194239.200000
202.049800 442536.900000
203.057400 173821.700000
204.065400 112709.000000
207.011100 105588.700000
211.005500 408606.200000
212.013800 400762.400000
212.997800 155241.500000
220.018200 377902.600000
221.997400 93183.700000
222.034200 1479631.500000
223.041800 147896.000000
224.013400 88362.600000
226.988400 150023.000000
227.000200 180316.700000
228.008500 853537.800000
241.003900 512098.600000
244.003200 180597.100000
251.024900 368583.600000
267.019400 1048203.900000
272.993600 183318.700000

>ms2peaks
50.003500 69720.800000
57.993500 89684.000000
61.970600 7429438.800000
63.011400 128433.600000
63.962400 5340340.800000
64.006800 499961.200000
64.019300 1239715.000000
65.014500 6430009.100000
65.998500 6051824.100000
67.030200 370588.800000
68.014200 653869.400000
74.003600 305758.900000
76.019300 673741.300000
77.014600 660344.600000
77.965600 35115282.100000
78.973400 1924604.400000
79.981200 5793273.700000
88.006900 182196.900000
89.014600 6462560.900000
89.998600 524036.800000
90.009800 351368.000000
90.022500 162638.800000
90.035000 190323.500000
91.030200 1094415.400000
92.014300 723383.600000
92.025500 91217.800000
93.009500 413891.900000
93.045800 373584.600000
93.960500 118447.800000
94.029900 1068027.200000
95.013800 141880.100000
97.040700 146201.500000
101.014700 101169.900000
102.009800 359442.000000
103.030200 104135.600000
104.025400 85335.100000
104.038000 504323.500000
105.009600 110960.400000
105.022100 369138.100000
105.033300 299782.900000
105.045800 115446.400000
106.017300 996479.700000
106.029800 107924.900000
106.041100 108498.900000
107.025200 1051706.800000
107.037500 110650.600000
108.032900 136188.800000
108.045600 143304.700000
109.017000 81078.600000
109.040800 381473.100000
114.009900 129941.600000
115.030300 1553871.300000
116.025600 3519535.200000
117.033400 87133.300000
117.046000 739064.900000
118.029800 150208.500000
118.041200 708083.800000
118.066400 129442.400000
119.025100 2138301.900000
119.061400 395788.100000
120.009000 299500.900000
120.020700 100817.600000
120.032700 69868.400000
120.045500 143790.000000
120.056800 631130.800000
121.040800 2320347.500000
122.024800 591986.400000
122.048700 126861.200000
123.056100 71608.600000
129.033400 1039160.700000
130.017400 275001.000000
130.028400 99273.100000
130.041000 360113.200000
130.053700 526692.800000
131.025200 743222.500000
131.048900 1428031.800000
131.061600 187846.500000
132.033000 2398037.900000
132.056700 174334.500000
132.069300 374791.000000
133.028000 265872.900000
133.040800 1707832.100000
134.024800 459512.100000
134.036000 388143.000000
134.048800 110796.500000
134.061200 175619.600000
135.020000 458053.400000
135.056400 165578.500000
136.051700 331603.000000
137.035600 173393.000000
142.041000 755071.100000
143.061500 666336.300000
144.020500 128711.400000
144.056800 584732.800000
145.028300 168386.400000
145.040600 1228703.100000
145.077200 159323.900000
146.036100 769210.200000
146.048700 906680.700000
146.072400 134548.100000
147.020100 715387.000000
147.043900 2150127.800000
147.056600 977554.500000
148.027900 369163.600000
148.051400 122840.700000
149.035500 366613.800000
149.071600 102725.500000
156.056700 443219.500000
157.064400 456654.700000
158.035800 303383.300000
158.048500 105449.600000
158.072200 118816.000000
159.056500 373998.100000
159.079500 80206.900000
160.051500 393817.600000
160.064200 320830.200000
161.023100 112762.100000
161.035500 347717.400000
161.072200 154886.700000
162.030900 354139.100000
163.014900 367250.900000
169.052100 868011.100000
170.059700 107887.100000
172.051900 317787.200000
173.059300 313918.000000
183.023300 189652.900000
187.062500 170770.500000
188.046400 151698.700000
194.987200 167185.000000
197.002800 136877.300000
202.049500 106213.600000
203.057000 109112.500000
211.005600 93670.700000
220.018600 417594.300000
222.034300 998182.900000
241.004200 91059.000000
267.019900 379002.500000

