>compound EQ12295124
>parentmass 266.0895
>ionization [M-H]-
>formula C10H13N5O4
>rt 258.000000
>profile orbitrap
#smiles_iso CC1=CN(C(=O)NC1=O)[C@H]2C[C@@H]([C@H](O2)CO)N=[N+]=[N-]
#smiles_can CC1=CN(C(=O)NC1=O)C2CC(C(O2)CO)N=[N+]=[N-]
#inchikey HBOMLICNUCNMMY-XLPZGREQSA-N
#pubchem_id 35370
#mb_accession EQ328751,EQ328752,EQ328753,EQ328754,EQ328755,EQ328756

>ms2peaks
122.061200 223832.900000
125.035600 1579731.800000
150.055900 548119.600000
162.056000 257891.600000
180.066500 643790.100000
193.061800 2773095.000000
223.072300 31425932.000000
266.089400 7088305.500000

>ms2peaks
122.061200 567481.200000
124.040400 20807.700000
125.035600 967074.200000
134.061000 18714.600000
150.055900 794157.400000
162.056000 366892.700000
180.066700 362235.200000
193.061700 1392455.600000
223.072300 5249030.500000
266.089500 242693.000000

>ms2peaks
97.029600 20129.500000
107.037700 14401.900000
122.061100 632753.200000
124.041000 17667.100000
125.035600 239032.000000
134.061100 62243.200000
147.032500 59169.700000
150.056000 370344.500000
162.056100 171141.900000
180.066500 25826.800000
193.061600 93274.500000
223.072400 98830.400000

>ms2peaks
107.037600 62672.200000
122.061100 453521.200000
125.035500 58850.000000
134.061100 63769.100000
147.032500 19921.600000
150.055800 54543.700000
161.048100 18335.700000

>ms2peaks
107.037700 34596.700000
122.061100 202215.200000
134.061100 20056.100000

>ms2peaks
107.037600 68522.400000
121.053200 20913.100000
122.061100 94788.200000

