>compound EQ13985426
>parentmass 367.2238
>ionization [M-H]-
>formula C19H32N2O5
>rt 450.000000
>profile orbitrap
#smiles_iso CCCC(C(=O)OCC)NC(C)C(=O)N1C2CCCCC2CC1C(=O)O
#smiles_can CCCC(C(=O)OCC)NC(C)C(=O)N1C2CCCCC2CC1C(=O)O
#inchikey IPVQLZZIHOAWMC-UHFFFAOYSA-N
#pubchem_id 4169159
#mb_accession EQ302651,EQ302652,EQ302653,EQ302654,EQ302655,EQ302656

>ms2peaks
96.081800 50157.800000
124.076800 477292.900000
168.102900 2269610.100000
180.139400 328822.100000
222.113600 111679.500000
224.129200 397088.400000
237.124300 161594.600000
249.197200 484212.700000
259.180900 48527.900000
277.192100 157545.700000
293.187400 103423.100000
321.181400 84901.200000
367.223600 34436606.600000

>ms2peaks
68.050600 37175.100000
72.045600 12266.400000
73.029500 77103.600000
83.050200 275819.500000
96.081900 789594.000000
98.097600 47557.900000
109.053400 13799.800000
120.082000 36360.800000
122.097600 14021.000000
124.076800 4007729.600000
126.092300 96993.300000
129.092200 105441.100000
136.076800 42497.500000
138.092600 33563.200000
152.071900 16271.800000
154.087400 238365.500000
166.087200 51826.100000
168.102900 12239867.100000
178.123600 82143.700000
180.139400 2215759.000000
194.118700 44778.900000
206.118700 178228.500000
208.134600 52616.700000
208.170800 95321.400000
219.113600 60703.300000
221.165600 39942.800000
221.202300 328320.900000
222.113500 224420.000000
223.121000 31135.400000
224.129100 433671.200000
237.124500 454940.500000
249.197200 2223047.900000
259.181500 293681.300000
260.165700 33359.300000
277.192000 366589.700000
293.187100 298068.700000
321.182100 128243.400000
367.223600 5749427.400000

>ms2peaks
55.019000 29924.800000
68.050600 38340.800000
72.045600 41353.900000
73.029500 74488.200000
81.022100 33282.300000
81.034600 13290.600000
83.050300 484006.600000
85.065900 18166.700000
95.037700 101618.700000
96.081900 885758.600000
98.097500 35377.100000
106.066300 14341.800000
109.053400 72335.400000
120.081900 84757.000000
122.097500 54997.500000
124.076800 2763896.800000
126.092500 152520.600000
129.092100 24226.100000
136.076800 61304.000000
150.092400 13234.900000
151.087600 28088.800000
152.071600 35676.100000
152.108100 12897.800000
154.087300 99740.500000
166.087300 37888.900000
168.103000 10550891.700000
176.107800 11807.500000
177.103100 40160.200000
178.123600 81185.500000
180.139400 876842.800000
206.118600 142813.700000
208.170600 68014.700000
216.126500 10926.200000
219.114100 17825.900000
221.129900 11100.700000
221.166100 31128.000000
221.202400 109830.400000
222.113500 14883.600000
224.129000 15401.700000
231.186400 15089.400000
237.125000 65413.400000
245.165900 23814.100000
249.197200 413321.700000
259.181500 102634.400000
277.191900 33049.700000
293.187500 25579.600000
367.223500 66774.000000

>ms2peaks
55.018900 55952.700000
57.034700 10416.800000
68.050600 13468.400000
72.045500 42380.900000
73.029500 48939.900000
81.022000 46014.200000
81.034600 46395.400000
83.050300 503742.700000
85.066000 10613.600000
94.066200 10406.500000
95.037700 159957.900000
96.081900 528287.600000
97.066000 9268.600000
98.097700 10508.500000
106.066200 31418.100000
109.053400 130651.600000
120.081900 77841.400000
122.097700 74659.500000
124.076800 1529769.100000
126.092400 112010.900000
136.076900 24432.600000
150.092500 14961.000000
151.087900 24579.900000
152.071800 8619.400000
154.087300 29219.400000
160.112800 9060.600000
166.087300 40276.900000
168.103000 8346674.200000
176.108100 12945.200000
177.103200 33684.300000
178.123600 73145.600000
180.139400 236375.900000
206.118400 81901.700000
208.170700 31234.100000
216.126200 11594.100000
221.129400 8654.000000
221.166200 9634.800000
221.202300 29728.500000
245.166100 12200.000000
249.197300 55370.200000
259.181900 35279.900000
277.192000 9203.500000

>ms2peaks
55.018900 96657.900000
57.034600 13693.200000
66.034900 8729.000000
68.050700 14001.200000
71.050200 7204.000000
72.045500 41303.900000
73.029600 27852.300000
81.022000 48834.700000
81.034600 65935.600000
83.050200 390565.400000
85.065900 11069.200000
94.066200 12198.700000
95.037700 165814.400000
96.081900 180915.000000
97.065800 8276.400000
106.066200 15193.300000
108.081800 8339.100000
109.053300 169568.200000
120.082000 75061.100000
122.097600 63921.700000
124.076800 563394.400000
126.092400 51148.100000
136.076900 24718.100000
150.092400 22438.900000
151.087700 23972.400000
152.108100 12765.200000
160.113100 8191.600000
166.087300 51777.200000
168.103000 4521233.800000
177.103100 13861.300000
178.123500 15149.900000
180.139400 35870.400000
206.118500 58457.300000
215.119200 6958.000000

>ms2peaks
55.018900 118477.800000
66.035000 12453.200000
68.050700 12462.800000
71.050200 6129.800000
72.045500 28935.500000
73.029600 17520.400000
81.022000 61559.700000
81.034600 91765.100000
83.050200 318174.800000
94.066300 13121.300000
95.037600 133813.900000
96.081900 67042.200000
97.065800 9679.100000
106.066100 10834.200000
109.053300 151774.400000
120.082000 45781.700000
122.097500 30991.000000
124.076800 135358.700000
126.092400 10858.200000
151.087300 13030.200000
166.087300 36563.000000
168.103000 1516377.600000
206.118100 15018.400000
215.119500 7357.800000

