>compound EQ14853503
>parentmass 327.127
>ionization [M-H]-
>formula C19H21ClN2O
>rt 828.000000
>profile orbitrap
#smiles_iso C1CCC(C1)N(CC2=CC=C(C=C2)Cl)C(=O)NC3=CC=CC=C3
#smiles_can C1CCC(C1)N(CC2=CC=C(C=C2)Cl)C(=O)NC3=CC=CC=C3
#inchikey OGYFATSSENRIKG-UHFFFAOYSA-N
#pubchem_id 91692
#mb_accession EQ306451,EQ306452,EQ306453,EQ306454,EQ306455,EQ306456

>ms2peaks
92.050500 133587.000000
98.061100 11474.700000
111.000600 252425.300000
118.030000 40494.600000
126.011500 39449.600000
135.995900 16049.800000
151.990800 19417.500000
154.990600 7664.700000
166.006500 94504.600000
186.092200 7379.400000
206.074200 43045.400000
208.089800 90442.900000
220.053300 21635.700000
258.056300 8223.100000
259.064300 53172.800000
327.126900 4455717.800000

>ms2peaks
57.993400 1884.600000
83.050200 6901.000000
92.050600 854476.000000
98.061100 13141.300000
111.000700 1374344.400000
118.029900 110839.100000
126.011600 97203.000000
135.995900 63677.900000
138.011400 2433.400000
151.990900 44563.000000
154.990500 70362.300000
166.006500 97668.800000
170.097600 2322.100000
172.113000 7139.200000
186.092600 13121.700000
206.074200 30985.800000
208.089800 114657.500000
220.053300 15869.200000
258.056400 4038.500000
259.063900 11836.000000
327.126900 157490.400000

>ms2peaks
83.050300 3420.200000
92.050600 1159357.300000
98.061200 4221.300000
102.034900 1820.700000
111.000700 1463483.800000
118.030000 42821.300000
126.011600 57350.000000
135.995800 17919.300000
151.990900 16049.700000
154.990600 77132.600000
166.006500 7350.000000
170.097700 2581.700000
172.113000 4311.900000
206.074500 9496.300000
208.089800 8087.300000
220.054100 2369.600000

>ms2peaks
81.034600 2131.800000
83.050300 2576.600000
92.050600 1176619.500000
102.034800 1965.900000
111.000700 1295240.100000
118.030000 20240.500000
126.011700 41627.200000
135.995900 2700.100000
151.990900 7394.800000
154.990600 68370.800000
170.097500 2546.000000
183.011900 1984.500000
186.092600 2212.400000

>ms2peaks
81.034600 3254.300000
83.050300 2109.800000
92.050600 1101827.300000
102.035000 1943.600000
111.000700 628173.500000
126.011700 16570.800000
151.991000 2110.900000
154.990700 26901.500000

>ms2peaks
81.034600 1778.300000
92.050600 914907.800000
111.000700 155462.000000
126.011800 3732.900000
154.990600 8948.100000
183.011600 2285.400000

