>compound EQ15728385
>parentmass 502.0708
>ionization [M-H]-
>formula C17H21N5O9S2
>rt 534.000000
>profile orbitrap
#smiles_iso COC1=CC(=NC(=N1)NC(=O)NS(=O)(=O)C2=C(C=CC(=C2)CNS(=O)(=O)C)C(=O)OC)OC
#smiles_can COC1=CC(=NC(=N1)NC(=O)NS(=O)(=O)C2=C(C=CC(=C2)CNS(=O)(=O)C)C(=O)OC)OC
#inchikey NIFKBBMCXCMCAO-UHFFFAOYSA-N
#pubchem_id 11409499
#mb_accession EQ317051,EQ317052,EQ317053,EQ317054,EQ317055,EQ317056

>ms2peaks
78.986000 570257.900000
154.062200 787969.100000
209.001800 102639.200000
239.997200 124195.800000
267.008200 27199255.300000
268.015900 168798.400000
269.023500 170638.300000
288.995900 8926050.000000
321.022000 5513051.113000
347.001200 75325362.700000

>ms2peaks
63.962400 792361.000000
65.014600 114668.000000
78.985900 4617255.900000
93.996800 309127.700000
122.036000 141349.900000
139.038500 120069.700000
154.062200 7206033.100000
160.040200 129454.400000
209.002100 189326.800000
236.997500 126956.200000
239.997200 3886106.100000
264.992400 383066.500000
267.008100 75430672.400000
268.015600 223128.100000
269.023600 684728.800000
288.995800 16597972.500000
347.001200 4619072.700000

>ms2peaks
61.970500 1509018.400000
63.962400 3509526.900000
65.014400 967035.900000
65.998500 486417.700000
78.985900 9250917.700000
82.017300 35204.700000
90.009700 155841.500000
92.050400 108026.100000
93.996800 796003.100000
97.040800 152420.300000
102.034800 128689.200000
105.960400 3400138.400000
107.012500 507651.100000
120.045600 40646.100000
122.036000 1304419.500000
124.051500 291358.000000
132.045300 45264.800000
139.038700 884463.300000
145.040800 389324.100000
148.040500 45759.300000
154.062200 8728888.600000
159.032400 165595.700000
160.040500 105463.600000
176.035200 228334.900000
180.983800 152318.500000
181.991900 43244.200000
182.028200 283251.200000
204.030300 455259.200000
209.002700 1772381.800000
210.010400 440140.600000
211.018300 326887.200000
236.997400 170714.600000
239.997300 21895569.900000
264.992700 2246757.900000
267.008200 32250700.900000
269.023600 758271.700000
288.995900 13041942.300000

>ms2peaks
61.970500 3049528.900000
63.962400 6075003.700000
65.014400 1882522.300000
65.998500 1558962.800000
75.024000 35678.100000
78.985900 7097466.600000
82.017300 190475.100000
90.009800 265909.900000
92.050500 113190.500000
93.996800 923509.800000
97.040700 215359.400000
102.034900 220401.100000
105.960400 2413182.600000
107.012500 1243605.200000
108.020200 36437.700000
116.014100 36004.100000
117.021900 58258.200000
118.029900 114850.000000
120.009200 27674.200000
120.045500 42782.600000
122.036000 2556237.800000
124.051600 364103.700000
132.045500 33183.000000
139.038700 1428576.600000
143.025300 48288.000000
145.040700 319452.300000
146.024800 52180.800000
148.040400 57340.000000
154.062200 4328052.800000
159.032500 40822.800000
160.040200 29404.500000
176.035300 115173.300000
180.984000 521316.200000
181.992100 165228.266900
182.028200 758429.700000
194.999400 658582.600000
201.030700 106611.800000
204.030100 258612.700000
209.002600 5251842.400000
210.010500 485367.100000
211.018200 486664.700000
236.997600 105149.400000
239.997300 9418839.500000
264.992600 1018849.000000
267.008200 3352965.300000
269.023600 216084.900000
288.995900 3485405.900000

>ms2peaks
61.970500 2642238.600000
63.962400 10481633.800000
65.014400 2146801.700000
65.998500 3402966.000000
75.024000 176679.200000
78.973300 396084.100000
78.985900 5600057.700000
82.017200 236612.900000
89.027100 28711.800000
90.009800 350412.400000
92.050600 102718.200000
93.996800 1097557.300000
97.040800 170555.200000
102.035000 201949.300000
105.960400 1024076.100000
107.012500 2186788.300000
108.020400 192463.600000
109.028200 25270.200000
116.038100 27302.200000
117.022000 112085.700000
118.029900 165134.400000
120.009100 133011.300000
120.045400 51396.400000
122.036000 2577577.500000
124.051500 257989.500000
139.038700 1394638.200000
143.025200 32612.500000
145.040800 184993.100000
146.025000 171811.300000
148.040300 35758.600000
154.062200 1608389.800000
176.035100 93030.100000
180.984000 907412.000000
181.991800 122250.100000
182.028200 399043.100000
194.999600 724535.200000
201.030500 49800.000000
204.030100 30325.700000
209.002600 5846848.900000
210.010700 93490.600000
211.018400 310959.100000
239.997300 1503390.300000
264.992000 184875.163700
267.008200 240629.500000
288.995700 322262.100000

>ms2peaks
61.970500 1409618.600000
63.962400 10019967.800000
65.014400 1560884.900000
65.998500 4371898.200000
75.024000 155915.900000
78.973300 568445.000000
78.985900 2946463.900000
82.017200 131982.600000
89.027100 34586.800000
90.009800 283867.300000
93.996800 700102.200000
97.040800 35034.100000
102.034800 111522.600000
105.960400 257381.600000
107.012500 2141906.200000
108.020300 116109.700000
109.028200 25647.400000
116.014200 47295.100000
116.037600 19924.400000
117.022000 29139.100000
118.029700 117497.700000
120.009100 40037.600000
120.045300 28881.700000
122.036000 1212910.000000
124.051400 41191.600000
139.038700 545920.200000
145.040500 99652.500000
146.024700 24361.000000
154.062100 260798.500000
180.983900 693884.100000
181.991700 90987.200000
194.999600 409313.800000
209.002600 3289134.500000
211.018300 62681.400000

