>compound EQ15776600
>parentmass 545.0919
>ionization [M-H]-
>formula C22H22N6O7S2
>rt 198.000000
>profile orbitrap
#smiles_iso CC(C)(C(=O)O)O/N=C(/C1=CSC(=N1)N)\C(=O)N[C@H]2[C@@H]3N(C2=O)C(=C(CS3)C[N+]4=CC=CC=C4)C(=O)[O-]
#smiles_can CC(C)(C(=O)O)ON=C(C1=CSC(=N1)N)C(=O)NC2C3N(C2=O)C(=C(CS3)C[N+]4=CC=CC=C4)C(=O)[O-]
#inchikey ORFOPKXBNMVMKC-DWVKKRMSSA-N
#pubchem_id 5481173
#mb_accession EQ323851,EQ323852,EQ323854,EQ323855,EQ323856

>ms2peaks
57.034600 3990.700000
57.975600 28900.500000
65.014500 727.900000
81.009400 4530.700000
83.025100 877.900000
96.986600 14643.000000
99.002000 810.900000
100.022700 966.900000
103.040000 269645.900000
108.020300 21521.500000
117.045800 2699.500000
123.997400 82158.200000
135.031200 3701.100000
151.033400 3049.600000
151.992200 1635.700000
163.008200 1488.600000
165.023800 1581.500000
165.995500 2935.000000
167.003300 907.500000
209.013800 3742.000000

>ms2peaks
57.034500 13690.700000
57.975600 39116.600000
65.014500 4874.400000
67.030200 641.000000
81.009400 5275.400000
81.975800 994.500000
83.025100 4312.600000
83.991300 1173.000000
85.029600 728.800000
92.025400 4946.300000
96.986600 41941.100000
98.007300 2090.400000
99.002200 4379.800000
100.022700 5504.900000
103.040000 215140.200000
104.038100 829.400000
105.045800 1388.100000
108.020300 13063.900000
111.002300 1580.900000
117.045900 5829.000000
120.020100 851.700000
122.035800 1271.800000
122.989600 4077.800000
123.997400 64852.500000
124.981400 5459.400000
126.013100 3780.000000
132.044100 1148.200000
133.040700 5066.500000
135.031200 2974.400000
135.997500 778.400000
138.000700 3864.100000
138.013100 3852.400000
138.997100 1570.200000
142.008100 1150.000000
147.031400 3292.300000
151.992300 3199.600000
163.008000 1328.600000
165.023800 1086.400000
165.995200 772.000000
167.003300 1436.900000

>ms2peaks
57.034500 37813.900000
57.975600 63545.100000
65.014500 19283.300000
65.998600 2928.200000
66.009800 1383.700000
67.030200 4111.900000
70.983500 2691.700000
71.991300 1310.600000
77.014500 958.000000
79.017600 3342.600000
81.009500 774.500000
81.975700 9275.500000
82.029900 928.200000
83.025100 883.300000
83.991300 4853.900000
89.014700 808.000000
90.009800 5607.600000
90.034900 991.600000
91.030300 912.600000
92.025400 11419.500000
93.009400 3095.700000
95.025300 856.800000
95.978800 1673.600000
96.020300 1184.500000
96.986600 38864.700000
98.007000 6471.300000
99.002200 1223.500000
99.986200 925.700000
100.022700 9190.000000
103.040100 78863.000000
104.012800 4042.000000
104.037900 3042.900000
105.045800 1448.700000
108.020300 3978.500000
108.986600 2654.500000
111.002100 2946.500000
117.020500 1180.600000
117.045800 1308.600000
120.020000 2913.500000
121.994400 1041.700000
122.035900 1558.400000
122.989700 5908.700000
123.997400 13639.700000
124.981500 3826.600000
126.013100 2693.900000
132.044000 1252.700000
134.023300 1160.200000
135.031100 1999.600000
135.997200 2815.100000
136.027800 1738.300000
138.000700 955.300000
138.012800 836.000000
138.997500 1091.600000
151.992000 1084.200000

>ms2peaks
56.980400 2963.700000
57.034500 34373.500000
57.975600 54605.300000
65.014500 19012.000000
65.998500 5149.800000
66.009800 1463.300000
67.030200 3991.400000
70.983500 4888.800000
70.996200 1201.900000
71.991400 1117.900000
79.017700 2833.400000
81.009600 833.900000
81.975700 14323.500000
83.025000 781.900000
83.991400 5270.600000
90.009700 1488.800000
90.035100 1366.900000
91.030100 790.300000
92.025400 7015.000000
93.009600 2993.500000
95.025100 1535.200000
95.978800 4673.000000
96.020300 726.800000
96.986600 18782.100000
98.007000 6147.700000
99.002200 1027.100000
100.022600 6333.200000
103.040100 27348.800000
104.012900 4902.800000
104.037900 1237.400000
105.033100 816.600000
105.045700 847.500000
108.020400 1020.900000
108.986400 3020.200000
120.020300 2813.700000
122.036200 880.700000
122.989500 4185.000000
123.997400 4541.900000
124.981300 1623.500000
132.044000 1106.700000
133.040900 897.000000
135.997000 738.500000

>ms2peaks
57.034500 29447.700000
57.975700 59464.500000
65.014500 22727.400000
65.998500 3825.300000
66.009800 696.900000
67.030200 3348.200000
70.983500 2829.400000
77.014500 1355.100000
79.017700 1175.200000
81.975700 15706.300000
82.029900 1107.200000
83.991300 4255.900000
90.009700 5594.400000
91.030200 1306.900000
92.025400 8509.600000
93.009500 2932.700000
95.978800 4580.300000
96.986600 8398.400000
98.007100 5729.100000
99.002200 785.100000
100.022600 3248.600000
103.040100 7079.300000
104.012800 3088.300000
104.037900 1116.200000
105.045700 1171.700000
106.028600 1096.800000
108.986600 1116.200000
117.020600 855.000000
121.994200 983.100000
122.989800 1619.800000
124.981200 909.700000
136.027200 759.200000

