>compound EQ16963691
>parentmass 135.0312
>ionization [M-H]-
>formula C5H4N4O
>rt 72.000000
>profile orbitrap
#smiles_iso C1=NNC2=C1C(=O)NC=N2
#smiles_can C1=NNC2=C1C(=O)NC=N2
#inchikey OFCNXPDARWKPPY-UHFFFAOYSA-N
#pubchem_id 135401907
#mb_accession EQ333651,EQ333652,EQ333653,EQ333654,EQ333655,EQ333656

>ms2
64.019200 475811.400000
65.014400 181464.500000
65.998400 50267.800000
79.030200 110933.800000
92.025400 10351673.000000
107.025100 980139.900000
135.031200 22652404.000000

>ms2
64.019200 426670.400000
65.014400 163505.100000
65.998500 74344.800000
79.030200 119161.900000
92.025400 10166773.000000
107.025100 899372.600000
135.031200 21884762.000000

>ms2
64.019200 878411.000000
65.014500 318410.700000
65.998400 93223.700000
79.030200 212294.500000
92.025400 13820836.000000
107.025100 1344675.900000
135.031200 15578745.000000

>ms2
64.019200 2303743.800000
65.014500 753402.100000
65.998500 268377.900000
66.009700 27502.000000
79.030200 297338.900000
92.025400 16366309.000000
93.009300 37776.100000
107.025100 1486623.800000
135.031200 6703718.000000

>ms2
64.019200 3393301.800000
65.014500 1253750.400000
65.998500 486850.500000
66.009700 45106.700000
79.030200 284615.000000
92.025400 11913146.000000
93.009400 41631.400000
107.025100 957954.900000
135.031300 1976541.100000

>ms2
64.019200 4162130.200000
65.014500 1798227.900000
65.998500 871059.200000
66.009600 55802.500000
79.030200 176865.800000
92.025400 8301620.000000
93.009300 37067.000000
107.025100 489982.300000
135.031300 626466.300000

