>compound EQ17556619
>parentmass 823.436
>ionization [M-H]-
>formula C41H60N8O10
>rt 582.000000
>profile orbitrap
#smiles_iso C/C=C\1/C(=O)N[C@H]([C@@H](C(=O)N[C@H](C(=O)N[C@H]([C@@H](C(=O)N[C@H](CCC(=O)N1C)C(=O)O)C)/C=C/C(=C/[C@H](C)[C@H](CC2=CC=CC=C2)OC)/C)CCCN=C(N)N)C)C(=O)O
#smiles_can CC=C1C(=O)NC(C(C(=O)NC(C(=O)NC(C(C(=O)NC(CCC(=O)N1C)C(=O)O)C)C=CC(=CC(C)C(CC2=CC=CC=C2)OC)C)CCCN=C(N)N)C)C(=O)O
#inchikey IXBQSRWSVIBXNC-HSKGSTCASA-N
#pubchem_id 14217092
#mb_accession EQ325251,EQ325252,EQ325253,EQ325254,EQ325255,EQ325256

>ms2peaks
128.035400 36548.100000

>ms2peaks
66.035000 5984.100000
67.030200 8582.100000
72.045500 21211.700000
73.029500 39505.500000
74.024700 37841.700000
80.050400 4154.900000
81.045700 11370.800000
82.029900 75314.400000
84.045500 116084.300000
86.024800 6571.700000
96.045500 9892.400000
98.024700 9885.700000
98.061200 27045.200000
100.003900 19443.600000
101.072100 3836.900000
110.024800 187353.000000
111.032700 9238.900000
111.056500 4986.800000
112.040400 124254.800000
112.077100 7589.900000
113.072100 189761.100000
114.056100 19103.200000
122.048800 6946.600000
122.061100 23468.000000
124.040400 56424.500000
125.024500 6060.900000
126.056300 3653.600000
127.051400 51572.900000
128.035300 2646078.700000
129.038600 4983.200000
130.050900 34420.200000
131.086600 47759.900000
136.051500 5379.300000
137.072000 253766.700000
138.056000 125850.600000
138.067200 229419.700000
139.051300 67141.200000
140.071900 21101.600000
141.067200 5711.800000
142.050800 8141.100000
145.061400 11614.600000
149.072000 39086.500000
150.055400 7506.400000
153.103300 3897.500000
154.013900 4035.800000
155.082400 19962.400000
155.093800 17757.300000
163.087500 16925.900000
168.113900 5393.100000
178.098600 6477.300000
179.082600 6267.600000
180.114200 31044.900000
181.098300 74647.300000
184.061300 38667.200000
198.125000 5194.000000
206.094000 5397.400000

>ms2peaks
58.029800 51969.600000
58.041100 19393.000000
66.034900 61102.800000
67.018900 7633.900000
67.030200 48092.200000
69.034600 8183.200000
70.029900 8849.000000
70.066200 6753.000000
71.050300 5843.300000
72.009200 17968.700000
72.045500 192679.400000
73.029500 91894.800000
74.024700 281667.900000
80.050600 23333.000000
81.022000 6582.200000
81.045900 9090.500000
82.029800 277392.100000
83.061500 22893.500000
84.045500 536927.500000
85.029500 24006.700000
86.024800 7635.500000
86.061200 27708.400000
91.055400 33150.900000
94.029800 16413.100000
94.066300 7437.000000
95.037800 20872.000000
95.061400 7740.300000
96.045500 80095.200000
96.082000 8410.600000
97.040800 7368.100000
98.024700 17234.200000
98.061200 109807.600000
100.004100 34115.900000
100.040500 21507.800000
101.072000 43345.300000
102.056000 48269.300000
106.066100 8580.800000
107.024900 5141.100000
107.050200 5958.900000
108.045500 38996.700000
108.056700 6282.400000
108.081900 34315.900000
109.040700 34442.900000
110.024800 833953.900000
110.061200 47854.200000
111.032600 42976.000000
111.056300 34018.200000
112.040400 439116.600000
112.076800 64516.900000
112.088000 28838.900000
113.072100 823356.700000
114.056100 45774.700000
121.040600 16300.200000
121.053200 26823.400000
122.048600 93521.600000
122.061100 52021.300000
122.097500 29222.600000
123.032500 43682.200000
123.056500 20684.500000
124.040400 84934.800000
124.076700 27783.500000
125.035500 4784.000000
125.071900 4506.800000
126.055900 7962.000000
127.051300 108610.000000
128.035300 2052958.100000
129.038900 5930.700000
130.050900 72857.800000
130.098600 35080.200000
131.086600 203312.600000
135.056400 21580.200000
136.040300 7923.900000
136.051600 20561.200000
136.076700 48227.400000
137.072000 479565.000000
138.056000 284945.700000
138.067200 133513.100000
139.051300 153735.000000
139.087600 30148.800000
140.071700 55527.600000
140.082700 29643.200000
141.066800 33714.200000
142.050900 15965.300000
145.061600 9708.900000
146.045900 7749.300000
149.071900 89667.600000
150.055800 27967.700000
150.092400 7011.300000
151.087700 43272.000000
152.071800 24372.200000
153.103100 35766.900000
154.098500 36491.800000
155.082500 39963.600000
155.093700 6218.700000
156.077900 21142.300000
163.087500 35693.900000
164.071700 46815.900000
166.074400 4130.300000
168.113900 51925.600000
169.097800 4778.500000
171.118000 8072.100000
176.108000 17828.400000
178.098400 18395.000000
179.082500 17709.800000
180.114300 81688.400000
181.098200 108512.400000
198.124600 16777.800000
206.093700 4719.200000

>ms2peaks
58.029800 82847.400000
58.041000 34335.000000
65.998500 5622.000000
66.034900 78846.300000
67.019000 20221.500000
67.030200 35808.900000
68.014200 3685.700000
68.050600 8966.200000
69.034600 4688.600000
70.029800 15853.500000
70.066300 6353.600000
71.050300 15712.900000
72.009200 23425.900000
72.045500 258886.800000
73.029500 75339.100000
74.024700 216958.900000
80.050700 20844.300000
81.022000 7877.500000
81.045900 17883.800000
82.029900 202684.100000
83.061400 39730.500000
84.045500 391711.200000
85.029400 9372.300000
85.065900 18717.100000
86.061200 20217.600000
91.055300 18060.100000
94.029800 19015.000000
95.025100 23249.000000
95.037700 21337.000000
95.061500 5548.700000
96.009100 4689.500000
96.032900 11896.400000
96.045500 64953.400000
96.082100 4688.200000
98.024700 15331.800000
98.061100 40433.600000
99.056300 5226.000000
100.004100 6630.700000
100.040400 3610.500000
101.071900 17068.200000
102.056000 25158.000000
106.066300 7908.800000
107.037600 6273.500000
107.050200 4412.100000
108.032700 4044.700000
108.045600 34094.100000
108.081800 25222.100000
109.016900 8031.000000
109.040800 42423.600000
110.024800 716250.900000
110.061100 44067.000000
111.032600 21042.900000
111.056500 33813.500000
112.040400 263154.200000
112.076900 64753.300000
113.072100 425835.000000
114.056000 16153.100000
120.081900 9369.600000
121.040700 21907.900000
121.053100 23524.100000
122.048600 104826.300000
122.061100 29174.000000
122.097500 57669.400000
123.032600 81386.200000
123.056400 18996.400000
124.027900 6861.000000
124.040300 24184.000000
124.076700 23530.100000
125.071900 6174.200000
126.056300 4652.600000
127.051300 71992.200000
128.035400 753325.800000
130.051300 4199.700000
130.098500 59831.600000
131.086700 49292.900000
135.056500 29089.800000
136.040300 18899.800000
136.051600 5196.800000
136.076700 30395.600000
137.072000 169102.800000
138.056000 147848.900000
138.067200 23759.200000
139.051400 71818.800000
139.087500 14477.300000
140.071500 24430.800000
140.082800 8652.900000
141.066400 4938.400000
141.103300 6680.900000
147.056500 4845.400000
148.040300 5844.400000
148.063800 4886.600000
149.048200 9678.700000
149.071800 20387.000000
150.055900 8998.100000
150.092700 3863.200000
151.087400 32261.100000
152.071400 14707.400000
152.082900 5037.600000
153.103200 44869.100000
154.098400 27268.700000
155.082600 4586.500000
155.118600 4283.900000
156.077700 6365.300000
162.055500 4202.800000
163.087400 16069.300000
164.071600 24790.200000
166.074500 6449.600000
168.114000 40811.700000
169.098000 5701.100000
180.114200 48351.900000
181.098200 65900.600000
198.125000 4448.400000

>ms2peaks
58.029800 56857.400000
58.041100 20991.300000
59.013900 4199.300000
66.034900 96695.500000
67.019000 24314.700000
67.030200 32751.800000
68.014300 4015.900000
68.050600 25089.700000
70.029900 8035.200000
71.025000 3655.300000
71.050200 5464.900000
72.009100 19762.800000
72.045500 211875.900000
73.029600 32834.800000
74.024800 166389.800000
80.050700 15151.600000
81.022000 7156.400000
81.045900 8909.500000
82.029800 187249.400000
83.061500 51897.600000
84.045500 282274.900000
85.029600 5072.200000
85.065900 22671.500000
86.061200 15502.200000
91.055400 4323.500000
94.029700 17650.400000
94.066200 5123.500000
95.025000 42071.300000
95.037600 17819.700000
96.008900 5043.300000
96.045500 36611.000000
97.065800 6035.300000
98.024800 5818.000000
98.061200 16340.200000
99.056100 5308.100000
101.072000 9022.600000
102.056000 16657.200000
106.066100 6635.100000
107.037700 7385.400000
108.033000 4747.200000
108.045500 21997.000000
108.081900 5801.300000
109.016900 17922.000000
109.040700 20628.400000
110.024800 485821.000000
110.048500 39792.500000
111.032500 4378.500000
111.056400 21975.300000
112.040400 130360.100000
112.076800 34291.500000
112.088000 6730.300000
113.072000 151537.200000
118.066300 4877.400000
121.040800 31395.700000
121.053300 16905.700000
122.024700 5689.000000
122.048600 74450.700000
122.061100 22592.200000
122.097500 21446.600000
123.032600 77708.100000
123.056300 15354.900000
124.027700 4764.200000
124.040300 8584.300000
124.076800 9082.100000
127.051400 36041.100000
128.035400 258815.000000
130.098600 32435.500000
134.061200 5425.700000
135.056300 26571.000000
136.040200 8486.000000
136.076700 15184.000000
137.048200 17759.700000
137.071900 58918.700000
138.056000 66340.900000
138.067200 5295.000000
139.051400 16450.400000
139.075100 4950.200000
139.087900 5356.900000
140.082800 5913.400000
141.103600 5852.200000
147.056600 4541.400000
149.048000 4419.900000
149.071700 5818.700000
151.088000 5008.400000
152.071700 3894.800000
153.103100 9155.200000
163.087400 5200.300000
164.071400 14870.200000
168.114000 24478.800000
180.114200 7768.800000
181.098000 20317.200000

>ms2peaks
58.029800 54804.800000
58.041000 28659.100000
65.998600 4939.800000
66.034900 79068.500000
67.018900 30284.800000
67.030200 15710.900000
68.050700 17900.300000
70.029900 17339.200000
71.025100 3635.000000
71.050300 4575.700000
72.009200 23993.900000
72.045500 162238.900000
73.029600 33510.300000
74.024700 127474.600000
80.050700 15855.300000
81.022100 15851.100000
81.045900 6644.100000
82.029800 109413.500000
83.061500 32502.800000
84.045500 232892.100000
85.029600 5436.300000
85.066000 16071.800000
86.024900 4978.200000
86.061200 3748.500000
94.029900 19498.500000
95.025100 68684.200000
95.037600 18889.900000
95.061500 3991.600000
96.045500 23672.000000
97.065700 4834.300000
98.061300 7729.000000
102.055900 5481.200000
106.066400 8146.800000
107.037700 4527.600000
108.045500 26999.900000
109.016900 6652.600000
109.040800 20603.000000
110.024800 327884.100000
110.048600 30709.600000
111.032700 7570.700000
111.056500 16419.300000
112.040400 80287.700000
112.076800 26889.800000
113.072000 74840.900000
121.040700 26383.000000
121.053400 7309.500000
122.024600 5567.900000
122.048700 47708.900000
122.061000 5385.100000
122.097400 4898.500000
123.032700 56282.700000
123.056600 5805.100000
124.040200 5494.000000
124.076800 6938.900000
127.051400 20932.600000
128.035400 98885.500000
130.098300 15159.200000
135.056500 22058.100000
136.040400 4940.700000
137.072100 17974.800000
138.055900 24484.300000
139.051500 7314.100000
148.040300 4980.700000
149.048100 9337.200000
163.087600 5331.000000

