>compound EQ20400033
>parentmass 152.0717
>ionization [M-H]-
>formula C8H11NO2
>rt 54.000000
>profile orbitrap
#smiles_iso C1=CC(=C(C=C1CCN)O)O
#smiles_can C1=CC(=C(C=C1CCN)O)O
#inchikey VYFYYTLLBUKUHU-UHFFFAOYSA-N
#pubchem_id 681
#mb_accession EQ329951,EQ329952,EQ329953,EQ329954,EQ329955,EQ329956

>ms2
108.021500 22768.100000
122.037400 3745308.200000
123.045100 384699.500000
124.016500 138810.600000
136.016400 28201.100000
137.024300 267977.600000
152.071600 12393276.000000

>ms2
108.021600 29277.600000
122.037400 3760954.500000
123.045200 360568.000000
124.016500 129058.000000
136.016200 22965.900000
137.024400 221150.300000
152.071600 11972755.000000

>ms2
108.021700 44471.300000
121.029500 11945.800000
122.037400 7119705.000000
123.045100 580475.400000
124.016500 225834.100000
136.016500 54185.500000
137.024400 414333.000000
152.071600 6851351.500000

>ms2
95.050300 11912.200000
108.021700 37479.000000
121.029900 16621.700000
122.037400 6216647.500000
123.045100 407344.200000
124.016500 204809.100000
136.016600 48289.400000
137.024400 413562.200000
152.071700 1845845.200000

>ms2
93.034600 14214.300000
95.050300 17659.800000
108.021700 22019.400000
121.029600 33299.100000
122.037400 2853279.800000
123.045200 178012.900000
124.016500 84994.600000
135.045200 15709.300000
136.016600 27132.900000
137.024400 166181.500000
152.071700 330465.300000

>ms2
81.034600 3724.600000
93.034600 28652.600000
95.050300 11730.300000
108.021800 17042.700000
121.029500 62859.500000
122.037400 965512.200000
123.045200 73748.300000
124.016500 35323.200000
135.045200 21394.900000
136.016500 9926.500000
137.024300 62502.800000
152.071600 49025.600000

