>compound EQ22565394
>parentmass 340.1321
>ionization [M-H]-
>formula C17H24ClNO4
>rt 690.000000
>profile orbitrap
#smiles_iso CC/C(=N\OC/C=C/Cl)/C1=C(CC(CC1=O)C2CCOCC2)O
#smiles_can CCC(=NOCC=CCl)C1=C(CC(CC1=O)C2CCOCC2)O
#inchikey IOYNQIMAUDJVEI-BMVIKAAMSA-N
#pubchem_id 135585373
#mb_accession EQ317851,EQ317852,EQ317853,EQ317854,EQ317855,EQ317856

>ms2peaks
90.995600 1479627.600000
134.024800 1405756.100000
191.095500 164894.900000
206.118700 864373.600000
219.090100 753610.200000
220.097600 1122431.800000
221.118300 444214.300000
230.118200 304122.800000
248.129300 85742512.700000
250.144800 2122809.000000
340.132100 60426963.000000

>ms2peaks
65.998400 163029.200000
90.995600 2164545.000000
109.029300 141142.100000
110.061300 257967.200000
134.024800 7923425.600000
135.032700 229547.500000
137.060800 287533.200000
153.043200 150013.800000
162.056300 453295.600000
163.063900 753055.000000
165.079400 156934.700000
176.108000 286608.400000
180.066700 267597.900000
191.095200 245886.600000
195.102600 548004.900000
200.107900 206697.700000
206.118700 3261776.300000
218.118500 486432.500000
219.090000 557240.200000
220.098000 5101566.600000
221.118400 1359344.600000
230.118500 670282.000000
248.129300 96750252.100000
250.144800 3259844.200000
340.132100 868522.800000

>ms2peaks
57.034600 59179.000000
65.998400 769093.500000
66.034900 457530.600000
81.034600 48105.600000
82.029900 86601.100000
83.013900 176662.800000
83.050300 321630.000000
90.995700 422085.700000
92.050600 469370.400000
93.034700 57070.300000
94.029900 153907.000000
96.045600 97588.100000
107.050300 179477.700000
108.045500 448384.700000
109.029500 623442.800000
110.024800 47316.000000
110.061200 552645.000000
112.077000 57560.000000
118.029900 80339.500000
120.009100 74878.100000
120.045500 70424.700000
120.081900 138027.400000
121.053300 164896.900000
121.065800 85257.700000
122.061300 200545.300000
123.081700 66133.000000
126.019900 47479.900000
134.024800 8921848.000000
135.032600 189221.700000
135.045000 78371.800000
136.040200 251418.200000
137.061000 319757.900000
144.045500 73285.200000
145.053300 339962.700000
146.061300 42139.100000
148.077100 47565.700000
148.112800 40410.900000
149.097000 83683.500000
150.055900 75388.600000
150.092400 537764.600000
153.092100 625897.100000
158.097600 83401.700000
161.084900 65376.700000
162.056100 633240.600000
162.092500 42823.900000
163.063900 944196.400000
164.071900 359276.200000
165.079500 950022.200000
165.092100 169457.400000
167.022900 54299.900000
174.092200 75983.500000
176.108000 946914.800000
178.087900 44317.500000
178.123800 168578.300000
179.107700 208996.500000
180.067000 250658.000000
192.103000 74690.500000
195.102700 1613033.400000
200.108100 271081.800000
204.103200 82123.400000
206.118800 1795265.500000
218.118200 386174.100000
220.098000 17576621.900000
221.118300 2062855.200000
222.113500 50471.700000
230.118700 220757.300000
233.105600 435660.400000
236.092700 184254.000000
248.129300 39334292.200000
250.144800 1470561.700000

>ms2peaks
57.034500 167991.900000
65.039700 56859.900000
65.998500 2262972.100000
66.034900 707610.900000
67.018900 64987.900000
81.034600 155640.500000
81.070900 60159.200000
82.030000 216325.800000
83.013900 142084.700000
83.050300 415736.000000
90.995600 135056.900000
92.050600 784845.900000
93.034700 75355.300000
94.029900 203812.100000
95.037800 54419.400000
95.050300 77135.600000
96.045500 77406.700000
107.037700 178082.600000
107.050300 320064.000000
108.045600 490035.600000
109.029500 1656890.600000
110.024700 50107.300000
110.061200 373755.400000
112.076700 45676.800000
118.030000 52551.900000
119.050200 167665.100000
120.009200 419283.200000
120.045600 215288.100000
120.081900 461447.000000
121.029500 41937.800000
121.053400 125798.200000
121.065900 154180.600000
122.061300 144087.200000
123.081600 255660.100000
134.024800 7841749.400000
135.032700 259509.100000
135.045300 147294.400000
135.081500 62584.700000
136.040400 241004.200000
137.060800 236666.500000
144.045500 47853.300000
145.053300 253679.800000
148.040600 55595.500000
148.077100 180828.600000
148.113300 52325.600000
149.096800 141671.700000
150.056000 67870.700000
150.092400 581433.300000
151.063900 40009.000000
153.092100 945460.200000
158.097700 66186.000000
160.077100 70273.200000
161.084200 36387.600000
162.056200 834037.900000
162.092100 48389.500000
163.063900 333801.800000
164.071900 512079.500000
165.079600 928431.400000
174.092200 75462.000000
176.107800 400333.100000
178.087300 451022.800000
178.123700 158297.200000
179.107500 42696.700000
180.066800 62654.200000
188.071600 70694.300000
192.103600 92426.400000
195.102800 1296310.700000
196.098200 59282.800000
200.108000 36810.800000
204.103000 72689.100000
206.118600 432645.800000
218.118100 75048.100000
220.098000 24191996.800000
221.118200 793735.700000
222.113600 55498.700000
233.105700 442285.600000
236.092800 215953.300000
248.129300 5912891.400000
250.144900 141527.800000

>ms2peaks
57.034600 144565.600000
65.039700 157310.500000
65.998500 4893174.300000
66.034900 775499.800000
67.018900 223471.900000
81.034800 65311.900000
81.071200 42368.800000
82.029800 554153.200000
83.013900 44337.200000
83.050300 267016.700000
90.034900 47810.400000
92.050600 904853.300000
93.034600 65613.800000
94.029900 212373.200000
95.037800 41431.900000
95.050200 50940.900000
96.045600 68042.300000
105.021900 36541.800000
106.029800 29918.500000
107.037700 161271.000000
107.050300 227317.800000
108.021600 69136.400000
108.045500 292942.000000
109.029500 2317109.700000
110.024800 30413.500000
110.061000 74276.100000
118.029900 59397.800000
119.050100 173884.500000
120.009100 1670050.100000
120.045500 326349.300000
120.081900 362928.400000
121.029500 78158.800000
121.053400 45752.800000
121.065900 194928.200000
122.061200 64054.400000
123.081700 71232.800000
134.024800 8962724.900000
135.032700 573640.800000
135.045200 143760.000000
135.081600 56933.100000
136.040400 271375.400000
137.060700 200126.000000
144.045600 51042.900000
146.061100 47937.400000
147.032500 51159.600000
148.040600 76744.000000
148.076900 125386.400000
149.097000 37529.400000
150.019700 69131.300000
150.055800 42233.600000
150.092300 207743.500000
153.092200 319220.000000
160.077000 63470.300000
162.056200 729717.300000
163.064000 36660.800000
164.071800 159742.000000
165.079500 422426.000000
167.022300 137522.100000
176.107900 77202.700000
178.087300 1300641.800000
179.107400 37658.300000
195.102800 392381.000000
196.098500 34357.600000
220.097900 15232643.000000
221.118000 75372.000000
233.105600 240217.600000
236.093400 47503.900000
248.129400 373121.400000

>ms2peaks
57.034500 150990.100000
65.039700 75374.400000
65.998500 7140629.400000
66.034900 375670.600000
67.018900 193340.900000
82.029800 449383.700000
83.013900 45606.300000
83.050300 47202.800000
90.034900 76898.800000
92.050600 476066.600000
93.034600 63691.900000
94.029700 127596.500000
96.045500 50416.900000
105.021900 51312.700000
106.029700 35178.600000
107.037700 182199.300000
107.050300 141307.400000
108.021700 174470.200000
108.045400 139964.000000
109.029500 1598149.000000
118.030100 129997.400000
120.009100 2938305.500000
120.045500 316068.800000
120.081900 150624.300000
123.081600 70990.800000
126.020000 30667.300000
134.024800 9115909.100000
135.032600 604834.900000
135.045300 47025.300000
136.040400 135679.200000
137.060900 32395.600000
147.032500 88066.200000
150.019600 146594.900000
153.092000 55490.500000
162.055900 369585.500000
164.071600 36481.700000
167.022600 167283.900000
178.087200 769043.100000
220.097900 4661623.000000
233.106200 66851.800000

