>compound EQ23148586
>parentmass 286.1449
>ionization [M-H]-
>formula C17H21NO3
>rt 750.000000
>profile orbitrap
#smiles_iso CCC1=C2C(=CC=C1)C3=C(N2)C(OCC3)(CC)CC(=O)O
#smiles_can CCC1=C2C(=CC=C1)C3=C(N2)C(OCC3)(CC)CC(=O)O
#inchikey NNYBQONXHNTVIJ-UHFFFAOYSA-N
#pubchem_id 3308
#mb_accession EQ330851,EQ330852,EQ330853,EQ330854,EQ330855,EQ330856

>ms2peaks
212.144400 16099007.000000
242.155000 145351312.000000
286.144700 254167968.000000

>ms2peaks
185.084700 1161793.000000
197.121200 851855.100000
198.129000 447726.400000
212.144500 113090504.000000
224.144000 492251.100000
226.123700 658615.200000
242.155000 305796960.000000
286.144700 42479704.000000

>ms2peaks
184.113100 692819.200000
185.084600 6729922.500000
194.097400 860519.200000
196.113300 833163.500000
197.121000 11267393.000000
198.128800 3114109.000000
208.113100 487083.000000
210.129100 1520097.500000
212.144400 297897824.000000
214.159700 1248345.600000
224.144400 2390459.200000
229.110700 1953629.500000
242.155000 110491624.000000
286.144700 732948.100000

>ms2peaks
158.097600 766062.000000
170.097600 199716.400000
182.097600 2187443.500000
183.105300 635357.200000
184.113200 3486347.200000
185.084600 7309775.000000
194.097400 2690322.000000
195.105300 566126.400000
196.113200 4442707.500000
197.121000 37939448.000000
198.128800 3290917.500000
208.113000 1708871.400000
209.121300 241115.300000
210.128900 5558323.000000
212.144400 197047632.000000
214.160100 592927.800000
224.144300 1695670.500000
229.110700 9670426.000000
242.155000 9840448.000000

>ms2peaks
158.097500 385256.600000
167.073900 166651.500000
169.089600 421904.200000
170.097200 358381.800000
174.092000 99366.900000
179.074100 230698.700000
181.089800 1157471.400000
182.097500 3219606.800000
183.105300 636121.200000
184.113200 2936290.000000
185.084700 1662918.000000
193.089800 496800.200000
194.097500 2710220.800000
195.105000 473024.700000
196.113200 5553611.500000
197.120900 19405916.000000
198.128800 1641048.100000
208.113200 1876232.800000
209.121200 121244.200000
210.128800 4881569.500000
212.144400 32465578.000000
224.144200 150318.500000
229.110700 5791135.000000
242.155300 356367.400000

>ms2peaks
143.073900 132582.600000
144.081800 91161.000000
158.097300 167994.500000
166.066000 104972.265600
167.074100 1440311.200000
169.089700 851767.600000
170.097000 121238.600000
174.092400 87603.200000
179.074000 1340100.600000
180.081900 506037.400000
181.089800 3255933.500000
182.097500 4441239.500000
183.105400 376865.700000
184.113100 2273519.200000
185.084600 496670.800000
193.089600 1211812.100000
194.097500 3566624.800000
195.105700 623755.600000
196.113100 6332918.000000
197.121000 3966953.500000
198.128700 695275.500000
207.105900 125556.085900
208.112900 1458666.500000
210.128800 1886612.900000
211.063600 127238.200000
212.144500 3756705.800000
213.078700 96390.700000
227.095300 148074.921900
229.110500 1592415.600000

