>compound EQ23724278
>parentmass 359.9892
>ionization [M-H]-
>formula C14H7ClF3NO5
>rt 738.000000
>profile orbitrap
#smiles_iso C1=CC(=C(C=C1C(F)(F)F)Cl)OC2=CC(=C(C=C2)[N+](=O)[O-])C(=O)O
#smiles_can C1=CC(=C(C=C1C(F)(F)F)Cl)OC2=CC(=C(C=C2)[N+](=O)[O-])C(=O)O
#inchikey NUFNQYOELLVIPL-UHFFFAOYSA-N
#pubchem_id 44073
#mb_accession EQ303251,EQ303252,EQ303253,EQ303254,EQ303255,EQ303256

>ms2peaks
65.998600 27174.800000
95.013900 409082.400000
111.008800 90194.700000
122.001000 712459.800000
123.008900 172067.400000
137.011800 386053.300000
138.020000 51693.200000
139.003800 67143.400000
194.983000 4243405.600000
198.029700 172143.000000
210.017800 23188.600000
210.030000 32389.600000
222.030000 108304.400000
226.024900 56371.900000
240.040500 40498.300000
244.998800 27588.800000
250.025000 47972.800000
258.006400 31280.600000
263.019900 37498.400000
269.994000 30717.300000
280.023300 57016.400000
286.001500 1041162.500000
297.989000 29305.600000
298.996700 35359.200000
301.996700 44257.800000
315.999300 20355515.800000

>ms2peaks
65.998600 50944.400000
69.034700 48137.400000
92.998200 31538.400000
94.006000 15125.300000
95.013900 213016.600000
97.029500 34376.400000
107.013900 67358.600000
111.008900 53467.400000
122.001000 369732.900000
123.008900 163245.800000
125.024400 119425.900000
137.011800 1975129.000000
139.003700 34689.200000
174.977000 72512.800000
194.983000 11155286.100000
198.029700 1123848.600000
206.018800 11321.300000
209.021800 118905.100000
210.017200 79096.100000
210.029700 37871.800000
213.016900 15291.500000
222.029800 1165688.000000
225.016800 82249.700000
226.024800 116246.700000
238.024500 90901.700000
240.040400 307238.500000
242.983000 19621.800000
244.998400 13040.100000
247.004100 43737.800000
250.024600 67072.900000
258.006500 89675.000000
263.020200 65609.000000
265.995300 17394.600000
269.993800 45018.400000
270.978000 41463.900000
272.994000 17133.700000
280.022400 33092.900000
284.993300 117648.900000
286.001500 818333.500000
297.989200 15293.500000
298.996600 35427.500000
301.996600 16877.100000
314.991200 12417.700000
315.999300 1559159.800000

>ms2peaks
65.998600 41596.000000
69.034600 227560.300000
95.013900 16291.000000
97.029500 137978.100000
107.013900 128602.200000
123.008900 51976.800000
125.024400 251485.300000
137.011800 967823.600000
138.019700 17176.500000
159.006300 48500.500000
174.976600 292031.700000
182.017200 16612.500000
194.983100 11775655.200000
198.029700 482982.100000
202.023600 61729.400000
209.022000 43690.700000
222.029800 2127759.100000
226.024900 36946.400000
238.024800 55146.500000
240.040300 119956.800000
258.006700 49426.200000
284.994300 60092.300000
286.001600 33336.600000

>ms2peaks
65.998600 37658.100000
69.034600 338176.400000
79.018900 10779.800000
81.034500 10961.600000
95.013900 35958.600000
97.029500 251213.800000
107.013900 156784.400000
123.008600 40937.500000
125.024400 246335.600000
137.011800 461501.400000
159.006300 141158.800000
174.976700 706326.400000
182.017500 40532.400000
194.983100 10715701.800000
198.029500 119453.800000
202.023400 144808.000000
222.029800 1521754.500000
240.040500 13492.500000
284.993500 23872.800000

>ms2peaks
65.998500 15332.000000
69.034600 378689.700000
79.019100 12747.700000
95.013900 31189.400000
97.029500 306510.800000
107.013900 50606.500000
110.016400 11732.000000
125.024500 129458.300000
134.016300 75856.900000
137.011900 108011.100000
139.000100 18237.200000
154.022400 63677.800000
154.970700 58734.000000
158.017200 10514.000000
159.006300 300300.900000
172.980800 34323.700000
174.028800 30940.900000
174.976700 1447952.100000
182.017400 134801.700000
194.983000 6916366.900000
202.023800 129974.000000
222.029800 479692.600000
284.993700 12004.400000

>ms2peaks
65.998400 8761.100000
69.034600 342657.200000
79.019100 10940.000000
95.013900 18824.200000
97.029500 255384.800000
107.013800 11070.400000
110.016100 60288.300000
125.024400 35783.100000
134.016300 226496.500000
137.011600 12774.600000
139.000000 35842.800000
154.022400 158639.300000
154.970700 169188.100000
159.006400 311309.100000
172.981200 47521.100000
174.028500 19250.400000
174.976700 1199491.500000
182.017600 110954.536900
194.982900 2746022.400000
202.023500 44838.400000
222.030000 64847.900000

