>compound EQ24877783
>parentmass 200.0717
>ionization [M-H]-
>formula C12H11NO2
>rt 324.000000
>profile orbitrap
#smiles_iso CNC(=O)OC1=CC=CC2=CC=CC=C21
#smiles_can CNC(=O)OC1=CC=CC2=CC=CC=C21
#inchikey CVXBEEMKQHEXEN-UHFFFAOYSA-N
#pubchem_id 6129
#mb_accession EQ303851,EQ303852,EQ303853,EQ303854,EQ303855,EQ303856

>ms2
143.050100 228001.000000
182.061400 653.400000
200.071700 255050.800000

>ms2
143.050200 303667.000000
168.044900 689.700000
182.061700 938.500000
200.071700 169312.000000

>ms2
143.050200 439989.500000
168.045600 1311.700000
182.061300 3250.700000
200.071800 27217.300000

>ms2
115.055400 1159.900000
143.050200 429055.200000
168.045500 4403.100000
182.061300 3761.000000
200.071600 4346.500000

>ms2
115.055300 7139.600000
143.050200 423395.000000
145.029100 850.700000
168.045500 10715.200000
182.061300 2067.100000

>ms2
115.055400 14604.400000
143.050200 323347.200000
145.029500 692.000000
168.045500 18079.500000

