>compound EQ25764014
>parentmass 366.03209999999996
>ionization [M-H]-
>formula C15H14ClN3O4S
>rt 246.000000
>profile orbitrap
#smiles_iso C1C(=C(N2[C@H](S1)[C@@H](C2=O)NC(=O)[C@@H](C3=CC=CC=C3)N)C(=O)O)Cl
#smiles_can C1C(=C(N2C(S1)C(C2=O)NC(=O)C(C3=CC=CC=C3)N)C(=O)O)Cl
#inchikey QYIYFLOTGYLRGG-GPCCPHFNSA-N
#pubchem_id 51039
#mb_accession EQ306951,EQ306952,EQ306953,EQ306954,EQ306955,EQ306956

>ms2peaks
57.975600 22676.000000
83.991300 9750.200000
86.007000 1630.400000
86.991100 1147.500000
91.030100 3900.800000
93.045700 21699.900000
96.999100 1426.200000
98.007000 1054.000000
105.045800 7182.600000
110.007000 12745.000000
119.025000 1466.200000
120.056800 26690.400000
121.040900 788.000000
124.010000 7733.500000
124.994300 897.200000
125.017800 6009.000000
126.002000 3501.400000
131.968000 8863.900000
131.985800 1271.900000
136.994000 3619.000000
137.017900 3183.000000
137.035700 3592.300000
138.001600 825.300000
139.033500 80765.000000
141.996900 1426.700000
146.012200 1058.600000
149.035700 6202.600000
150.997100 4044.400000
152.004900 13143.700000
153.012800 42050.400000
153.996900 10854.600000
155.001800 8327.000000
159.056300 4396.800000
166.033200 15956.800000
174.956000 32772.700000
175.051400 7592.800000
175.957800 106624.332200
178.991700 829.000000
179.999900 182018.100000
181.007800 5337.200000
181.077400 1086.900000
185.071900 3601.800000
187.051300 54794.100000
189.067000 29586.400000
196.088000 4756.700000
198.067000 1193.800000
207.059600 4288.200000
208.088000 36566.400000
209.072000 4747.000000
211.989400 4237.000000
214.062200 14770.100000
215.064900 22301.400000
216.077700 37145.300000
224.083100 10540.900000
225.049200 1794.800000
225.066900 3713.700000
226.098700 4162.600000
233.039000 47495.100000
240.078000 7314.000000
242.075800 28855.200000
243.059800 13943.800000
252.077800 94418.800000
258.070600 85778.200000
259.054400 4464.000000
270.046700 7072.600000
276.054600 6245.700000
284.050600 1289.600000
286.065600 733974.300000
302.060500 90464.500000

>ms2peaks
56.980500 3098.600000
57.975600 30573.500000
58.996200 771.000000
65.998500 1588.700000
67.030200 799.500000
72.009200 3541.700000
74.007000 928.100000
81.975500 687.700000
83.991400 12645.700000
84.009100 794.900000
86.007000 12642.100000
86.991100 1467.000000
91.030200 12128.400000
93.045800 63092.200000
96.999200 4791.200000
98.007000 7581.200000
105.045900 11150.300000
107.012800 725.600000
108.999000 1010.000000
110.007100 33291.900000
111.986500 1390.500000
116.050700 5143.700000
119.025200 6846.200000
120.056700 8373.400000
121.040800 2076.600000
123.002400 5949.300000
124.010100 29782.600000
124.994000 3381.200000
125.017900 29651.600000
126.002000 10692.100000
127.033500 2708.600000
128.017500 1317.800000
131.967900 3149.300000
131.985800 3026.200000
135.002300 3182.300000
135.019800 1433.300000
135.986200 7105.400000
136.994000 18428.900000
137.017800 3951.400000
137.035400 1082.500000
138.001800 2085.900000
139.033500 24581.800000
141.996800 748.900000
143.001600 3559.400000
146.012100 7491.000000
147.020100 1367.600000
149.035600 7977.500000
150.997100 26966.100000
152.004900 44890.100000
153.012800 40954.300000
153.996800 7747.200000
154.020600 1369.400000
155.001900 1093.600000
159.056400 3101.200000
166.033400 6079.900000
171.056500 5893.100000
172.040400 800.300000
173.048200 7059.900000
174.955900 10900.300000
175.051100 5348.200000
178.992300 1303.100000
179.999900 212841.800000
181.007500 2057.800000
181.076900 4820.100000
185.071700 3104.600000
187.051300 43547.000000
189.049200 8449.900000
189.067000 39573.800000
196.087800 5483.400000
198.067300 4998.300000
200.059300 8136.500000
207.059400 1396.300000
208.088000 32067.400000
209.072200 5050.700000
211.989500 3241.000000
214.062300 12887.100000
215.064800 16303.500000
216.077700 111555.600000
224.059600 1238.600000
224.082800 11863.700000
225.049300 3152.800000
225.066900 8330.700000
226.099500 983.200000
233.038900 64818.700000
240.077700 11519.500000
242.076100 3036.800000
243.059600 7573.300000
252.077800 27186.900000
258.070600 66341.800000
259.055000 1438.100000
270.047100 15932.600000
276.054900 4302.400000
284.049900 2970.100000
286.065700 36429.500000
302.060600 9279.600000

>ms2peaks
56.980400 9670.100000
57.975700 35984.100000
58.996100 1084.200000
65.014500 4274.800000
65.998500 5912.500000
67.030200 3766.700000
70.983700 678.900000
72.009100 4999.700000
74.007000 1030.800000
81.975600 4242.200000
83.991400 9464.000000
84.009100 4142.800000
86.006900 11477.400000
86.990900 1507.200000
90.022300 1328.600000
91.030200 18914.300000
93.045800 56099.500000
96.999200 9183.800000
98.007000 12716.800000
99.986200 1320.200000
101.039600 1218.100000
105.045800 9565.500000
106.017200 920.900000
107.012400 972.900000
107.025100 1227.200000
108.009000 1289.700000
108.999200 4288.900000
110.007100 25673.700000
111.019800 1524.700000
111.986100 3331.100000
116.050700 11631.200000
118.041000 976.000000
119.025100 12461.100000
121.040700 3804.400000
123.002300 16141.700000
124.010000 57438.000000
124.994000 4113.500000
125.017900 23747.400000
126.001900 7587.100000
128.017600 1116.600000
135.002300 6332.500000
135.020100 747.100000
135.986300 23215.700000
136.994000 11793.500000
137.017800 1543.100000
139.033700 6410.800000
146.012200 8139.300000
147.019800 1420.100000
150.997100 31515.300000
152.005000 36935.100000
153.012800 18946.900000
153.997000 1069.300000
154.020500 1254.400000
156.069300 8472.200000
159.056300 3521.800000
171.056400 4723.500000
172.040500 5678.700000
173.048100 25295.400000
174.955700 1495.200000
175.050800 2910.900000
178.991900 1478.100000
180.000000 34730.900000
181.077100 1307.100000
187.051400 34203.000000
189.049300 11950.600000
189.067000 23740.500000
196.087900 3396.300000
198.067500 1627.300000
200.059200 33458.600000
208.087800 7077.000000
209.071700 1325.300000
214.062000 4789.900000
215.064500 1064.900000
216.077800 34248.100000
224.060200 791.400000
224.082700 4023.100000
225.048900 1546.500000
225.066800 4792.300000
233.038900 25351.900000
240.077700 1622.000000
258.069700 1499.600000

>ms2peaks
56.980400 12660.300000
57.975700 33451.400000
58.996000 692.300000
63.962500 799.500000
65.014400 5770.300000
65.998500 7883.200000
67.030100 4780.100000
72.009100 5689.200000
74.007000 964.400000
81.975700 7342.700000
83.991200 8889.600000
84.009100 3146.100000
86.007000 7816.200000
86.991000 1023.000000
90.022500 2941.700000
91.030200 17354.000000
93.045800 55831.400000
95.991400 1041.100000
96.999200 13358.700000
98.007000 15057.900000
99.986100 959.200000
101.039600 3146.100000
105.045800 4546.200000
107.025100 1481.400000
108.999100 6613.500000
110.007100 21934.000000
111.020000 961.200000
111.986300 4800.400000
116.050700 16719.000000
117.034600 996.200000
118.041000 895.200000
119.025000 11406.700000
121.040800 3464.700000
123.002300 17984.900000
124.010100 55814.600000
124.994100 6881.900000
125.017900 14162.900000
126.002000 5792.800000
127.033700 810.100000
131.986000 897.800000
135.002200 4203.700000
135.986200 20112.700000
136.994100 6978.300000
143.001600 4805.700000
146.012300 5465.200000
147.020000 1093.700000
150.997100 26163.700000
152.005000 23967.000000
153.012800 12313.200000
155.061300 1439.900000
156.069400 13580.400000
159.056300 1427.700000
171.056500 4238.500000
173.048100 22454.300000
175.050900 1164.800000
178.991800 3878.200000
180.000000 8114.800000
181.077300 1765.500000
187.051400 22447.000000
189.049200 4704.700000
189.067100 9563.600000
198.067200 937.200000
200.059200 24749.700000
208.087700 1484.900000
214.062200 3011.200000
216.077900 10077.400000
225.049500 1434.700000
225.066600 2875.100000
233.039100 7354.600000

>ms2peaks
56.980400 20650.100000
57.975600 34453.300000
58.996000 1084.500000
65.014500 7280.000000
65.998500 8459.800000
67.030200 4146.200000
70.983500 4629.900000
72.009100 1461.000000
74.007000 1132.200000
81.975800 3803.200000
83.991500 5012.200000
84.009000 1125.100000
86.007000 3497.400000
86.990900 875.100000
89.014500 3002.400000
90.022100 891.900000
91.030200 14945.000000
93.045800 38404.200000
96.999200 16549.900000
98.007000 12883.200000
99.986300 1239.100000
101.039500 1654.900000
105.045800 1003.000000
106.017200 1034.200000
107.991200 1604.000000
108.009200 898.100000
108.999200 4769.500000
110.007000 11853.600000
111.019900 1054.900000
111.986400 6047.700000
116.050600 18560.400000
117.034500 1616.100000
119.025100 7669.300000
121.040700 1132.200000
123.002300 19921.800000
124.010000 30764.300000
124.994300 6868.500000
125.018000 5252.200000
126.001900 3249.800000
135.002200 4509.600000
135.986300 14524.200000
136.994100 1625.500000
143.001600 1437.000000
146.011900 781.900000
150.997100 20660.500000
152.005100 7463.200000
153.012600 4198.300000
155.061500 5503.200000
156.069400 9546.200000
171.056300 1374.900000
172.040400 3271.600000
173.048200 12946.900000
178.992000 1069.100000
187.051500 6201.000000
189.049200 874.700000
200.059000 6722.100000
225.049600 857.400000

>ms2peaks
56.980400 24382.700000
57.975600 30369.800000
63.962500 605.000000
65.014500 7467.400000
65.998500 8669.900000
67.030100 1327.200000
70.983400 5307.400000
74.007100 676.200000
81.975700 8133.700000
83.991400 1681.000000
86.006900 2012.800000
89.014500 6123.400000
91.030200 14973.200000
93.045800 22692.500000
95.991300 714.600000
96.999200 17775.100000
98.007000 6075.000000
101.039800 1403.900000
107.991300 3333.600000
108.999100 1683.500000
110.007200 7489.200000
111.986300 4782.400000
116.050700 16745.900000
117.034800 900.900000
118.041200 649.200000
119.025100 4072.100000
123.002300 15708.800000
124.010100 18474.000000
124.994000 6312.400000
125.018000 1475.900000
126.002000 1414.700000
135.002300 3635.000000
135.986100 8319.700000
147.020200 931.400000
150.997200 11277.200000
152.005000 5273.100000
153.012300 1208.600000
155.061500 3990.200000
156.069300 1605.500000
172.040600 933.000000
173.047900 1256.400000
178.992100 3085.100000
181.078000 757.400000
200.059000 1345.700000

