>compound EQ26480249
>parentmass 347.11830000000003
>ionization [M-H]-
>formula C16H20N4O3S
>rt 408.000000
>profile orbitrap
#smiles_iso CC1=CC(=CC=C1)NC2=C(C=NC=C2)S(=O)(=O)NC(=O)NC(C)C
#smiles_can CC1=CC(=CC=C1)NC2=C(C=NC=C2)S(=O)(=O)NC(=O)NC(C)C
#inchikey NGBFQHCMQULJNZ-UHFFFAOYSA-N
#pubchem_id 41781
#mb_accession EQ314551,EQ314552,EQ314553,EQ314554,EQ314555,EQ314556

>ms2
77.965300 144489.300000
195.080300 149911.900000
196.087900 136460.800000
262.065400 111429885.300000
288.044600 681234.800000

>ms2
60.975400 230689.200000
77.965500 206987.400000
92.038000 134238.500000
93.045700 186178.400000
108.033000 317994.700000
150.997100 111346.000000
156.000000 427493.800000
181.075900 335339.600000
183.092600 125923.200000
195.080000 1399896.400000
196.088000 1710008.500000
198.103600 424369.200000
210.067100 201882.600000
226.044300 223772.100000
244.055100 766975.000000
262.065500 105076770.500000
288.044300 217578.000000

>ms2
57.975700 138877.100000
60.975300 1327620.600000
63.962400 188975.000000
77.965500 1418432.100000
79.957400 146578.900000
91.030200 65347.100000
92.038000 1486534.100000
93.045800 1195576.600000
105.058400 523053.400000
108.032900 3219482.000000
120.999300 96946.900000
123.002200 132413.700000
135.002300 146884.200000
150.997100 909356.500000
154.992200 215901.100000
155.999900 2766836.800000
169.020200 367400.100000
170.072100 64557.500000
181.064700 966486.300000
181.077000 923135.500000
182.072500 358660.300000
183.092600 970595.400000
192.057200 101368.100000
194.072400 689147.900000
195.080100 7482815.000000
196.088000 9798593.900000
198.103600 2633801.000000
199.033200 187831.500000
199.087800 65518.200000
210.067200 761519.600000
224.028700 156233.400000
226.044400 1437897.400000
227.052300 279697.800000
243.046900 343054.300000
244.054900 2099466.900000
262.065500 54097701.600000

>ms2
57.975700 319939.900000
60.975300 1314680.700000
61.970700 96560.000000
63.962400 240209.700000
65.014600 34821.700000
67.030100 25092.700000
77.965500 2976100.200000
78.973400 130732.200000
79.957400 133841.600000
79.981100 112962.400000
91.030200 353517.500000
92.038000 3025241.300000
93.045800 1485031.000000
94.029800 120216.100000
95.025200 144267.200000
105.058400 841337.400000
106.066400 54500.000000
107.049200 133989.200000
108.032900 6172219.500000
109.040800 118103.200000
120.999200 115751.200000
123.002200 210404.300000
124.010100 54720.600000
124.994000 23536.800000
125.017900 100135.600000
131.048800 20630.700000
131.061500 52628.200000
132.056600 41042.300000
135.002300 295463.000000
149.005200 98763.600000
149.017900 130938.500000
150.013000 179004.300000
150.997200 1147413.400000
152.999900 63832.800000
154.066200 22148.600000
154.992100 246987.900000
155.061500 112704.900000
156.000000 2691804.200000
165.000300 45371.400000
167.061600 28678.900000
169.020300 202228.200000
169.064900 54209.600000
169.077100 98521.300000
170.072500 52631.700000
175.033700 38058.600000
180.069000 31898.500000
181.064700 1756196.400000
181.077100 1630245.100000
182.072400 605935.400000
183.092600 1917112.400000
184.087800 45441.800000
189.049100 29263.800000
192.057100 102361.300000
194.072400 1132937.400000
195.080200 10077183.800000
196.088000 9833549.500000
198.103600 3415648.100000
199.033400 255987.700000
199.087700 267013.000000
200.029000 114084.800000
200.041700 27632.500000
210.067200 779080.400000
211.021000 41962.900000
216.059800 111982.700000
224.028500 221748.300000
225.036600 136031.400000
226.044400 1723616.500000
227.052300 466275.500000
228.077600 94162.900000
242.039400 22777.100000
243.047000 455429.200000
244.054900 1343952.200000
262.065500 20409624.000000

>ms2
56.980400 46942.500000
57.975700 925456.500000
60.975300 1115524.700000
61.970600 265465.800000
63.962400 377300.300000
65.014500 201697.100000
66.034900 39606.700000
67.030200 25843.600000
68.014200 26500.000000
77.965500 5973493.000000
78.973300 672576.600000
79.957400 50005.800000
79.981200 210658.200000
90.035000 25844.200000
91.030200 978832.400000
92.038000 3892579.200000
93.045900 1215177.600000
93.960400 27491.600000
94.029900 166319.000000
95.025100 124278.600000
96.999200 93123.700000
105.058400 1069442.000000
106.066300 128383.100000
107.048900 417136.800000
108.032900 5763248.200000
109.040700 115090.300000
117.045700 21485.600000
118.041200 40859.700000
120.999300 111076.100000
123.002300 211545.500000
124.010100 200234.200000
124.994200 39070.700000
125.017900 165291.500000
130.066200 53143.000000
131.048900 148706.000000
132.056700 103165.500000
135.002400 268722.300000
149.005200 155588.300000
149.017900 81735.400000
150.013200 133708.500000
150.997200 941389.300000
153.000200 130960.000000
154.066100 43482.500000
154.992000 229351.200000
155.061400 245362.400000
156.000000 838567.300000
165.000300 27275.700000
167.061600 84703.400000
168.056800 51640.600000
169.020000 52535.800000
169.064600 108434.900000
169.077200 165325.800000
170.072400 154920.500000
175.033500 27422.800000
180.056600 27946.000000
180.069200 119288.700000
181.064900 1740274.900000
181.077100 4591768.700000
182.072400 622088.900000
183.092600 3051048.900000
189.049000 28344.000000
192.056900 258854.600000
193.064800 29533.400000
194.072300 917271.600000
195.080100 8409251.500000
196.087900 4825691.600000
197.072100 52758.700000
198.103600 2070389.800000
199.033400 427614.000000
199.087500 251629.600000
200.028900 162569.800000
200.041400 89866.800000
210.067200 499315.800000
211.020900 32733.600000
224.029000 187177.900000
225.036800 200360.600000
226.044400 980788.800000
227.052400 258941.400000
228.077500 26575.600000
242.039700 46872.000000
243.047200 354291.500000
244.054700 301309.600000
262.065500 2338771.100000

>ms2
56.980400 50661.200000
57.975700 1004895.100000
60.975300 608307.000000
61.970600 498553.500000
63.962400 642726.900000
65.014500 337735.700000
66.034900 42308.600000
67.030200 47541.300000
68.014100 32836.000000
77.965500 7807667.800000
78.973400 989729.300000
79.981200 264413.800000
90.034900 27664.500000
91.030200 1594972.200000
92.038000 2668949.000000
93.045800 1717181.100000
93.960400 40527.600000
94.029800 116757.800000
95.025100 104748.600000
96.999200 88044.300000
105.033200 203322.681700
105.058400 596905.200000
106.066300 198991.800000
107.048900 670048.400000
108.032900 3625861.800000
109.040900 176451.100000
117.045800 22802.300000
118.041300 93454.500000
120.999200 93068.100000
123.002300 130870.000000
124.010000 160985.600000
124.994300 33624.300000
125.017800 96647.300000
130.065800 24189.100000
131.049000 274047.300000
131.061700 27445.000000
132.056700 165389.400000
135.002600 174933.700000
149.005300 189580.900000
149.017700 103045.200000
150.013000 106175.000000
150.997100 377209.200000
153.000400 159030.900000
154.066500 35882.700000
154.992000 88892.100000
155.061400 268808.000000
156.000000 118493.400000
156.082000 120224.661500
167.061300 113740.600000
168.056700 61501.100000
169.064600 44988.400000
169.077100 133815.800000
170.072200 39520.600000
180.056900 34148.800000
180.069300 424476.500000
181.065300 847488.200000
181.077100 6816880.700000
182.072400 479783.100000
183.092600 2348287.900000
192.056700 298136.500000
193.064400 23630.100000
194.072300 690588.200000
195.080100 3822374.200000
196.087900 1261996.700000
197.071800 37011.200000
198.103500 453611.500000
199.033300 161120.000000
199.087800 121946.600000
200.028900 135746.700000
210.067400 156368.600000
224.028600 135211.100000
225.036200 82594.800000
226.044400 658692.500000
227.052300 50342.600000
242.038800 39922.900000
243.047200 86874.700000
262.065800 161324.900000

