>compound EQ27789432
>parentmass 358.142
>ionization [M-H]-
>formula C15H22FN3O6
>rt 468.000000
>profile orbitrap
#smiles_iso CCCCCOC(=O)NC1=NC(=O)N(C=C1F)[C@H]2[C@@H]([C@@H]([C@H](O2)C)O)O
#smiles_can CCCCCOC(=O)NC1=NC(=O)N(C=C1F)C2C(C(C(O2)C)O)O
#inchikey GAGWJHPBXLXJQN-UORFTKCHSA-N
#pubchem_id 60953
#mb_accession EQ284551,EQ284552,EQ284553,EQ284554,EQ284555,EQ284556

>ms2peaks
153.010400 195995.000000
154.005800 13739911.200000
155.082600 88762.000000
199.088900 491961.500000
221.093200 99594.600000
242.094600 1495439.700000
284.105400 521936.200000
358.141900 70278178.200000

>ms2peaks
84.025600 149482.000000
87.081600 45581.900000
106.017400 34877.000000
107.025100 275842.100000
111.000100 34423.300000
113.015800 162171.100000
125.015600 489098.700000
127.031400 201312.500000
129.010800 275172.500000
135.020400 67187.600000
136.015300 146238.000000
141.010700 100979.700000
148.015300 109940.300000
150.007100 33819.600000
153.010700 2484439.600000
154.005800 33128767.800000
155.082600 736193.900000
156.021400 133566.400000
163.015100 33248.700000
164.010100 123121.000000
170.013300 52869.900000
176.010000 238376.500000
196.016400 482175.400000
199.088800 1324599.300000
209.093400 34180.300000
221.093100 1093077.900000
241.098900 265295.500000
242.094600 1427366.100000
284.105100 1566417.600000
315.136300 34122.000000
358.142000 4595809.000000

>ms2peaks
65.014600 84290.100000
65.998600 102138.300000
77.014600 39227.200000
80.001700 40681.500000
80.014200 37831.700000
83.005100 142399.400000
84.025500 172430.200000
85.020800 37053.900000
85.065900 39931.800000
87.081700 41386.200000
89.014500 89851.500000
95.025200 20740.700000
97.020700 124539.900000
99.036400 27106.000000
105.009500 49710.300000
106.017300 257724.600000
107.025100 622449.400000
111.000300 39917.000000
113.015800 263014.200000
113.999600 25985.900000
122.012100 46753.900000
125.015700 1328366.900000
127.031400 81584.000000
129.010700 268720.800000
133.004400 104232.700000
135.020000 99128.200000
136.015200 135398.500000
141.010500 92343.700000
148.015400 157302.300000
150.007200 189241.100000
151.015100 96440.500000
153.010600 4588480.300000
154.005800 10900287.000000
155.082700 741424.000000
163.014900 24279.900000
164.010200 105438.200000
168.021700 88402.400000
170.013500 34069.400000
176.009900 128312.500000
179.082700 144337.800000
196.016400 87085.100000
199.088900 354167.100000
201.104500 28587.400000
209.093100 33976.000000
221.093100 425875.400000
284.104900 40009.800000

>ms2peaks
65.014500 109085.300000
65.998500 181918.800000
77.014600 134982.500000
80.001700 128895.600000
80.014100 36612.500000
83.005000 239543.300000
84.025500 93533.700000
85.020700 49110.700000
85.065900 124845.100000
87.081500 33683.800000
89.014500 86153.700000
93.009400 83400.600000
95.025200 32680.800000
97.020800 323372.900000
99.036400 102197.100000
105.009200 42841.300000
106.017300 441398.700000
107.025100 629484.800000
109.004500 27494.100000
109.020600 28131.600000
111.000000 32036.400000
113.015700 191985.300000
113.999800 35609.100000
120.020200 31841.700000
122.012300 48374.800000
125.015600 1458570.800000
129.010600 244273.500000
133.004600 25845.100000
135.020100 103113.600000
136.015200 35578.400000
141.010600 53263.500000
148.015300 129072.600000
150.007100 104442.100000
151.014600 29848.800000
153.010600 4230934.100000
154.005800 3912874.200000
155.082700 496695.200000
164.010300 36614.100000
168.022000 25140.800000
176.009700 36978.000000
179.082600 121543.000000
199.088400 101195.600000
221.093200 137365.500000

>ms2peaks
64.006600 40059.200000
65.014600 147397.200000
65.998500 260754.100000
70.009900 43602.000000
77.014600 162868.700000
80.001600 136717.400000
80.014300 30850.800000
83.005200 220978.600000
84.025600 112214.800000
85.020900 37247.600000
85.065900 225770.200000
87.081600 26844.800000
89.014500 34947.000000
93.009400 39741.600000
97.020800 521088.200000
99.036400 94920.100000
105.009400 30381.200000
106.017300 413294.200000
107.025100 344906.300000
109.004500 23175.500000
109.020800 27911.500000
111.000000 25580.300000
113.015800 161061.100000
113.999700 35035.400000
120.019900 19281.500000
125.015600 1492049.400000
129.010600 97624.200000
135.020100 34181.100000
148.015400 30578.300000
150.007000 34539.900000
153.010600 2168017.900000
154.005800 627706.300000
155.082700 176777.900000
164.010200 23873.600000
179.082700 102315.600000

>ms2peaks
64.006700 92906.100000
65.014500 254300.800000
65.998500 222889.300000
70.009900 83629.000000
77.014500 120101.300000
80.001600 44208.700000
80.014400 22969.900000
83.005100 223474.300000
84.025400 91596.900000
85.020800 93710.900000
85.065900 253650.700000
89.014500 29210.700000
93.009500 47065.000000
95.024800 25194.700000
97.020800 375231.800000
99.036600 24160.800000
105.009500 40122.800000
106.017300 437914.000000
107.025000 266458.700000
109.020600 23257.100000
113.015800 86218.600000
125.015700 914052.100000
136.015300 26282.100000
153.010600 759689.200000
155.082500 27528.300000
179.082200 36514.700000

