>compound EQ29289800
>parentmass 546.2279
>ionization [M-H]-
>formula C27H37N3O7S
>rt 528.000000
>profile orbitrap
#smiles_iso CC(C)CN(C[C@H]([C@H](CC1=CC=CC=C1)NC(=O)O[C@H]2CO[C@@H]3[C@H]2CCO3)O)S(=O)(=O)C4=CC=C(C=C4)N
#smiles_can CC(C)CN(CC(C(CC1=CC=CC=C1)NC(=O)OC2COC3C2CCO3)O)S(=O)(=O)C4=CC=C(C=C4)N
#inchikey CJBJHOAVZSMMDJ-HEXNFIEUSA-N
#pubchem_id 213039
#mb_accession EQ301651,EQ301652,EQ301653,EQ301654,EQ301655,EQ301656

>ms2
63.962200 1502.700000
156.012600 487691.000000
171.956500 1581.000000
227.086200 1448.300000
373.159200 54150.400000
416.165000 484650.530800

>ms2
63.962400 16847.800000
92.050600 11961.500000
107.037600 1282.600000
155.004700 5392.300000
156.012500 558140.800000
171.956200 2060.700000
189.139600 6299.700000
227.086000 29154.200000
373.159000 16394.100000

>ms2
63.962400 76568.200000
79.957400 1305.000000
91.042700 1389.400000
92.050600 43946.500000
107.037800 19410.800000
108.045500 5108.100000
132.069400 1715.200000
155.004700 18839.500000
156.012600 342708.100000
189.139900 4633.300000
227.086000 25961.100000

>ms2
79.957400 1032.400000
91.042700 5429.300000
92.050600 65393.200000
107.037700 37427.600000
108.045500 5468.900000
132.069300 3904.500000
155.004600 14250.400000
156.012500 210059.500000
189.140300 1116.300000
227.085800 15180.400000

>ms2
91.042700 14851.800000
92.050600 44517.600000
93.034700 945.800000
107.037600 44016.000000
108.045600 1960.700000
132.069300 1120.800000
155.004500 4987.700000
156.012500 50297.900000
227.086200 4006.200000

>ms2
91.042800 22535.500000
92.050600 23817.800000
93.034600 1632.400000
107.037700 34095.700000
108.045300 2100.300000
156.012500 12476.400000

