>compound EQ32647912
>parentmass 182.0823
>ionization [M-H]-
>formula C9H13NO3
>rt 48.000000
>profile orbitrap
#smiles_iso CNC[C@@H](C1=CC(=C(C=C1)O)O)O
#smiles_can CNCC(C1=CC(=C(C=C1)O)O)O
#inchikey UCTWMZQNUQWSLP-VIFPVBQESA-N
#pubchem_id 5816
#mb_accession EQ332551,EQ332552,EQ332553,EQ332554,EQ332555,EQ332556

>ms2peaks
109.029500 97652.900000
121.029300 27241.600000
122.037400 2260314.500000
123.045300 100775.700000
124.016400 40121.200000
135.045100 175472.100000
137.024500 116339.100000
137.060800 42369.300000
139.040100 24337.900000
148.040300 51646.200000
149.048200 1348326.400000
154.027300 83542.100000
162.056400 225729.100000
164.071700 23863776.000000
182.082300 2644482.200000

>ms2peaks
108.021700 23019.900000
109.029600 172457.900000
121.029600 29852.900000
122.037400 3059439.800000
123.045200 155396.700000
124.016600 55120.900000
135.045200 167573.200000
137.024500 140561.100000
137.060900 46145.300000
139.040300 31356.000000
148.040300 70246.700000
149.048200 1683991.600000
154.027200 135073.500000
162.056400 242897.500000
163.064300 30623.700000
164.071700 21875458.000000
182.082300 1752091.000000

>ms2peaks
93.034500 41144.500000
108.021700 74989.900000
109.029500 347860.100000
121.029600 61572.500000
122.037400 9449891.000000
123.045100 383930.800000
124.016500 191041.300000
131.037700 23120.000000
134.037400 41979.100000
135.045200 191594.700000
136.016800 51726.800000
137.024400 461198.700000
139.040200 42733.100000
147.032700 57406.400000
148.040500 407388.200000
149.048100 3454754.800000
153.019300 28052.600000
154.027200 470307.300000
160.040500 21577.700000
161.048200 102856.800000
162.056200 355987.500000
163.064000 107303.700000
164.071700 12085639.000000
182.082200 98357.500000

>ms2peaks
93.034600 59379.500000
108.021700 98160.600000
109.029600 257611.400000
121.029600 82184.300000
122.037400 9036538.000000
123.045200 359337.000000
124.016500 208813.100000
131.037700 33417.000000
134.037300 36325.800000
135.045200 215984.900000
136.016700 49128.900000
137.024400 406761.700000
139.040000 31328.100000
144.045400 11052.800000
147.032600 103526.500000
148.040500 925173.200000
149.048100 2914314.000000
153.019200 27528.800000
154.027200 446893.600000
160.040400 40412.400000
161.048200 112817.200000
162.056100 230865.300000
163.063900 101018.800000
164.071800 2824218.500000

>ms2peaks
80.026700 6649.800000
81.034600 7948.900000
92.050600 25120.600000
93.034600 56109.800000
95.050300 18430.000000
102.034900 19956.900000
105.034500 4948.600000
108.021800 55151.700000
109.029600 173057.500000
120.045700 11275.800000
121.029600 107777.800000
122.037400 4466039.500000
123.045200 171095.200000
124.016600 78828.400000
130.029800 24334.900000
131.037800 30741.800000
133.029700 6970.300000
134.037400 49551.600000
135.045200 141198.700000
136.016600 32308.300000
137.024400 228451.300000
139.039900 6435.200000
147.032600 100970.700000
148.040500 1127186.600000
149.048100 1389871.800000
153.019600 6015.900000
154.027200 227412.300000
160.040400 29446.500000
161.048200 102313.200000
162.056100 79718.300000
163.064000 39930.600000
164.071800 402199.300000

>ms2peaks
65.039700 4677.900000
67.019100 5850.900000
81.034600 7853.700000
92.050600 53898.200000
93.034600 55756.800000
95.050300 5209.600000
102.035000 36128.500000
107.050300 5850.000000
108.021800 59413.100000
109.029500 79395.600000
120.045500 28658.200000
121.029600 118509.200000
122.037400 1374010.600000
123.045200 69392.100000
124.016800 32471.600000
130.029800 58725.700000
131.037700 38250.500000
133.029600 16364.500000
134.037700 39689.900000
135.045200 103992.200000
136.016400 9052.000000
137.024400 130562.400000
144.045600 7733.900000
147.032700 103645.900000
148.040400 831626.400000
149.048100 409824.200000
154.027100 60685.800000
160.040400 17316.900000
161.048400 54096.200000
162.056100 30787.000000
163.064100 6075.100000
164.071800 35375.400000

