>compound EQ32871555
>parentmass 84.0203
>ionization [M-H]-
>formula C2H3N3O
>rt 60.000000
>profile orbitrap
#smiles_iso C1=NNNC1=O
#smiles_can C1=NNNC1=O
#inchikey QEASJVYPHMYPJM-UHFFFAOYSA-N
#pubchem_id 17887248
#mb_accession EQ318651,EQ318652,EQ318653,EQ318654,EQ318655,EQ318656

>ms2
66.009600 52346.000000
84.020300 782846.400000

>ms2
66.009700 51688.300000
84.020300 829506.400000

>ms2
66.009700 57148.300000
84.020300 817933.300000

>ms2
66.009700 55318.100000
84.020300 786054.000000

>ms2
66.009700 57093.000000
84.020300 299900.300000

>ms2
66.009700 57408.400000
84.020300 136972.100000

