>compound EQ33839022
>parentmass 225.0557
>ionization [M-H]-
>formula C14H10O3
>rt 378.000000
>profile orbitrap
#smiles_iso C1=CC=C2C(=C1)C3=CC=CC=C3C2(C(=O)O)O
#smiles_can C1=CC=C2C(=C1)C3=CC=CC=C3C2(C(=O)O)O
#inchikey GXAMYUGOODKVRM-UHFFFAOYSA-N
#pubchem_id 10087
#mb_accession EQ309451,EQ309452,EQ309453,EQ309454

>ms2
76.988000 807.000000
141.071000 3236.700000
169.065900 50813.500000
180.058000 26863.200000
181.065900 29202.000000
184.053300 908.600000
185.060700 29981.200000
195.045100 284665.800000
213.055600 334651.800000

>ms2
76.988100 935.000000
141.071000 3211.700000
169.065800 39209.600000
180.058000 38673.000000
181.065900 31815.900000
184.052800 923.500000
185.060700 21506.900000
195.045100 196872.900000
197.060300 1060.200000
213.055600 261231.900000

>ms2
141.070800 803.800000
169.066000 12790.500000
180.058000 27122.000000
181.065900 12038.500000
185.060700 5290.300000
195.045100 60832.500000
197.060700 1342.100000
213.055700 80588.900000

>ms2
141.070700 868.800000
169.065700 3023.500000
180.058100 14311.900000
181.065800 7312.600000
185.060900 1043.200000
195.045100 20887.800000
197.060400 2555.900000
213.055600 23871.200000

