>compound EQ33359079
>parentmass 336.1605
>ionization [M-H]-
>formula C21H23NO3
>rt 420.000000
>profile orbitrap
#smiles_iso CN(C)CC/C=C\1/C2=CC=CC=C2COC3=C1C=C(C=C3)CC(=O)O
#smiles_can CN(C)CCC=C1C2=CC=CC=C2COC3=C1C=C(C=C3)CC(=O)O
#inchikey JBIMVDZLSHOPLA-LSCVHKIXSA-N
#pubchem_id 5281071
#mb_accession EQ332351,EQ332352,EQ332353,EQ332354,EQ332355,EQ332356

>ms2
206.073800 72665.400000
207.081700 85037.400000
208.089200 198442.600000
216.094300 26839.700000
219.081300 191636.200000
220.089200 49677.000000
221.060900 66910.900000
229.102000 143208.200000
247.112700 1986216.000000
248.120700 73328.000000
250.160000 36730.500000
264.175600 60059.700000
274.160100 1063233.000000
280.109300 49386.800000
290.155200 29237.000000
292.170500 26039776.000000
306.150600 55897.800000
336.160400 311581.000000

>ms2
81.034700 27408.200000
93.034600 265687.800000
106.042500 15878.100000
107.050200 135168.100000
115.055400 36879.700000
132.058000 44726.900000
141.070900 28741.600000
165.070900 87778.900000
179.086500 13114.600000
186.128800 47671.400000
191.086600 226086.100000
193.065700 78376.300000
193.102000 25567.700000
194.073500 11274.700000
198.128800 147411.800000
202.078700 10557.500000
205.102100 49829.800000
206.073500 176807.500000
206.110200 10177.000000
207.081300 247676.800000
208.052600 15553.100000
208.089200 225292.800000
210.105300 29948.200000
212.143800 9851.000000
216.094300 135939.000000
217.065700 59998.200000
218.073800 40392.300000
219.081400 791572.500000
219.117900 66008.400000
220.089400 245243.900000
221.060700 39577.200000
221.097000 44581.000000
229.102100 655003.700000
230.073700 14221.500000
230.109600 30476.300000
231.081100 37980.000000
231.117900 124006.000000
232.089200 170796.500000
233.097100 86472.900000
234.068600 26654.700000
234.104900 199590.700000
235.112800 15181.700000
245.096500 58452.900000
246.105100 11506.200000
247.112600 5033809.500000
248.120500 352386.800000
249.127900 41643.200000
250.160400 69759.200000
259.135900 77281.900000
264.175600 617968.000000
274.160100 1280111.000000
277.147100 11868.400000
280.110300 235418.000000
290.154700 92601.100000
292.170500 9451882.000000

>ms2
81.034600 39301.700000
93.034600 258097.700000
95.050400 10439.800000
106.042400 30713.200000
107.050200 225053.200000
115.055500 40585.200000
119.050200 6749.000000
121.066000 11517.600000
132.058100 48940.300000
141.071000 27689.400000
153.071500 7052.900000
155.086500 9269.800000
165.070800 120081.200000
167.086400 12630.000000
177.070800 8187.000000
178.078500 29198.000000
179.086200 40770.700000
180.057700 11049.400000
186.128600 6679.000000
191.086700 497308.000000
192.094600 10905.400000
193.065800 146967.400000
193.102000 11376.400000
194.073700 9270.400000
198.128800 39626.300000
202.078700 35223.500000
203.086400 33329.300000
204.094000 12231.400000
205.102300 105127.000000
206.073600 260543.400000
206.110200 38923.800000
207.081300 312330.500000
208.089300 37945.100000
209.096600 12355.700000
210.105100 9937.400000
215.086700 13521.800000
216.094300 71161.700000
217.065900 92669.900000
217.102800 6535.500000
218.073700 39893.500000
219.081400 956348.900000
220.089200 138630.000000
221.097100 99784.800000
229.102100 547431.200000
230.073700 10009.500000
230.110000 13674.700000
231.081200 74692.600000
231.117600 44062.600000
232.089100 241795.900000
233.097000 170015.600000
234.104900 77088.000000
245.097100 71933.100000
246.104600 26911.900000
247.112700 1814572.600000
248.120700 75198.700000
250.160000 9972.900000
264.175600 265537.600000
274.160200 111839.100000
280.110500 35218.300000
290.155300 49452.500000
292.170500 655137.800000

>ms2
81.034700 12127.500000
93.034600 159715.200000
95.050300 6461.300000
106.042400 24349.000000
107.050200 156571.900000
115.055400 48649.800000
121.065700 9317.200000
123.045300 8602.400000
132.058000 8022.400000
141.071200 10807.800000
143.050200 6690.900000
153.070700 5826.500000
165.070900 176091.700000
177.070700 7925.300000
178.078400 22559.900000
179.086700 26805.700000
180.057900 8919.500000
189.071100 6013.300000
191.086600 500393.400000
192.094400 8413.000000
193.065900 109062.900000
202.078800 10175.700000
203.086600 31691.100000
204.094800 10072.400000
205.102200 108685.500000
206.073700 92911.000000
207.081400 225084.700000
215.086900 26207.900000
216.094100 12394.300000
217.065900 127272.800000
217.101900 8460.600000
218.073500 45143.500000
219.081400 714717.700000
220.089600 41214.700000
221.097000 81133.800000
229.102100 270209.700000
230.074100 22576.700000
231.081500 114186.100000
232.089100 89686.300000
233.097100 168584.200000
245.097500 40213.300000
246.104600 9308.800000
247.112600 218497.900000
264.175600 13157.500000
292.170400 8054.200000

>ms2
93.034600 90593.700000
95.050300 7861.300000
106.042500 6123.100000
107.050300 84856.800000
115.055400 32577.200000
119.050300 6750.700000
141.071000 21058.100000
143.050100 6095.200000
153.071200 5686.800000
165.070800 171730.900000
177.070300 6850.700000
178.078800 13070.900000
179.086500 28604.100000
191.086700 459644.800000
193.066000 47557.600000
203.087100 39778.000000
205.065800 9469.400000
205.102100 69441.800000
206.073900 37266.900000
207.081400 126200.300000
215.086700 30303.200000
217.065700 111835.300000
218.073500 84108.100000
219.081400 347895.800000
220.089100 7356.000000
221.096800 36796.900000
229.102000 71952.800000
230.073100 27192.900000
231.081700 78367.900000
232.089300 6989.800000
233.096900 75538.100000
245.097000 21949.600000
247.112600 23195.300000

>ms2
93.034500 37002.600000
106.042500 6553.100000
107.050400 36665.900000
115.055400 27983.300000
139.055200 23332.800000
141.070800 8538.300000
165.070900 123092.000000
177.071000 7405.000000
178.078500 6542.100000
179.086200 6969.900000
189.071100 10974.900000
191.086700 215067.700000
193.065800 26215.000000
202.078900 5327.500000
203.086800 29015.000000
205.101900 39879.400000
206.073600 12566.000000
207.081200 40190.600000
215.087000 9926.700000
217.065900 72075.900000
218.073900 56631.200000
219.081500 91132.100000
221.096800 6171.400000
229.101800 6861.100000
230.073400 22679.100000
231.081400 26961.100000
233.096600 12546.700000

