>compound EQ34011939
>parentmass 562.2939
>ionization [M-H]-
>formula C30H46NO7P
>rt 996.000000
>profile orbitrap
#smiles_iso CCC(=O)OC(C(C)C)OP(=O)(CCCCC1=CC=CC=C1)CC(=O)N2C[C@@H](C[C@H]2C(=O)O)C3CCCCC3
#smiles_can CCC(=O)OC(C(C)C)OP(=O)(CCCCC1=CC=CC=C1)CC(=O)N2CC(CC2C(=O)O)C3CCCCC3
#inchikey BIDNLKIUORFRQP-FKDWWROVSA-N
#pubchem_id 55891
#mb_accession EQ332451,EQ332452,EQ332453,EQ332454,EQ332455,EQ332456

>ms2peaks
73.029500 3713425.200000
196.134300 68431.800000
213.068600 461645.000000
220.134000 9325955.000000
293.094800 1534472.500000
372.209700 1314586.200000
416.199700 51902500.000000
434.210100 528683.400000
490.236200 94767.100000

>ms2peaks
73.029500 7446511.000000
97.029500 908485.900000
179.063300 140783.100000
195.058200 214210.500000
196.134200 843982.200000
213.068700 3096182.800000
220.134200 69946408.000000
237.068500 1088223.600000
293.094700 581168.600000
330.198500 196829.100000
372.209600 4629408.500000
390.220600 102810.300000
416.199700 3383000.800000
434.210800 79928.800000

>ms2peaks
62.964200 195352.100000
73.029500 8830500.000000
78.959100 157140.300000
97.029500 2379297.800000
110.024700 935812.700000
179.063200 948655.300000
192.139300 104637.000000
195.058100 716471.100000
196.134300 1566374.000000
198.105400 214120.100000
213.068700 2808832.000000
220.134200 59894168.000000
221.073700 111942.900000
237.068600 940472.200000
240.115900 396695.800000
249.104800 101982.100000
291.115300 83727.300000
330.199200 299119.000000
372.209800 1245019.200000

>ms2peaks
62.964100 708211.600000
66.034900 86202.800000
73.029500 9192333.000000
78.959100 726628.600000
82.029900 575297.600000
87.995700 67110.200000
96.009100 173314.900000
97.029500 3177889.500000
110.024800 7902001.000000
148.113300 100716.600000
166.123400 107453.400000
179.063200 703522.200000
192.139600 81157.300000
195.058100 1079866.400000
196.134200 1517322.500000
198.105400 283268.100000
213.068700 1633221.000000
220.134200 44262188.000000
237.068800 203804.700000
240.115800 214518.400000
330.199700 63054.900000

>ms2peaks
60.984900 37377.200000
62.964100 1408988.500000
64.019300 26150.500000
64.979800 99586.900000
66.034900 365339.600000
68.014200 30649.400000
68.998200 133709.600000
73.029500 8223753.500000
75.000600 28035.300000
78.959100 1626191.600000
82.029900 2612408.500000
86.024700 20555.200000
86.964200 27147.600000
87.000400 23647.400000
87.995700 85812.200000
88.979800 32901.900000
96.009200 764950.000000
97.029500 2653042.200000
102.959000 68342.600000
110.024800 17152206.000000
126.019800 34029.900000
148.113300 30995.700000
152.035400 28175.700000
161.052400 24010.500000
166.123500 89368.900000
179.063300 157197.600000
192.139400 73105.900000
195.058000 427926.500000
196.134300 733070.100000
198.105400 109562.200000
213.068500 489225.100000
220.134200 20436318.000000

>ms2peaks
60.984900 24611.700000
62.964100 1640872.200000
64.019300 32444.600000
64.979800 108947.000000
66.034900 437203.800000
68.014100 109250.400000
68.998200 215115.400000
73.029500 4949404.000000
76.979700 14506.100000
78.959100 1589311.100000
82.029900 3075753.000000
83.013800 16625.700000
86.024800 19188.800000
86.964200 67988.400000
87.000400 33916.900000
87.995900 22428.900000
88.979700 20292.600000
93.982600 36432.500000
96.009200 1300315.000000
97.029500 1763762.900000
102.959100 74799.400000
108.045600 20279.600000
109.016900 23368.600000
110.024800 13179053.000000
126.019700 32341.000000
148.113200 34903.600000
166.123600 27868.800000
195.058200 87444.700000
196.134300 153833.800000
213.069200 37428.600000
218.119200 18014.300000
220.134300 4062389.000000

