>compound EQ35371457
>parentmass 491.0966
>ionization [M-H]-
>formula C17H19F3N6O6S
>rt 648.000000
>profile orbitrap
#smiles_iso CC1=C(C(=CC=C1)C(=O)OC)S(=O)(=O)NC(=O)NC2=NC(=NC(=N2)OCC(F)(F)F)N(C)C
#smiles_can CC1=C(C(=CC=C1)C(=O)OC)S(=O)(=O)NC(=O)NC2=NC(=NC(=N2)OCC(F)(F)F)N(C)C
#inchikey IMEVJVISCHQJRM-UHFFFAOYSA-N
#pubchem_id 92434
#mb_accession EQ318251,EQ318252,EQ318253,EQ318254,EQ318255,EQ318256

>ms2
68.995500 284255.700000
166.073300 190683.300000
176.057500 182586.700000
196.007400 29024588.900000
196.064000 1502563.600000
216.070300 1684296.400000
228.033700 1847072.747000
236.076400 149994920.500000

>ms2
68.995700 456410.600000
138.078400 645695.300000
148.062800 276411.800000
151.006000 328958.400000
152.013800 618663.100000
161.034400 1317339.500000
166.073400 4905123.800000
176.057600 4761396.900000
196.007500 14205700.450000
196.064000 33350844.400000
216.070200 23317694.800000
236.076400 105068935.200000

>ms2
61.970600 54864.300000
66.009600 565456.900000
68.995700 1521817.600000
78.009700 72544.200000
79.000100 107937.100000
105.960500 81359.800000
106.004900 80185.100000
106.028600 65841.700000
107.036300 275773.900000
111.011100 418630.600000
121.052100 386165.500000
124.019100 233942.600000
126.011000 359320.300000
128.062900 576396.100000
133.039400 462735.300000
134.023400 73125.700000
135.031300 285747.100000
136.062700 293833.700000
138.078500 2824641.400000
147.031300 73840.200000
148.039000 451554.300000
148.062800 2305344.600000
149.046700 368099.500000
151.006100 2171131.900000
152.013900 3664975.600000
153.021600 58652.900000
160.026500 616083.000000
161.034300 14771961.000000
166.073300 13133166.500000
167.061100 694435.600000
169.053100 946763.500000
176.057600 27767808.900000
181.040500 744528.800000
196.007800 8954602.030000
196.064100 53702202.700000
216.070100 11964371.900000
236.076400 16823547.500000

>ms2
58.993900 211120.800000
61.970700 190062.000000
66.009700 1484182.800000
68.995700 2616705.100000
71.005100 372666.200000
78.009800 79022.500000
79.000100 1447239.000000
90.009900 241621.300000
99.006300 87389.300000
100.007700 433707.900000
104.013000 89621.700000
105.960500 310928.000000
106.004600 350549.700000
106.028400 359759.000000
107.036300 305565.800000
111.011200 748471.700000
111.067600 525596.600000
118.016200 62428.900000
118.028500 51358.000000
120.044100 92097.600000
121.052100 546556.400000
123.011300 176242.400000
124.019000 400006.000000
126.010800 588453.000000
128.063000 719941.700000
132.031500 210406.300000
133.015500 79698.500000
133.039400 1309429.100000
134.023400 237138.100000
135.031400 288697.200000
136.062800 888099.200000
138.022200 209908.500000
138.078500 3560073.400000
147.031300 206929.900000
148.039100 496751.100000
148.062900 1996796.100000
149.046900 424615.300000
151.006100 2358678.600000
152.013900 3645708.300000
152.037800 1093167.800000
153.021800 93896.600000
160.026500 3846086.400000
161.034300 33176983.000000
166.073300 10253673.800000
167.061200 1569308.100000
168.068900 85559.300000
169.053100 972127.700000
176.057600 25280990.400000
181.040600 838901.500000
196.007400 4743904.100000
196.064000 13848808.000000
216.070100 1264566.500000
236.076700 824229.384400

>ms2
58.009700 60130.900000
58.993700 749164.200000
61.970500 317899.800000
66.009700 2767357.800000
68.995700 3567932.500000
71.005000 540638.400000
78.009800 237711.000000
79.000100 4860947.900000
90.009700 678233.000000
99.006400 206282.800000
100.007700 591896.900000
104.012900 290882.700000
105.960500 350438.200000
106.004700 468276.000000
106.028400 591559.000000
107.036300 245535.700000
111.011200 487669.400000
111.067500 450708.000000
113.039400 187398.900000
118.015900 370430.200000
118.028400 82826.200000
121.052000 351571.500000
123.011300 149823.900000
124.019000 337343.900000
126.010800 373526.400000
128.063000 251056.800000
132.031600 532861.800000
133.015600 178079.800000
133.039400 1281548.100000
134.023600 205229.600000
135.031200 206146.100000
136.062800 1937566.600000
138.022100 544191.000000
138.078400 2651841.800000
139.006100 163900.900000
147.031600 64418.500000
148.039200 323905.800000
148.062800 688160.800000
149.047000 228889.200000
151.006100 1101084.400000
152.013900 1823059.700000
152.037800 1863437.900000
153.021700 70190.300000
154.029600 238148.966000
160.026500 9166987.000000
161.034200 23593207.700000
166.016900 282163.500000
166.073300 4269289.100000
167.061400 638754.500000
169.052900 301084.600000
176.057600 6855925.900000
181.040700 294394.861500
196.007300 1659453.000000
196.064000 1262287.900000

>ms2
58.009800 36310.300000
58.993700 2010187.500000
61.970500 183237.300000
66.009700 5054461.400000
68.995700 3940052.100000
71.005100 268399.600000
78.009700 202132.400000
79.000100 6969054.500000
79.017600 438979.409500
90.009800 834404.700000
99.006400 283315.400000
100.007800 417041.800000
104.012800 264766.000000
105.960500 41483.300000
106.004700 193443.800000
106.028500 723173.200000
107.036100 54020.000000
111.011200 454597.300000
111.067700 358928.300000
113.039500 54999.400000
118.016000 445103.000000
118.028600 71445.600000
120.044300 41389.700000
121.052000 67760.000000
124.019000 225135.700000
126.011000 241811.200000
132.031500 602568.823700
133.015500 179704.900000
133.039500 478757.100000
134.023600 60002.400000
135.031200 60736.300000
136.062800 2199677.900000
138.021900 465388.400000
138.078400 954116.600000
139.006200 61253.200000
149.046600 46841.500000
151.006100 559879.700000
152.013800 757173.100000
152.037800 1630736.500000
158.010800 146952.514400
160.026400 9513431.200000
161.034200 7153647.300000
166.016700 66609.300000
166.073400 860140.300000
167.061100 77537.100000
176.057600 842345.200000
196.007200 352986.049200

