>compound EQ37539869
>parentmass 211.01829999999998
>ionization [M-H]-
>formula C8H8N2O3S
>rt 258.000000
>profile orbitrap
#smiles_iso C1=CC=C2C(=C1)C(=NO2)CS(=O)(=O)N
#smiles_can C1=CC=C2C(=C1)C(=NO2)CS(=O)(=O)N
#inchikey UBQNRHZMVUUOMG-UHFFFAOYSA-N
#pubchem_id 5734
#mb_accession EQ313251,EQ313252,EQ313253,EQ313254,EQ313255,EQ313256

>ms2peaks
63.962400 71115.900000
77.965500 45322.600000
78.973300 124347.100000
91.055400 34823.600000
93.034600 116345.300000
107.050300 257449.400000
117.034800 143424.200000
118.030100 5886084.000000
119.050300 18043449.500000
120.045300 221191.400000
135.045200 104382.400000
147.056400 10103998.900000
211.018200 1870667.900000

>ms2peaks
63.962500 103531.300000
77.965500 57581.800000
78.973400 216940.200000
90.034900 42270.700000
91.055400 88210.800000
93.034600 177388.700000
107.050300 428570.000000
117.034900 276689.100000
118.030100 7925632.100000
119.050300 19934190.900000
120.045400 185551.000000
135.045100 104674.200000
147.056400 4966755.400000
211.018300 498591.300000

>ms2peaks
61.970600 45932.700000
63.962500 241172.500000
65.039700 44459.200000
77.965500 129949.100000
78.973300 795876.900000
79.981200 30964.600000
90.035000 163134.200000
91.055300 275963.800000
93.034600 575919.000000
107.050300 629823.000000
117.034800 837367.200000
118.030100 10043096.000000
119.050200 17972283.300000
120.045200 98251.800000
130.029900 27129.400000
132.045200 49637.300000
147.056400 469606.600000

>ms2peaks
61.970600 77265.100000
63.962400 334319.600000
64.970300 39568.700000
65.039700 95759.100000
77.965500 189404.800000
78.973300 1110137.200000
79.981300 49316.100000
90.035000 294329.800000
91.055300 474382.300000
93.034600 960311.500000
93.960400 41842.000000
107.050300 589797.900000
117.034800 1361782.800000
118.030100 9339686.800000
119.050200 13334430.000000
120.045400 39088.700000
130.029800 29993.000000
131.037500 26965.100000
132.045500 66918.800000
147.056300 68816.000000

>ms2peaks
61.970600 200910.200000
63.962400 567193.100000
64.970300 36461.600000
65.039700 196618.200000
77.965500 331224.500000
78.973300 1656498.900000
79.981200 55534.700000
89.039800 13771.700000
90.034900 783202.100000
91.055300 636814.300000
93.034600 1487514.300000
93.960500 77315.200000
102.035000 11608.100000
106.042500 34493.200000
107.050300 515172.600000
117.034800 1766479.200000
118.030000 7375898.800000
119.050200 7458014.400000
132.045600 55302.900000

>ms2peaks
61.970600 397385.200000
63.962400 1001193.600000
64.970300 51687.300000
65.039700 425964.700000
67.019000 7654.000000
77.965500 452805.500000
78.973300 2148527.200000
79.981200 44163.100000
89.039700 28312.800000
90.034900 1221716.100000
91.055300 513335.100000
93.034600 1820196.800000
93.960500 80459.300000
102.034900 14460.500000
106.042400 42427.400000
107.050300 351285.800000
117.034700 1622034.300000
118.030000 5119774.600000
119.050200 3513004.000000
132.045400 50628.900000

