>compound EQ38385523
>parentmass 347.2017
>ionization [M-H]-
>formula C24H28O2
>rt 1140.000000
>profile orbitrap
#smiles_iso CC1=CC2=C(C=C1C(=C)C3=CC=C(C=C3)C(=O)O)C(CCC2(C)C)(C)C
#smiles_can CC1=CC2=C(C=C1C(=C)C3=CC=C(C=C3)C(=O)O)C(CCC2(C)C)(C)C
#inchikey NAVMQTYZDKMPEU-UHFFFAOYSA-N
#pubchem_id 82146
#mb_accession EQ329551,EQ329552,EQ329553,EQ329554

>ms2peaks
303.211600 4424723.000000
347.201400 96797264.000000

>ms2peaks
267.081700 98603.000000
301.196600 192236.400000
303.211600 51268392.000000
305.191100 395550.800000
317.190500 97415.900000
319.206600 111549.300000
335.200800 154121.200000
347.201400 38528888.000000

>ms2peaks
257.153800 30605.300000
301.196100 174254.400000
303.211600 22956084.000000
305.190200 289521.200000
317.191200 36604.300000
319.206300 38591.100000
335.201400 29082.800000
347.201400 1825344.800000

>ms2peaks
303.211700 970993.100000

