>compound EQ41014919
>parentmass 353.1579
>ionization [M-H]-
>formula C14H22N6O5
>rt 72.000000
>profile orbitrap
#smiles_iso CC(C)[C@@H](C(=O)OCC(CO)OCN1C=NC2=C1N=C(NC2=O)N)N
#smiles_can CC(C)C(C(=O)OCC(CO)OCN1C=NC2=C1N=C(NC2=O)N)N
#inchikey WPVFJKSGQUFQAP-GKAPJAKFSA-N
#pubchem_id 135413535
#mb_accession EQ284351,EQ284352,EQ284353,EQ284354,EQ284355,EQ284356

>ms2
116.071700 286197.400000
126.030800 1705.800000
133.015500 9004.700000
150.042000 66573.800000
162.041700 15122.000000
176.057600 6715.800000
206.068200 218065.400000
236.078700 339551.600000
254.089300 27942.000000
353.157700 1696429.800000

>ms2
65.014500 1158.500000
66.009800 4622.900000
82.041100 1574.800000
92.025300 1777.800000
107.036300 19377.800000
108.020300 3995.800000
116.071800 857370.200000
119.036200 15162.200000
120.020100 1294.800000
120.056600 1183.200000
126.030900 21369.400000
133.015600 82541.000000
134.036000 29295.200000
135.031300 1517.600000
150.042100 593065.700000
151.026000 7071.400000
162.042100 141049.500000
163.062600 926.900000
164.057400 1158.200000
176.057600 79477.000000
188.057700 17568.400000
206.068200 266624.500000
236.078800 447799.000000
254.089400 70937.100000
353.157700 92024.600000

>ms2
65.014500 8420.700000
65.998500 4591.700000
66.009700 11196.000000
67.030200 2911.900000
82.041000 12973.100000
92.025400 20198.100000
93.009500 1035.400000
107.036400 45267.300000
108.020400 20031.900000
116.071700 798633.000000
119.036300 104783.500000
120.020300 10010.400000
120.056700 4414.100000
126.030900 107452.400000
133.015600 245785.700000
134.036000 106014.800000
135.031300 8259.300000
136.051500 1093.400000
144.031600 4423.100000
145.051800 3226.400000
149.034000 1003.800000
150.042000 478715.300000
151.026100 22519.900000
162.042100 227752.000000
163.062900 921.800000
176.057600 65562.900000
188.057900 14855.100000
206.068200 38432.900000
236.078600 36809.700000
254.089500 21397.000000

>ms2
65.014500 17161.300000
65.998500 4178.300000
66.009700 21363.300000
67.030200 7809.200000
78.009800 1340.700000
82.041100 15572.700000
90.009800 1753.200000
92.025400 49941.500000
94.041100 4721.200000
106.028500 1133.000000
107.036400 50516.500000
108.020400 32353.300000
116.071800 615480.300000
118.041200 972.700000
119.036300 181630.200000
120.020300 11613.000000
120.056800 6776.600000
126.030900 156471.800000
133.015600 285528.400000
134.036000 139306.600000
135.031300 8832.900000
136.051600 756.100000
144.031500 7317.600000
145.051900 3072.300000
149.034500 1446.600000
150.042100 258155.800000
151.026100 31246.000000
162.042100 167198.400000
164.057700 1229.900000
176.057600 25873.700000
188.057900 4918.500000
206.068300 9014.100000
236.078800 3391.300000
254.089000 6201.100000

>ms2
65.014500 31605.000000
65.998500 11692.300000
66.009700 36034.600000
67.030200 22737.300000
71.025200 1173.000000
78.009700 7696.700000
82.041100 13727.900000
90.009800 6498.000000
92.025400 88581.000000
93.009500 1425.800000
94.041200 4646.000000
106.004800 871.800000
106.028600 3115.800000
106.041000 4251.900000
107.036300 38069.300000
108.020300 31420.100000
116.071800 286470.900000
118.041300 1681.300000
119.036300 210170.300000
120.020400 10303.500000
120.056700 4039.500000
126.030900 158706.100000
132.031500 1649.900000
133.015600 226547.700000
134.036000 131587.400000
135.031200 4893.000000
144.031500 8291.800000
145.052100 1076.100000
149.034200 1489.100000
150.042000 73892.200000
151.026100 23827.400000
162.042100 80126.600000
176.058000 3431.700000

>ms2
65.014500 59151.000000
65.998500 17314.200000
66.009800 68039.000000
67.030200 37310.600000
71.025100 1145.600000
78.009800 9050.600000
82.041100 11625.900000
90.009800 9955.300000
92.025400 119137.800000
93.009400 2915.000000
94.041100 1582.700000
106.004800 1007.600000
106.028500 7031.700000
106.041000 5969.700000
107.036400 19398.800000
108.020400 27103.400000
116.071800 106888.700000
118.041100 3816.500000
119.036300 143511.700000
120.020300 7860.600000
120.056800 817.900000
126.030900 116920.700000
132.031500 1237.600000
133.015600 147896.600000
134.036100 76247.000000
135.031200 1000.600000
144.031500 9847.500000
150.042100 16907.000000
151.026100 17186.100000
162.042100 40461.600000

