>compound EQ41576490
>parentmass 357.02590000000004
>ionization [M-H]-
>formula C15H10ClF3N2O3
>rt 828.000000
>profile orbitrap
#smiles_iso C1=CC=C(C(=C1)C(=O)NC(=O)NC2=CC=C(C=C2)OC(F)(F)F)Cl
#smiles_can C1=CC=C(C(=C1)C(=O)NC(=O)NC2=CC=C(C=C2)OC(F)(F)F)Cl
#inchikey XAIPTRIXGHTTNT-UHFFFAOYSA-N
#pubchem_id 47445
#mb_accession EQ311851,EQ311852,EQ311853,EQ311854,EQ311855,EQ311856

>ms2peaks
84.990400 233394.700000
154.006500 58536670.500000
176.032700 3450423.200000
314.020100 984844.100000

>ms2peaks
68.995800 25547.200000
77.975200 17583.700000
84.990600 2310367.900000
107.037800 35139.200000
110.041200 228435.500000
111.000700 27840.700000
136.020600 18342.200000
154.006500 13328850.300000
176.032700 8836324.600000
201.028100 100483.400000
314.019900 365563.300000

>ms2peaks
68.995700 213479.500000
77.975300 27091.200000
78.035000 17122.600000
84.990700 10744779.500000
106.029900 86190.500000
107.037600 263833.700000
110.041200 1159563.000000
132.033200 18883.200000
136.020200 19206.600000
154.006500 964248.600000
176.032700 5666099.500000
201.028300 33149.100000

>ms2peaks
68.995700 366691.500000
77.975300 23085.900000
78.034900 46534.600000
84.990700 19190339.600000
90.035000 27471.200000
106.029900 102792.300000
107.037700 419431.200000
110.041200 1597541.400000
132.032700 29299.900000
154.006600 206808.100000
176.032800 3396307.800000

>ms2peaks
68.995800 433134.200000
78.035000 63630.200000
84.990700 21048360.000000
90.034900 95643.300000
107.037700 415118.300000
110.041200 1268162.200000
132.033000 63449.500000
136.020100 22582.100000
176.032800 548841.200000

>ms2peaks
68.995800 423339.900000
84.990700 20043923.400000
90.034900 101077.700000
107.037700 320854.000000
110.041200 854112.400000
176.032500 76866.400000

