>compound EQ42349987
>parentmass 126.99559999999998
>ionization [M-H]-
>formula C6H5ClO
>rt 438.000000
>profile orbitrap
#smiles_iso C1=CC(=CC=C1O)Cl
#smiles_can C1=CC(=CC=C1O)Cl
#inchikey WXNZTHHGJRFXKQ-UHFFFAOYSA-N
#pubchem_id 4684
#mb_accession EQ306651,EQ306652,EQ306653,EQ306654,EQ306655,EQ306656

>ms2peaks
91.018900 92549.600000
126.995600 6886380.600000

>ms2peaks
91.018900 105052.300000
126.995600 7051295.000000

>ms2peaks
91.018900 122414.700000
126.995600 5641203.200000

>ms2peaks
91.018900 182866.900000
126.995600 3961437.400000

>ms2peaks
91.018900 196725.300000
126.995600 1766398.700000

>ms2peaks
91.018900 147556.200000
126.995600 634988.500000

