>compound EQ42130392
>parentmass 201.0993
>ionization [M-H]-
>formula C7H14N4O3
>rt 168.000000
>profile orbitrap
#smiles_iso CN=C(NCC1CCOC1)N[N+](=O)[O-]
#smiles_can CN=C(NCC1CCOC1)N[N+](=O)[O-]
#inchikey YKBZOVFACRVRJN-UHFFFAOYSA-N
#pubchem_id 197701
#mb_accession EQ310851,EQ310852,EQ310853,EQ310854,EQ310855,EQ310856

>ms2
55.030100 75970.800000
61.004300 4936588.300000
66.034900 98461.200000
67.030200 7015.900000
68.050600 388827.500000
73.040700 205377.100000
80.050600 38055.100000
82.029900 39784.500000
82.066200 35836.700000
98.061200 68293.400000
100.076900 62196.500000
108.045600 6531.400000
109.077200 352143.000000
110.061100 30999.400000
111.092800 50652.500000
117.042000 26265.600000
121.077100 9738.100000
125.071600 8153.800000
127.087600 10907.600000
139.087700 286859.900000
157.098300 125674.800000
171.088600 29536.600000
201.099300 6343893.700000

>ms2
55.030100 100584.800000
58.029900 5769.100000
61.004300 4915043.000000
66.034900 99639.200000
67.030200 15460.000000
68.050600 454876.200000
73.040700 194229.900000
80.050600 49901.900000
81.045900 6796.900000
82.029900 40899.100000
82.066300 36782.200000
92.050700 5086.200000
98.061200 51071.900000
100.076900 59992.000000
109.077200 299403.400000
110.061200 26034.200000
111.092800 31360.200000
117.041900 31937.200000
121.077200 11083.500000
124.088200 4921.200000
125.072000 7290.200000
127.087700 9154.500000
139.087800 188236.200000
157.098100 94429.000000
171.088600 38044.100000
201.099300 2983638.800000

>ms2
55.030100 130749.300000
61.004300 3883683.900000
66.034900 110444.600000
67.030100 12256.100000
68.050600 352022.000000
73.040700 92835.500000
80.050600 54538.100000
81.045900 9705.400000
82.029900 60389.400000
82.066300 8832.000000
92.050700 4805.000000
98.061000 8734.800000
100.076800 21913.700000
109.077200 89608.000000
110.061100 6932.700000
111.092400 6044.800000
117.041800 25353.600000
139.087500 29868.900000
157.097900 25935.600000
171.088400 9104.100000
201.099400 224404.700000

>ms2
55.030100 116770.300000
61.004300 3193367.200000
66.034900 144711.700000
67.030200 9399.900000
68.050600 262261.100000
73.040700 48385.400000
80.050600 32688.300000
82.029800 41866.000000
82.066200 7945.600000
98.061200 7862.600000
108.045500 5460.000000
109.077100 29602.400000
125.072000 10622.000000
139.087600 7770.700000
201.099300 34028.000000

>ms2
55.030100 123462.500000
61.004300 2405523.400000
66.034900 112089.000000
67.030100 7067.700000
68.050600 136832.300000
73.040700 27104.500000
80.050600 24710.600000
82.029800 20570.900000
92.050700 6779.800000
124.087700 5292.100000
125.071800 8996.500000

>ms2
55.030100 113482.000000
61.004300 1669895.400000
66.034900 69587.000000
67.030200 9991.200000
68.050600 56955.000000
81.045600 6416.100000
125.071900 7504.900000

