>compound EQ46291158
>parentmass 254.0145
>ionization [M-H]-
>formula C12H11Cl2NO
>rt 654.000000
>profile orbitrap
#smiles_iso CC(C)(C#C)NC(=O)C1=CC(=CC(=C1)Cl)Cl
#smiles_can CC(C)(C#C)NC(=O)C1=CC(=CC(=C1)Cl)Cl
#inchikey PHNUZKMIPFFYSO-UHFFFAOYSA-N
#pubchem_id 32154
#mb_accession EQ317551,EQ317552,EQ317553,EQ317554,EQ317555,EQ317556

>ms2
144.961600 360994.700000
145.989500 59778.100000
146.985800 23523.200000
164.000000 15872.200000
186.972400 61760.200000
188.951800 12181.100000
189.996500 56417.000000
208.006900 339477.700000
212.975300 36963.500000
227.998800 3823861.600000
254.014500 3033622.800000

>ms2
144.961700 1528467.200000
145.989400 133943.800000
146.985800 66449.400000
164.000100 75320.600000
186.972300 261852.500000
188.951700 41384.000000
189.996600 152879.300000
208.007000 114596.700000
212.975400 166729.000000
227.998900 4120548.000000
254.014600 528189.700000

>ms2
65.039700 3250.900000
97.065900 12977.500000
144.961700 1753289.400000
145.989400 155962.200000
146.985800 75520.100000
148.004900 6719.100000
158.977200 3247.600000
164.000100 85984.400000
171.986000 28500.600000
176.998600 6485.600000
186.972300 245895.600000
188.951700 52039.300000
189.996500 104771.900000
192.021700 3817.000000
208.007300 3654.100000
212.975400 154538.300000
227.998900 708322.900000
254.014300 9026.600000

>ms2
65.039600 1802.400000
97.065900 20507.600000
129.994400 3504.600000
137.060800 2834.600000
144.961700 525207.300000
145.989400 206856.100000
146.985800 109852.200000
148.005200 9389.400000
164.000000 38732.600000
165.995400 2120.900000
171.985900 45986.800000
176.998900 3496.500000
186.972300 50303.500000
188.951900 17131.300000
189.996500 28135.400000
192.022000 1605.500000
212.975400 25458.100000
227.998900 43359.200000

>ms2
97.065900 13988.800000
129.994700 2969.900000
137.060400 1940.500000
144.961600 78408.700000
145.989400 204081.100000
146.985800 95561.300000
147.984700 6050.800000
148.005200 5979.900000
164.000300 10958.300000
165.996100 1511.200000
171.985900 30606.800000
186.972400 6084.200000
188.951500 1648.100000
189.996400 5267.900000

>ms2
65.039600 1760.700000
97.065900 2699.900000
129.994500 7408.100000
137.060600 2439.600000
144.961600 8173.100000
145.989400 121921.200000
146.985800 63180.400000
147.984500 2312.800000
171.985900 21317.800000

