>compound EQ48690015
>parentmass 218.93859999999998
>ionization [M-H]-
>formula C4H7Cl2O4P
>rt 426.000000
>profile orbitrap
#smiles_iso COP(=O)(OC)OC=C(Cl)Cl
#smiles_can COP(=O)(OC)OC=C(Cl)Cl
#inchikey OEBRKCOSUFCWJD-UHFFFAOYSA-N
#pubchem_id 3039
#mb_accession EQ304751,EQ304752,EQ304753,EQ304754,EQ304755,EQ304756

>ms2
88.008800 5536.100000
89.024400 12443.300000
131.013500 214943.700000

>ms2
88.008800 3876.500000
89.024400 17327.500000
131.013600 204003.900000

>ms2
89.024400 12718.600000
131.013600 130290.200000

>ms2
88.008800 1327.500000
89.024400 10569.000000
131.013600 53888.300000
160.976700 4920.600000

>ms2
89.024400 4123.900000
131.013600 17177.900000
160.976700 5049.100000

>ms2
89.024300 1644.700000
131.013600 4358.200000

