>compound EQ48806939
>parentmass 410.1773
>ionization [M-H]-
>formula C24H26FNO4
>rt 810.000000
>profile orbitrap
#smiles_iso CC(C)N1C2=CC=CC=C2C(=C1/C=C/[C@H](C[C@H](CC(=O)O)O)O)C3=CC=C(C=C3)F
#smiles_can CC(C)N1C2=CC=CC=C2C(=C1C=CC(CC(CC(=O)O)O)O)C3=CC=C(C=C3)F
#inchikey FJLGEFLZQAZZCD-MCBHFWOFSA-N
#pubchem_id 446155
#mb_accession EQ313651,EQ313652,EQ313653,EQ313654,EQ313655,EQ313656

>ms2
59.013800 6200088.800000
85.029500 7443849.600000
87.008800 13710821.100000
99.045200 243614.000000
210.072100 2641758.200000
252.119300 378153.400000
264.082600 261738.200000
266.134900 98119.500000
280.114100 160974.700000
290.098200 236035.100000
306.130000 914974.700000
307.137800 376939.900000
308.145600 160971.000000
322.161100 6499826.800000
330.167100 248697.100000
332.145700 1947021.200000
348.176700 64509595.700000
350.156100 907580.300000
410.177100 42784129.600000

>ms2
57.034600 81908.100000
59.013800 13050171.800000
85.029500 11542900.200000
87.008800 9645202.000000
91.055200 59541.600000
95.050100 161401.700000
99.045100 71999.500000
208.057300 35603.600000
210.072400 33657124.200000
223.080500 54628.000000
224.088200 983489.000000
234.072300 216878.300000
236.088200 598526.500000
238.103600 248259.200000
248.087900 144238.100000
250.103600 170753.800000
252.119300 1241024.900000
261.095900 46598.000000
262.103600 79843.900000
263.075300 351030.000000
264.083100 4175899.700000
266.135000 288425.000000
276.082700 168197.600000
276.119200 83277.300000
278.134500 489933.000000
280.114200 1313224.300000
286.123700 474154.600000
289.090700 289806.800000
290.098700 487009.800000
290.134900 683530.800000
304.150600 221964.300000
305.122100 499594.000000
306.130000 8176145.200000
307.137600 460707.500000
308.145200 50847.500000
322.161100 1383323.900000
328.170600 771351.151700
330.166300 1066552.900000
332.145900 989456.200000
348.176700 26894489.100000
350.156200 764839.500000
410.177300 47976.100000

>ms2
57.034600 137444.000000
59.013900 10756061.200000
69.034600 48104.100000
83.050300 271354.400000
85.029500 6267786.500000
87.008800 3577519.000000
95.050300 63291.200000
109.066000 44754.600000
210.072400 37933391.600000
221.064600 46128.500000
222.072400 612636.900000
223.080300 399354.600000
224.088100 1329183.900000
234.072300 483104.700000
236.088100 2895248.100000
238.104000 471450.600000
248.088000 259937.400000
250.104000 139740.500000
252.118700 41719.200000
255.070600 57371.600000
260.088000 168238.100000
261.096400 53460.800000
262.103800 174027.300000
263.075300 811413.500000
264.083100 9446546.900000
274.104600 46290.000000
276.082700 256785.700000
276.119300 197536.200000
278.134800 532009.000000
280.114300 1263347.600000
284.109200 44419.300000
286.103100 62255.100000
286.123700 181213.700000
288.119300 135983.500000
289.090600 59144.800000
290.098200 288960.700000
290.134900 201701.900000
304.150700 168704.100000
305.122400 57938.300000
306.129900 3206924.300000
330.165700 262075.300000
348.176600 584568.700000
350.156400 187027.700000

>ms2
57.034600 63714.300000
59.013900 11688553.000000
65.039800 43851.500000
82.042300 45013.200000
83.050300 495829.800000
85.029600 4468868.000000
87.008800 2349668.500000
91.055200 46510.700000
109.065900 56746.000000
116.050400 49544.600000
208.056400 54670.100000
210.072400 42338723.400000
221.064400 182824.200000
222.072500 1936072.900000
223.080500 522360.900000
224.088200 1556117.000000
234.072300 879730.900000
236.088100 7212970.800000
238.103700 563684.000000
247.080100 58069.500000
248.088300 328824.400000
250.103900 142033.800000
255.069900 70930.000000
256.113200 190649.800000
260.087800 248733.200000
261.095100 63182.000000
262.103900 221819.200000
263.075300 526839.800000
264.083100 7305425.000000
274.104500 55981.300000
276.082900 297894.700000
276.119400 156624.900000
278.135200 375334.100000
280.114300 735331.300000
284.109200 46199.400000
286.104400 84265.500000
286.123700 190909.500000
288.119000 78907.600000
290.098800 56242.100000
306.130100 764837.500000

>ms2
57.034600 160589.400000
59.013900 10789373.600000
69.034600 55103.400000
82.042400 40885.100000
83.050300 592240.300000
85.029500 1711296.200000
87.008800 931427.000000
116.050700 308194.300000
140.050400 51957.400000
188.132600 82059.900000
190.066800 40225.600000
208.056800 142109.800000
210.072400 36131702.400000
214.066100 146018.000000
216.081800 169220.300000
221.064500 435592.900000
222.072500 3217220.900000
223.080000 243395.000000
224.088200 1451140.900000
234.072500 2822472.700000
236.088100 10706903.100000
238.103400 349719.200000
247.080400 66272.600000
248.088300 264051.100000
255.069600 69104.900000
256.113500 141991.000000
260.088100 310826.200000
262.103900 192063.700000
263.075300 76329.900000
264.083000 1640217.100000
267.155400 45342.000000
276.082900 138125.600000
278.135200 40701.000000
280.114400 132480.000000
286.104200 130588.800000
288.120200 48191.600000
290.099000 46482.100000

>ms2
57.034600 78260.300000
59.013900 7179072.600000
67.018900 57557.400000
83.050200 231478.000000
85.029600 529759.500000
87.008800 381100.700000
116.050700 955211.000000
140.050600 209658.800000
188.132800 39251.600000
190.066400 100099.800000
208.057100 355918.100000
210.072500 21306099.000000
214.066500 220290.300000
216.081900 403267.600000
221.064700 870042.000000
222.072500 3303933.100000
224.088200 875110.500000
234.072500 5627409.000000
236.088100 5660829.200000
247.080700 51507.500000
260.087800 205421.800000
262.103800 43936.100000
264.083200 138668.700000
267.155600 49885.100000

