>compound EQ49673944
>parentmass 324.1639
>ionization [M-H]-
>formula C17H27NO3S
>rt 858.000000
>profile orbitrap
#smiles_iso CCC/C(=N\OCC)/C1=C(CC(CC1=O)C2CCCSC2)O
#smiles_can CCCC(=NOCC)C1=C(CC(CC1=O)C2CCCSC2)O
#inchikey GGWHBJGBERXSLL-NBVRZTHBSA-N
#pubchem_id 135438605
#mb_accession EQ304551,EQ304552,EQ304553,EQ304554,EQ304555,EQ304556

>ms2peaks
134.024500 133251.200000
176.071500 54942.500000
236.075000 9556480.600000
278.121900 3777507.200000
280.137600 3153848.800000
296.132500 196223.800000
324.163700 41405460.800000

>ms2peaks
65.996200 40603.500000
65.998400 89484.600000
69.034600 81302.200000
95.013900 51759.000000
101.043000 220077.300000
108.021700 123566.900000
109.029600 67090.900000
124.076900 44069.400000
126.092500 61304.100000
134.024600 641031.500000
162.055900 42987.800000
167.053700 60093.300000
169.069300 504450.300000
174.092200 72408.900000
176.071600 729499.600000
177.079400 62151.500000
178.087200 52396.600000
194.064400 48032.800000
211.079800 147942.500000
232.134300 67455.200000
234.096500 99673.700000
236.075000 39840002.800000
237.095500 44127.600000
238.126400 73843.900000
252.106100 119915.000000
278.121900 10477641.500000
280.137500 6067708.800000
296.132300 298895.400000
324.163800 4832610.800000

>ms2peaks
58.996100 74160.100000
65.998500 225221.300000
69.034600 310810.900000
82.030000 51893.000000
86.061200 77047.400000
95.013800 177385.900000
101.043100 306024.300000
107.050400 48611.300000
108.021700 762271.300000
109.029500 219575.000000
110.061300 70644.300000
120.009000 80969.900000
121.066000 63772.300000
124.076700 43498.600000
126.092400 59519.000000
134.024700 974869.800000
135.032700 56290.600000
140.054000 146577.800000
149.061100 75867.600000
162.055900 114086.700000
167.053600 192081.900000
169.069300 802826.700000
174.092100 48835.500000
176.071600 982202.000000
177.079400 54330.700000
178.087100 88561.000000
190.124200 79052.500000
192.048900 529484.600000
194.064300 418578.500000
200.108100 61621.900000
211.079500 106391.100000
234.096400 120603.700000
236.075000 43271203.300000
237.095400 67491.300000
252.106300 191770.500000
264.105300 92058.900000
278.121900 2715154.600000
280.137600 1322597.700000
324.163800 54074.600000

>ms2peaks
58.996000 127748.800000
65.998400 526476.200000
68.014200 42813.300000
68.050600 54524.900000
69.034600 481398.700000
78.035000 50869.500000
82.029900 148533.700000
95.013900 567663.900000
101.043100 415777.300000
106.066200 64701.900000
107.037700 51432.700000
107.050300 48407.100000
108.021700 951898.400000
109.029500 394479.300000
110.061100 86264.000000
120.009100 281864.900000
121.065800 122446.000000
123.081600 63731.300000
126.092400 40193.000000
134.024700 1741820.200000
135.032400 121578.200000
136.040400 102070.300000
140.053900 492116.200000
147.032400 47726.900000
148.077000 49899.800000
149.060900 83139.100000
158.061000 45004.200000
160.040200 51773.700000
160.077000 45556.100000
162.055800 135783.500000
162.092400 41164.400000
166.032900 46994.400000
167.022300 60137.400000
167.053500 275231.500000
169.069300 558256.100000
176.071600 589976.300000
177.079200 47331.400000
178.087500 73393.500000
190.123600 63350.400000
192.048900 1618736.200000
194.064400 1153920.400000
200.108300 50082.100000
202.087300 77570.400000
208.079700 48313.800000
211.079500 72903.600000
234.096100 56008.300000
236.075000 40087746.600000
237.095300 110781.500000
249.083100 64623.900000
252.105900 78824.300000
264.106200 86151.300000
278.121900 642040.300000
280.137700 349340.500000

>ms2peaks
58.996100 179977.900000
60.975300 47380.300000
65.039700 45879.500000
65.998500 1475837.100000
67.018900 81916.300000
68.014200 119848.900000
69.034600 1068552.200000
78.035000 59006.400000
80.026800 66221.000000
82.029800 488698.100000
85.011800 42088.700000
92.050700 127013.900000
94.029900 131007.100000
95.013900 1131948.600000
101.043100 477729.000000
106.066300 69600.800000
107.037800 49426.100000
107.050300 68045.100000
108.021700 666017.200000
108.045400 45553.900000
109.029600 451343.400000
110.061300 80578.300000
118.030000 55843.600000
120.009100 1359059.200000
120.045500 102084.500000
121.017000 38681.500000
121.065900 197321.300000
131.037400 79953.500000
132.045500 68031.900000
133.065900 39401.900000
134.024800 4803305.800000
135.032500 439578.000000
135.045300 39984.500000
136.040200 142959.500000
138.038200 50506.500000
140.054000 1135306.400000
146.024600 24610.300000
147.032500 44751.500000
148.076400 94328.700000
149.060600 40377.500000
150.019600 127933.200000
158.061100 133796.600000
160.040400 127263.200000
160.076900 61781.700000
162.056000 255208.700000
163.076500 44309.200000
166.033400 88554.300000
167.022400 231039.300000
167.053500 444047.100000
168.048900 24517.300000
169.069200 185120.700000
174.056000 49740.600000
176.071700 120799.500000
178.087300 35441.100000
192.049000 2737721.300000
194.064400 2047226.500000
202.087300 78278.300000
209.064000 49577.400000
236.075000 23768741.500000
237.094800 58580.000000
249.083300 51112.300000
264.105900 29251.100000
278.122400 39988.700000
280.137900 40564.100000

>ms2peaks
57.034600 10217.500000
58.996100 194414.200000
60.975300 43392.200000
65.039700 61662.000000
65.998500 2658352.700000
67.019000 91485.500000
68.014200 101528.500000
68.050700 9905.100000
69.034600 1218542.900000
78.034900 59130.800000
80.026700 53374.000000
80.050700 10815.100000
81.034700 11881.800000
82.029800 390193.600000
85.011700 38465.400000
92.050600 200486.300000
93.034600 16962.400000
94.029800 106747.000000
95.013900 717712.300000
101.043100 484273.800000
106.030000 20963.700000
106.066200 53983.400000
107.037700 37267.700000
107.050300 106095.800000
108.021700 284072.600000
108.045500 23443.300000
109.029500 278003.200000
110.061000 66521.800000
116.050700 22810.000000
118.030100 45010.600000
120.009100 3049111.600000
121.017100 19253.000000
121.053200 9988.800000
121.065900 162610.000000
122.061300 9591.400000
123.081600 42919.800000
131.037800 108684.600000
132.045600 52991.500000
134.024800 8076020.500000
135.032600 509937.400000
136.040200 79588.200000
138.038300 13985.400000
140.054000 697613.800000
146.024800 36809.900000
146.061400 15731.900000
147.032500 47409.400000
147.069000 11791.900000
148.076800 92711.100000
149.060900 19588.100000
150.019400 147601.600000
153.037900 19884.100000
158.061000 89810.600000
160.040300 190328.000000
160.076900 109353.300000
161.048500 9463.900000
162.056000 304935.100000
163.076500 13230.300000
166.033200 57008.100000
167.022400 207913.000000
167.053500 260404.900000
169.069200 48306.000000
171.048700 22082.600000
174.055900 63989.700000
175.064000 13835.600000
176.071700 55666.000000
192.048900 1568455.000000
194.064400 1259647.000000
202.087400 65753.400000
208.079900 10216.500000
218.064700 12360.300000
236.075100 6273645.100000
237.095200 11145.200000
264.107100 13561.300000

