>compound EQ53162207
>parentmass 433.2032
>ionization [M-H]-
>formula C24H31FO6
>rt 630.000000
>profile orbitrap
#smiles_iso C[C@H]1C[C@H]2[C@@H]3CCC4=CC(=O)C=C[C@@]4([C@]3([C@H](C[C@@]2([C@]1(C(=O)COC(=O)C)O)C)O)F)C
#smiles_can CC1CC2C3CCC4=CC(=O)C=CC4(C3(C(CC2(C1(C(=O)COC(=O)C)O)C)O)F)C
#inchikey AKUJBENLRBOFTD-QZIXMDIESA-N
#pubchem_id 443967
#mb_accession EQ324451,EQ324452,EQ324453,EQ324454,EQ324455,EQ324456

>ms2peaks
59.013800 496057.800000

>ms2peaks
59.013800 515466.200000
107.050100 741.300000
121.066000 595.300000

>ms2peaks
59.013800 447670.700000
83.050300 677.000000
99.045200 745.900000
107.050000 822.700000
121.065800 3568.200000
123.045300 795.100000
133.065700 1452.700000

>ms2peaks
59.013800 380319.700000
83.050200 960.800000
95.050200 678.000000
107.050100 678.700000
121.065700 3420.400000
123.045200 827.700000
133.065700 3203.100000

>ms2peaks
59.013800 351633.700000
83.050200 1094.100000
95.050400 1265.700000
99.045100 681.400000
119.050200 670.400000
121.065900 1305.200000
133.065900 1458.200000
147.081700 1086.900000

>ms2peaks
59.013800 236022.000000
119.050200 680.700000
121.065800 847.800000
131.050000 1103.200000
133.065800 1446.200000

