>compound EQ53494426
>parentmass 128.0266
>ionization [M-H]-
>formula C4H4FN3O
>rt 54.000000
>profile orbitrap
#smiles_iso C1=NC(=O)NC(=C1F)N
#smiles_can C1=NC(=O)NC(=C1F)N
#inchikey XRECTZIEBJDKEO-UHFFFAOYSA-N
#pubchem_id 3366
#mb_accession EQ312151,EQ312152,EQ312153,EQ312154,EQ312155,EQ312156

>ms2peaks
58.009800 37999.800000
64.006600 2538.900000
65.014400 8104.100000
85.020700 1128436.100000
128.026500 626810.800000

>ms2peaks
58.009800 41386.200000
64.006600 2545.000000
65.014500 9861.600000
85.020700 1187797.100000
128.026500 653879.700000

>ms2peaks
58.009800 60934.100000
58.993900 2081.700000
64.006600 2568.500000
65.014500 13231.500000
85.020700 1182805.100000
128.026500 388548.500000

>ms2peaks
58.009800 95297.100000
58.993900 2873.600000
64.006600 4497.500000
65.014500 25114.700000
85.020700 1122538.600000
128.026500 180162.800000

>ms2peaks
58.009800 135111.700000
58.993800 10716.400000
60.025400 958.800000
64.006700 7036.600000
65.014500 38971.600000
85.020700 781760.900000
128.026500 40494.700000

>ms2peaks
58.009800 149302.000000
58.993800 15216.100000
60.025500 2091.100000
64.006700 12798.700000
65.014500 57824.100000
85.020700 471340.200000
128.026600 9371.300000

