>compound EQ54033477
>parentmass 415.9993
>ionization [M-H]-
>formula C14H13Cl2N5O4S
>rt 456.000000
>profile orbitrap
#smiles_iso CC1=C(C(=C(C=C1)Cl)NS(=O)(=O)C2=NN3C(=CC(=NC3=N2)OC)OC)Cl
#smiles_can CC1=C(C(=C(C=C1)Cl)NS(=O)(=O)C2=NN3C(=CC(=NC3=N2)OC)OC)Cl
#inchikey VGHPMIFEKOFHHQ-UHFFFAOYSA-N
#pubchem_id 86422
#mb_accession EQ317251,EQ317252,EQ317253,EQ317254,EQ317255,EQ317256

>ms2peaks
65.998300 60188.500000
66.009600 228459.300000
111.067700 335974.900000
164.033800 397042.000000
179.057400 52619115.100000
301.037300 214266.400000
337.014900 202696.800000
352.036900 290540.300000
415.999300 19187438.900000

>ms2peaks
65.014500 134023.200000
65.998500 505227.900000
78.022400 81770.200000
107.012500 175292.700000
108.020400 71623.800000
111.067700 5630804.900000
120.044200 143779.800000
122.012200 222999.800000
122.036000 125808.200000
123.020000 440078.100000
149.046800 167891.100000
164.034100 7292323.100000
179.057400 69938831.000000
301.037300 603573.100000
302.045100 389312.200000
416.000100 91602.700000

>ms2peaks
64.006800 40658.500000
65.014400 648129.500000
65.998500 2549915.300000
66.009700 2952631.800000
78.022400 765801.600000
79.017600 218218.000000
79.030300 24708.900000
82.017400 118841.100000
92.025500 40063.000000
93.009500 271956.100000
95.025100 189238.800000
96.032800 26362.800000
96.044100 35143.500000
98.024700 300957.700000
107.012500 879980.100000
108.020400 457975.100000
109.004400 364492.400000
110.012200 44202.000000
111.067700 8754625.100000
120.020300 39938.000000
120.044200 557123.800000
121.028200 289249.900000
122.012200 1017746.400000
122.035900 183107.800000
123.020100 1023181.400000
134.023400 250212.600000
135.031300 435722.400000
136.039100 254750.000000
137.023200 96278.600000
149.046700 283129.700000
151.026300 30768.900000
163.026200 473501.500000
164.034000 17268412.800000
165.041800 106354.700000
179.057400 24249763.100000
203.013500 41413.500000
270.018700 130404.300000
301.037400 175979.100000
302.044600 141329.300000

>ms2peaks
55.030100 71888.700000
64.006600 168968.900000
65.014500 1444904.800000
65.998500 6201746.600000
66.009700 9835988.000000
68.001600 29716.500000
68.014100 29269.000000
78.022400 1373993.400000
79.006300 28230.100000
79.017600 501815.600000
79.030200 35634.500000
82.017300 147627.100000
83.025100 65792.200000
90.009600 23337.500000
92.025500 169776.300000
93.009500 470838.400000
94.017200 86120.400000
95.025200 215049.900000
95.036500 19089.400000
96.033000 34356.700000
96.044200 155875.500000
98.024800 287542.300000
106.028600 22071.700000
107.012600 1636913.800000
108.020400 569010.800000
109.004400 534545.700000
110.012200 79463.300000
111.067700 3700133.500000
120.020400 106031.400000
120.044200 755621.800000
121.015700 245783.300000
121.028200 439095.000000
122.012300 1076655.700000
122.036000 66537.000000
123.020100 1111180.900000
134.023500 509045.500000
135.031400 1178584.900000
136.039100 403614.900000
137.023200 75501.800000
149.046900 254520.400000
151.026000 144532.900000
163.026300 1152006.700000
164.034100 10828505.000000
165.041700 222286.100000
179.057500 3982653.000000
203.012900 131593.300000
270.019500 143381.987900

>ms2peaks
55.030000 25806.800000
64.006600 224881.600000
65.014500 1805215.400000
65.998600 8026342.900000
66.009700 17427357.300000
68.014000 39528.400000
78.022400 1189099.500000
79.017600 459567.400000
79.030200 97949.100000
80.025500 20438.200000
82.017200 162847.600000
83.025200 21009.200000
90.009600 21606.200000
92.025500 204150.800000
93.009500 478426.600000
94.017200 39916.000000
95.025100 170864.700000
95.036500 18529.100000
96.009200 25637.600000
96.032900 22002.000000
96.044100 68163.200000
97.052000 24489.600000
98.024600 114602.500000
106.028400 23869.400000
107.012600 1019579.700000
108.020400 297760.700000
109.004400 267720.000000
110.012200 145684.000000
111.067700 767836.000000
120.020400 130625.000000
120.044200 363534.700000
121.004400 38856.100000
121.015700 271309.900000
121.028100 192829.500000
122.012300 382800.700000
122.035800 23519.000000
123.020100 828872.400000
134.023600 378733.700000
135.031300 1193337.900000
136.039100 333433.000000
137.022900 30383.200000
149.046600 94058.600000
151.025900 107133.800000
163.026300 1404052.200000
164.034100 3273514.400000
165.042000 153833.300000
179.057500 479308.000000
203.012500 72976.400000
270.018600 32988.800000

>ms2peaks
55.030100 39494.600000
64.006700 343212.300000
65.014500 2403710.700000
65.998600 9542369.600000
66.009700 25658126.200000
68.014000 41214.600000
78.022400 618931.100000
79.017700 329557.400000
79.030200 74612.300000
82.017200 75013.900000
92.025500 155293.200000
93.009500 641705.700000
95.025000 68352.400000
97.051800 37873.400000
106.028500 35207.000000
107.012600 469847.500000
108.020300 186566.100000
109.004400 186100.700000
110.012100 70210.000000
111.067800 142660.600000
120.020500 132482.400000
120.044000 120026.800000
121.004200 77242.000000
121.015600 243498.900000
121.028100 75550.300000
122.012000 107216.700000
123.020100 690271.700000
134.023500 169803.500000
135.031300 818820.300000
136.038800 105666.700000
151.025700 69855.500000
163.026200 929727.700000
164.034100 684600.200000
165.041700 87395.100000
179.057500 41477.100000

