>compound EQ56562574
>parentmass 413.13050000000004
>ionization [M-H]-
>formula C17H20F6N2O3
>rt 396.000000
>profile orbitrap
#smiles_iso C1CCNC(C1)CNC(=O)C2=C(C=CC(=C2)OCC(F)(F)F)OCC(F)(F)F
#smiles_can C1CCNC(C1)CNC(=O)C2=C(C=CC(=C2)OCC(F)(F)F)OCC(F)(F)F
#inchikey DJBNUMBKLMJRSA-UHFFFAOYSA-N
#pubchem_id 3356
#mb_accession EQ302051,EQ302052,EQ302053,EQ302054,EQ302055,EQ302056

>ms2
123.008900 10123.100000
135.008800 3230.700000
139.087700 83130.900000
146.024400 9570.900000
151.020100 13857.400000
159.032200 7509.300000
161.072200 4334.500000
164.015200 7557.500000
171.026200 8280.200000
179.082700 4258.600000
190.024800 9113.700000
192.009500 42243.700000
197.005600 9122.000000
199.088900 123150.000000
200.071900 20140.900000
214.048800 3302.600000
225.103700 3388.500000
230.043600 11464.900000
231.027200 7994.000000
241.098300 14105.800000
242.043800 11437.500000
242.106200 9657.000000
243.027300 3862.600000
243.090000 13421.600000
246.101200 4510.100000
249.018200 44267.100000
257.030500 12747.500000
269.093300 87753.000000
270.101100 2852129.300000
275.020700 26952.600000
277.115900 9152.600000
285.104600 4273.500000
290.107300 3132227.000000
293.093100 40306.100000
302.090500 3616.500000
305.110800 25598.300000
310.113800 29179.200000
313.099500 160116.200000
333.105700 151818.600000
353.111900 1941515.600000
373.118000 1467258.700000
393.124400 276357.900000

>ms2
58.009900 12140.700000
95.013900 17099.500000
108.021700 26503.800000
123.008800 26618.700000
125.024400 22959.800000
135.008800 89230.400000
136.016600 18751.200000
139.087700 75306.100000
146.024700 77176.200000
151.020100 55039.300000
151.027400 18520.700000
152.035400 12812.300000
159.032500 89999.400000
160.016200 16366.900000
160.040500 10211.300000
161.024200 8588.000000
161.072100 9790.700000
164.015500 25070.100000
171.026700 19683.100000
172.040600 11141.600000
174.019600 45112.800000
175.027500 9819.700000
179.082600 119401.900000
185.034200 17493.300000
186.019500 12899.900000
187.027500 18985.900000
188.035200 9641.900000
190.024900 13242.800000
192.010300 319013.500000
193.010400 10589.800000
194.026100 11773.400000
197.005500 8098.000000
199.051200 10398.000000
199.088900 143766.900000
200.071700 82680.100000
203.014800 8642.000000
206.026300 16259.100000
207.033600 11456.500000
210.037000 9187.300000
213.030600 13042.900000
214.049100 9180.900000
227.046400 24346.300000
227.095000 8515.400000
228.066600 12154.500000
229.074500 8823.400000
230.025700 8147.300000
230.043400 15063.400000
230.082100 12400.500000
231.089900 13429.100000
233.069700 9015.600000
235.008800 9960.400000
241.098300 52862.600000
242.081900 11594.400000
242.106600 38220.700000
243.027300 18559.300000
243.089900 41853.900000
246.101000 10856.700000
249.018100 55449.800000
251.082800 11275.400000
252.090500 43409.900000
253.098300 30686.100000
255.015100 8668.400000
257.030700 35875.200000
265.098500 19911.500000
269.093600 169068.100000
270.101100 6006178.500000
275.021100 45918.300000
285.104900 13071.900000
289.099200 15247.100000
290.107300 1815105.300000
293.093100 25349.900000
302.090500 21285.300000
305.110600 15894.200000
310.113600 169663.400000
313.099600 117882.700000
333.105700 265591.300000
353.111900 285609.200000
373.118500 28808.300000

>ms2
58.009800 28830.400000
65.998600 9922.200000
68.995700 13860.200000
69.034600 50452.500000
79.000100 10499.400000
95.014000 19848.400000
97.029600 36853.300000
98.017400 17011.600000
103.019100 9164.400000
106.006100 7469.600000
107.013900 35278.900000
108.021800 114130.000000
109.029500 15274.000000
117.021900 8142.600000
118.030000 14292.900000
121.029700 15862.200000
123.008900 24813.200000
125.024400 201887.300000
126.012200 11149.000000
130.029800 16085.700000
131.013900 20271.800000
131.037700 16870.000000
132.021700 9445.200000
133.017000 53126.700000
134.024900 4735.600000
135.008900 301384.500000
136.016600 28271.000000
137.072100 3741.800000
138.012100 13424.700000
139.020300 3068.600000
139.087800 51686.400000
142.030000 4719.400000
144.045300 3738.400000
145.009900 5999.700000
146.024800 308333.500000
147.032500 7144.900000
148.016700 4176.400000
150.012200 26329.500000
150.032300 9090.600000
151.020100 42406.800000
151.027500 32614.900000
152.028000 9531.600000
152.035400 21884.900000
154.007100 20406.800000
158.024700 12554.100000
159.032600 569332.300000
160.016400 53396.500000
160.040400 48499.300000
161.011600 3860.100000
161.024500 23422.500000
161.071700 3081.100000
162.019600 9992.600000
162.036300 3907.100000
163.020400 3083.000000
164.015500 47673.700000
164.035400 9707.100000
165.015500 3604.600000
166.007200 3119.000000
170.018000 3077.200000
170.024500 3067.800000
170.061300 4261.500000
171.026400 7806.300000
172.040500 44041.400000
173.004600 3029.800000
173.011600 20280.300000
173.048100 17551.700000
174.019600 143009.000000
175.020100 3310.200000
175.027400 22321.400000
176.015200 4025.100000
176.035400 9753.500000
176.999400 17683.400000
178.050800 9629.100000
179.082600 225265.500000
181.010600 3483.000000
184.040400 19334.100000
185.035700 45649.400000
186.019800 57652.500000
186.043600 24830.300000
186.056000 46050.900000
187.015100 40774.500000
187.027600 55150.900000
188.015700 3351.400000
188.035400 26156.800000
190.067700 3973.600000
192.010400 923975.500000
193.010500 24716.200000
193.018300 10790.000000
194.026100 3702.200000
197.033200 3377.900000
197.072000 14081.200000
198.056100 11065.100000
199.051300 28829.400000
199.064100 9941.700000
199.089000 21851.400000
200.071800 97035.400000
202.007200 10174.800000
202.031100 18412.600000
202.051000 3362.300000
203.015000 8489.900000
206.025800 79126.800000
207.033500 13640.100000
210.037100 3528.000000
212.071600 27072.300000
213.017800 3145.200000
213.030500 53913.600000
213.066900 20381.900000
213.103700 8509.200000
214.038500 21962.000000
214.049700 4731.400000
214.087400 11851.700000
215.094500 3111.800000
216.054600 3329.800000
216.065900 3461.700000
223.051100 7874.600000
224.059200 31395.900000
225.103500 10902.300000
226.087500 13518.900000
227.020200 9001.800000
227.046300 47266.900000
227.058900 8998.600000
227.083800 5631.500000
227.095100 11798.700000
228.053800 8420.200000
228.066500 19702.700000
228.090500 18843.800000
229.074000 7151.300000
230.043100 3563.200000
230.081900 19447.900000
231.090100 10912.700000
233.069900 3756.600000
233.997400 8746.600000
235.008500 18205.900000
237.066700 8290.400000
241.062900 21023.900000
241.098300 173992.300000
242.070800 6165.800000
242.082300 15666.400000
242.106500 27372.000000
243.090100 34686.600000
246.101300 3058.100000
249.018700 3441.500000
250.031900 6864.400000
251.082500 23355.000000
252.090300 35175.600000
253.098400 48943.100000
255.015100 3428.300000
255.077700 17382.100000
256.023100 4163.900000
257.093500 3147.800000
265.098600 19776.400000
268.086200 3158.100000
269.093400 356439.600000
270.101200 2962865.400000
273.104800 30584.100000
289.099500 31710.600000
290.107300 215226.500000
293.093200 7388.100000
310.113900 44678.900000
333.105600 43888.100000
353.111800 10047.800000

>ms2
58.009800 30559.900000
58.994000 2119.700000
65.998500 19089.000000
68.995700 17203.600000
69.034600 161662.300000
75.024100 1985.200000
79.000100 14251.300000
79.019000 4161.000000
81.034700 11896.900000
89.003500 2414.800000
91.019100 2398.700000
95.013800 14337.400000
97.029600 110970.500000
98.017400 19581.300000
102.035000 2326.100000
103.019000 21218.900000
106.006000 8802.600000
106.042600 2791.600000
107.013900 59314.300000
107.061500 8286.100000
108.021700 155958.000000
109.029700 21883.800000
110.017100 2915.400000
116.014500 13403.400000
117.022000 10357.000000
118.030000 38833.400000
120.009200 2688.000000
120.045600 2353.200000
121.029600 32747.500000
122.017300 2592.300000
123.008900 28272.100000
125.024400 357644.000000
126.012200 14978.300000
130.029900 32008.900000
131.014000 20470.900000
131.037700 44324.500000
132.021700 30389.600000
133.017000 100760.400000
134.024700 8312.200000
135.008900 283419.400000
136.016600 32543.600000
137.072000 12360.300000
138.012200 8512.200000
139.020000 2677.900000
139.087700 32051.800000
142.029800 20254.200000
144.009300 3439.300000
144.045500 4656.700000
145.009600 26047.200000
145.016700 3056.500000
145.029700 3217.900000
146.024800 479463.500000
147.032600 4360.100000
147.045300 2119.200000
148.016500 3472.800000
148.040600 8102.500000
149.004500 3443.300000
150.012200 29867.200000
150.032200 3137.700000
151.020100 29454.500000
151.027400 27298.400000
152.028400 5909.200000
152.035400 20539.400000
154.007300 21305.400000
154.029800 4927.400000
158.024700 15536.800000
158.061600 2160.300000
159.032600 839656.900000
160.016400 56881.800000
160.040400 81902.600000
161.005400 2849.900000
161.011700 16110.200000
161.024500 30821.500000
161.071800 2692.600000
162.019700 9152.200000
162.036100 22469.600000
163.027600 8586.200000
164.015500 94174.600000
164.035400 5552.600000
165.015800 3470.900000
165.043000 3233.500000
166.006900 2637.700000
170.024900 4771.200000
170.061100 12445.600000
171.056700 7908.000000
172.040500 58849.700000
173.004400 11017.100000
173.011900 34269.100000
173.048300 20196.400000
174.019600 167472.300000
175.020500 4008.900000
175.027300 24842.200000
176.015200 4734.900000
176.035100 12219.500000
176.999400 26858.000000
178.031000 4023.300000
178.050800 8123.600000
179.082700 243652.900000
181.011000 4112.200000
183.055900 3144.000000
184.040400 27114.400000
185.035700 72594.100000
186.019800 84128.700000
186.043500 44083.500000
186.056000 70093.600000
187.014800 52314.100000
187.027500 43086.200000
187.051400 10991.800000
188.015700 3925.600000
188.035400 30751.700000
189.042900 3240.000000
190.067200 2495.400000
192.010400 1325857.100000
193.010300 17412.300000
193.018400 7603.700000
194.025700 4089.500000
197.005600 3323.700000
197.048100 25000.300000
198.043600 9398.400000
198.056100 17757.900000
198.092500 8004.500000
199.051300 32647.700000
199.063900 8299.500000
199.088500 3465.300000
200.035300 12070.000000
200.071800 86107.200000
202.006900 23517.900000
202.031000 21786.600000
202.050500 3512.800000
202.087700 3994.400000
203.015100 2241.800000
206.025900 79384.600000
207.033600 4622.900000
212.035700 3122.400000
212.060800 3423.100000
212.071700 39422.500000
213.030600 82371.700000
213.067000 25362.500000
213.103400 7925.500000
214.038500 30367.700000
214.050700 8269.800000
214.087100 16620.800000
215.002700 3998.200000
215.046100 18774.900000
215.095400 4158.900000
216.010300 3984.600000
216.054400 4199.800000
216.066200 4241.300000
218.082100 3947.700000
223.051200 8684.200000
223.087500 11829.200000
224.059200 31469.600000
224.070500 4044.000000
225.103600 11924.100000
226.050100 4827.500000
227.046500 71507.000000
227.058900 9550.900000
228.066900 20489.700000
228.090400 11635.900000
230.025700 4817.000000
230.082000 22214.800000
231.090600 4656.100000
233.997600 11217.600000
235.008700 19155.200000
237.066800 7999.900000
238.075000 10066.900000
240.054200 11268.600000
241.062300 25509.000000
241.098300 236334.400000
242.070000 7234.200000
242.082500 14104.300000
243.089800 17781.500000
250.020000 2709.000000
250.032400 2659.600000
251.083000 31720.500000
252.090600 21303.500000
253.098200 44814.000000
255.077800 7790.100000
256.022900 4149.200000
257.093400 2128.900000
265.098200 12320.700000
269.093300 397613.900000
270.101200 1064083.600000
273.104800 23346.000000
285.105100 8515.400000
289.099900 23023.200000
290.107300 34461.100000
293.092500 4086.600000
310.113600 7574.800000
313.099500 4673.600000
333.105800 9586.800000

>ms2
58.009800 37371.200000
58.993900 8835.700000
65.003300 4579.200000
65.998500 35270.700000
68.995700 20013.500000
69.034500 300017.000000
75.024100 2457.300000
79.000100 23612.300000
79.019000 7478.400000
81.034600 13789.100000
88.019200 16039.700000
89.003000 2254.100000
91.018900 3595.500000
93.034500 8870.000000
95.013800 22626.800000
97.029400 210241.900000
98.017300 13333.400000
99.024200 1861.400000
100.019200 5678.400000
102.034800 4482.800000
103.019000 22400.300000
103.042700 1993.400000
105.022100 9766.200000
106.006000 8787.000000
106.042500 2604.100000
107.013900 41460.000000
107.061400 3197.200000
108.021600 159682.300000
109.029500 22269.600000
110.017300 9513.600000
114.034900 2662.000000
115.019000 2500.000000
116.014100 67175.700000
117.014700 7975.600000
117.022000 18413.400000
117.034700 9221.700000
118.029900 109300.600000
120.009100 7284.000000
120.045300 12626.100000
121.009300 2970.900000
121.029400 33716.700000
122.017100 3810.100000
123.008800 14513.700000
123.045000 2995.400000
125.024300 273142.400000
126.012200 22611.400000
126.034900 9782.900000
130.029600 39198.700000
131.013700 19572.600000
131.037500 80216.100000
132.021600 41470.500000
132.045500 3014.300000
133.016800 128685.600000
134.024700 9605.800000
135.008700 93030.500000
136.016500 8851.300000
138.012100 9823.900000
139.020000 8525.300000
139.087700 9185.800000
142.029800 50779.700000
143.050000 3243.000000
144.009100 11506.200000
144.045500 16884.800000
145.009400 43732.700000
145.016800 10993.800000
145.029400 8222.100000
146.024700 510667.700000
148.016700 9354.900000
148.040500 8927.700000
149.004400 13081.600000
150.012000 28426.000000
151.020000 14958.700000
151.027300 23585.200000
152.035300 4028.200000
154.007100 30800.000000
154.029900 13602.400000
158.024600 32980.600000
158.060800 2602.500000
159.032500 659257.000000
160.015900 36525.400000
160.040300 70646.500000
161.005300 3172.500000
161.011800 14321.000000
161.024200 22329.900000
162.019600 3455.700000
162.036200 15248.100000
163.020700 2162.500000
163.027500 10459.500000
164.015300 297962.600000
165.015600 4784.900000
170.024500 7853.700000
170.061000 13478.700000
171.033100 2726.000000
171.056500 10627.300000
172.040400 67753.100000
173.004100 8248.600000
173.011600 33753.200000
173.047900 18656.600000
174.019500 98957.500000
175.020500 3686.900000
175.027400 14387.200000
176.015000 2491.800000
176.035500 14745.300000
176.999100 20690.600000
178.007000 11007.600000
178.030800 3928.100000
178.051400 2373.300000
179.082600 109731.900000
183.055800 3474.900000
184.040300 37861.600000
185.035400 105539.949600
186.019600 72895.300000
186.055800 79848.900000
187.027400 20154.800000
188.015500 4253.300000
188.035000 20498.300000
189.043400 2556.500000
192.010200 1258972.000000
193.010400 8633.800000
195.056100 2669.200000
196.040700 2180.800000
197.048000 28116.300000
197.072000 13815.000000
198.043500 30966.400000
198.092400 8345.800000
199.051200 32858.600000
199.063700 8587.800000
200.071600 63430.700000
202.007500 17566.100000
202.051200 8360.300000
202.086800 2241.800000
204.010200 3398.200000
206.025600 38995.400000
210.055900 9643.800000
211.050700 3504.600000
212.035700 5551.700000
212.060900 2466.100000
212.071600 24721.800000
213.030600 88314.200000
213.066900 29219.400000
214.050900 9534.600000
214.087400 9326.400000
215.003100 2697.700000
215.046100 3221.800000
216.066700 2715.900000
218.082100 9062.000000
223.051100 9477.300000
223.087500 4613.400000
224.058800 12019.100000
224.070000 2232.500000
225.103700 3550.400000
226.038400 50861.700000
226.049900 4095.200000
226.087400 14107.200000
227.046200 44041.800000
227.058800 12799.800000
227.083600 2284.700000
228.055000 3753.300000
228.066700 10041.800000
228.090500 3923.100000
230.081800 11564.900000
231.089500 2724.100000
233.997900 9800.400000
235.008700 8789.900000
237.066400 2280.100000
238.075000 4082.300000
239.046100 3474.700000
240.054000 14756.100000
241.062100 25857.100000
241.098200 131665.400000
242.082000 7956.900000
242.106100 2451.500000
251.082500 17215.200000
252.090000 3429.100000
253.097600 17399.300000
265.098500 2547.400000
268.085800 3063.100000
269.093100 171605.500000
270.101000 106044.000000
273.105000 4277.100000
289.099200 3797.800000

>ms2
58.009800 34303.200000
58.993800 15446.000000
65.003200 17072.000000
65.998500 56085.300000
69.034600 337535.600000
75.024100 4109.300000
79.000100 29878.800000
79.018900 4293.400000
81.034700 9221.600000
88.019300 59710.800000
89.003400 12713.900000
91.019000 9680.600000
93.034600 10529.400000
95.013900 28484.400000
97.029500 251577.100000
98.017200 4265.700000
99.024000 2080.200000
100.019300 14660.400000
102.035000 10700.800000
103.019000 25639.900000
103.042700 7414.400000
105.022100 12316.000000
106.006200 16099.400000
107.013900 18454.600000
107.061600 1961.000000
108.021700 122114.800000
109.029400 14796.500000
110.017500 4304.500000
114.035000 15428.000000
115.019100 3471.000000
116.014300 217013.100000
117.014800 21648.300000
117.022000 19950.500000
117.034700 8596.200000
118.030000 167083.400000
120.009200 8351.000000
120.045600 14777.400000
121.009600 7159.100000
121.029500 28857.600000
122.017400 3248.800000
123.008800 8648.700000
123.045200 8099.600000
125.024400 134343.600000
126.012300 14321.700000
126.035000 10880.900000
130.029800 33559.400000
131.013700 17624.700000
131.037700 74077.200000
132.021700 40117.500000
132.045700 3308.700000
133.017000 126289.600000
134.024900 9668.400000
135.008900 25234.400000
136.016000 3773.000000
138.012000 2287.600000
139.020200 3987.900000
142.029800 62274.000000
143.050000 5383.000000
144.009200 14076.500000
144.045500 23091.500000
145.009500 51892.400000
145.016800 11485.900000
145.029400 4155.800000
146.024800 458396.400000
147.008700 3894.300000
147.045200 3280.900000
148.040400 7593.000000
149.004400 8807.600000
150.012000 18263.700000
151.019700 2985.500000
151.027500 3886.000000
154.007000 13521.900000
154.029900 14589.600000
158.024800 31432.800000
158.061300 3129.000000
159.032500 300893.900000
160.015900 19865.700000
160.040400 54016.000000
161.005100 3021.300000
161.011900 14008.900000
161.024300 18561.100000
162.019800 7552.600000
162.036100 10606.000000
163.027700 12958.100000
164.015400 433713.000000
170.024700 11147.800000
170.061100 11933.100000
171.032400 3106.800000
171.056500 9722.900000
172.040600 61139.900000
173.004800 3386.100000
173.011500 18316.700000
173.048000 8961.200000
174.019500 50061.000000
175.020500 2390.400000
175.027500 12969.400000
176.014800 2240.100000
176.034900 11179.200000
176.999400 4030.000000
178.007200 7350.000000
178.030900 3452.700000
179.082500 35793.200000
184.040400 42248.900000
185.035600 120743.100000
186.019700 39553.600000
186.043600 10219.200000
186.056000 48405.800000
187.014900 6990.400000
187.027200 7602.700000
187.051300 3644.700000
188.015600 4321.000000
188.035200 13379.100000
192.010400 753753.000000
195.056000 4253.500000
196.040600 3617.600000
197.048100 17763.100000
197.072200 2586.300000
198.043500 62453.300000
198.056200 9809.800000
198.092500 3510.100000
199.051300 20193.800000
199.063000 5269.300000
200.035700 3342.600000
200.071600 37700.100000
202.007300 10260.900000
202.050900 8539.600000
204.010700 1861.100000
206.025600 11022.700000
210.055700 7868.600000
211.051100 3221.400000
212.059900 3084.600000
212.071400 14313.000000
213.030600 67464.500000
213.066600 9745.000000
214.038400 10402.800000
214.050600 2576.000000
214.087200 3129.200000
215.045500 2165.400000
216.010200 2308.300000
216.066700 1800.700000
218.081900 7954.000000
223.087300 3109.300000
224.059400 8457.600000
226.038500 73039.900000
226.087400 3915.900000
227.046400 20872.400000
228.066400 3203.400000
233.996600 2093.700000
239.045600 13890.300000
240.054300 3936.500000
241.061500 10202.700000
251.082700 2978.400000
253.098000 2189.500000
269.093400 33291.500000
270.102000 3628.600000

