>compound EQ58047983
>parentmass 703.3825
>ionization [M-H]-
>formula C38H52N6O7
>rt 708.000000
>profile orbitrap
#smiles_iso CC(C)(C)[C@@H](C(=O)N[C@@H](CC1=CC=CC=C1)[C@H](CN(CC2=CC=C(C=C2)C3=CC=CC=N3)NC(=O)[C@H](C(C)(C)C)NC(=O)OC)O)NC(=O)OC
#smiles_can CC(C)(C)C(C(=O)NC(CC1=CC=CC=C1)C(CN(CC2=CC=C(C=C2)C3=CC=CC=N3)NC(=O)C(C(C)(C)C)NC(=O)OC)O)NC(=O)OC
#inchikey AXRYRYVKAWYZBR-GASGPIRDSA-N
#pubchem_id 148192
#mb_accession EQ301251,EQ301252,EQ301253,EQ301254,EQ301255,EQ301256

>ms2
98.012100 88613.000000
155.082600 13327305.800000
195.092600 293187.300000
287.140100 386353.200000
483.240100 3734096.700000
639.329800 26276360.400000
671.356100 849242.768100

>ms2
97.004400 123495.100000
98.012200 2060717.600000
99.019900 64704.800000
153.067300 112735.000000
155.082600 44631153.100000
168.081800 50981.700000
195.092700 2973025.300000
230.069500 65641.300000
287.140200 1262476.200000
483.240500 502125.800000
639.330000 210461.400000

>ms2
97.004400 667078.800000
98.012200 8129967.500000
99.020000 170050.200000
116.050700 37020.300000
126.030900 59013.800000
139.051200 110037.300000
153.067200 143359.400000
154.075200 32772.700000
155.082600 31478588.900000
168.081700 111471.500000
182.093600 47598.600000
193.077000 99619.500000
195.092700 1441778.400000
230.069800 122539.800000
287.140300 181913.600000

>ms2
97.004400 1156727.700000
98.012200 11926071.800000
99.020000 251947.700000
111.020100 44365.200000
116.050700 40780.500000
126.030900 67497.500000
139.014900 30311.700000
139.051200 168951.700000
153.067000 74924.000000
155.082500 24154578.600000
168.081900 177121.000000
181.098200 35455.800000
193.077000 156212.700000
195.092700 623443.700000
230.069900 109336.500000
287.140400 36340.500000

>ms2
97.004400 1799796.100000
98.012200 14284315.800000
99.019900 194287.200000
111.020100 71444.900000
116.050700 86726.800000
118.066300 17940.200000
124.027600 50889.400000
126.030800 51192.500000
139.014600 54005.900000
139.051200 180551.800000
140.022700 17424.500000
153.066900 34321.500000
155.082500 10143303.400000
168.081900 149035.600000
193.077100 149736.600000
195.092500 89901.500000
200.059400 45519.000000
230.069600 17946.600000

>ms2
97.004400 1355234.600000
98.012200 8257536.900000
99.020000 69609.300000
111.020000 61074.400000
116.050700 42792.200000
118.066500 26608.100000
124.027600 17468.700000
125.022800 11423.500000
139.014800 13707.400000
139.051500 72232.400000
140.023000 9373.700000
155.082600 2317346.900000
168.082000 37663.800000
193.076900 78148.700000
200.059400 15112.200000

