>compound EQ58518938
>parentmass 286.07110000000006
>ionization [M-H]-
>formula C9H14N5O4P
>rt 60.000000
>profile orbitrap
#smiles_iso C[C@H](CN1C=NC2=C(N=CN=C21)N)OCP(=O)(O)O
#smiles_can CC(CN1C=NC2=C(N=CN=C21)N)OCP(=O)(O)O
#inchikey SGOIRFVFHAKUTI-ZCFIWIBFSA-N
#pubchem_id 464205
#mb_accession EQ310551,EQ310552,EQ310553,EQ310554,EQ310555,EQ310556

>ms2
62.964100 124445.300000
78.959100 30064.700000
80.974700 165394.000000
110.985300 671321.900000
134.047200 2310350.300000
151.016500 1226247.800000
286.070900 17967647.100000

>ms2
62.964100 688038.400000
78.959000 121873.700000
80.974700 1097762.000000
92.025300 21045.200000
92.974700 47532.000000
107.036500 68741.700000
110.985300 1942821.700000
134.047200 9692008.700000
151.016500 2982585.700000
268.060300 30117.200000
286.070900 5521775.900000

>ms2
62.964100 2045674.100000
78.959100 386871.000000
80.974700 1703448.100000
92.025400 87561.800000
92.974700 134170.200000
107.036400 378264.800000
110.985300 1049522.900000
134.047300 13898534.400000
151.016500 1840552.900000
286.071000 236436.600000

>ms2
62.964100 2666140.400000
65.014500 20853.100000
78.959100 535497.000000
80.974700 1325557.800000
92.025400 171554.400000
92.974700 124937.400000
107.036400 896039.500000
110.985300 457541.900000
134.047200 12560679.500000
151.016500 961267.600000
286.070900 24212.600000

>ms2
62.964100 3454987.900000
65.014500 65489.400000
68.025500 27114.200000
78.959100 805695.700000
80.025300 28299.800000
80.974700 827206.500000
92.025400 526376.500000
92.974700 111270.300000
93.982500 31602.600000
107.036400 2379583.500000
110.985300 154990.000000
134.047200 10440606.800000
151.016500 368506.800000

>ms2
62.964100 3896198.900000
65.014500 144117.000000
68.025400 63925.200000
78.959100 1129724.600000
80.025400 38635.100000
80.974700 387805.500000
92.025400 865821.900000
92.974700 46469.100000
93.982600 27256.900000
107.036300 3310655.400000
110.985300 45044.600000
133.039400 7413.100000
134.047200 6474945.100000
151.016400 83204.700000

