>compound EQ59787814
>parentmass 341.0586
>ionization [M-H]-
>formula C19H15ClO4
>rt 738.000000
>profile orbitrap
#smiles_iso CC(=O)CC(C1=CC=C(C=C1)Cl)C2=C(C3=CC=CC=C3OC2=O)O
#smiles_can CC(=O)CC(C1=CC=C(C=C1)Cl)C2=C(C3=CC=CC=C3OC2=O)O
#inchikey DEKWZWCFHUABHE-UHFFFAOYSA-N
#pubchem_id 54682651
#mb_accession EQ309051,EQ309052,EQ309053,EQ309054,EQ309055,EQ309056

>ms2
117.034500 447380.600000
161.024400 19694722.700000
257.037800 344411.600000
284.024800 6263829.600000
341.058500 232660263.500000

>ms2
57.034500 1302774.700000
83.013800 424874.900000
93.034500 112115.000000
117.034700 2874024.800000
161.024400 98268677.300000
164.003600 117189.800000
167.026900 1273502.000000
191.027200 316092.400000
221.037500 265165.500000
255.022000 108988.000000
255.058200 403783.400000
257.037600 3132791.800000
281.037600 112760.600000
282.045300 205254.400000
284.024500 79736622.200000
295.053100 122382.100000
297.069000 535256.300000
323.048100 858689.500000
341.058500 60199838.500000

>ms2
57.034600 3375706.700000
83.013900 648525.800000
93.034500 848576.800000
117.034700 14788532.800000
119.050300 193992.100000
135.045300 319704.600000
161.024400 53964022.800000
164.003400 967132.400000
167.026700 914924.100000
185.061200 118543.800000
191.027200 449290.900000
221.037600 294802.200000
229.042300 761150.800000
239.027700 202997.100000
240.034700 864553.900000
253.042600 104528.000000
255.022200 561006.600000
255.058300 243978.900000
257.037500 2280062.400000
281.037200 110084.700000
282.045800 97533.200000
284.024500 72925843.600000
295.052600 324648.600000
323.048300 323057.500000
341.058500 1849042.000000

>ms2
57.034600 3907584.900000
83.013900 610650.200000
93.034600 1324628.900000
117.034700 25545351.100000
119.050300 82168.800000
133.029400 59056.600000
135.000700 292559.500000
135.045000 202381.500000
145.029600 56250.500000
149.016500 81108.200000
161.024400 30757405.400000
164.003400 1069465.900000
167.026800 447499.700000
179.027000 194334.200000
185.060700 82792.200000
191.027000 366118.100000
221.037800 63431.400000
229.042400 853791.800000
239.027200 255893.700000
240.034800 804487.400000
253.042500 80690.200000
255.021900 535940.100000
255.058700 220518.200000
257.037700 914194.400000
283.017100 60509.600000
284.024500 24007306.300000
295.053500 210013.500000

>ms2
57.034600 3969129.300000
83.013900 419886.500000
93.034600 1180363.000000
117.034700 31181679.500000
119.050100 97319.000000
133.029700 47990.700000
135.000900 659418.900000
135.045300 83048.800000
145.029500 64966.200000
149.016600 94217.100000
161.024400 9203415.800000
164.003300 435816.900000
179.027200 136920.900000
185.060700 80583.200000
229.042400 406069.600000
239.026900 86371.500000
240.034600 234447.700000
253.042100 75643.400000
255.021800 107739.700000
257.037300 76062.200000
283.016800 59011.100000
284.024700 1649496.400000
295.053700 60015.900000

>ms2
57.034600 4007390.100000
83.013900 355328.000000
93.034600 1096385.500000
117.034700 27736464.100000
135.000800 935456.100000
145.029100 54616.000000
161.024400 2117295.300000
239.027300 47732.300000
255.021100 54176.100000
283.017700 57084.200000
284.024800 97417.000000

