>compound EQ60467338
>parentmass 327.1384
>ionization [M-H]-
>formula C15H24N2O4S
>rt 156.000000
>profile orbitrap
#smiles_iso CCN(CC)CCNC(=O)C1=C(C=CC(=C1)S(=O)(=O)C)OC
#smiles_can CCN(CC)CCNC(=O)C1=C(C=CC(=C1)S(=O)(=O)C)OC
#inchikey JTVPZMFULRWINT-UHFFFAOYSA-N
#pubchem_id 5467
#mb_accession EQ302851,EQ302852,EQ302853,EQ302854,EQ302855,EQ302856

>ms2
78.985900 7857.600000
155.017300 20462.700000
185.027500 12605.897880

>ms2
63.962500 1170.900000
78.985900 10675.800000
155.017200 41522.700000

>ms2
63.962400 5951.600000
78.985900 11186.500000
155.017300 29156.300000

>ms2
63.962400 8226.600000
78.985900 16064.500000
155.017200 20337.200000

>ms2
63.962400 11324.800000
78.985900 19470.800000
155.017200 7685.200000

>ms2
63.962400 14534.200000
78.985900 19222.500000
155.017400 1017.700000

