>compound EQ63776295
>parentmass 380.145
>ionization [M-H]-
>formula C18H24FN3O3S
>rt 648.000000
>profile orbitrap
#smiles_iso C[C@H](C1=NC2=C(S1)C=C(C=C2)F)NC(=O)[C@H](C(C)C)NC(=O)OC(C)C
#smiles_can CC(C)C(C(=O)NC(C)C1=NC2=C(S1)C=C(C=C2)F)NC(=O)OC(C)C
#inchikey USRKFGIXLGKMKU-ABAIWWIYSA-N
#pubchem_id 53297381
#mb_accession EQ305551,EQ305552,EQ305553,EQ305554,EQ305555,EQ305556

>ms2peaks
180.028700 122818.800000
277.081500 1528025.900000
320.087300 54650731.000000

>ms2peaks
57.975600 110390.400000
83.050200 246573.000000
97.004300 424280.200000
98.061100 18025.900000
124.076700 15662.500000
126.056000 62053.600000
139.051000 88484.900000
141.005400 133280.500000
141.066900 40450.900000
142.013000 275733.200000
151.997500 8348979.700000
167.082400 101299.100000
167.992600 68803.800000
180.028800 1000262.900000
193.024000 679862.100000
208.060100 20251.500000
221.019000 220935.400000
234.075600 201044.200000
243.094900 27142.800000
262.058100 16591.400000
277.032700 1284582.500000
277.081500 8350415.100000
320.087300 13778028.000000

>ms2peaks
57.975600 795484.700000
83.050200 487559.500000
97.004300 1714166.100000
125.035600 40225.100000
126.056000 23802.300000
139.051300 41990.400000
141.005400 450892.000000
141.066900 68141.000000
142.013000 467523.700000
151.997400 21988027.600000
166.012800 28442.900000
167.082500 23752.800000
167.992200 88297.500000
180.028800 1452705.700000
193.024000 981699.100000
208.059900 103198.400000
221.019000 99004.800000
234.075700 271763.800000
262.058400 24540.800000
277.032500 347779.100000
277.081400 1220689.800000
320.087300 311209.800000

>ms2peaks
57.975600 2369027.200000
83.050200 449163.400000
97.004300 1812630.200000
141.005400 431544.900000
142.013100 318431.300000
151.997500 23746617.600000
167.992200 72374.600000
178.013000 66160.800000
180.028900 1154889.000000
193.024000 338791.900000
208.060200 60244.300000
234.076000 99893.700000
277.032600 62149.800000
277.081500 109900.100000

>ms2peaks
57.975600 5974164.900000
81.975600 70414.900000
83.050200 285477.000000
97.004300 1102023.600000
120.025400 56602.700000
125.035500 20765.100000
131.991300 65875.600000
134.041000 44894.500000
141.005400 302320.200000
142.013000 194790.200000
151.997500 17907244.100000
166.013200 19589.100000
167.992500 22977.000000
178.013200 102188.800000
180.028900 547723.900000

>ms2peaks
57.034600 12088.600000
57.975700 9562517.300000
67.019000 10148.700000
80.980500 55202.800000
81.975700 144017.700000
83.050300 156389.500000
97.004400 577720.400000
120.025400 46756.400000
125.035600 9998.700000
131.991500 146886.100000
134.041100 50456.000000
141.005600 166549.500000
142.013100 110101.700000
151.997600 9406762.400000
158.007100 40893.800000
166.013100 13300.200000
167.992800 18928.200000
178.013300 90526.200000
180.029100 155038.700000

