>compound EQ64695071
>parentmass 279.233
>ionization [M-H]-
>formula C18H32O2
>rt 1164.000000
>profile orbitrap
#smiles_iso CCCCC/C=C\C/C=C\CCCCCCCC(=O)O
#smiles_can CCCCCC=CCC=CCCCCCCCC(=O)O
#inchikey OYHQOLUKZRVURQ-HZJYTTRNSA-N
#pubchem_id 5280450
#mb_accession EQ331651,EQ331652,EQ331653,EQ331654,EQ331655

>ms2
279.233000 86783112.000000

>ms2
59.013900 225739.500000
261.222500 358151.000000
279.233000 61901180.000000

>ms2
59.013900 174827.300000
71.013900 32894.000000
83.050300 22757.700000
97.066000 27032.200000
261.222400 174822.800000
279.233000 6563025.000000

>ms2
71.013900 30605.500000
279.233200 96211.200000

>ms2
71.013900 33951.100000

