>compound EQ66700172
>parentmass 368.03400000000005
>ionization [M-H]-
>formula C9H15N5O7S2
>rt 498.000000
>profile orbitrap
#smiles_iso CN(S(=O)(=O)C)S(=O)(=O)NC(=O)NC1=NC(=CC(=N1)OC)OC
#smiles_can CN(S(=O)(=O)C)S(=O)(=O)NC(=O)NC1=NC(=CC(=N1)OC)OC
#inchikey CTTHWASMBLQOFR-UHFFFAOYSA-N
#pubchem_id 91777
#mb_accession EQ316551,EQ316552,EQ316553,EQ316554,EQ316555,EQ316556

>ms2peaks
63.962300 58086.500000
77.965500 44782237.400000
79.981100 70732.100000
109.007700 11175859.600000
134.987000 3078701.800000
154.062000 1285689.700000
179.057400 1606159.500000
186.985300 6189054.000000
212.964700 557579.965100
259.014200 27407917.300000
290.056600 1730832.717000

>ms2peaks
63.962300 462672.700000
65.014500 102204.700000
77.965500 54138452.600000
78.973200 346573.700000
79.981200 193747.200000
109.007700 19072933.000000
122.036000 115675.900000
134.987000 5323998.000000
139.038500 60861.700000
154.062200 8154440.200000
179.057400 1681131.100000
186.985400 949736.300000
259.014200 2348101.600000

>ms2peaks
61.970400 71799.300000
63.962300 506733.500000
65.014400 925039.100000
65.998500 599584.400000
77.965500 47376870.900000
78.973300 899400.100000
79.981100 568579.300000
90.009800 109945.900000
97.040700 109604.800000
107.012600 505665.100000
108.012600 83421.700000
109.007700 16075772.300000
122.036000 1250893.500000
124.051600 241912.700000
134.987000 1545125.400000
139.038500 974843.100000
154.062200 10523141.800000
164.033600 62302.300000
179.057400 767259.000000

>ms2peaks
61.970500 267217.600000
63.962400 1049300.000000
64.006600 92420.000000
65.014400 2799214.700000
65.998500 2383503.800000
66.009700 270732.500000
77.965500 48886951.600000
78.973300 2419877.300000
79.981100 1538276.300000
82.017200 285984.600000
90.009800 237852.400000
93.960400 199995.400000
97.040700 115568.400000
98.024600 54652.300000
107.012500 2010096.700000
108.012500 257143.300000
109.007700 12861664.700000
111.067700 89683.300000
122.036000 3471634.900000
124.051600 299165.400000
134.987200 100310.500000
139.038700 2223361.700000
154.062200 6799828.000000
179.057600 223171.700000

>ms2peaks
61.970500 461507.900000
63.962400 2008631.100000
64.006700 208207.300000
65.014400 3104091.400000
65.998500 5012078.800000
77.965500 46915356.800000
78.973300 5337317.100000
79.981100 2001225.400000
82.017300 295650.600000
90.009700 509590.500000
92.989000 105436.800000
93.960500 244599.500000
97.040600 91562.500000
98.024500 57784.500000
107.012500 3325050.200000
108.012400 217232.000000
108.020200 220943.300000
109.007700 7003335.900000
122.036000 3458903.700000
124.051600 314149.300000
139.038700 1920197.600000
154.062100 2121421.900000
164.033700 115914.100000

>ms2peaks
61.970500 593202.400000
63.962400 3201060.400000
64.006700 327678.000000
65.014400 2599589.400000
65.998500 7632304.300000
77.965500 38362366.500000
78.973300 6425302.200000
79.981100 1691244.200000
82.017200 232258.200000
90.009800 535384.300000
92.989000 101098.300000
93.960500 437463.700000
97.040900 81896.200000
107.012500 3414523.600000
108.012500 202247.300000
108.020300 93895.200000
109.007700 2708970.500000
122.036000 2173565.200000
124.051500 192341.000000
139.038700 818744.200000
154.062100 353979.600000

