>compound EQ67215710
>parentmass 337.10730000000007
>ionization [M-H]-
>formula C15H19ClN4O3
>rt 588.000000
>profile orbitrap
#smiles_iso CC(C)(C)C1=NN(C(=O)O1)C2=C(C=C(C=C2)NC(=O)N(C)C)Cl
#smiles_can CC(C)(C)C1=NN(C(=O)O1)C2=C(C=C(C=C2)NC(=O)N(C)C)Cl
#inchikey DHWRNDJOGMTCPB-UHFFFAOYSA-N
#pubchem_id 91612
#mb_accession EQ316651,EQ316652,EQ316653,EQ316654,EQ316655,EQ316656

>ms2
164.986000 2695083.300000
165.993800 3633623.600000
210.044000 16958905.400000
254.034100 368031.100000
337.107400 108202887.300000

>ms2
102.022200 42486.400000
130.017200 48251.300000
163.988400 58928.500000
164.986100 13304163.900000
165.993800 13742006.500000
167.011900 62865.400000
210.044000 6845049.100000
254.033400 34602.500000
337.107500 4438266.200000

>ms2
102.022400 251523.700000
130.017200 757560.700000
137.998900 61255.400000
164.986100 15506025.200000
165.993900 12159232.300000
167.011900 50958.100000
192.033600 36303.900000
210.043600 198009.447100

>ms2
65.998500 46499.500000
101.014300 27545.200000
102.022400 319325.400000
130.017300 2415035.700000
137.999100 207910.100000
138.983100 61946.300000
163.988300 48627.100000
164.986100 9715134.000000
165.993900 6928674.500000
178.017600 34480.400000
191.997500 35947.000000
192.033900 32463.400000

>ms2
65.998500 187166.000000
74.003500 24109.500000
101.014500 114834.900000
102.022400 412589.900000
103.006300 33602.600000
130.017200 2654404.900000
137.998800 141807.200000
138.983000 152927.800000
164.986000 4262901.300000
165.993900 2639833.600000
191.997600 73256.400000

>ms2
65.998500 223225.800000
74.003600 31769.100000
101.014500 39250.000000
102.022400 285744.500000
103.006400 29904.500000
130.017200 1492480.400000
137.999400 27285.700000
138.983000 30238.500000
164.986100 1092414.000000
165.994000 472948.100000
178.017800 30915.700000

