>compound EQ68588788
>parentmass 215.05929999999998
>ionization [M-H]-
>formula C9H13ClN2O2
>rt 456.000000
>profile orbitrap
#smiles_iso CC1=C(C(=O)N(C(=O)N1)C(C)(C)C)Cl
#smiles_can CC1=C(C(=O)N(C(=O)N1)C(C)(C)C)Cl
#inchikey NBQCNZYJJMBDKY-UHFFFAOYSA-N
#pubchem_id 22188
#mb_accession EQ317951,EQ317952,EQ317953,EQ317954,EQ317955,EQ317956

>ms2peaks
115.990800 540467.600000
158.996600 130476811.500000
215.059200 201336686.900000

>ms2peaks
74.964300 317252.700000
115.990800 1358793.900000
130.042700 628661.400000
158.996600 209628255.700000
215.059200 118130199.600000

>ms2peaks
72.972400 1012191.200000
73.980300 719017.700000
74.964300 1309507.100000
115.990900 4368433.800000
130.042800 1574327.800000
158.996600 214324179.000000
215.059300 15794868.000000

>ms2peaks
72.972400 2632318.500000
73.980300 1352307.500000
74.964300 2576582.000000
88.967400 275149.100000
115.990900 4298529.300000
130.042800 847098.700000
158.996600 87475347.000000
215.059300 897708.700000

>ms2peaks
72.972500 4660088.400000
73.980300 733175.600000
74.964300 3544733.800000
88.967400 283106.200000
115.991000 1538966.900000
130.042900 105158.900000
158.996700 17725982.100000

>ms2peaks
60.972400 122670.225400
72.972400 4742233.900000
73.980300 434443.600000
74.964300 4096717.500000
88.967500 579543.500000
115.990900 338032.300000
158.996700 2648243.500000

