>compound EQ68360690
>parentmass 300.0564
>ionization [M-H]-
>formula C14H17Cl2NO2
>rt 696.000000
>profile orbitrap
#smiles_iso CC1(CCCCC1)C(=O)NC2=C(C(=C(C=C2)O)Cl)Cl
#smiles_can CC1(CCCCC1)C(=O)NC2=C(C(=C(C=C2)O)Cl)Cl
#inchikey VDLGAVXLJYLFDH-UHFFFAOYSA-N
#pubchem_id 213031
#mb_accession EQ305751,EQ305752,EQ305753,EQ305754,EQ305755,EQ305756

>ms2peaks
249.055800 38276.800000
264.079800 2797365.200000
300.056400 24872245.600000

>ms2peaks
167.985900 37333.600000
174.958900 45012.500000
221.025100 53311.200000
248.048200 36441.600000
249.056300 404726.400000
264.079700 13822381.600000
300.056400 8747527.400000

>ms2peaks
138.983200 43975.400000
155.985800 23206.700000
166.977900 134318.900000
167.985800 207638.900000
174.959600 122716.800000
180.993700 37696.800000
182.972600 50519.400000
185.084700 80321.500000
192.993600 24040.500000
194.001300 26801.100000
195.009300 151065.900000
200.071900 11068.800000
207.009200 27151.500000
208.017100 33658.200000
212.071800 39494.400000
213.079600 109620.800000
220.017100 39349.100000
221.024900 599716.600000
228.103100 58398.400000
248.048400 269081.500000
249.056300 2720520.500000
264.079700 10891707.000000
300.056400 450929.900000

>ms2peaks
103.006300 7679.300000
132.009000 21957.300000
138.983100 117036.800000
155.985900 71045.300000
157.053300 21602.400000
159.032400 8750.200000
161.048100 9768.500000
166.978000 212104.500000
167.985800 245863.700000
174.959700 143053.100000
180.993900 104233.900000
182.972700 46620.800000
184.040400 29931.100000
184.076900 22874.000000
185.047900 44919.700000
185.084700 148226.700000
192.993500 52744.500000
194.001300 69766.000000
195.009300 224180.300000
200.071700 20343.400000
200.108400 28648.400000
203.095300 11864.300000
207.009200 24180.500000
208.017000 96601.500000
212.071900 99726.100000
213.079600 206827.400000
216.066600 19638.800000
220.017000 153512.300000
221.024900 1006544.600000
228.103100 64272.300000
234.032800 26393.500000
248.048500 659699.600000
249.056300 2572490.400000
264.079800 4073351.200000
300.056400 37291.400000

>ms2peaks
103.006400 35886.400000
120.009100 15513.800000
132.009200 22862.100000
138.983100 287547.800000
154.977800 20946.100000
155.985800 148330.800000
157.053100 52990.600000
159.032500 27981.600000
161.048600 7296.600000
166.977900 142252.900000
167.985700 179840.200000
168.081800 10669.000000
170.025500 7575.000000
172.040200 10711.600000
174.959600 92766.100000
180.993700 329551.000000
182.972800 36093.400000
184.040400 52650.300000
184.076700 84601.300000
185.048200 77213.800000
185.084600 169332.000000
191.986000 36221.200000
192.993600 224599.400000
194.001400 256510.600000
195.009300 226553.800000
198.055900 11122.500000
200.071900 30925.800000
200.108200 40097.600000
203.095200 23877.800000
206.001200 7192.500000
207.009100 60925.500000
208.017100 138925.500000
212.071700 234999.500000
213.079600 168985.000000
216.066600 12610.000000
220.017000 518649.400000
221.024800 1019432.200000
228.103200 31500.600000
234.032400 66759.100000
248.048400 1462321.200000
249.056200 1012622.100000
264.079700 581194.900000

>ms2peaks
103.006300 49449.700000
120.009000 12447.400000
132.009100 23182.800000
138.983100 240629.800000
154.977900 32899.000000
155.985800 125414.000000
157.053200 47278.500000
159.032500 26919.300000
166.977800 25716.700000
167.985900 55527.300000
168.081700 8756.300000
170.024400 7598.500000
172.040300 9055.500000
174.959300 21085.500000
180.993700 406323.000000
182.972600 30276.800000
184.040500 85593.000000
184.076700 76936.300000
185.048100 61810.300000
185.084800 56092.400000
191.986000 176132.900000
192.993600 300089.000000
194.001400 221595.700000
195.009200 73341.100000
198.056200 14132.500000
200.108200 24541.100000
206.001700 22358.600000
207.009200 29195.400000
208.017200 102601.800000
212.071700 162590.600000
213.079400 29165.200000
220.017100 712270.100000
221.024800 291409.600000
234.032900 27716.700000
248.048400 1000487.100000
249.056300 108577.100000
264.079400 31709.100000

