>compound EQ68892014
>parentmass 185.9519
>ionization [M-H]-
>formula C7H3Cl2NO
>rt 450.000000
>profile orbitrap
#smiles_iso C1=C(C=C(C(=C1Cl)O)Cl)C#N
#smiles_can C1=C(C=C(C(=C1Cl)O)Cl)C#N
#inchikey YRSSHOVRSMQULE-UHFFFAOYSA-N
#pubchem_id 74685
#mb_accession EQ304251,EQ304252,EQ304253,EQ304254,EQ304255,EQ304256

>ms2
149.975200 158284.700000
185.951900 113586156.000000

>ms2
149.975100 154382.000000
185.951900 108478638.800000

>ms2
121.980300 77740.500000
149.975200 862102.200000
185.952000 67210766.700000

>ms2
98.964400 136672.100000
121.980400 300634.200000
149.975100 1662046.800000
185.952000 39425478.300000

>ms2
86.003700 242773.200000
98.964300 446437.400000
113.998400 46211.100000
121.980400 788651.300000
149.975100 1582949.900000
185.951900 10005632.300000

>ms2
86.003600 659678.600000
98.964300 765534.600000
113.998700 225365.200000
121.980400 965392.400000
149.975200 996990.700000
185.951900 1772504.900000

