>compound EQ70647988
>parentmass 414.075
>ionization [M-H]-
>formula C21H18ClNO6
>rt 768.000000
>profile orbitrap
#smiles_iso CC1=C(C2=C(N1C(=O)C3=CC=C(C=C3)Cl)C=CC(=C2)OC)CC(=O)OCC(=O)O
#smiles_can CC1=C(C2=C(N1C(=O)C3=CC=C(C=C3)Cl)C=CC(=C2)OC)CC(=O)OCC(=O)O
#inchikey FSQKKOOTNAMONP-UHFFFAOYSA-N
#pubchem_id 1981
#mb_accession EQ312251,EQ312252,EQ312253,EQ312254,EQ312255,EQ312256

>ms2peaks
72.993200 254109.500000
75.008800 81223885.700000
312.079800 3756903.200000

>ms2peaks
72.993200 512887.100000
75.008800 81943286.300000
111.000700 238351.600000
158.061000 118973.500000
255.045800 333118.100000
269.061400 677531.900000
270.069200 1072183.600000
297.056200 2868633.700000
301.050300 126039.300000
312.079800 3636569.000000

>ms2peaks
72.993200 587683.700000
75.008800 62298269.400000
111.000700 532446.900000
153.011100 126343.500000
157.053300 186331.200000
158.061100 1477858.800000
254.038000 254157.200000
255.045700 1331329.600000
268.053400 205947.600000
269.061400 1071623.200000
270.069600 266078.800000
282.032600 2439182.600000
297.056100 3105958.000000
312.079800 207267.700000

>ms2peaks
72.993200 797204.200000
75.008800 62162848.000000
111.000800 910889.400000
153.011100 76971.700000
157.053400 380860.800000
158.061100 3162976.800000
184.040300 127038.600000
253.030000 90160.200000
254.037800 537567.700000
255.045700 1316363.900000
266.037700 85181.000000
268.053800 252825.500000
269.061400 1086878.400000
281.025100 87107.200000
282.032600 4082202.500000
297.056100 1113165.300000

>ms2peaks
72.993200 986427.100000
75.008800 41964104.400000
111.000800 434058.400000
157.053400 316681.900000
158.061200 3766994.200000
184.040500 179425.900000
218.060900 78148.100000
252.022300 63043.800000
253.030200 472053.000000
254.037900 596719.100000
255.045800 600968.800000
268.053300 210644.800000
269.061300 424266.400000
280.017400 67580.700000
281.024900 291452.100000
282.032700 3481329.600000
297.056300 66064.200000

>ms2peaks
72.993200 991839.200000
75.008800 30367404.400000
111.000800 227975.500000
156.045500 99521.000000
157.053300 410992.500000
158.061100 3339798.800000
184.040300 130009.500000
218.061100 144487.200000
252.022100 180872.800000
253.030100 960932.300000
254.038100 389590.800000
255.045700 105615.500000
266.038000 59020.300000
268.053600 110210.900000
269.061800 93705.000000
280.016900 261713.000000
281.025000 453406.700000
282.032700 1515339.500000

