>compound EQ70824097
>parentmass 251.08259999999999
>ionization [M-H]-
>formula C15H12N2O2
>rt 456.000000
>profile orbitrap
#smiles_iso C1=CC=C(C=C1)C2(C(=O)NC(=O)N2)C3=CC=CC=C3
#smiles_can C1=CC=C(C=C1)C2(C(=O)NC(=O)N2)C3=CC=CC=C3
#inchikey CXOFVDLJLONNDW-UHFFFAOYSA-N
#pubchem_id 1775
#mb_accession EQ331951,EQ331952,EQ331953,EQ331954,EQ331955,EQ331956

>ms2peaks
77.039500 28095.600000
102.034900 1588807.900000
174.043200 24116.400000
180.082000 282996.600000
208.076800 2516115.800000
251.082600 22717812.000000

>ms2peaks
77.039600 44863.500000
102.034900 6845151.000000
146.024700 125975.800000
150.032100 33092.300000
180.081900 903438.800000
207.069400 14610.900000
208.076700 5342354.000000
224.071500 13577.500000
251.082500 13043753.000000

>ms2peaks
102.034900 10181267.000000
105.034700 57475.500000
121.029500 49721.100000
131.037600 13874.000000
146.024800 241953.800000
150.032200 20897.100000
180.081900 231050.700000
207.069100 53739.000000
208.076800 2146339.200000
251.082600 1154497.800000

>ms2peaks
93.034700 12249.000000
102.034900 7753448.000000
105.034600 39788.400000
120.045500 24488.300000
121.029500 41889.300000
131.037500 11707.800000
146.024700 170700.600000
150.032700 8589.600000
180.082100 29802.100000
207.069300 50589.800000
208.076800 364318.400000
251.083000 42728.500000

>ms2peaks
93.034500 5680.600000
102.034900 4603690.000000
105.034600 11000.400000
118.029800 6636.300000
120.045700 12837.400000
121.029700 12147.800000
131.037700 11154.500000
146.024800 81757.100000
207.069300 7063.100000
208.076000 36798.200000

>ms2peaks
93.034700 6918.900000
102.035000 2384349.200000
120.045500 7006.900000
121.029700 7178.300000
146.024800 57791.800000

