>compound EQ71893869
>parentmass 197.0204
>ionization [M-H]-
>formula C7H6N2O5
>rt 480.000000
>profile orbitrap
#smiles_iso CC1=CC(=CC(=C1O)[N+](=O)[O-])[N+](=O)[O-]
#smiles_can CC1=CC(=CC(=C1O)[N+](=O)[O-])[N+](=O)[O-]
#inchikey ZXVONLUNISGICL-UHFFFAOYSA-N
#pubchem_id 10800
#mb_accession EQ312051,EQ312052,EQ312053,EQ312054,EQ312055,EQ312056

>ms2
64.019300 161948.300000
93.034700 120058.100000
109.029600 904716.000000
123.032500 235374.900000
137.024400 3943655.700000
150.019400 217916.000000
151.027400 518805.700000
167.022400 4277048.500000
180.017700 3211075.800000
197.020600 92415313.300000

>ms2
64.019400 165967.700000
65.039700 173637.100000
93.034500 210966.100000
109.029600 1620558.400000
123.032700 413233.700000
137.024400 6591489.700000
138.019600 249411.500000
150.019700 364365.000000
151.027500 721835.800000
166.014400 192854.100000
167.022400 6434524.300000
180.017700 5413243.600000
197.020600 79219807.200000

>ms2
63.024100 47084.100000
64.019300 442284.500000
65.014600 179334.300000
65.039700 778645.500000
65.998600 144091.500000
66.034900 64782.500000
67.019000 62628.000000
68.998200 40866.100000
78.035000 51864.300000
81.034700 184072.900000
88.019200 279547.800000
93.034600 713284.600000
95.013600 37365.100000
109.029600 6978648.400000
110.024700 348082.100000
120.021800 49542.900000
121.029500 399731.700000
122.024900 446213.000000
123.032700 2044683.400000
134.024800 35440.300000
137.024400 16176299.400000
138.019600 1072047.400000
139.027400 67436.000000
140.035300 1620145.733000
150.019700 2158296.400000
151.027500 2637050.500000
166.014700 719310.400000
167.022400 8652543.000000
180.017700 15241165.600000
197.020400 31924376.300000
212.007400 271602.700000

>ms2
63.011500 33022.000000
64.019300 487560.700000
65.014600 134771.300000
65.039700 823652.400000
65.998500 198588.200000
66.035000 119995.600000
67.018900 66373.900000
68.998200 116872.000000
76.019400 28898.200000
78.035000 49320.000000
80.026700 26688.300000
81.034600 162654.400000
88.019300 189553.300000
93.034600 830756.700000
95.013900 42782.200000
108.021700 36344.300000
109.029600 10218213.800000
110.024700 413068.300000
120.021500 36916.200000
121.029600 849548.600000
122.024700 663423.500000
123.032700 3333440.200000
134.025000 146039.200000
137.024400 13431298.500000
138.019600 1465595.400000
139.027600 177708.000000
140.035300 4137593.095000
150.019600 3863957.300000
151.027400 2648307.200000
166.014500 839740.000000
167.022400 4561106.700000
180.017700 14000147.100000
197.020400 10438964.100000
212.007400 150038.600000

>ms2
63.024200 56769.300000
64.019300 481302.300000
65.003300 119098.600000
65.014600 98749.900000
65.039700 1274967.100000
65.998500 242867.300000
66.034900 190525.000000
67.019000 379077.900000
68.998300 149794.500000
76.019500 38077.200000
78.035000 35711.000000
80.026800 136343.100000
81.034700 177665.400000
88.019200 202321.200000
93.034600 883813.600000
108.021700 228130.900000
109.029600 12134298.400000
110.024900 410527.900000
120.021800 112516.600000
121.029600 787178.900000
122.024900 1313266.600000
123.032700 5778013.500000
134.024800 281796.100000
136.016700 76336.700000
137.024400 6941330.500000
138.019700 1352797.500000
139.027500 306033.200000
140.035400 9805552.340000
150.019700 4566156.300000
151.027500 1575726.400000
166.014500 723293.700000
167.022400 1375005.600000
180.017700 7260626.300000
197.020400 1602174.200000
212.007800 143008.400000

>ms2
63.011500 28340.000000
63.024100 139201.100000
64.019300 380897.100000
65.003300 118170.300000
65.014500 135568.000000
65.039700 900598.700000
65.998500 394279.900000
66.035000 127698.600000
67.018900 472496.400000
68.998200 286165.700000
76.019300 39671.000000
78.035000 38013.900000
80.026700 57780.500000
81.034600 222248.300000
88.019200 102503.900000
93.034600 733349.000000
95.013900 29278.300000
108.021700 347394.800000
109.029600 9217792.700000
110.024800 372016.100000
120.021600 33318.200000
121.029600 409146.000000
122.024900 1631416.700000
123.032700 4726314.200000
134.024700 320696.300000
136.016600 46187.800000
137.024400 2151697.100000
138.019700 1114511.700000
139.027400 215160.500000
140.035400 10181856.790000
150.019700 2289381.000000
151.027500 417414.300000
166.014600 329400.900000
167.022300 187500.000000
180.017700 1883253.400000
197.020400 200995.500000

