>compound EQ74756345
>parentmass 252.1102
>ionization [M-H]-
>formula C10H15N5O3
>rt 66.000000
>profile orbitrap
#smiles_iso C1=NC2=C(N1CCC(CO)CO)N=C(NC2=O)N
#smiles_can C1=NC2=C(N1CCC(CO)CO)N=C(NC2=O)N
#inchikey JNTOCHDNEULJHD-UHFFFAOYSA-N
#pubchem_id 135398748
#mb_accession EQ328851,EQ328852,EQ328853,EQ328854,EQ328855,EQ328856

>ms2peaks
107.036400 31073.900000
108.020300 44796.200000
133.015600 140300.100000
149.033900 30875.100000
150.042000 3244719.200000
232.084300 27497.000000
234.099200 52040.900000
252.110200 22612618.000000

>ms2peaks
65.014500 123002.000000
66.009700 20127.500000
82.041100 33759.100000
106.028400 25023.500000
107.036300 163562.800000
108.020300 138906.300000
125.046900 167664.900000
126.030900 70503.300000
133.015600 824208.800000
137.071900 28302.500000
149.034200 127294.400000
150.042000 11634768.000000
152.057500 54781.800000
204.089000 76575.600000
209.104500 102623.500000
210.088300 170831.700000
220.083800 74312.700000
222.099300 35385.900000
232.083900 112009.200000
234.099200 60259.700000
252.110100 16273554.000000

>ms2peaks
65.014500 327381.900000
65.998400 57493.500000
66.009600 56181.300000
82.041100 144403.500000
96.045500 36360.200000
106.028500 155649.400000
107.012400 59563.300000
107.036300 740108.400000
108.020300 922818.300000
110.036100 22372.600000
119.061300 44909.800000
125.046800 493353.600000
126.030900 482030.300000
133.015600 4035621.000000
137.072000 69734.300000
149.034400 529842.800000
150.042000 12987111.000000
151.025800 28348.400000
152.057700 54789.600000
162.042000 19906.500000
167.082700 29313.800000
204.088900 46241.300000
209.104500 138853.100000
210.088400 335029.900000
220.083900 65465.700000
222.099700 33855.600000
232.083600 51285.100000
234.099500 18180.700000
252.110100 2695463.000000

>ms2peaks
64.006700 21034.400000
65.014500 488125.000000
65.998500 100771.000000
66.009700 204578.400000
67.030200 46614.400000
78.009800 69712.600000
79.017600 27752.200000
80.025400 18636.400000
82.041100 274894.600000
83.025200 7609.100000
90.009900 53164.500000
92.025400 7439.400000
96.020200 10615.300000
96.045400 21570.600000
105.020700 20723.700000
106.028500 809833.700000
107.012600 167672.900000
107.036300 1127877.600000
108.020300 2175317.200000
109.051900 7680.300000
110.036100 29972.800000
119.036300 8078.300000
119.061400 44061.000000
121.015500 10493.600000
124.038900 9076.300000
125.046900 453179.000000
126.030900 1236812.900000
132.031700 9903.000000
133.015600 7238388.000000
137.072000 44823.900000
149.034300 731585.100000
150.042000 6021086.000000
151.026000 95226.500000
152.057600 9700.500000
161.083200 9317.600000
162.042200 58644.500000
176.057900 8706.800000
180.078100 9905.900000
190.062200 11302.500000
204.088700 9479.200000
209.104500 31978.600000
210.088400 126439.800000
220.084000 8832.500000
252.110100 195412.100000

>ms2peaks
64.006700 48696.200000
65.014500 498570.500000
65.998500 167231.400000
66.009700 702308.500000
67.030100 47838.100000
68.025500 8572.600000
69.009500 9436.400000
71.025100 18848.100000
78.009800 188629.300000
79.017600 62049.500000
80.025400 37783.400000
81.009500 20158.600000
82.017300 32181.700000
82.041100 299510.700000
90.009800 105478.700000
92.025400 9883.600000
96.020400 9380.000000
96.045500 10804.800000
105.020700 44002.500000
106.028500 1646044.600000
107.012600 253858.500000
107.036400 914420.400000
108.020400 2191794.000000
110.036000 19183.000000
119.036300 47868.200000
119.061800 17434.800000
121.015600 27119.300000
125.046900 188692.500000
126.030900 1253576.600000
131.024100 8402.500000
132.031500 25512.200000
133.015600 6142112.500000
149.034200 404301.500000
150.042000 1556645.100000
151.025900 76885.000000
162.042200 72610.400000
210.088300 24632.000000

>ms2peaks
64.006700 95555.500000
65.014500 502568.000000
65.998500 238347.900000
66.009700 1563840.600000
67.030100 48804.000000
68.025500 15014.400000
69.009400 28290.500000
71.025000 22457.000000
78.009800 305751.600000
79.017600 139814.200000
80.025500 40122.500000
81.009400 10300.800000
82.017300 50932.600000
82.041100 222622.800000
90.009800 181746.300000
92.025400 21423.000000
96.045400 5217.400000
105.020700 64291.200000
106.028500 1775575.600000
107.012600 281444.200000
107.036300 512488.900000
108.020300 1421021.800000
109.051900 5973.800000
119.036300 102936.800000
119.061300 5560.800000
120.020200 17597.700000
121.015600 36933.900000
122.023000 7945.400000
125.046800 68889.600000
126.030900 886055.600000
131.023800 17542.600000
132.031700 35786.700000
133.015600 3634694.200000
135.031300 5931.300000
149.034200 172522.800000
150.042000 318368.600000
151.026000 47714.500000
162.042000 88135.200000

