>compound EQ75167753
>parentmass 220.9809
>ionization [M-H]-
>formula C4H6N4O3S2
>rt 144.000000
>profile orbitrap
#smiles_iso CC(=O)NC1=NN=C(S1)S(=O)(=O)N
#smiles_can CC(=O)NC1=NN=C(S1)S(=O)(=O)N
#inchikey BZKPWHYZMXOIDC-UHFFFAOYSA-N
#pubchem_id 1986
#mb_accession EQ301151,EQ301152,EQ301153,EQ301154,EQ301155,EQ301156

>ms2peaks
57.975700 7504972.900000
61.970600 215171.000000
63.962500 48255.000000
72.986600 361087.000000
77.965600 285252.900000
79.981200 2105693.200000
83.025100 14574471.000000
97.981800 21222.300000
114.997100 48306.500000
115.008500 236986.800000
115.992600 249086.400000
136.948500 74448.300000
142.008000 438266.500000
158.003100 58673.000000
178.969900 25581.900000
220.980900 21016440.600000

>ms2peaks
57.975700 9579610.900000
61.970600 442186.200000
63.962400 133665.000000
72.986600 588072.000000
77.965500 299138.200000
79.981200 3930217.000000
83.025100 21866569.300000
97.981800 29007.900000
114.997200 31487.700000
115.008400 266044.300000
115.992500 348973.700000
119.987300 25172.900000
126.031100 31386.400000
136.948400 68756.900000
142.008000 415264.000000
158.002900 25538.900000
178.970100 27038.100000
220.980900 8566757.100000

>ms2peaks
57.975700 8307529.300000
61.970600 1403209.000000
63.962400 415539.900000
66.009700 30661.600000
72.986600 564426.200000
77.965500 278703.000000
79.981200 6551736.300000
83.025100 24915587.700000
97.981900 64057.900000
115.008500 147169.000000
115.992600 212133.600000
126.031000 25944.700000
142.008000 238101.500000
220.980900 510978.900000

>ms2peaks
57.975700 8035681.400000
61.970600 2299576.800000
63.962400 742277.300000
66.009800 82730.500000
68.001600 31337.100000
72.986600 552531.400000
77.965600 282375.000000
79.981200 7177166.600000
83.025100 24927244.600000
115.008600 71244.900000
115.992500 134334.300000
142.008100 104034.500000
220.981400 81806.100000

>ms2peaks
57.975700 6847616.200000
61.970600 3830467.600000
63.962400 1402839.200000
66.009700 100488.200000
68.001600 28591.300000
72.986600 359049.300000
77.965500 246383.400000
79.981200 6160411.400000
83.025100 18703593.000000
115.992500 23372.500000
142.008600 19571.200000

>ms2peaks
57.975700 6977769.700000
61.970600 5464407.800000
63.962400 2425640.800000
66.009700 111500.800000
68.001500 90939.300000
72.986600 207078.000000
77.965500 254706.800000
79.981200 4295351.300000
83.025100 13631108.900000

