>compound EQ75735715
>parentmass 364.09729999999996
>ionization [M-H]-
>formula C16H19N3O5S
>rt 132.000000
>profile orbitrap
#smiles_iso CC1([C@@H](N2[C@H](S1)[C@@H](C2=O)NC(=O)[C@@H](C3=CC=C(C=C3)O)N)C(=O)O)C
#smiles_can CC1(C(N2C(S1)C(C2=O)NC(=O)C(C3=CC=C(C=C3)O)N)C(=O)O)C
#inchikey LSQZJLSUYDQPKJ-NJBDSQKTSA-N
#pubchem_id 33613
#mb_accession EQ308351,EQ308352,EQ308353,EQ308354,EQ308355,EQ308356

>ms2peaks
72.999100 13411.500000
74.006800 11645.200000
83.025000 17337.600000
86.007100 9011.500000
89.017900 16474.300000
93.034600 173481.100000
99.986200 27585.100000
120.045500 19299.100000
129.012900 966211.600000
132.021500 8957.700000
133.029400 39960.500000
137.006600 9647.600000
146.061300 20888.200000
162.055800 13440.400000
163.022400 20302.400000
171.059800 29679.400000
172.040400 35792.200000
189.067000 96447.900000
206.028000 1889273.000000
223.054600 4845572.400000
226.065500 42045.700000
254.069600 6212.200000
269.093200 8724.200000
303.080900 175332.300000
320.107400 287815.291500

>ms2peaks
57.975700 3092.200000
71.991300 12172.200000
72.975400 3247.500000
72.999000 21737.900000
74.007000 82607.500000
74.991000 3042.900000
83.025100 113996.200000
83.991400 26349.900000
86.007000 63104.400000
89.017900 24075.000000
93.034600 1408130.200000
95.025100 21037.400000
99.986200 171142.500000
102.002000 15614.600000
105.034200 7033.800000
111.002200 9889.800000
111.986300 33342.700000
118.030100 10942.600000
119.050100 10505.600000
120.045500 91081.800000
123.045200 32160.500000
123.998800 5263.000000
125.006700 9610.100000
129.012900 2143257.900000
132.021600 50888.300000
133.029400 229333.300000
137.006600 55553.300000
144.045400 7344.000000
145.029500 7984.800000
146.061100 124544.300000
148.040600 10876.700000
151.022200 26096.600000
160.040200 2374.900000
162.056000 31092.400000
163.022400 137271.200000
163.993900 5389.900000
171.059700 25857.400000
172.040400 230248.800000
178.033200 34834.900000
181.044000 14657.000000
188.017700 19320.600000
189.066900 142608.100000
206.028000 2106164.700000
223.054600 499454.600000
226.065100 6278.700000
226.087100 5708.000000
254.069500 5533.000000
269.093000 6335.200000
303.081100 10864.600000

>ms2peaks
56.980500 3562.100000
57.975700 5446.500000
58.996100 2309.500000
65.039700 2004.400000
70.983500 2465.800000
71.991300 38117.000000
72.975400 13888.200000
72.999100 113618.500000
74.007000 237375.500000
74.991000 10840.800000
83.025100 351619.000000
83.991300 85045.900000
86.007000 151383.600000
89.017800 12486.800000
93.034600 1867190.900000
95.025100 41093.600000
95.050200 9677.800000
99.986300 240791.000000
102.001900 46371.200000
111.002300 21025.400000
111.986300 51894.100000
117.034600 2452.600000
118.029900 21727.500000
119.050300 46324.900000
120.045500 145824.900000
121.029500 3532.200000
123.045200 212883.200000
123.998800 3120.200000
125.006700 14809.700000
129.012900 1251554.400000
132.021600 197716.800000
133.029500 632224.900000
134.060900 2008.300000
137.006600 77405.100000
144.045400 33529.400000
145.029400 9994.700000
146.061100 118349.200000
147.032400 6446.800000
148.040400 9432.600000
150.014400 2821.900000
150.055900 5786.600000
151.022200 60509.200000
160.040200 7738.300000
162.001900 13172.600000
162.056000 19424.000000
163.022300 93588.800000
163.993800 3323.200000
171.060200 2579.800000
172.040400 265173.300000
173.047900 5761.300000
178.032900 24730.300000
188.017700 29681.600000
189.067000 31165.800000
206.028000 308772.900000
223.054400 12312.400000
254.070200 1953.100000

>ms2peaks
56.980400 8917.100000
58.996100 7320.400000
60.975300 3445.800000
65.039700 2876.700000
67.030200 2205.900000
71.991300 69869.800000
72.975300 13924.300000
72.999200 203533.300000
74.007000 368983.200000
74.991000 24430.900000
77.039600 1680.700000
83.025100 449422.500000
83.991300 97968.100000
86.007000 143807.900000
89.017800 7689.200000
93.034600 1620362.000000
95.025100 39752.800000
95.050200 27790.000000
99.986300 213832.300000
102.001900 47703.600000
105.034600 2965.900000
111.002300 23760.200000
111.986300 42087.900000
117.034600 11144.600000
118.030000 32357.400000
119.050300 77216.900000
120.045500 170210.100000
121.029400 2288.900000
123.045200 489806.000000
123.998700 2668.300000
125.006700 11793.200000
129.012900 654660.000000
131.037700 5316.700000
132.021700 256635.700000
133.029500 643359.400000
134.060900 3186.500000
137.006600 70145.400000
144.045400 50242.500000
145.029600 10694.400000
146.024900 7851.100000
146.061100 89900.300000
147.032400 3244.700000
148.040500 8138.300000
150.014400 7130.400000
150.056000 2075.200000
151.022200 65515.100000
160.040700 5312.700000
162.001800 27712.600000
162.056200 11614.000000
163.022300 57692.600000
172.040400 173308.800000
173.047900 7376.100000
178.032700 10232.600000
188.017600 20785.900000
189.066800 2954.900000
206.028100 66473.600000

>ms2peaks
56.980400 15459.200000
57.975600 2302.900000
58.996000 9732.500000
59.991300 1759.800000
60.975300 2781.300000
65.039700 2139.500000
67.030100 2788.300000
70.983500 3130.100000
71.991300 141218.000000
72.999200 276899.400000
74.007000 407464.100000
74.991000 32199.400000
77.039700 8218.200000
82.017100 1766.900000
83.025100 429473.800000
83.991300 85448.700000
84.999100 2589.800000
86.007000 86551.900000
89.017800 6839.000000
93.034600 1204328.000000
95.025100 33973.200000
95.050200 105152.000000
99.986300 122918.500000
102.001900 33125.500000
105.034500 15226.600000
108.021600 2240.300000
111.002300 17330.400000
111.986300 20311.900000
117.034600 18703.100000
118.029900 33056.600000
119.050200 103524.300000
120.045500 177860.100000
121.029500 2207.900000
123.045200 849951.900000
123.998800 3212.400000
125.006600 11228.000000
129.012800 169154.000000
129.034600 27671.700000
130.030000 1478.800000
131.037700 6515.500000
132.021600 238170.100000
133.029500 353328.100000
134.060900 2419.100000
137.006600 54359.600000
144.045400 63426.500000
145.029400 8497.000000
146.024800 5992.400000
146.061200 36291.800000
147.032300 2193.500000
150.014400 9382.200000
151.022200 44664.200000
162.001900 27100.900000
162.056100 2191.400000
163.022400 18123.700000
172.040400 64907.200000
173.048400 1888.700000
188.017200 3981.300000
206.028500 2295.400000

>ms2peaks
56.980400 23101.000000
58.996100 18280.600000
59.991500 1509.700000
60.975400 5380.400000
65.039700 8065.600000
67.030200 5387.600000
70.983600 4971.300000
71.991300 191236.900000
72.999200 250318.400000
74.007000 377099.600000
74.991000 27444.600000
77.039700 16934.500000
82.017300 2163.200000
83.025100 287474.900000
83.991300 53973.900000
84.999100 1726.100000
86.007000 39247.400000
89.017900 1453.600000
93.034600 991653.900000
95.025000 20195.000000
95.050200 193098.100000
99.986300 68576.400000
102.002000 15554.100000
105.034600 21606.100000
108.021700 2284.800000
111.002100 8484.700000
111.986300 13050.400000
117.034700 22474.600000
118.030000 60106.400000
119.050200 113176.400000
120.045500 155595.500000
121.029500 8416.000000
123.045200 776519.000000
123.998700 3027.600000
125.006300 2366.600000
129.012900 40296.300000
129.034600 25010.200000
130.030000 2792.300000
131.037700 7142.900000
132.021700 163084.000000
133.029500 108560.100000
137.006700 51015.500000
144.045400 69240.800000
145.029400 5307.600000
146.024700 6443.500000
146.061200 13992.700000
147.032400 1723.700000
150.014500 9628.300000
151.022200 22171.800000
162.001900 13257.100000
163.022500 3317.400000
172.040400 17162.900000

