>compound EQ76072219
>parentmass 310.1813
>ionization [M-H]-
>formula C20H25NO2
>rt 492.000000
>profile orbitrap
#smiles_iso C[C@]12CCC3=C4CCC(=O)C=C4CC[C@H]3[C@@H]1CC[C@]2(CC#N)O
#smiles_can CC12CCC3=C4CCC(=O)C=C4CCC3C1CCC2(CC#N)O
#inchikey AZFLJNIPTRTECV-FUMNGEBKSA-N
#pubchem_id 68861
#mb_accession EQ328451,EQ328452,EQ328453,EQ328454,EQ328455,EQ328456

>ms2
173.096900 8927.000000
269.154700 25123.900000
292.170900 363193.600000
310.181400 1781158.500000

>ms2
66.035000 2625.800000
80.050600 7853.300000
130.017300 2815.300000
131.013600 2607.300000
132.082000 16117.800000
159.081500 7152.300000
161.097100 3011.700000
173.097100 79487.300000
199.112600 5911.000000
211.112900 2513.200000
213.128400 1524.800000
225.128300 7954.700000
249.128400 2585.900000
251.144300 11518.700000
264.139600 2662.500000
267.139000 1496.400000
269.155000 65646.600000
276.139700 7912.100000
290.155300 11399.000000
292.170800 1288416.400000
310.181500 547144.400000

>ms2
66.035000 8373.700000
80.050700 11471.600000
106.066500 4172.600000
109.066000 4309.400000
130.017500 1124.700000
130.066100 4558.600000
131.013700 981.300000
131.086700 1464.700000
132.082000 45542.400000
144.082100 1281.900000
145.065900 4647.200000
147.081600 2611.000000
155.086600 1233.900000
157.065800 841.700000
159.081600 22234.200000
161.097300 10826.300000
171.081700 5038.600000
173.097100 250379.200000
184.089700 1395.500000
197.097700 952.600000
199.113100 7618.600000
211.113200 4117.400000
212.120600 1447.700000
213.128600 12588.700000
223.112700 2603.100000
225.128600 15121.400000
227.144100 1460.600000
239.143900 965.100000
249.128500 5719.400000
251.144400 9055.100000
262.123600 4887.700000
263.132000 8821.300000
264.139200 5129.800000
265.160100 908.300000
267.139200 4830.300000
269.154900 38381.200000
274.123500 5620.900000
275.132000 2388.800000
276.139500 16556.400000
277.147000 1399.700000
290.155400 29864.300000
292.170900 770139.700000
310.181500 30445.900000

>ms2
57.034600 494.300000
64.019300 682.300000
66.035000 13187.300000
69.034700 781.100000
80.050600 7703.600000
92.050600 1251.500000
93.034700 814.700000
95.050600 634.200000
106.066400 5333.800000
109.065900 5766.300000
117.071200 3403.800000
118.066600 2392.200000
119.050400 1174.700000
130.017200 702.800000
130.066300 7449.300000
131.050500 753.200000
131.086600 9166.400000
132.082000 42440.000000
141.071300 634.900000
143.050200 2563.300000
144.081600 753.400000
145.065900 9495.200000
147.081900 5856.400000
155.086800 4821.000000
157.065900 3948.600000
158.073700 2487.200000
159.081600 21844.200000
161.097300 11254.200000
171.081700 22578.000000
172.089500 717.400000
173.097200 247027.200000
184.089400 6155.100000
197.097600 3033.800000
199.112900 3963.600000
209.097700 1003.100000
211.113000 6173.300000
212.120800 2105.400000
213.128600 8841.700000
223.113000 3911.700000
225.128700 10368.800000
227.144600 4290.200000
235.112500 1222.500000
237.128900 1252.900000
239.144200 917.800000
249.128300 4093.600000
251.144500 3423.600000
260.108400 882.500000
262.124100 7743.800000
263.131500 3287.600000
264.139600 3764.100000
265.160500 1059.200000
267.139600 1135.900000
269.154900 11474.200000
274.124100 9324.100000
275.132000 2554.300000
276.139400 16241.200000
290.155300 16717.100000
292.170900 136600.100000

>ms2
57.034700 654.000000
64.019300 1140.100000
66.035000 10804.400000
69.034800 742.600000
80.050700 5698.800000
91.055400 1264.500000
92.050600 776.300000
93.034800 2296.200000
95.050200 593.700000
103.055500 576.900000
106.066400 2895.400000
107.050400 762.200000
109.066000 3970.800000
115.055600 588.600000
117.071100 3720.100000
118.066300 881.800000
119.050400 4134.800000
129.071000 2101.300000
130.042500 2616.200000
130.066300 6892.000000
131.050100 792.100000
131.086700 14322.700000
132.082000 25667.400000
141.071100 776.000000
143.050200 7007.900000
143.086700 1156.400000
145.065900 11603.700000
147.081500 4898.500000
155.086600 5409.800000
156.058100 2230.100000
157.066000 9610.400000
158.073800 5494.900000
159.081600 18274.100000
161.097400 6920.300000
169.066000 2643.500000
171.081700 32002.700000
172.089600 1278.100000
173.097200 119814.500000
183.082200 720.600000
184.089600 3064.100000
195.081900 2204.000000
197.097300 5577.500000
199.112800 899.600000
209.097500 2619.500000
211.112900 6277.500000
213.128800 2816.200000
221.097700 734.600000
223.113000 4016.700000
225.128800 3408.300000
227.144400 907.100000
235.113400 2151.000000
249.128600 2162.500000
253.123000 600.200000
260.108800 811.400000
262.123700 4358.900000
263.132200 562.100000
267.138100 617.100000
269.155000 1111.200000
272.109100 739.000000
274.124000 10769.900000
275.131000 853.700000
276.139500 6110.200000
290.155000 4256.100000
292.171100 8928.500000

>ms2
64.019300 2323.700000
66.035000 8442.500000
69.034700 823.000000
78.035100 897.900000
80.050700 2653.700000
91.055500 1091.900000
92.050600 1049.000000
93.034700 2698.900000
95.050300 825.900000
106.066300 2014.500000
107.050400 925.800000
109.066000 2247.400000
115.055300 882.000000
116.050800 950.300000
117.071200 2149.000000
119.050400 4112.700000
121.029400 842.900000
129.071200 2679.300000
130.042400 2563.400000
130.066300 5482.300000
131.050100 550.900000
131.086700 8091.200000
132.058300 657.000000
132.082000 10064.200000
143.050300 12013.700000
143.086800 833.700000
145.066000 10963.300000
145.102400 2154.400000
155.086700 3831.400000
156.058200 3335.900000
157.065900 14713.900000
158.073600 2815.400000
159.081600 9746.600000
161.097200 2574.700000
169.065900 6873.700000
171.081700 23244.800000
172.089100 593.300000
173.097200 35156.200000
183.081900 693.300000
195.081800 2361.400000
197.097000 3460.000000
209.097200 2190.900000
211.112700 2102.600000
223.113300 2657.100000
225.128800 2283.100000
235.112800 698.700000
237.129200 605.200000
253.123800 836.600000
272.107200 609.700000
274.124000 8959.300000
276.139200 2585.900000

