>compound EQ76214242
>parentmass 357.17069999999995
>ionization [M-H]-
>formula C21H26O5
>rt 450.000000
>profile orbitrap
#smiles_iso C[C@]12CC(=O)[C@H]3[C@H]([C@@H]1CC[C@@]2(C(=O)CO)O)CCC4=CC(=O)C=C[C@]34C
#smiles_can CC12CC(=O)C3C(C1CCC2(C(=O)CO)O)CCC4=CC(=O)C=CC34C
#inchikey XOFYZVNMUHMLCC-ZPOLXVRWSA-N
#pubchem_id 5865
#mb_accession EQ324351,EQ324355,EQ324356

>ms2peaks
122.037100 554.600000
123.045200 71260.600000
125.060700 14405.300000
137.060600 905.300000
145.065700 726.000000
149.060400 1075.700000
201.092600 3935.000000

>ms2peaks
57.034500 12276.400000
59.013800 539.400000
69.034600 1031.200000
79.055400 2331.500000
80.026800 1395.400000
81.034700 1234.300000
83.050400 1404.400000
91.055300 843.600000
93.034600 1046.600000
93.071100 705.700000
95.050200 14268.300000
97.066000 9298.500000
105.071000 754.800000
106.042500 1384.500000
107.050300 20928.500000
108.021600 8617.800000
109.029500 1636.700000
109.065900 5919.700000
119.050000 4655.100000
120.058200 3776.900000
121.029600 2839.700000
121.065900 36876.700000
122.037400 30616.200000
123.045200 88386.000000
123.081600 13667.800000
124.016600 722.100000
125.060700 5873.200000
130.042400 9249.700000
131.050300 846.900000
133.065900 14477.700000
134.037200 1388.100000
135.045200 21283.400000
135.081600 12998.400000
136.053100 8367.200000
137.060800 15818.200000
143.049900 4064.100000
144.057900 937.300000
145.065900 12614.400000
147.045000 2262.700000
147.081400 878.000000
148.053200 1198.200000
149.060600 60639.900000
151.076400 9102.900000
154.027000 705.900000
157.065600 1407.500000
159.044800 1296.700000
159.081500 1057.300000
161.060700 783.300000
162.068600 4046.300000
163.076300 817.400000
185.061000 728.700000
187.076400 2521.700000

>ms2peaks
57.034500 9261.000000
65.039700 694.900000
79.055400 3313.900000
80.026800 1105.300000
81.034600 2237.700000
83.050400 592.500000
85.029400 989.100000
93.034500 1351.400000
95.050300 10307.800000
97.065900 4127.400000
106.042400 3459.100000
107.050200 16326.700000
108.021700 12550.200000
109.029500 1223.600000
109.065900 3463.300000
119.050300 6480.100000
120.058000 829.800000
121.029400 3887.700000
121.065900 27905.100000
122.037400 31751.100000
123.045200 54482.200000
123.081600 10100.100000
130.042500 10386.900000
131.050200 2874.400000
133.066000 12119.900000
134.037300 5640.300000
135.045300 13525.400000
135.081500 6455.200000
136.052600 4192.500000
137.060700 5594.100000
143.050200 6414.200000
144.057900 827.200000
145.065700 7381.800000
146.037200 975.700000
147.045100 3139.800000
147.081500 616.700000
148.052900 4177.000000
149.060700 36135.300000
151.076200 3234.100000
154.027600 656.100000
157.065700 2142.400000
159.045000 2151.600000
159.081200 578.600000
163.076800 811.000000
172.052600 750.900000
185.060300 2312.000000
187.076600 871.900000

