>compound EQ78439674
>parentmass 256.0939
>ionization [M-H]-
>formula C10H15N3O5
>rt 48.000000
>profile orbitrap
#smiles_iso C1=CC(=C(C(=C1CNNC(=O)C(CO)N)O)O)O
#smiles_can C1=CC(=C(C(=C1CNNC(=O)C(CO)N)O)O)O
#inchikey BNQDCRGUHNALGH-UHFFFAOYSA-N
#pubchem_id 2327
#mb_accession EQ285351,EQ285352,EQ285353,EQ285354,EQ285355,EQ285356

>ms2
71.025000 7679.100000
86.036000 52461.500000
88.051600 80403.500000
109.029500 63381.900000
118.062300 940736.900000
125.024400 62465.200000
137.024300 1674129.300000
256.093700 40641.800000

>ms2
71.025100 24516.400000
86.036000 144432.500000
88.051600 222010.900000
109.029500 183953.900000
118.062300 841913.100000
125.024400 49793.600000
128.035100 1786.100000
137.024400 1405580.900000

>ms2
71.025100 65748.900000
74.024800 737.900000
81.034500 2786.400000
86.036000 195117.400000
88.051600 368398.600000
109.029500 549999.500000
118.062300 297806.600000
125.024400 38281.900000
128.035400 1456.600000
137.024300 719720.900000

>ms2
55.018700 1074.800000
65.039700 3734.700000
71.025100 96230.700000
81.034500 6322.400000
86.036000 162655.700000
88.051600 348199.800000
109.029500 739420.700000
118.062300 128134.900000
125.024400 34579.900000
128.035400 1024.500000
137.024300 382317.700000

>ms2
55.018800 2777.900000
65.039700 5521.100000
69.034600 1141.900000
71.025000 149138.100000
74.024700 816.200000
81.034500 17552.600000
86.036000 91607.000000
88.051600 234657.000000
97.029500 1116.700000
109.029500 773444.100000
118.062200 26572.500000
125.024400 22074.600000
137.024300 127590.300000

>ms2
55.018800 8087.100000
65.039700 6255.000000
69.034600 1175.100000
71.025100 104298.000000
81.034500 20234.800000
86.035900 24508.700000
88.051600 98861.200000
97.029500 2363.500000
109.029500 467506.700000
118.062300 5371.800000
125.024400 10104.400000
137.024300 22116.200000

