>compound EQ79372036
>parentmass 310.0519
>ionization [M-H]-
>formula C14H15Cl2N3O
>rt 732.000000
>profile orbitrap
#smiles_iso C1CC1(C(CC2=CC=CC=C2Cl)(CN3C=NC=N3)O)Cl
#smiles_can C1CC1(C(CC2=CC=CC=C2Cl)(CN3C=NC=N3)O)Cl
#inchikey HHUQPWODPBDTLI-UHFFFAOYSA-N
#pubchem_id 119361
#mb_accession EQ317651,EQ317652,EQ317653,EQ317654,EQ317655,EQ317656

>ms2peaks
68.025300 602.800000
125.016500 4195.800000
130.017000 877.700000
131.013500 944.500000
148.051500 910.500000
184.028300 9231.600000

>ms2peaks
68.025400 1975.700000
125.016300 8862.700000
130.017100 2584.800000
148.051500 2855.700000
151.040000 664.900000
151.076200 2868.600000
152.084200 3273.600000
163.987400 1911.200000
184.028200 4414.900000

>ms2peaks
68.025400 7714.900000
97.065700 812.600000
125.016200 7189.700000
130.017100 3024.700000
131.013500 2762.300000
148.051500 2477.100000
151.039900 3071.700000
151.076300 6062.400000
162.100200 1139.400000
163.987400 736.100000

>ms2peaks
68.025400 9394.600000
95.013600 795.700000
97.065700 690.000000
125.016300 3060.000000
130.017200 1053.400000
131.013700 1605.500000
151.039900 3139.200000
151.076500 3864.700000
152.084700 1246.800000
162.100100 803.000000

>ms2peaks
68.025400 12468.900000
68.027100 645.100000
95.013800 750.100000
125.016100 722.100000
130.017400 570.000000
151.040000 3830.100000
151.076300 685.500000

>ms2peaks
68.025400 11579.900000
68.027100 621.100000
95.013800 2521.600000
151.039900 802.000000
151.076300 722.800000

