>compound EQ80298289
>parentmass 337.0055
>ionization [M-H]-
>formula C14H11ClN2O4S
>rt 324.000000
>profile orbitrap
#smiles_iso C1=CC=C2C(=C1)C(=O)NC2(C3=CC(=C(C=C3)Cl)S(=O)(=O)N)O
#smiles_can C1=CC=C2C(=C1)C(=O)NC2(C3=CC(=C(C=C3)Cl)S(=O)(=O)N)O
#inchikey JIVPVXMEBJLZRO-UHFFFAOYSA-N
#pubchem_id 2732
#mb_accession EQ313451,EQ313452,EQ313453,EQ313454,EQ313455,EQ313456

>ms2
61.970700 65504.500000
77.965500 114944.500000
79.981100 543778.300000
126.011400 154874.500000
146.024800 10408101.400000
153.996900 110207.700000
189.973600 13274376.700000
233.963100 70276.300000
256.017100 571535.000000
283.018600 358052.300000
284.002500 35274.100000
294.000000 152611.400000
301.028400 387984.400000
301.968500 414898.900000
318.994700 4317761.300000
319.979200 535212.300000
337.005500 28405895.700000

>ms2
57.975700 109298.700000
61.970600 352309.400000
63.962500 98195.500000
77.965500 444440.600000
79.981200 3683517.600000
90.034900 234792.600000
91.019000 116672.800000
97.947300 109503.400000
98.931300 59728.300000
105.022000 34007.000000
106.029800 27399.700000
108.021600 240078.400000
120.045400 110359.900000
122.024800 61107.600000
125.987900 224329.600000
126.011600 969400.800000
126.995600 391927.200000
146.024800 20724192.600000
153.996800 1115559.600000
164.035300 32412.700000
173.954700 82007.500000
189.973600 18943098.200000
191.061700 22684.700000
194.061200 89023.400000
210.056000 31958.000000
219.056400 390733.600000
222.056100 22711.600000
228.022200 32797.300000
230.037700 73551.000000
233.963400 123871.400000
235.051200 262691.400000
237.066600 24435.200000
255.033400 252984.500000
256.017200 574761.300000
258.022000 209772.500000
283.018100 3043857.400000
284.002000 56489.100000
294.000000 180796.800000
301.028700 299103.000000
301.968300 368480.500000
302.976800 32589.400000
318.994700 2433195.000000
319.978700 58992.900000
320.986600 172184.300000
337.005400 686059.200000

>ms2
57.975700 112298.600000
61.970600 1454292.600000
63.962400 325048.900000
65.998400 25700.300000
77.965500 1393268.500000
79.981200 9734362.400000
90.034900 731560.000000
91.019000 411084.000000
97.947300 89602.700000
98.007200 28031.500000
98.931300 30332.500000
105.022100 106709.200000
106.029800 107123.100000
108.021700 307709.300000
115.030300 28678.800000
120.045600 115125.900000
122.024900 113706.400000
125.987800 286532.900000
126.011600 1069613.300000
126.995700 365216.500000
146.024800 17854644.000000
153.996900 1706914.800000
164.035600 25975.400000
166.066000 76319.700000
173.954700 110006.400000
189.973600 3705150.000000
191.061400 59888.400000
192.045500 87515.600000
193.040700 26332.400000
194.061100 252529.700000
207.056600 125672.200000
210.056300 70727.300000
219.056300 951446.000000
220.040500 229310.500000
222.056200 26736.100000
228.022100 85640.000000
230.037700 21821.800000
235.051300 899625.800000
237.067400 20038.600000
255.023400 77342.100000
255.033800 59101.900000
256.017500 209339.700000
258.022900 171114.100000
283.018200 1107991.900000
301.968600 69023.200000
302.977000 32876.200000
318.994800 98566.600000
320.987000 18478.300000

>ms2
57.975700 83162.000000
61.970600 2346298.500000
63.962400 618296.400000
77.965500 2167928.600000
78.973300 55763.400000
79.981200 11981375.700000
90.035000 1059776.900000
91.019000 446259.400000
97.947400 18143.000000
98.006900 28358.500000
102.035000 21624.300000
105.022100 78403.400000
106.029900 60405.400000
108.021700 251980.500000
115.030300 119151.000000
120.045400 33718.000000
122.024900 109571.900000
124.040400 28322.700000
125.987900 220740.900000
126.011600 630348.100000
126.995700 238165.000000
135.985900 23865.700000
146.024800 17840778.500000
153.996900 1496654.900000
164.035700 23000.300000
166.066000 66474.100000
173.954800 121478.000000
189.973600 1007637.300000
190.053500 153225.600000
191.061900 86464.000000
192.045700 145996.600000
193.041400 30097.300000
194.061300 253696.400000
207.056400 140905.900000
210.055600 33186.200000
219.056300 798859.700000
220.040300 256888.500000
228.022400 61331.200000
235.051400 616176.300000
255.023300 33936.300000
256.017400 56935.600000
258.023100 59464.800000
283.018100 216731.100000

>ms2
57.975700 107179.600000
61.970600 4170789.800000
63.024000 14914.300000
63.962400 1280549.300000
65.998600 28536.000000
75.024100 27451.200000
77.965600 3017398.900000
78.973400 62380.100000
79.981200 11215900.300000
89.027000 17893.600000
90.035000 1041651.900000
91.019000 385265.700000
92.014300 20497.300000
102.034900 25606.400000
105.021900 99116.600000
106.029900 32124.700000
108.021700 119462.300000
115.030300 365390.400000
120.045500 25965.800000
125.987800 99860.100000
126.011600 196931.700000
126.995800 100654.500000
135.986200 13562.300000
146.024800 11762111.400000
153.996900 819262.500000
164.051100 17581.500000
166.066400 71437.600000
173.954500 26433.900000
189.973900 81432.800000
190.054000 75630.800000
191.061600 117107.800000
192.045400 135257.500000
193.040700 17269.700000
194.061200 162132.500000
207.056600 27864.900000
219.056400 401551.100000
220.040600 265439.300000
235.051200 121188.600000

>ms2
57.975700 67850.400000
61.970600 6461911.700000
63.024100 22730.300000
63.962400 2383218.200000
75.024000 61782.600000
77.965600 3976607.200000
78.973400 105498.500000
79.981200 8807351.600000
89.027200 96167.100000
90.035000 722236.500000
91.019000 256404.300000
102.034900 19516.200000
105.022100 71372.300000
106.030000 14239.400000
108.021800 64052.500000
115.030300 527034.600000
122.025000 21291.600000
125.987900 19009.500000
126.011800 31892.500000
126.995800 34481.200000
146.024800 6562060.100000
153.996900 386112.800000
164.051000 18642.300000
166.065900 20586.400000
190.053900 86382.300000
191.061400 60564.300000
192.045500 82124.100000
194.061200 90605.800000
219.056300 84993.000000
220.040400 264171.400000

