>compound EQ81265992
>parentmass 262.0463
>ionization [M-H]-
>formula C14H14ClNS
>rt 930.000000
>profile orbitrap
#smiles_iso C1CN(CC2=C1SC=C2)CC3=CC=CC=C3Cl
#smiles_can C1CN(CC2=C1SC=C2)CC3=CC=CC=C3Cl
#inchikey PHWBOXQYWZNQIN-UHFFFAOYSA-N
#pubchem_id 5472
#mb_accession EQ302951,EQ302952,EQ302953

>ms2peaks
130.017200 947467.200000
148.027700 1500.900000
174.024000 14837.600000
188.039900 11995.600000
244.027500 299710.900000

>ms2peaks
130.017200 1394962.700000
148.027700 3921.400000
174.023900 2178.500000
188.039700 5715.700000
216.038300 9453.000000
244.027400 253144.200000

>ms2peaks
129.032900 1637.700000
130.017200 1070570.800000
148.027700 8096.800000
174.023500 1097.800000
216.038300 1495.200000
244.027400 74511.700000

