>compound EQ85013721
>parentmass 283.9572
>ionization [M-H]-
>formula C6H8ClN3O4S2
>rt 102.000000
>profile orbitrap
#smiles_iso C1=C(C(=CC(=C1Cl)S(=O)(=O)N)S(=O)(=O)N)N
#smiles_can C1=C(C(=CC(=C1Cl)S(=O)(=O)N)S(=O)(=O)N)N
#inchikey IHJCXVZDYSXXFT-UHFFFAOYSA-N
#pubchem_id 67136
#mb_accession EQ325751,EQ325752

>ms2peaks
61.970600 1031.000000
77.965500 62652.900000
79.981200 3747.800000
120.056900 7833.900000
136.051400 8787.800000
138.002000 5417.300000
169.007500 6090.900000
204.984200 2406.500000

>ms2peaks
61.970600 9493.200000
63.962400 7760.900000
67.030300 1195.200000
77.965500 516076.900000
78.973400 4701.100000
79.981200 46021.900000
90.034900 4281.100000
92.050600 3883.500000
93.045800 3932.700000
105.022000 5309.900000
105.045900 6226.300000
110.991000 4338.900000
120.056700 78824.700000
120.999200 1435.800000
121.040700 10329.800000
123.995900 5351.200000
136.051600 63311.500000
138.001900 69493.900000
153.996800 11760.600000
156.012500 1401.700000
165.984100 1794.900000
167.999700 1646.700000
169.007700 60749.100000
182.987000 8673.100000
183.010800 1727.200000
184.018700 15428.700000
200.013900 5504.700000
204.984300 24401.900000

