>compound EQ85018579
>parentmass 235.0837
>ionization [M-H]-
>formula C10H12N4O3
>rt 138.000000
>profile orbitrap
#smiles_iso C1C[C@@H](O[C@@H]1CO)N2C=NC3=C2N=CNC3=O
#smiles_can C1CC(OC1CO)N2C=NC3=C2N=CNC3=O
#inchikey BXZVVICBKDXVGW-NKWVEPMBSA-N
#pubchem_id 135398739
#mb_accession EQ313551,EQ313552,EQ313553,EQ313554,EQ313555,EQ313556

>ms2peaks
92.025400 30058.000000
134.022900 77653.200000
135.031300 1467755.900000
175.062400 76818.700000
233.068100 42143.500000
235.083600 15201207.700000

>ms2peaks
92.025400 50504.100000
108.020100 32041.700000
126.031000 22128.300000
132.056800 46699.900000
134.023300 184434.900000
135.031300 4781591.200000
175.062400 294107.200000
192.077900 58691.100000
217.072800 29784.600000
233.068100 96071.500000
235.083600 11958873.900000

>ms2peaks
65.014600 17384.100000
65.998500 19857.400000
92.025400 246364.100000
105.045900 28483.900000
108.020300 94083.300000
126.030900 118938.700000
132.056800 226573.700000
134.023600 858666.700000
135.031300 10679473.900000
148.051500 25181.900000
161.047000 13850.100000
175.062400 655946.900000
187.062700 19050.100000
192.078100 68678.800000
217.072700 23846.300000
233.068000 138455.400000
235.083600 3256943.900000

>ms2peaks
65.014500 39756.800000
65.998300 36630.300000
92.025400 634067.700000
105.045800 44554.400000
108.020300 286526.900000
126.030900 326891.900000
131.048900 13714.200000
132.056800 380046.600000
134.023700 1632293.500000
135.031300 11946859.300000
148.051600 39750.700000
174.054600 19196.800000
175.062400 543555.100000
192.078200 40742.500000
217.073000 17289.300000
233.067800 100438.700000
235.083600 997482.900000

>ms2peaks
64.006700 17875.800000
65.014500 85496.300000
65.998400 71461.900000
66.009800 12637.700000
79.017600 13366.000000
82.041100 24418.800000
92.025400 1338360.800000
105.045800 76615.700000
106.028600 51810.700000
107.012600 34171.700000
108.020400 702078.800000
118.041200 20029.700000
126.030900 826651.000000
131.049000 39151.700000
132.056800 408229.400000
133.015600 14612.100000
133.028300 25793.000000
134.023600 2335382.400000
135.031200 8479660.700000
145.052000 16211.400000
148.051500 45754.800000
159.031100 18228.900000
161.047000 16291.200000
173.046700 21596.700000
175.062400 221202.000000
233.068100 20551.400000
235.083700 91816.300000

>ms2peaks
64.006700 29277.300000
65.014500 201295.600000
65.998500 162268.000000
66.009800 39034.600000
71.025100 19562.200000
79.017700 35666.300000
80.025400 17329.200000
82.041100 37244.600000
92.025500 1921388.900000
105.033300 28440.500000
105.045900 51612.100000
106.028600 125383.800000
107.012600 96057.400000
107.036200 6762.600000
108.020400 1150968.900000
118.041200 19710.200000
126.030900 1360618.800000
131.049000 70359.600000
132.056800 283695.400000
133.015600 22348.100000
133.028300 32576.900000
134.023600 2442746.500000
135.031300 5355677.400000
145.052100 31034.000000
147.031100 20942.900000
148.051700 28946.000000
159.031400 17405.400000
161.047100 13944.600000
173.046700 31721.800000
175.062600 46536.400000

