>compound EQ86392039
>parentmass 324.9787999999999
>ionization [M-H]-
>formula C13H8Cl2N2O4
>rt 936.000000
>profile orbitrap
#smiles_iso C1=CC(=C(C=C1[N+](=O)[O-])Cl)NC(=O)C2=C(C=CC(=C2)Cl)O
#smiles_can C1=CC(=C(C=C1[N+](=O)[O-])Cl)NC(=O)C2=C(C=CC(=C2)Cl)O
#inchikey RJMUSRYZPJIFPJ-UHFFFAOYSA-N
#pubchem_id 4477
#mb_accession EQ332051,EQ332052,EQ332053,EQ332054,EQ332055,EQ332056

>ms2peaks
170.996500 8140728.500000
171.981000 196123.400000
289.002300 30664266.000000
324.979000 128906368.000000

>ms2peaks
80.046200 118215.400000
105.022100 105727.000000
126.995700 103265.400000
135.020000 315817.200000
140.998700 83165.600000
151.990800 457166.500000
170.996800 71373464.000000
171.980900 552430.100000
179.009800 1030843.400000
215.014400 1039591.300000
216.009800 252280.600000
223.027600 619913.300000
228.010100 115903.600000
231.009500 467755.400000
243.009300 890297.100000
245.012700 445051.100000
257.996300 117403.200000
259.004300 383412.500000
289.002300 66365776.000000
324.979100 16652011.000000

>ms2peaks
105.022100 1017206.800000
126.995600 368261.600000
135.020200 3323443.000000
140.998800 960596.400000
151.991000 780214.800000
170.996800 131928104.000000
171.980700 446148.100000
179.009900 4636109.500000
201.993900 147552.000000
215.014500 1917234.400000
223.027800 1371510.800000
231.009400 1923946.000000
243.009300 2438349.000000
245.012400 301625.200000
257.996500 491557.300000
259.004300 1795257.000000
289.002300 15238372.000000
324.979200 146062.000000

>ms2peaks
89.027200 112781.200000
105.022100 6350967.000000
135.020100 15041470.000000
140.998800 2875785.200000
149.011900 600938.400000
151.991000 2092217.600000
170.996800 108511104.000000
171.980600 234050.700000
179.009900 4364042.000000
215.014700 568104.600000
223.027900 277730.500000
231.009300 657275.900000
243.009300 2015005.800000
257.996400 289802.800000
259.003800 820862.100000
289.002300 1330173.100000

>ms2peaks
65.998700 89727.000000
88.019400 293418.100000
89.027200 340133.400000
105.022100 14306193.000000
121.017000 451283.900000
135.020100 21361958.000000
140.998800 2477305.000000
149.011900 757091.600000
151.990900 3574280.800000
170.996800 47235272.000000
179.009900 1907831.000000
215.014700 252623.900000
231.009600 76039.400000
243.010000 426295.300000

>ms2peaks
65.998600 338586.100000
88.019300 478663.900000
89.027200 805636.900000
105.022100 19548408.000000
116.014100 391208.200000
120.009100 102367.300000
121.017000 378988.800000
133.016900 86670.200000
135.020200 15763929.000000
140.998900 1223514.900000
149.011800 371222.900000
151.990900 3463741.000000
170.996800 14905407.000000
179.009900 308876.800000

