>compound EQ86296724
>parentmass 550.3862
>ionization [M-H]-
>formula C30H53N3O6
>rt 576.000000
>profile orbitrap
#smiles_iso CC(C)[C@@H](CC1=CC(=C(C=C1)OC)OCCCOC)C[C@@H]([C@H](C[C@@H](C(C)C)C(=O)NCC(C)(C)C(=O)N)O)N
#smiles_can CC(C)C(CC1=CC(=C(C=C1)OC)OCCCOC)CC(C(CC(C(C)C)C(=O)NCC(C)(C)C(=O)N)O)N
#inchikey UXOWGYHJODZGMF-QORCZRPOSA-N
#pubchem_id 5493444
#mb_accession EQ312351,EQ312352,EQ312353,EQ312354,EQ312355,EQ312356

>ms2
57.034700 5121.300000
84.045500 1261.000000
86.061200 21625.300000
115.087800 259351.900000
194.094800 1039.600000
213.161300 994.700000
362.233900 5553.400000
434.291700 3925.000000
460.318100 1884.500000
478.327700 12758.300000
532.376800 13890.700000
550.385900 281071.200000

>ms2
57.034600 62048.400000
84.045500 23300.700000
86.061200 283266.700000
94.029800 963.500000
114.092700 5266.700000
115.087800 807220.100000
121.029600 3748.000000
122.037300 970.400000
124.077000 2582.700000
137.060800 9779.300000
141.067100 16938.800000
168.139500 1670.900000
177.092200 4491.600000
181.135000 7931.300000
193.134700 1424.200000
194.095000 22023.300000
195.150400 75368.200000
207.150400 16085.100000
213.161000 23393.300000
226.085200 5698.500000
301.218200 4039.000000
304.155700 1154.400000
318.244400 2603.900000
329.200600 3764.000000
332.223600 1559.800000
344.223100 20666.000000
347.210500 7008.900000
348.219100 4476.100000
362.233700 92674.600000
416.280300 33876.000000
434.291300 35774.500000
442.307500 20340.000000
460.318200 49217.500000
478.328700 21727.900000
514.364900 17832.500000
532.375400 36238.700000
550.386600 10570.000000

>ms2
57.034600 62961.200000
84.045500 26679.200000
86.061200 301262.600000
109.029600 1450.800000
114.092400 11866.900000
115.087800 179069.500000
121.029600 49517.700000
122.037500 12846.100000
124.076700 6741.600000
126.092600 1878.700000
128.108300 1911.400000
135.045400 4414.100000
137.060800 3519.000000
140.071900 4436.100000
141.067100 8372.300000
148.053000 1156.100000
152.108000 3754.400000
168.139400 1073.100000
177.092000 29049.700000
178.087300 901.100000
181.134900 6778.500000
193.134600 1887.700000
194.094800 66022.200000
195.150400 67986.700000
207.150500 11859.600000
213.161000 3858.500000
223.145500 1955.300000
226.084700 22405.500000
249.136900 1285.500000
260.165600 7551.000000
271.207100 1696.100000
286.145200 4795.900000
286.194500 3954.800000
299.201200 4074.500000
301.217400 5940.100000
303.220900 4874.600000
304.155800 12628.800000
318.244200 3544.400000
329.200200 3454.000000
332.223800 5741.000000
344.223300 11893.500000
347.210400 14122.500000
348.217900 1654.000000
362.233900 15300.400000
402.239600 1790.500000
416.282200 5573.400000
442.308100 3843.200000
514.363300 1449.200000

>ms2
84.045500 20710.100000
86.061200 206232.200000
93.034700 4803.400000
94.029900 1246.800000
107.050400 1298.800000
114.092500 9222.500000
115.087800 67827.100000
121.029600 129886.000000
122.037500 28101.400000
124.076900 7241.700000
126.092200 1029.300000
128.108400 1625.000000
135.045400 9205.800000
138.092500 2074.100000
140.071700 3601.300000
141.066900 1255.400000
147.045200 943.300000
148.053100 7769.100000
152.107900 2138.300000
154.026800 1958.500000
161.060300 1534.000000
162.068900 1044.500000
168.139000 1344.400000
176.084200 1392.400000
177.092000 41112.600000
178.086900 1944.000000
181.134800 2184.300000
194.094900 31491.400000
195.150400 26214.000000
206.082600 1238.800000
207.150400 3636.500000
223.145300 1408.600000
226.084600 13880.900000
243.138900 4756.600000
249.137200 1556.300000
260.165100 13017.300000
271.207100 5324.700000
286.144500 6073.300000
286.193500 5202.700000
299.202000 1817.100000
303.220400 3897.500000
304.155300 12909.700000
329.199600 1157.400000
332.223200 1223.100000
344.223100 1798.400000
347.210500 6375.900000
362.235200 1426.100000
402.240000 1908.200000

>ms2
84.045500 14020.500000
86.061200 95622.100000
93.034700 16340.500000
94.030200 892.400000
107.050200 1768.800000
109.029400 1260.800000
114.092600 5472.800000
115.087800 9113.100000
121.029600 180465.000000
122.037400 16167.100000
124.076800 2044.200000
126.092600 975.300000
134.037100 1363.100000
135.045300 10435.200000
138.092600 2017.000000
140.071600 1156.200000
147.045100 4595.500000
148.053100 14317.500000
149.060500 963.900000
154.027000 1650.200000
161.060900 4671.400000
162.068800 4575.200000
163.076400 1899.100000
176.084400 4026.200000
177.092000 23830.200000
178.087600 1578.300000
194.094900 1757.200000
195.150400 3908.100000
206.082200 1076.400000
226.084900 1567.200000
243.140100 1553.200000
260.165400 6964.700000
286.145100 1148.200000
286.192700 1003.000000
301.218700 985.100000
304.154800 1646.400000

>ms2
84.045500 6834.500000
86.061200 32084.700000
93.034600 24920.800000
94.029800 1239.300000
107.050200 1007.700000
109.029600 1024.000000
114.092500 1040.300000
115.087800 1193.600000
121.029600 117842.100000
122.037400 4756.000000
124.076900 1453.800000
134.037600 1335.600000
135.045200 6517.500000
140.071600 1571.200000
147.045100 6299.900000
148.053000 8995.600000
149.060500 1662.800000
161.060500 3985.200000
162.068800 6447.900000
163.076800 1123.000000
176.084500 1680.400000
177.092200 6889.000000

