>compound EQ88982754
>parentmass 249.1496
>ionization [M-H]-
>formula C15H22O3
>rt 894.000000
>profile orbitrap
#smiles_iso CC1=CC(=C(C=C1)C)OCCCC(C)(C)C(=O)O
#smiles_can CC1=CC(=C(C=C1)C)OCCCC(C)(C)C(=O)O
#inchikey HEMJJKBWTPKOJG-UHFFFAOYSA-N
#pubchem_id 3463
#mb_accession EQ307151,EQ307152,EQ307153,EQ307154,EQ307155,EQ307156

>ms2peaks
121.065900 78527999.900000
127.076400 4397356.000000
249.149600 948883.500000

>ms2peaks
121.065900 86670254.700000
127.076400 2477883.400000

>ms2peaks
121.065900 71574542.500000
127.076400 454897.300000

>ms2peaks
106.042400 117984.800000
120.058400 143398.700000
121.065900 70811868.300000
127.076200 140565.300000

>ms2peaks
106.042500 276617.600000
119.050300 86505.200000
120.058300 285771.800000
121.065900 61523221.400000
152.047700 68487.000000

>ms2peaks
106.042400 460573.000000
109.029600 176797.500000
119.050000 91817.900000
120.058300 406898.600000
121.065900 41844292.500000
122.037100 97006.000000
152.048000 104468.200000

