>compound EQ88606276
>parentmass 439.02350000000007
>ionization [M-H]-
>formula C17H16ClF3O6S
>rt 594.000000
>profile orbitrap
#smiles_iso CS(=O)(=O)C1=C(C(=C(C=C1)C(=O)C2C(=O)CCCC2=O)Cl)COCC(F)(F)F
#smiles_can CS(=O)(=O)C1=C(C(=C(C=C1)C(=O)C2C(=O)CCCC2=O)Cl)COCC(F)(F)F
#inchikey IUQAXCIUEPFPSF-UHFFFAOYSA-N
#pubchem_id 11556911
#mb_accession EQ317751,EQ317752,EQ317753,EQ317754,EQ317755,EQ317756

>ms2peaks
239.071600 208130.500000
403.046800 154103303.500000

>ms2peaks
78.986000 220261.800000
195.081300 238404.500000
197.060800 724185.400000
211.076500 256100.000000
213.055800 237399.500000
226.063400 7661743.900000
238.063500 411314.100000
239.071400 5731298.700000
241.087200 2435126.300000
258.053500 746318.100000
261.022300 456124.800000
271.007000 121590.800000
303.034400 404949.000000
304.040800 426595.200000
305.049100 1441538.200000
361.036600 805238.300000
403.046800 108281695.900000

>ms2peaks
63.962500 351410.500000
68.995700 683498.800000
78.985900 999045.300000
79.000100 84046.200000
93.034500 1091438.400000
99.006400 517204.200000
119.050200 454752.000000
141.071100 188337.900000
143.050000 129355.300000
145.029400 67784.900000
161.024200 560204.100000
167.086500 78234.200000
169.065900 1139422.200000
171.045000 277070.200000
180.058300 97723.500000
182.073900 67058.400000
183.045100 103922.500000
183.081600 358597.200000
184.053100 361214.900000
185.060900 443507.400000
193.066000 262173.700000
195.081500 2441590.100000
196.053000 83080.100000
197.060800 8372291.400000
198.068800 241219.000000
209.060700 259512.200000
211.041100 96355.600000
211.076500 1873148.100000
213.055700 3549962.900000
215.017900 86877.500000
215.034900 229923.900000
221.060900 260010.400000
222.068800 467582.500000
223.075900 240339.100000
224.047900 2767909.100000
225.055600 827506.252300
226.063500 41573660.400000
237.056000 253908.600000
238.063600 3860400.600000
239.071400 14517912.500000
240.079200 3862751.400000
241.050600 465648.213400
241.087000 2893261.900000
243.011700 91833.500000
255.066700 766021.200000
256.038000 99663.100000
258.053500 4355936.800000
261.022600 1414687.000000
263.038300 625282.400000
271.007200 1015206.100000
272.069200 125202.900000
288.009800 83813.100000
303.034400 580542.200000
304.040900 825700.500000
305.049000 2011813.900000
349.034200 151630.800000
361.036500 1379728.200000
403.046800 14274524.800000

>ms2peaks
63.962300 503811.500000
65.039600 62754.300000
67.018900 113121.600000
68.995700 1801446.300000
78.985900 648332.500000
79.000100 107310.000000
91.019000 64385.800000
92.026700 104984.700000
93.034600 1827401.300000
99.006300 767265.600000
117.034600 328972.900000
119.050200 385565.500000
130.042300 128503.400000
139.055400 94193.200000
141.071100 459418.900000
143.050200 755282.700000
145.029300 108803.600000
153.070600 79837.100000
156.058300 282813.700000
157.065800 62647.000000
161.024400 1975242.200000
167.050100 296252.600000
167.086600 70689.000000
169.065900 3280814.600000
170.037400 325386.200000
170.073900 86609.300000
171.045300 551258.400000
172.053300 338673.200000
181.066100 113528.400000
182.037100 75059.500000
182.074000 511804.300000
183.045100 844436.900000
183.081500 302742.100000
184.053100 2682572.100000
185.061000 618104.800000
193.065900 379307.200000
195.045300 262820.900000
195.081500 1366279.100000
196.052800 254176.000000
197.060800 6779487.700000
198.032100 77992.200000
198.068800 643005.200000
199.039900 112073.000000
209.060900 450707.900000
211.040300 467745.600000
211.076600 986471.300000
213.055800 1787714.600000
215.034500 384275.149700
216.043000 231930.800000
221.061000 124106.000000
222.068200 460240.800000
223.040200 275666.900000
223.076000 70415.100000
224.047900 1861299.700000
225.055800 3886116.400000
226.063600 26266488.100000
227.034600 66175.100000
237.055700 600179.000000
238.063600 3932646.900000
239.035000 333485.800000
239.071300 3034999.200000
240.079200 2627736.100000
241.050300 357940.900000
241.087000 303461.900000
243.011900 492321.700000
255.066600 228703.300000
256.038100 93477.200000
258.053400 3025452.600000
261.022800 115924.900000
263.038400 406695.200000
271.007400 998882.900000
272.069100 270236.200000
305.048200 105545.800000

>ms2peaks
51.023800 96414.800000
63.962400 839817.500000
65.003300 190626.000000
65.039700 200584.400000
67.018900 197979.200000
68.995700 2389518.900000
78.985900 713332.300000
79.000100 63470.000000
83.013800 67779.100000
89.039800 68899.400000
92.026900 49187.800000
93.034600 2315453.000000
99.006300 242005.300000
115.055200 201238.900000
117.034600 1263454.200000
119.050200 294651.700000
130.042300 273029.900000
135.008900 52117.500000
139.055400 543431.300000
141.071000 432014.200000
142.042400 88235.500000
143.050200 1093633.500000
145.029500 208517.300000
153.071200 109855.300000
154.042400 66660.500000
155.050300 321110.300000
156.058100 887931.200000
157.065900 63298.900000
161.024400 1329930.400000
167.050100 339275.800000
169.065900 2655814.700000
170.037400 335082.700000
170.073300 87471.000000
171.045200 540507.500000
172.053000 479460.100000
180.058200 195052.900000
181.066500 145703.400000
182.037300 201678.900000
182.073800 255880.800000
183.045100 2764771.600000
183.081300 261668.000000
184.053000 3499915.500000
185.060800 419289.000000
187.022300 58209.700000
193.065800 251055.500000
195.044900 489457.600000
195.081700 409144.500000
196.052900 572099.300000
197.060800 4010949.500000
198.032500 78100.200000
198.068600 297349.800000
199.039700 86109.000000
208.053200 55600.200000
209.060900 593940.700000
210.032200 118862.700000
211.040100 467741.400000
211.076400 420886.600000
213.055600 246105.900000
215.017500 55909.500000
215.035000 63738.500000
216.042800 376660.000000
221.061100 76423.200000
222.068700 266831.400000
223.040000 503480.800000
224.047900 1501929.300000
225.055700 4735163.000000
226.063600 5801199.100000
237.055800 1417147.200000
238.063700 2204062.200000
239.035000 370203.400000
239.071500 707946.100000
240.079200 502554.700000
241.050000 66773.200000
243.012100 422548.500000
258.053200 678633.551000
271.007500 301304.500000

>ms2peaks
51.023900 205095.800000
63.962400 930577.500000
65.003300 228747.600000
65.039700 97620.600000
67.018900 75627.100000
68.995700 1966118.400000
78.985900 240282.800000
79.000200 55795.700000
83.014000 88401.000000
89.039600 94148.500000
91.018900 106352.500000
93.034600 1614261.200000
115.055300 255672.600000
117.034700 893344.300000
119.050200 197541.100000
130.042200 271363.400000
135.008800 50096.500000
139.055400 874154.400000
141.071000 275090.500000
142.042300 51982.200000
143.050200 787266.900000
145.029500 211782.200000
153.070900 88880.700000
154.042200 79518.300000
155.050500 350390.800000
156.058100 311526.300000
161.024300 260384.700000
167.050300 422839.100000
169.065900 1094800.000000
171.045200 233399.500000
172.053200 132042.500000
180.058200 84503.000000
181.065800 260531.400000
182.037500 660009.500000
183.045200 1805985.600000
184.053100 925485.200000
185.060700 96721.900000
187.022300 62835.000000
193.065700 60354.500000
195.045200 738505.000000
195.081400 51417.700000
196.053200 445791.100000
197.060800 1857065.400000
208.052700 103318.700000
209.060800 457631.700000
210.032200 268079.700000
211.039900 327080.600000
211.076300 102515.600000
221.060900 254422.600000
223.040300 507039.000000
224.048000 1054371.100000
225.055900 1576503.300000
226.064000 486185.500000
227.034800 73563.800000
237.055700 1278103.200000
238.063500 551821.900000
239.035100 74852.400000
239.071400 196489.800000
240.079200 60034.600000

