>compound EQ89133978
>parentmass 450.1783
>ionization [M-H]-
>formula C23H25N5O5
>rt 432.000000
>profile orbitrap
#smiles_iso COC1=C(C=C2C(=C1)C(=NC(=N2)N3CCN(CC3)C(=O)C4COC5=CC=CC=C5O4)N)OC
#smiles_can COC1=C(C=C2C(=C1)C(=NC(=N2)N3CCN(CC3)C(=O)C4COC5=CC=CC=C5O4)N)OC
#inchikey RUZYUOTYCVRMRZ-UHFFFAOYSA-N
#pubchem_id 3157
#mb_accession EQ329351,EQ329352,EQ329353,EQ329354,EQ329355,EQ329356

>ms2peaks
108.045500 40660.800000
109.029500 108134.100000
118.030000 25852.700000
134.024800 7461.700000
134.061100 12001.900000
135.045200 22676.400000
148.040300 14195.500000
150.056000 48020.500000
178.050900 380282.500000
187.038500 10635.100000
192.067100 8556.700000
202.062300 76695.500000
204.065800 10420.800000
219.088800 24741.800000
230.080800 29785.200000
245.104300 47028.500000
247.108600 17465.800000
257.104200 9196.200000
271.120200 13162.400000
272.115000 10093.100000
273.123200 22763.700000
288.146600 731263.000000
340.141800 9727.100000
379.177500 35802.100000
380.173000 239439.800000
420.131100 11240.400000
422.183100 15458.900000
435.155000 113055.500000
450.178500 6538471.000000

>ms2peaks
59.013800 38036.100000
65.998400 2279.300000
67.030100 19978.200000
68.014200 3549.900000
85.029500 18450.700000
92.050800 7566.700000
106.042600 4182.100000
107.037900 2631.700000
108.045500 544485.900000
109.029500 776273.400000
110.072300 17787.500000
112.040300 3400.200000
118.029900 351870.600000
120.045500 79907.600000
121.029500 13848.500000
122.061200 2435.600000
132.045400 2516.000000
133.029500 4815.400000
134.024800 59577.500000
134.061100 276442.200000
135.045200 296384.600000
144.019700 1975.900000
147.019800 2427.500000
148.040400 136128.500000
148.076700 8499.300000
149.024400 3270.500000
150.056000 404383.200000
160.040400 30440.200000
160.076800 40143.800000
162.043300 23213.700000
172.015000 8268.400000
176.071700 12808.300000
177.067200 21360.900000
177.103300 59091.400000
178.050900 1384156.500000
187.038800 166390.400000
189.042000 2129.600000
192.066600 53293.700000
202.062200 392673.300000
202.098700 33019.400000
203.069700 20045.500000
204.065300 120982.900000
205.049300 15330.400000
214.049700 10029.300000
215.057500 52848.700000
216.065200 12303.400000
216.077300 3058.700000
217.073500 26934.500000
218.093400 23144.700000
219.088700 223248.100000
219.113400 31928.500000
228.065600 17081.600000
229.073200 98942.100000
229.085500 12277.400000
230.080900 488134.200000
231.088700 122743.700000
241.073600 18746.600000
242.081200 29107.500000
243.088600 31337.300000
244.096600 73618.000000
244.109200 26005.100000
245.104300 527105.100000
246.075600 9888.700000
247.108600 44028.100000
256.096500 100516.800000
257.092000 5301.700000
257.104300 61696.400000
258.099500 72868.400000
271.084400 8264.600000
271.120100 76392.400000
272.115400 157935.000000
273.123200 489833.900000
288.146500 1019187.500000
289.094300 2680.800000
295.096300 4666.400000
296.090600 2325.700000
300.109900 17275.200000
310.120200 22041.400000
311.115200 46506.900000
315.109400 4085.300000
325.117700 2760.800000
337.131200 9252.000000
340.141500 19214.900000
365.149300 17772.100000
379.177900 47714.300000
380.172800 619016.800000
392.136900 32623.300000
420.131400 217348.100000
422.184700 2302.600000
434.147200 3089.300000
435.154900 363634.800000
438.140900 2557.500000
450.178400 354567.200000

>ms2peaks
59.013800 26459.400000
65.998600 12034.000000
67.030200 35911.100000
68.014200 2050.500000
81.034600 3975.500000
81.045900 7894.300000
85.029500 3219.000000
90.034700 2445.000000
91.018900 2226.200000
92.050600 54691.300000
93.034600 18307.800000
106.042500 9759.200000
107.037800 17335.200000
108.021800 52726.600000
108.045500 917734.400000
109.029500 1449943.500000
110.072400 10651.500000
112.040400 2956.000000
118.029900 434035.000000
119.025000 11866.500000
120.045500 184847.000000
121.029500 22070.500000
132.045400 23215.900000
133.029500 3823.500000
133.040400 4325.900000
134.024800 116052.700000
134.061200 287927.800000
135.045200 574701.800000
136.076200 2751.500000
144.020200 16160.700000
147.020100 36508.900000
148.040400 91784.000000
149.024300 4880.800000
150.056000 184553.400000
160.040400 24022.600000
160.076700 19670.500000
162.030700 8363.600000
162.043500 44282.300000
172.015200 82944.100000
172.051500 7447.400000
173.022800 9240.400000
173.035200 3069.200000
177.103300 63867.500000
178.050900 260587.900000
186.055000 3946.900000
186.067000 2826.500000
187.038800 298302.500000
187.062100 43468.300000
188.046800 15434.400000
188.070500 2523.800000
189.041900 65016.400000
192.066800 23597.700000
199.062700 8740.200000
201.054000 2983.400000
201.078200 22440.200000
202.049800 8073.900000
202.062300 84381.400000
203.058100 4063.600000
203.069900 19430.900000
204.065200 211878.500000
213.041500 8040.700000
213.054500 3614.300000
213.078400 18950.500000
214.049700 156235.100000
215.057500 534146.800000
216.065200 58400.100000
216.077700 33259.800000
217.073200 67510.300000
219.088800 65213.500000
227.058300 3929.300000
227.093400 4256.700000
228.065200 18518.900000
228.077800 13035.800000
229.073000 573640.900000
230.080800 787447.200000
231.088600 144120.000000
233.067900 3486.600000
241.073100 165709.700000
242.080800 51382.700000
243.088700 23048.700000
244.096400 73692.100000
244.120400 4383.500000
245.104300 118252.900000
247.083100 2595.600000
255.088400 10812.500000
256.096500 90176.500000
257.091800 62035.100000
257.104400 22161.800000
258.099500 472147.800000
259.083600 2365.100000
271.083400 9135.000000
271.119500 14161.400000
272.115400 89051.300000
273.123200 309854.000000
276.109800 8153.200000
281.067800 4751.300000
288.146500 48537.000000
295.095700 4046.100000
296.091500 19676.600000
308.091100 2969.200000
312.109900 15810.800000
323.115500 3320.700000
380.172800 9867.000000
392.136300 21915.600000
420.131400 180495.800000
435.154200 9738.500000
438.143100 4824.800000

>ms2peaks
59.013900 13382.100000
65.998500 15276.400000
67.030200 134989.900000
70.029900 3575.900000
81.034700 12922.800000
81.045900 41491.300000
85.029500 2718.300000
90.034900 14521.300000
91.019000 4941.900000
92.050600 137293.600000
93.034600 36454.700000
106.028400 4972.400000
107.037800 33497.500000
108.021800 124561.200000
108.045600 832434.500000
109.029500 2303462.500000
110.072500 15628.500000
118.030000 345329.800000
119.025000 72627.200000
120.045500 153143.600000
121.029600 21778.900000
132.045400 22423.700000
133.041000 3430.100000
134.024800 147477.800000
134.061100 130801.300000
135.045200 423533.500000
144.020200 58656.200000
145.028200 21827.600000
145.040500 14099.600000
146.036000 10936.000000
147.020000 151888.400000
148.027700 16064.500000
148.040400 34449.000000
148.077100 2613.100000
150.056000 34348.700000
158.012200 2533.400000
158.036100 3266.900000
160.040400 9686.700000
160.051700 5055.300000
160.076700 3068.900000
161.035800 3665.900000
161.046800 4673.700000
162.031100 4917.700000
162.043400 35389.400000
171.043400 3686.800000
171.067700 11874.000000
172.015300 167602.700000
172.051600 93310.800000
173.023100 17483.000000
173.035500 11306.400000
173.059800 7571.300000
174.030800 3714.900000
174.054500 12689.600000
174.067300 8968.400000
175.062600 2446.500000
177.103300 9852.000000
178.050800 33800.500000
185.047100 10430.300000
185.083200 3612.000000
186.030800 8718.100000
186.054800 81553.700000
186.067200 31140.500000
187.038900 130604.300000
187.062500 177396.400000
188.034100 8889.800000
188.046600 36264.100000
188.070300 43557.200000
189.041900 143708.100000
199.038300 2454.800000
199.062700 25174.800000
200.034100 2508.900000
200.070100 4744.700000
201.041500 4392.600000
201.054600 28404.400000
201.078200 83378.400000
202.049800 38317.400000
202.062200 34166.900000
203.057700 4091.400000
203.070000 12520.400000
204.065300 88845.800000
213.041900 33713.200000
213.054700 14723.500000
213.078300 95607.100000
214.049700 571621.100000
215.057500 991032.800000
216.065300 97529.100000
216.077700 35202.100000
217.073000 39292.900000
220.060900 3386.000000
227.057900 8981.700000
227.094100 4789.300000
228.065300 24369.200000
228.077100 4879.100000
229.073000 388557.000000
229.096400 32371.500000
230.080900 193928.600000
230.104600 108467.500000
231.088600 37246.900000
233.067700 34016.800000
240.065000 3266.600000
241.073100 171942.800000
242.081200 33908.800000
243.088500 14667.600000
244.096800 7529.800000
244.120000 2825.000000
245.103900 3573.600000
247.083600 5036.300000
255.089000 8815.800000
256.084100 3398.900000
256.096500 11337.100000
257.092000 50305.200000
257.104500 8251.000000
258.099500 352804.500000
259.083400 4584.100000
261.087300 10010.800000
272.115700 17569.600000
273.123100 30716.800000
276.110400 20548.800000
284.115200 4974.900000
308.091900 2578.800000
312.110100 12447.100000
420.132300 10497.400000

>ms2peaks
59.013800 3164.100000
65.014500 2808.100000
65.039700 4039.700000
65.998600 14981.500000
66.009700 3617.700000
67.030200 391351.900000
70.029900 16662.500000
77.014600 3161.600000
81.034600 26013.100000
81.045900 107426.900000
84.056700 3240.500000
90.034900 21875.300000
91.018900 22445.000000
91.030100 4115.900000
92.050600 154028.900000
93.034600 54242.800000
106.028500 18807.900000
107.025000 2736.300000
107.037800 46804.000000
108.021800 197961.500000
108.045600 584773.400000
109.029500 2541624.800000
110.072400 8468.300000
117.046000 3150.700000
118.030000 203783.800000
119.025100 193795.600000
120.032900 10001.800000
120.045500 64817.100000
121.029500 14497.600000
121.040700 3011.700000
122.036100 2566.300000
130.017100 11119.200000
132.032700 2580.400000
132.045500 23457.100000
133.029200 2839.700000
133.040800 22156.200000
134.024800 114206.000000
134.035900 7588.500000
134.061100 50980.300000
135.045200 180663.700000
142.041200 3455.600000
144.020300 168306.300000
145.028200 89567.900000
145.040600 42433.600000
146.024700 4586.000000
146.035900 23383.500000
147.020000 197422.900000
148.027700 22984.700000
148.040500 4597.800000
149.035700 2785.300000
157.051800 4164.300000
158.012300 17967.600000
158.035800 3387.600000
159.043600 3855.100000
159.056500 8899.700000
159.067200 4145.800000
160.040100 3887.300000
160.051600 37463.300000
161.035400 7481.100000
161.046800 14557.800000
162.043600 13475.400000
170.035700 8972.300000
171.043800 8068.300000
171.067600 12365.500000
172.015200 148182.900000
172.051600 234550.400000
173.022500 9297.400000
173.035700 17915.100000
173.046700 3988.800000
173.059300 32414.900000
174.030500 3436.200000
174.054700 36099.500000
174.067000 24959.300000
175.062300 3563.200000
184.051700 2885.600000
185.046900 31866.700000
185.059600 7148.000000
185.083200 9477.300000
186.054700 249003.500000
186.066800 28587.600000
187.039200 23512.300000
187.062500 286915.600000
188.034000 11252.700000
188.046400 26632.300000
188.070500 49128.300000
189.042000 79590.300000
199.038600 3076.700000
199.062600 34464.700000
200.034400 3015.200000
200.070100 11977.600000
201.041500 4750.100000
201.054500 33494.400000
201.078300 72031.500000
202.049600 38464.700000
202.062100 11593.700000
203.057400 4279.800000
204.065400 9533.900000
211.062900 2655.800000
213.041900 72259.800000
213.054400 14644.100000
213.078300 75196.600000
214.049700 432833.300000
215.057500 489193.300000
216.065100 25560.100000
216.077100 3897.200000
217.072900 10377.100000
227.057300 7191.100000
227.094400 3920.600000
228.065100 22666.100000
228.089400 2890.600000
229.073000 90309.800000
229.096600 35982.500000
230.081400 16576.200000
230.104700 95747.500000
233.068100 24154.700000
241.073000 43156.100000
242.080600 7010.900000
247.083900 3211.900000
256.084400 2643.300000
257.091700 11126.500000
258.099500 88493.400000
276.109300 4109.400000

>ms2peaks
64.019200 4663.600000
65.003200 11803.500000
65.014500 10035.200000
65.039600 8599.700000
65.998500 41378.400000
66.009700 15977.400000
67.030200 502801.900000
68.014100 2386.000000
70.029800 10268.000000
77.014600 16501.900000
80.026800 3141.600000
81.034600 38181.800000
81.045900 108009.100000
89.998600 3352.300000
90.009900 4208.900000
90.034900 27301.100000
91.019000 47737.000000
91.030200 10646.200000
92.050600 156539.900000
93.034600 51196.400000
105.022100 4667.900000
105.033200 2566.200000
106.028500 43072.000000
107.037800 61732.000000
108.021800 311070.500000
108.045600 381343.500000
109.029500 2288971.800000
110.072200 3213.800000
117.009600 3576.100000
117.046000 7706.600000
118.030000 108845.000000
119.025100 262252.800000
120.033000 19404.400000
120.045600 27477.400000
121.029500 7534.500000
121.040900 11744.500000
130.017100 23097.200000
131.025200 3721.200000
132.033100 7741.100000
132.045400 13597.100000
133.028400 2989.500000
133.040700 20113.500000
134.024800 68658.500000
134.036100 3871.500000
134.061100 15565.500000
135.045200 44969.700000
142.041200 3749.700000
143.025500 5763.900000
144.020300 228464.700000
145.004300 8592.100000
145.028200 135798.700000
145.040600 63526.800000
146.035900 23443.500000
147.020000 99390.400000
148.027700 19796.200000
157.028200 3151.600000
157.051900 8349.700000
158.012100 23393.000000
158.036000 15469.400000
159.020200 2877.600000
159.043900 9230.500000
159.056500 9139.500000
159.067800 3829.600000
160.051600 44476.100000
161.035300 4418.600000
161.047000 11261.900000
171.043900 9162.600000
171.067700 3582.000000
172.015300 40419.600000
172.051600 189937.800000
173.023400 7961.700000
173.035500 3163.000000
173.046800 8767.000000
173.059200 45500.000000
174.030200 2313.600000
174.054600 39289.500000
174.067200 9326.000000
184.052200 4103.400000
185.046900 52448.600000
185.059500 4656.000000
185.083300 3304.400000
186.054700 303468.000000
187.039200 7529.700000
187.062600 143673.500000
188.034100 3673.300000
188.046800 12545.500000
188.070500 20410.200000
189.041800 24935.500000
199.062600 18005.900000
200.070300 14450.600000
201.042000 4460.900000
201.054700 12566.100000
201.078400 24290.800000
202.050100 11916.600000
211.062700 2612.300000
213.041900 48336.100000
213.078300 30190.800000
214.049700 158265.400000
215.057500 94813.100000
216.065500 2894.800000
227.057900 2666.400000
228.065400 3718.900000
228.089600 4529.300000
229.073500 4109.700000
229.097100 9735.100000
230.104700 26626.600000
233.068900 8867.200000
241.073400 3710.700000
258.099800 3645.300000

