>compound EQ89355373
>parentmass 243.0735
>ionization [M-H]-
>formula C8H12N4O5
>rt 54.000000
>profile orbitrap
#smiles_iso C1=NC(=NN1[C@H]2[C@@H]([C@@H]([C@H](O2)CO)O)O)C(=O)N
#smiles_can C1=NC(=NN1C2C(C(C(O2)CO)O)O)C(=O)N
#inchikey IWUCXVSUMQZMFG-AFCXAGJDSA-N
#pubchem_id 37542
#mb_accession EQ286051,EQ286052,EQ286053,EQ286054,EQ286055,EQ286056

>ms2peaks
68.025400 82648.100000
89.024400 8603.600000
111.031300 2299756.700000
131.046400 6276.200000

>ms2peaks
68.025400 185507.300000
89.024400 8581.200000
111.031300 2159701.800000
131.046100 4198.900000
131.082400 2341.600000

>ms2peaks
68.025400 325977.000000
89.024400 7282.000000
111.031300 1158048.700000
113.035600 1432.200000
131.082800 1407.600000

>ms2peaks
68.025400 425587.500000
89.024400 6180.400000
111.031300 746021.900000
131.046100 963.200000

>ms2peaks
68.025400 486080.200000
89.024400 4802.500000
111.031300 289774.600000

>ms2peaks
68.025400 492192.100000
89.024300 2839.500000
111.031300 115844.400000

