>compound EQ90537071
>parentmass 410.11650000000003
>ionization [M-H]-
>formula C23H22ClNO4
>rt 642.000000
>profile orbitrap
#smiles_iso COC1=C(C=CC(=C1)CCNC(=O)C(C2=CC=C(C=C2)Cl)OCC#C)OCC#C
#smiles_can COC1=C(C=CC(=C1)CCNC(=O)C(C2=CC=C(C=C2)Cl)OCC#C)OCC#C
#inchikey KWLVWJPJKJMCSH-UHFFFAOYSA-N
#pubchem_id 11292824
#mb_accession EQ306151,EQ306152,EQ306153,EQ306154,EQ306155,EQ306156

>ms2peaks
82.030000 1794.600000
84.009100 8963.900000
84.045500 964.800000
110.024800 1759.400000
111.000700 3551.600000
121.029500 6728.700000
123.008900 19283.000000
125.016400 3903.800000
134.037400 3780.800000
136.053000 142266.500000
138.032300 9602.500000
143.050200 33191.800000
146.037400 1548.100000
147.045200 1682.700000
149.060700 29342.200000
150.995700 25207.100000
153.011300 667666.200000
154.990600 4525.600000
159.045000 1046.900000
160.053100 14348.300000
161.060900 5026.300000
163.064200 1122.800000
165.010900 972.400000
168.042800 66244.500000
175.076400 26873.200000
176.027100 4414.500000
177.011200 1331.900000
178.043200 1001.000000
179.026700 4024.300000
181.006100 900.100000
192.022400 4159.200000
194.037800 77641.700000
197.001100 30051.300000
204.022200 15846.900000
206.037800 6023.700000
217.030100 1804.800000
218.037600 1290.500000
221.025000 19294.900000
222.032800 249379.600000
234.033400 1023.900000
235.040700 8550.400000
237.019600 1681.100000
242.038000 19237.200000
250.027600 32730.300000
267.030500 82681.300000
382.121600 229271.000000

>ms2peaks
82.029900 5167.800000
84.009200 11454.400000
84.045600 3150.100000
93.034500 1315.800000
110.024700 10650.000000
111.000700 14463.500000
121.029600 63738.000000
123.008900 20238.600000
125.016400 14864.500000
134.037300 15961.200000
136.052900 118911.500000
138.032200 11637.200000
143.050200 16248.800000
146.037500 6984.600000
149.060700 55458.200000
150.995600 62810.500000
153.011200 1087353.700000
154.006500 3389.200000
154.990600 1226.900000
159.045100 3872.400000
160.053000 33805.200000
161.060700 1314.300000
168.042800 89872.000000
175.076300 10440.100000
176.027100 6317.400000
177.011600 1117.900000
178.043100 1719.500000
179.026900 5490.800000
181.006200 1396.200000
192.022400 3547.800000
194.037700 53857.700000
197.001400 9248.600000
204.022200 19226.300000
206.037800 4307.600000
218.037600 1507.600000
221.025000 6101.600000
222.032700 121678.300000
234.032800 1574.000000
235.040600 11267.000000
237.019500 1417.900000
250.028000 8419.800000
267.030500 31200.200000
338.059500 4084.600000
382.121800 1523.500000

>ms2peaks
70.029800 1655.700000
82.029800 3310.800000
84.009000 10678.200000
84.045500 4875.500000
93.034700 6864.600000
110.024800 11551.500000
111.000700 38148.100000
121.029600 162202.300000
122.037500 823.900000
123.008900 5262.900000
125.016300 8611.800000
134.037400 65520.900000
136.053000 36923.000000
138.032300 1601.600000
143.050300 6008.600000
145.029500 1508.000000
146.037300 7646.100000
147.045000 847.300000
149.060700 34052.500000
150.995600 62697.100000
153.011200 752399.100000
154.006600 4865.500000
154.990700 5093.300000
159.045100 7564.600000
160.053000 18258.800000
161.047800 956.900000
167.027100 1466.900000
168.042700 19440.600000
175.075900 927.000000
176.026900 3098.500000
177.011400 1130.200000
179.026900 1597.200000
192.022300 1850.000000
194.037700 20237.700000
204.022000 23628.400000
217.029900 14593.000000
221.024700 1068.100000
222.032700 18763.700000
242.037700 1386.100000
259.016700 1738.300000
338.059700 1575.300000

>ms2peaks
68.014300 819.200000
70.029900 1631.600000
82.029900 3959.500000
84.009000 5730.600000
93.034600 17622.500000
110.024800 10514.100000
111.000800 56444.900000
121.029600 235648.800000
122.037300 889.700000
123.009000 1524.800000
125.016200 4114.600000
134.037400 77120.100000
136.052900 12244.200000
143.050300 4164.400000
145.029400 976.200000
146.037300 4136.400000
148.040700 773.100000
149.060700 10645.900000
150.995600 51269.200000
153.011200 435621.300000
154.990600 7250.600000
159.045200 5206.500000
160.053000 8284.000000
161.048800 739.600000
167.026800 970.200000
168.042700 6812.400000
176.028000 910.100000
177.011400 928.100000
192.022000 1014.000000
194.037900 7283.300000
204.022300 17962.800000
217.030200 5215.700000
218.038100 905.600000
222.032900 4159.300000

>ms2peaks
68.014200 884.900000
70.030000 772.200000
82.029800 4673.300000
84.009200 1808.300000
93.034600 44839.000000
110.024800 10107.100000
111.000700 60520.300000
121.029500 241807.200000
125.016200 979.100000
134.037400 70956.800000
135.000700 852.200000
136.052800 875.300000
145.029200 749.000000
146.037400 1696.200000
148.040300 957.100000
149.060800 3043.400000
150.995600 34463.700000
153.011200 142807.300000
154.990600 8008.100000
159.044900 1291.900000
160.053200 1025.700000
194.037600 881.700000
204.022000 9824.100000

>ms2peaks
68.014400 817.500000
70.029900 987.000000
82.029900 1480.600000
93.034600 70506.500000
110.024900 4240.800000
111.000800 37135.600000
121.029600 209498.600000
134.037400 44025.300000
135.000900 1585.400000
150.995700 13923.800000
153.011400 30266.700000
154.990700 3808.900000
159.045100 1312.700000
204.022400 1396.500000

