>compound EQ90303597
>parentmass 239.06729999999996
>ionization [M-H]-
>formula C10H12N2O5
>rt 798.000000
>profile orbitrap
#smiles_iso CC(C)(C)C1=C(C(=CC(=C1)[N+](=O)[O-])[N+](=O)[O-])O
#smiles_can CC(C)(C)C1=C(C(=CC(=C1)[N+](=O)[O-])[N+](=O)[O-])O
#inchikey IIPZYDQGBIWLBU-UHFFFAOYSA-N
#pubchem_id 14994
#mb_accession EQ310951,EQ310952,EQ310953,EQ310954,EQ310955,EQ310956

>ms2peaks
176.035100 284252.500000
179.071200 334466.300000
193.073900 273562.300000
207.041000 2004368.000000
209.069500 394338.400000
239.067300 239968106.700000

>ms2peaks
150.055600 308229.300000
151.076500 617152.700000
176.035100 282463.400000
179.071300 992419.800000
193.074100 560699.400000
194.046100 471234.400000
207.041100 6258619.100000
208.061700 378244.400000
209.069300 2152665.000000
224.043700 1100761.300000
239.067400 247271762.000000

>ms2peaks
107.086700 1335350.000000
123.032700 1176927.700000
136.053200 249819.000000
149.048000 416394.400000
150.056000 1381374.500000
151.027400 1390078.800000
151.076400 4679044.000000
153.006800 384399.700000
164.071800 978552.000000
166.050900 615240.600000
167.022700 236494.300000
176.035200 1248286.700000
177.043100 1164443.000000
178.051000 2009940.900000
179.071400 6655324.900000
192.066700 215659.300000
193.074300 1873278.900000
194.045900 3895901.000000
206.033300 341462.000000
207.041100 44460593.700000
208.061500 2157638.900000
209.069300 7205797.500000
223.035900 345841.100000
224.043900 4158805.000000
239.067400 143135550.400000

>ms2peaks
91.055500 287913.400000
95.014000 84252.100000
107.086700 2429295.000000
109.029500 77067.900000
123.009000 361913.700000
123.032700 2959605.300000
135.081700 253923.300000
136.053000 719325.900000
148.040300 434691.100000
149.048200 741333.400000
150.056000 3220464.200000
151.027500 1930963.500000
151.076400 8707657.500000
153.006800 317562.900000
162.019700 329881.400000
164.035600 276024.600000
164.048300 147301.200000
164.071800 2595954.400000
165.079400 96263.200000
166.014500 479277.600000
166.051000 1131343.300000
167.022500 98451.100000
176.035100 2803412.900000
177.043100 3514891.800000
178.051000 3812201.300000
179.071400 7706587.600000
181.074600 118450.700000
192.066700 494486.800000
193.074300 2180477.500000
194.045800 5345172.400000
206.033400 289345.500000
207.041100 76954487.500000
208.061500 3273018.200000
209.069300 6434069.100000
223.036000 570189.600000
224.043900 3586569.800000
239.067400 62669243.400000

>ms2peaks
65.039800 119348.900000
68.998400 82065.000000
80.026900 111399.900000
81.071000 109973.100000
91.055400 1166899.200000
95.014000 197161.000000
107.050400 242169.600000
107.086700 2021428.800000
108.021700 81618.900000
109.017000 261521.400000
109.029600 116561.800000
119.050400 143678.000000
121.029700 109989.900000
123.009000 395504.500000
123.032700 4862814.400000
134.024900 318454.500000
135.045300 700916.100000
136.053000 1844250.500000
146.037300 113770.000000
147.045300 298362.600000
148.040200 893774.000000
149.048200 5033399.400000
150.056000 6189449.700000
151.027400 1927458.300000
151.076400 9490046.300000
160.040600 97835.100000
162.019700 1901583.100000
163.040000 475851.600000
164.035400 666061.700000
164.048000 552662.100000
164.071800 6591522.200000
166.014800 117046.800000
166.050800 795701.300000
176.035200 9538939.800000
177.043100 15142352.900000
178.050900 6262434.400000
179.071300 3785458.800000
192.066700 826754.000000
193.037800 95309.900000
193.074400 973012.400000
194.045800 3935966.600000
207.041100 76903325.400000
208.061400 2085029.900000
209.069300 1457468.800000
223.036100 464980.400000
224.043900 789889.600000
239.067400 9231084.500000

>ms2peaks
55.018900 65100.100000
65.039700 97417.000000
65.998500 113827.600000
68.998200 57422.700000
79.055400 64519.500000
80.026900 261091.600000
81.034700 86686.500000
81.071000 250520.800000
91.055300 1546670.900000
93.034600 219991.300000
95.013900 103386.700000
107.050300 254758.500000
107.086700 785752.500000
108.021700 209330.000000
109.016900 456180.300000
109.029300 58934.900000
119.050300 100683.100000
121.029600 340595.700000
123.032700 3699874.200000
134.024800 1356303.100000
135.045200 1247289.500000
136.053000 2927943.600000
146.037500 297671.500000
147.045100 450708.100000
148.040500 3546528.400000
149.048200 16268605.900000
150.056000 7543776.800000
151.027500 954908.100000
151.076400 5609639.900000
160.040500 480881.100000
162.019700 5592548.700000
163.040400 431913.800000
164.035500 1684090.300000
164.047900 467119.500000
164.071800 6902899.000000
166.050900 368686.400000
176.035300 25774611.400000
177.043000 17933840.000000
178.050900 4239175.500000
179.071300 814660.000000
192.066600 849346.700000
193.038000 107901.900000
193.074300 219271.300000
194.045800 1329119.600000
207.041100 30701928.500000
208.061500 902481.800000
209.069700 206979.300000
223.036000 343914.600000
239.067400 794066.200000

