>compound EQ91234086
>parentmass 222.1136
>ionization [M-H]-
>formula C12H17NO3
>rt 504.000000
>profile orbitrap
#smiles_iso CCCCOC1=CC=C(C=C1)CC(=O)NO
#smiles_can CCCCOC1=CC=C(C=C1)CC(=O)NO
#inchikey MXJWRABVEGLYDG-UHFFFAOYSA-N
#pubchem_id 2466
#mb_accession EQ332251,EQ332252,EQ332253,EQ332254,EQ332255,EQ332256

>ms2
57.993400 398406.400000
59.001200 20558.100000
71.050300 12630.700000
93.034600 569744.100000
102.034800 11404.800000
108.021700 14683.900000
118.030000 94143.800000
119.037700 48898.500000
120.045500 22742.400000
121.029400 9102.300000
123.045000 5480.300000
146.024800 77129.500000
147.032500 28092.000000
148.040300 14697.700000
149.024300 48797.900000
165.042900 24918.700000
192.017300 9714.000000
193.086600 5461.900000
222.113600 5109608.500000

>ms2
57.993400 443297.200000
59.001200 18251.800000
59.985200 2977.100000
71.050200 11204.800000
92.026800 15873.700000
93.034600 403586.600000
95.013800 11709.600000
102.034900 16569.600000
106.042500 3913.300000
108.021700 17688.000000
118.030000 179930.200000
119.037700 65594.100000
120.045500 32816.800000
121.029400 3647.700000
123.045200 21068.100000
130.017000 7225.200000
134.024600 3193.300000
146.024700 88913.200000
147.032500 33290.100000
148.040300 22919.600000
149.024300 40976.700000
151.027400 2804.800000
162.007200 2770.900000
165.043100 17433.000000
193.086900 2637.700000
204.017900 3581.100000
222.113600 1552630.500000
237.101700 2043.800000

>ms2
57.993400 309709.500000
59.001300 9756.800000
82.005900 1826.900000
92.026800 43038.400000
93.034600 89722.600000
95.013900 30210.600000
102.035000 15590.400000
106.042600 6900.500000
108.021700 39947.800000
118.030000 294118.700000
119.037600 24134.000000
120.045600 32258.800000
121.029600 9162.300000
123.008600 2205.400000
123.045200 34413.300000
130.017100 2611.600000
134.024600 3315.100000
146.024800 71285.100000
147.032600 18650.200000
148.040500 28533.700000
149.024200 10439.300000
151.027300 1780.300000
165.043100 2546.800000
222.113700 57697.300000

>ms2
57.993400 217283.500000
59.001300 8328.000000
71.050400 2556.200000
82.006100 3339.000000
92.026800 75175.000000
93.034700 24720.400000
95.013900 47998.400000
102.035000 7466.000000
106.042500 4605.800000
108.021700 56785.700000
118.030000 410907.000000
119.037800 3310.600000
120.045500 39716.700000
123.008700 7381.200000
123.045200 32802.400000
130.017700 2212.400000
134.024600 2322.100000
146.024700 42756.500000
147.032800 1761.700000
148.040500 13300.100000
149.024600 1827.300000

>ms2
57.993400 123021.200000
82.006000 8080.200000
90.035000 2219.800000
92.026800 54876.300000
93.034500 14443.700000
95.013900 43595.300000
95.050200 10504.700000
102.035000 4246.200000
108.021700 46437.600000
118.030000 375277.200000
120.045500 35774.300000
121.029600 2197.400000
123.008700 7282.500000
123.045200 18252.600000
146.024700 36238.800000
147.032700 2172.000000
148.040300 3159.800000

>ms2
57.993400 75436.400000
90.035000 10820.400000
92.026800 41463.300000
93.034600 12776.100000
95.013900 36709.300000
95.050100 6252.300000
102.035000 2193.500000
108.021800 35972.500000
118.030000 361371.700000
120.045500 25940.100000
123.045300 7616.800000
146.024700 24169.500000

