>compound EQ91966918
>parentmass 372.099
>ionization [M-H]-
>formula C21H15N3O4
>rt 780.000000
>profile orbitrap
#smiles_iso C1=CC=C(C(=C1)C2=NN(C(=N2)C3=CC=CC=C3O)C4=CC=C(C=C4)C(=O)O)O
#smiles_can C1=CC=C(C(=C1)C2=NN(C(=N2)C3=CC=CC=C3O)C4=CC=C(C=C4)C(=O)O)O
#inchikey BOFQWVMAQOTZIW-UHFFFAOYSA-N
#pubchem_id 214348
#mb_accession EQ284251,EQ284252,EQ284253,EQ284254,EQ284255,EQ284256

>ms2peaks
118.029500 416072.600000
133.040700 328403.600000
209.072200 88289.100000
252.077200 702906.300000
310.100100 140788.100000
328.109000 48719705.900000
372.098800 58946422.100000

>ms2peaks
93.034600 304902.200000
102.034900 86542.600000
118.029900 3558249.500000
132.032900 93853.700000
133.040800 5814438.100000
160.051600 295491.700000
169.065700 136814.300000
194.061100 322055.500000
209.072000 1447790.200000
234.067300 171600.600000
251.069600 222917.800000
252.077700 7539792.000000
310.098700 1697801.400000
326.093800 699977.200000
328.109000 84814927.700000
372.098800 991867.600000

>ms2peaks
90.034900 107846.000000
93.034600 1456595.300000
102.035000 387777.500000
117.046000 502020.200000
118.029900 23489837.900000
121.029500 416828.500000
131.037700 91333.600000
132.033000 890222.400000
133.040800 18088478.100000
153.070900 167072.300000
160.051600 630867.900000
166.066000 196280.600000
168.045500 48859.800000
169.065800 542862.600000
180.058100 574815.900000
181.065700 169268.200000
182.061200 96724.900000
191.061400 192176.800000
194.061000 1532658.500000
197.060500 79540.700000
206.061400 36454.000000
207.056300 99249.800000
208.064300 45556.600000
209.071900 3580210.400000
210.055900 182103.100000
217.064700 80321.700000
218.072300 346935.200000
222.056400 43197.600000
223.063900 524635.600000
224.072000 40228.600000
233.059000 84555.700000
234.067200 581197.600000
251.070000 1005262.400000
252.077700 30245026.900000
283.088000 77744.900000
292.088100 89728.800000
308.083200 297825.000000
309.090700 117386.600000
310.098500 2121892.500000
326.093400 1121394.100000
328.109000 18603048.700000

>ms2peaks
90.034900 365692.900000
93.034600 1724746.000000
102.034900 389801.000000
115.030200 146046.700000
117.046000 538134.400000
118.029900 34553477.400000
121.029600 660599.400000
131.037600 132349.500000
132.033000 1340699.100000
133.040800 12914264.000000
153.070900 148840.200000
160.051600 393484.900000
166.066100 208856.100000
168.045400 87320.800000
169.065800 550933.900000
180.058100 459145.400000
181.054000 41629.500000
181.065500 78696.300000
181.077300 40824.700000
182.061600 43878.200000
191.061700 207830.200000
194.061100 1269514.200000
197.060900 88321.000000
206.048600 38908.900000
206.060700 43910.900000
207.056500 97301.100000
208.064600 36768.500000
209.071900 2080798.600000
210.055900 99693.800000
217.064700 152736.500000
218.072100 351106.800000
222.055500 93539.000000
223.063900 545956.900000
223.074500 41896.400000
224.071400 43593.900000
233.059500 81646.000000
234.067100 361811.600000
251.070200 423194.900000
252.077700 25621250.100000
308.083100 261124.000000
309.091400 34988.800000
310.098700 496728.600000
326.094100 312627.100000
328.109100 2289470.800000

>ms2peaks
90.034900 1409900.800000
93.034600 2471759.800000
102.034900 230535.900000
115.030300 217097.300000
117.046100 612577.800000
118.029900 55306277.900000
121.029500 954951.700000
131.037600 207986.000000
132.033000 1762239.600000
133.040800 5952055.200000
160.051700 150882.600000
166.066200 186140.600000
169.065700 309876.800000
180.058100 245959.800000
191.061700 169387.700000
194.061100 791731.700000
197.061100 89552.000000
206.060900 93808.900000
209.071800 423782.600000
217.064400 103856.500000
218.072300 292231.400000
222.055900 186974.600000
223.064100 308868.300000
234.066900 157150.600000
252.077700 13225847.200000
308.083200 210281.300000
328.109100 121350.700000

>ms2peaks
90.034900 4220891.200000
93.034600 2861962.300000
102.034900 125685.700000
115.030300 238275.200000
117.046100 674293.500000
118.029900 65587241.100000
121.029500 626832.600000
131.037500 295996.900000
132.032900 1021714.000000
133.040800 2309545.600000
166.066100 170581.400000
169.065600 161398.600000
180.058100 97689.700000
180.069400 76866.400000
191.061600 123130.800000
194.061000 632777.600000
206.048500 88183.200000
209.072100 113021.500000
218.072100 79265.500000
222.056000 125520.900000
223.064000 141697.000000
234.067400 119826.300000
252.077700 3458912.700000

