>compound EQ92757291
>parentmass 266.0895
>ionization [M-H]-
>formula C10H13N5O4
>rt 66.000000
>profile orbitrap
#smiles_iso C1=NC(=C2C(=N1)N(C=N2)[C@H]3[C@@H]([C@@H]([C@H](O3)CO)O)O)N
#smiles_can C1=NC(=C2C(=N1)N(C=N2)C3C(C(C(O3)CO)O)O)N
#inchikey OIRDTQYFTABQOQ-KQYNXXCUSA-N
#pubchem_id 60961
#mb_accession EQ330451,EQ330452,EQ330453,EQ330454,EQ330455,EQ330456

>ms2
92.025400 1305.900000
107.036500 5314.100000
134.047200 1074215.100000
266.089400 162352.800000

>ms2
92.025400 3815.200000
107.036300 12537.400000
134.047200 1284925.400000
266.089400 38649.600000

>ms2
92.025500 13888.100000
107.036300 45080.700000
134.047200 1242707.200000

>ms2
65.014500 6079.600000
92.025400 35641.200000
107.036300 150045.700000
134.047200 930588.100000

>ms2
65.014500 9604.000000
68.025500 3044.500000
79.017600 787.900000
80.025400 4949.000000
92.025500 76510.800000
107.036300 264505.900000
117.020600 852.000000
133.039600 1149.100000
134.047200 594314.800000

>ms2
64.006500 485.200000
65.014500 18631.300000
66.009700 787.600000
68.025400 7192.900000
80.025500 4388.400000
92.025500 96073.000000
106.028500 840.800000
107.036300 254977.700000
133.039500 1062.200000
134.047200 289356.200000

