>compound EQ92559438
>parentmass 924.4961999999999
>ionization [M-H]-
>formula C47H75NO17
>rt 696.000000
>profile orbitrap
#smiles_iso C[C@H]1/C=C/C=C/CC/C=C/C=C/C=C/C=C/[C@@H](C[C@H]2[C@@H]([C@H](C[C@](O2)(C[C@H]([C@@H](CC[C@H](C[C@H](C[C@H](CC(=O)O[C@H]([C@@H]([C@@H]1O)C)C)O)O)O)O)O)O)O)C(=O)O)O[C@H]3[C@H]([C@H]([C@@H]([C@H](O3)C)O)N)O
#smiles_can CC1C=CC=CCCC=CC=CC=CC=CC(CC2C(C(CC(O2)(CC(C(CCC(CC(CC(CC(=O)OC(C(C1O)C)C)O)O)O)O)O)O)O)C(=O)O)OC3C(C(C(C(O3)C)O)N)O
#inchikey VQOXZBDYSJBXMA-NQTDYLQESA-N
#pubchem_id 11286230
#mb_accession EQ314051,EQ314052,EQ314053,EQ314054,EQ314055,EQ314056

>ms2peaks
67.055400 13593.600000
69.034500 126955.000000
71.013800 67775.200000
73.029500 40529.300000
83.050100 85325.600000
85.029500 223429.200000
86.024800 122142.200000
87.008700 47984.400000
88.040400 855022.800000
93.034500 70891.600000
100.040300 35865.500000
111.045100 677265.100000
115.040100 582213.500000
118.051100 45930.100000
123.045200 334002.300000
129.071100 7884.800000
131.049900 7675.200000
135.081600 7479.500000
137.060900 69269.600000
139.076400 48219.700000
141.055800 223091.600000
144.066400 59372.700000
145.050700 14445.500000
147.081400 59624.600000
149.060700 217117.500000
150.068500 27820.800000
155.071200 12988.500000
159.066100 29573.300000
162.077200 1813042.800000
163.076100 120676.300000
165.092000 207426.000000
167.071200 490109.600000
181.087000 116548.200000
183.102600 175831.500000
185.081600 46747.900000
189.091800 15708.700000
191.071600 34743.900000
199.097700 62843.600000
203.092700 79109.300000
205.123500 7213.000000
207.102600 123025.000000
209.081500 88978.600000
223.133700 26782.700000
225.113300 106660.500000
227.092400 5672322.000000
228.096000 81431.500000
233.118500 50772.000000
245.102900 6304503.000000
249.112600 33725.900000
249.149000 48460.000000
257.191100 11625.000000
263.113500 36815.000000
267.123600 233626.200000
267.175300 135993.400000
275.129200 41479.800000
279.211700 8934.700000
285.134200 311431.800000
293.139300 446223.300000
293.190900 51047.600000
303.144600 464083.728200
311.149800 1301254.900000
329.160400 1239383.900000
333.222100 148999.600000
338.212400 103062.000000
351.233400 59936.600000
369.243100 430717.100000
387.253600 235548.700000
395.258300 101106.900000
404.259300 31931.900000
409.275400 11579.200000
422.268600 16827.300000
435.290100 442235.800000
437.269800 68004.000000
440.280100 281388.300000
453.300600 309057.200000
455.279900 10964.300000
458.291500 11499.700000
463.285500 105510.500000
477.300000 26862.200000
489.300400 29796.900000
496.307500 46014.300000
503.316300 74098.800000
506.328300 32803.600000
514.316800 352274.900000
515.318300 38693.100000
521.327200 37974.600000
529.330700 69715.700000
532.327300 474988.263300
547.340700 13005.700000
557.329500 26751.300000
561.322000 38461.000000
575.338800 42915.300000
592.350900 13367.000000
601.352800 30176.000000
616.385300 265636.247500
619.362900 34432.200000
627.367300 138975.500000
645.379000 799790.100000
663.389600 774277.000000
681.400400 212105.823900
790.453200 63119.900000
808.462900 251539.577500
826.473900 927971.300000
838.460800 30520.800000
844.484200 529412.608200
906.484000 259236.904300

>ms2peaks
65.039600 76732.100000
67.018900 106103.300000
67.055300 112439.600000
69.034600 1974245.800000
70.029800 71386.700000
71.013800 1214857.600000
72.009100 57847.800000
72.993100 66975.400000
73.029500 358119.300000
74.024800 14608.100000
81.034600 81362.300000
83.050200 1130093.200000
85.029500 998090.300000
86.024700 528766.500000
87.008800 261469.100000
87.045200 61296.100000
88.040400 3039205.000000
93.034600 831254.200000
95.013900 14621.700000
95.050300 183980.700000
96.045400 9313.800000
97.029500 179330.000000
97.065800 11914.900000
99.045100 59843.000000
100.040400 104376.400000
102.056000 13180.500000
105.034600 76654.700000
105.071000 26968.700000
107.050200 64291.000000
107.086700 68921.100000
109.029400 34457.900000
109.065900 83308.800000
110.037400 41640.200000
111.045200 8799281.000000
112.048500 74204.600000
113.060800 58150.100000
115.040100 3538436.300000
118.051000 27381.700000
119.050300 39857.900000
119.086700 10235.000000
121.029700 14273.700000
121.065900 114444.700000
122.061100 14215.900000
123.045200 2454094.400000
124.048400 14674.700000
125.060800 125711.300000
127.040000 88750.000000
129.071000 192836.000000
131.050200 201294.000000
131.071300 32566.400000
133.065900 39801.600000
133.102200 15473.100000
135.045200 26047.600000
135.081500 99066.000000
137.060700 808199.500000
138.056200 70566.600000
139.039900 32781.300000
139.076400 352231.600000
141.055700 869236.300000
143.050200 10626.100000
144.066600 42418.800000
145.050500 50885.200000
145.065900 142986.700000
145.102200 14649.300000
147.081600 524705.600000
148.052900 14299.500000
149.060700 1266759.300000
150.068800 94879.500000
151.076300 34747.600000
153.092100 36419.800000
155.071500 84592.600000
155.107500 69437.100000
157.086800 38699.700000
159.066400 15913.100000
159.081400 14836.800000
159.117700 11260.000000
161.060900 13056.000000
161.097100 10524.900000
162.077200 378674.300000
163.076500 976165.000000
165.092000 1490092.900000
167.071200 821125.300000
171.081500 15868.900000
171.117900 33348.300000
173.060700 57113.700000
173.097000 400079.100000
175.076200 31702.300000
181.087000 225501.700000
183.102600 596749.200000
185.081800 14306.000000
185.133300 46289.100000
187.076200 9243.800000
187.112800 30921.900000
189.092000 147450.700000
191.071400 211818.200000
197.133600 12617.700000
199.097300 25530.000000
199.112700 151504.600000
205.123500 35911.000000
207.102600 180245.000000
209.081900 371662.000000
213.128400 56780.600000
215.107700 39651.900000
223.134400 26169.700000
225.113700 42441.300000
225.164700 31019.600000
227.092400 3793287.100000
228.095800 61414.900000
233.118000 104563.300000
238.136300 14240.800000
239.144100 216992.300000
239.180500 48472.700000
245.102900 704174.700000
248.105200 33962.500000
249.113300 52351.000000
249.149600 25752.600000
257.190900 52147.300000
263.113500 99971.300000
265.196200 37968.800000
267.123600 152255.600000
267.175400 597966.300000
275.129000 27740.800000
279.212100 13527.000000
285.134300 42444.600000
285.185400 56793.800000
291.175600 15471.300000
291.212200 57163.900000
293.139300 216102.400000
293.190800 360679.800000
307.206900 71957.200000
311.149900 67473.500000
329.160500 12568.400000
333.222300 457513.800000
338.212500 400412.200000
351.232700 140906.400000
369.242800 147049.900000
377.248300 26918.100000
387.253900 169787.800000
395.259100 156589.900000
404.258400 64848.600000
409.276000 12416.600000
413.248100 142082.588300
422.269800 36182.000000
435.290000 144035.000000
437.269500 176556.300000
440.280900 58466.300000
453.301000 71881.100000
455.280200 67832.600000
458.291300 10632.700000
463.285100 202494.200000
477.300900 52481.700000
489.301900 41046.600000
496.306400 27199.000000
503.317300 89524.200000
514.319100 17824.900000
515.319000 33765.700000
521.325700 45173.600000
529.333600 42438.700000
547.345400 8843.600000
557.326900 15799.600000
575.337900 58229.500000
592.348900 67862.300000
601.354900 39789.500000
619.365700 27449.400000
627.371300 25747.900000
645.378600 83964.100000
663.389500 32714.600000
838.460800 12221.600000

>ms2peaks
65.039600 208487.400000
67.018900 238572.400000
67.055300 158056.500000
69.034600 2621882.700000
70.029800 126859.500000
71.013800 1983475.400000
72.009100 47196.600000
72.993100 125550.500000
73.029500 355196.600000
74.024700 23211.500000
75.008800 7122.800000
81.034600 216981.100000
83.050200 1398004.400000
85.029500 892335.500000
86.024700 363051.100000
87.008800 214147.800000
87.045200 49901.400000
88.040400 1710704.600000
91.055300 49383.700000
93.034600 856833.100000
95.013900 34159.800000
95.050300 403065.400000
96.045400 8298.200000
97.029500 262931.500000
97.065900 35720.800000
99.045200 121812.000000
100.040500 52637.200000
102.056200 10140.600000
105.034600 159442.700000
105.071000 37532.900000
107.050300 116877.200000
107.086600 66706.600000
109.029600 81387.200000
109.065900 176367.700000
110.037300 29607.700000
111.045200 5778736.600000
112.048600 40558.000000
113.060900 68680.300000
115.040100 1408669.900000
117.071100 44002.200000
119.050300 89268.300000
119.086700 42513.800000
121.029400 58500.300000
121.066000 201994.900000
122.061200 29451.300000
123.045200 2115486.100000
124.048500 27097.100000
125.060700 91741.300000
127.040000 41954.900000
129.071000 121392.700000
130.042300 27945.900000
131.050200 372602.900000
131.071400 25982.900000
132.058100 32257.900000
133.066000 84504.000000
133.102300 32183.400000
134.037700 8158.800000
135.045300 49649.500000
135.081700 84509.800000
137.060700 604811.400000
138.056000 44668.300000
139.039900 50141.000000
139.076500 138074.400000
141.055700 239815.100000
143.050100 12971.900000
143.086500 25492.000000
145.065900 127072.300000
145.102200 29558.600000
146.061200 8477.100000
146.073800 6236.400000
147.045200 71979.200000
147.081500 266804.100000
148.053100 38423.200000
149.060700 507855.500000
150.068700 49805.300000
151.076600 33705.300000
153.092200 33711.600000
155.086500 11747.000000
155.107700 10280.000000
156.058100 6258.400000
157.065700 14405.100000
157.087200 17071.900000
158.073400 8802.700000
159.045700 6690.400000
159.081800 21764.900000
159.118000 27947.700000
160.053100 10554.600000
161.060800 28469.200000
161.097200 39218.400000
162.092400 24567.900000
163.076500 498489.100000
165.055600 54424.500000
165.092000 341606.800000
167.071100 81788.200000
169.066000 13893.000000
169.102200 10788.800000
171.081700 36801.900000
171.118000 82275.600000
173.060700 40910.300000
173.097000 579900.900000
175.076200 14688.300000
181.087200 36293.000000
181.102400 13204.300000
183.081700 10601.300000
183.102600 53032.400000
184.089400 11333.100000
185.133800 36671.800000
186.105600 8346.200000
187.113000 10255.200000
189.092000 78452.100000
191.071200 83253.200000
195.117800 9308.400000
197.097000 32174.200000
197.134100 47225.100000
198.105100 44385.600000
199.077400 11552.700000
199.112800 214396.600000
207.101900 7717.500000
209.081300 44537.200000
209.097800 7700.100000
211.076500 7945.600000
213.092700 10168.000000
213.128500 36844.100000
215.108000 14640.400000
225.165300 22508.000000
227.092500 76196.700000
238.136800 9966.100000
239.144100 183131.200000
239.180700 13125.400000
245.103300 36660.800000
248.106300 6933.500000
257.191400 25179.500000
265.196200 34408.200000
267.175300 76612.100000
285.186000 46687.600000
291.175200 8248.900000
291.212400 39438.100000
293.191000 142905.300000
307.206900 38496.200000
333.221700 56057.700000
338.212000 50881.100000
351.233300 12075.800000
369.244000 11385.200000
377.249500 41032.500000
395.260400 11351.200000
437.271100 13080.700000
463.286700 9270.100000

>ms2peaks
127.040300 11365.800000
129.071000 64184.700000
130.042400 33970.200000
131.050200 235872.300000
132.058200 19178.000000
133.066000 44165.100000
133.102200 3289.300000
134.037400 7118.200000
135.045400 31405.300000
135.081600 48989.700000
137.060800 253322.600000
138.056000 7436.900000
139.040200 26717.400000
139.076400 42806.600000
141.055600 39138.000000
141.071200 5017.300000
143.050200 44962.800000
143.086600 18567.600000
145.065800 108460.300000
145.102300 27476.900000
146.061300 4886.500000
146.073800 9164.500000
147.045200 89930.200000
147.081500 96229.700000
148.053100 33871.500000
149.060700 168052.400000
150.068700 10479.600000
151.076600 7108.800000
153.092000 8053.600000
155.086800 18372.600000
157.065900 31240.700000
158.073500 20219.500000
159.045100 4209.100000
159.081800 19689.900000
159.118000 6824.900000
160.053200 6694.500000
161.060900 19165.900000
161.097100 18285.900000
162.092600 6957.100000
163.076400 194461.500000
165.055800 39458.300000
165.091900 67658.800000
167.071000 6999.100000
169.065900 8830.000000
169.102100 7288.500000
171.081400 26262.400000
171.117900 32055.400000
173.060700 26139.300000
173.096900 277646.400000
175.076500 7135.200000
181.065800 3908.000000
181.102400 9089.000000
183.081400 20952.800000
184.089700 10215.900000
185.096700 5874.700000
185.133400 6622.100000
186.104500 4018.900000
187.076100 5891.000000
187.112900 3851.200000
189.092200 29187.900000
191.071600 22216.700000
195.081200 6831.800000
195.117500 8175.300000
197.097200 44133.800000
197.133600 20734.900000
198.105100 40666.400000
199.076700 4794.900000
199.112800 86288.700000
209.081300 4477.000000
211.076500 8192.700000
213.091800 18194.100000
213.128700 9118.400000
227.092400 3941.100000
239.107700 4278.700000
239.144100 57158.200000
257.190900 7595.500000
265.196100 10177.800000
267.175000 18259.100000
285.187000 4494.100000
293.190500 50566.600000
307.205400 19884.600000
333.222100 7637.200000
377.248200 18815.300000

>ms2peaks
129.071000 36764.500000
130.042200 43422.900000
131.050200 125221.000000
132.058200 11464.400000
133.065800 38817.200000
135.045300 10548.900000
135.081700 23582.700000
137.060800 108298.500000
138.055800 4178.600000
139.040200 20918.700000
139.076600 8935.200000
141.056000 4369.500000
141.071100 9162.400000
143.050100 37932.500000
143.086600 11779.900000
145.065800 65615.100000
145.102500 6819.800000
147.045000 66368.300000
147.081500 25294.500000
148.053100 10562.000000
149.060600 35727.800000
155.086300 6908.900000
156.057700 4906.200000
157.065900 32949.900000
158.073700 10567.800000
159.081400 6363.100000
160.053300 4494.200000
161.061000 7671.900000
161.097000 4731.200000
163.076400 40111.200000
165.055600 7596.400000
165.092400 6140.200000
169.065800 30167.100000
169.102100 9685.900000
171.081500 31738.000000
171.118200 3406.300000
173.060700 11591.500000
173.097000 49752.200000
181.065400 3999.200000
181.102300 4036.500000
183.081600 25809.900000
184.089200 7903.400000
185.097000 7638.700000
187.076700 3464.600000
191.071800 7232.600000
195.081500 10018.000000
195.117900 4791.400000
197.097100 43627.800000
198.104600 4564.700000
199.112900 6788.200000
211.076200 6774.800000
239.107100 4322.900000

>ms2peaks
129.071200 19791.200000
130.042600 29306.800000
131.050100 39501.200000
133.066100 19331.200000
134.037400 3681.700000
135.045400 4369.400000
135.081800 3665.800000
137.061100 24338.600000
139.040500 3659.500000
141.071000 4999.100000
143.050200 19661.900000
143.086700 4749.500000
145.065900 25706.200000
147.045100 35247.700000
147.081500 7454.200000
148.053200 3825.800000
149.061200 5711.900000
156.058300 3753.200000
157.065800 7506.600000
161.060900 4191.700000
169.065900 19088.700000
169.102400 3436.900000
173.060900 4031.800000
181.066100 4627.100000
183.081600 9812.600000
195.081800 6042.700000
197.097000 20002.800000
209.098000 4859.900000

