>compound EQ92798183
>parentmass 290.0823
>ionization [M-H]-
>formula C18H13NO3
>rt 438.000000
>profile orbitrap
#smiles_iso C1=CC=C2C(=C1)C=CC=C2NC(=O)C3=CC=CC=C3C(=O)O
#smiles_can C1=CC=C2C(=C1)C=CC=C2NC(=O)C3=CC=CC=C3C(=O)O
#inchikey JXTHEWSKYLZVJC-UHFFFAOYSA-N
#pubchem_id 8594
#mb_accession EQ309751,EQ309752,EQ309753,EQ309754,EQ309755,EQ309756

>ms2
142.066100 15580312.300000
168.045300 441804.000000
228.081500 300233.200000
246.092300 201131296.200000
290.082200 19969261.900000

>ms2
142.066100 23995896.500000
143.049800 368098.400000
168.045400 4089077.300000
218.097400 570710.000000
228.081800 3785065.500000
246.092300 215506482.900000
290.082500 250225.600000

>ms2
93.034500 80551.100000
142.066100 30666126.500000
143.050100 1446328.900000
168.045400 11624767.000000
216.081900 345009.200000
218.097200 1549493.200000
227.073900 811775.200000
228.081700 5149977.500000
244.076600 544598.700000
246.092300 78899725.300000

>ms2
93.034600 55228.400000
115.055400 62173.300000
142.066100 25179840.700000
143.050100 1788796.400000
168.045400 9914834.300000
216.081900 461100.600000
218.097400 1032298.800000
227.073900 1013829.600000
228.081800 2644592.000000
244.076500 492218.100000
246.092300 23549764.100000

>ms2
115.055400 64164.100000
140.050500 98593.700000
142.066100 17184247.500000
143.050100 1703323.800000
168.045400 5272202.000000
216.081900 534281.100000
218.097300 257811.700000
227.073900 525466.500000
228.081500 421316.200000
244.076800 369493.600000
246.092300 1924553.900000

>ms2
93.034900 51242.600000
115.055300 59588.000000
140.050800 300521.900000
142.066100 11507419.000000
143.050100 1340368.500000
168.045400 2410257.500000
216.081800 531170.800000
227.074100 78172.700000
244.077100 187404.100000
246.092400 165651.300000

