>compound EQ93892526
>parentmass 220.0979
>ionization [M-H]-
>formula C12H15NO3
>rt 468.000000
>profile orbitrap
#smiles_iso CC1=CC(=CC(=C1)OCC2CNC(=O)O2)C
#smiles_can CC1=CC(=CC(=C1)OCC2CNC(=O)O2)C
#inchikey IMWZZHHPURKASS-UHFFFAOYSA-N
#pubchem_id 15459
#mb_accession EQ312751,EQ312752,EQ312753,EQ312754,EQ312755,EQ312756

>ms2peaks
130.017200 30010.000000
131.013600 11970.800000
144.033000 780.400000
145.029400 572.600000
176.022500 2425.600000
220.036100 90769.600000

>ms2peaks
130.017200 41406.500000
131.013700 12105.800000
144.032500 1171.200000
145.029000 561.300000
176.022300 2586.300000
220.035900 51426.400000

>ms2peaks
130.017200 31869.000000
131.013600 9735.300000
145.029100 793.400000
220.035800 7795.400000

>ms2peaks
130.017100 24428.900000
131.013600 8630.900000

>ms2peaks
130.017100 9698.800000
131.013600 2725.000000

>ms2peaks
130.017100 2702.800000
131.013600 980.900000

