>compound EQ96232185
>parentmass 457.8629
>ionization [M-H]-
>formula C13H7Br2N3O6
>rt 888.000000
>profile orbitrap
#smiles_iso C1=CC(=C(C=C1[N+](=O)[O-])[N+](=O)[O-])O/N=C/C2=CC(=C(C(=C2)Br)O)Br
#smiles_can C1=CC(=C(C=C1[N+](=O)[O-])[N+](=O)[O-])ON=CC2=CC(=C(C(=C2)Br)O)Br
#inchikey XTFNPKDYCLFGPV-OMCISZLKSA-N
#pubchem_id 86287521
#mb_accession EQ303751,EQ303752,EQ303753,EQ303754,EQ303755,EQ303756

>ms2
78.918900 51530.800000
123.008900 3162.400000
153.006800 1969.900000
183.004700 503291.800000
273.851100 275004.500000

>ms2
78.918900 228108.100000
95.014000 3946.900000
109.016700 928.200000
123.008800 14782.200000
125.012000 926.300000
153.006800 27218.000000
183.004700 520496.900000
273.851100 92935.500000

>ms2
64.019300 822.000000
67.019000 1585.600000
69.034600 1661.900000
78.918900 246886.600000
95.013900 14349.400000
97.029400 837.800000
109.016600 2281.100000
123.008900 47395.600000
125.011900 1264.500000
137.011500 1428.600000
153.006800 59084.500000
183.004700 260343.500000
273.851300 9564.900000

>ms2
67.018900 5149.700000
68.998200 1236.700000
69.034700 3901.600000
78.918900 279422.200000
95.013900 33386.300000
97.029100 952.700000
109.016900 1742.100000
120.009100 876.900000
123.008900 72271.800000
125.011700 5431.000000
137.011800 1792.400000
153.006800 65214.200000
183.004700 172600.900000
273.851000 3216.100000

>ms2
65.998700 803.500000
67.018900 6625.200000
68.998200 3957.100000
69.034500 1990.700000
78.918900 227979.200000
95.013900 41644.200000
97.029500 1619.900000
109.017000 1057.100000
123.008800 56586.900000
125.011900 10836.900000
153.006800 31215.800000
183.004700 47205.900000

>ms2
64.019400 1269.800000
65.998500 992.300000
67.018900 6507.200000
68.998300 4911.400000
69.034600 4176.400000
78.918900 269660.200000
95.013900 45722.500000
97.029600 2000.100000
109.017000 3327.000000
120.009100 1803.200000
123.008900 37995.900000
125.011900 13817.000000
137.011300 753.400000
153.006800 14539.400000
183.004600 17156.800000

