>compound EQ96631389
>parentmass 246.0354
>ionization [M-H]-
>formula C8H10FN3O3S
>rt 126.000000
>profile orbitrap
#smiles_iso C1[C@H](O[C@H](S1)CO)N2C=C(C(=NC2=O)N)F
#smiles_can C1C(OC(S1)CO)N2C=C(C(=NC2=O)N)F
#inchikey XQSPYNMVSIKCOC-NTSWFWBYSA-N
#pubchem_id 60877
#mb_accession EQ310651,EQ310652,EQ310653,EQ310654,EQ310655,EQ310656

>ms2
57.975700 715.000000
74.991100 705.800000
104.025200 5534.800000
107.025100 2681.500000
110.016100 7419.500000
111.002400 3383.800000
115.020900 2922.200000
123.002200 4776.800000
132.020300 3766.500000
138.013000 5382.400000
138.997000 6643.700000
140.027200 755.600000
143.008400 8780.700000
152.026500 563650.600000
158.019500 843.000000
166.008000 75002.800000
170.037100 46492.300000
186.014300 160601.400000
216.038500 5216.300000
218.030900 752.900000

>ms2
57.975700 3371.600000
74.991200 864.400000
104.025500 12751.400000
105.033200 1391.300000
107.025100 4249.600000
110.016000 17620.000000
111.002300 8495.700000
115.021000 5469.500000
122.036300 1299.600000
123.002400 10309.200000
128.026900 1318.200000
132.020300 10142.200000
133.028100 1275.900000
134.036100 1250.800000
138.013000 10414.100000
138.997100 8334.000000
140.026500 1294.300000
142.042000 928.600000
143.008400 14772.200000
152.026500 722259.000000
158.019200 1461.100000
166.008000 54831.600000
170.037100 28618.600000
186.014400 36444.800000
216.038500 3473.100000
218.031300 2820.900000

>ms2
57.975600 6799.000000
65.014500 2993.800000
77.014600 1316.200000
83.005200 1042.500000
85.020700 934.000000
95.978700 790.100000
95.991200 1418.800000
104.025400 59876.300000
105.033100 8592.200000
107.025100 3072.900000
110.016000 17992.100000
111.002200 14227.400000
112.031800 1154.100000
115.020900 3912.200000
122.035900 872.700000
123.002400 6769.900000
128.026600 9722.600000
132.020300 48378.200000
133.027900 1132.300000
134.035800 1196.300000
138.012900 5692.500000
138.997100 4791.800000
140.026600 1504.100000
142.041900 2500.000000
143.008400 13244.100000
152.026500 513527.800000
158.019400 1237.700000
166.008000 15342.800000
170.036900 7226.800000
186.014100 1087.700000

>ms2
57.975700 7680.000000
65.014500 8293.700000
71.991400 626.300000
77.014500 4458.200000
83.005000 4301.600000
85.020800 2941.400000
91.030200 2394.100000
95.978700 2905.900000
95.991300 4241.600000
104.025400 124750.800000
105.033200 13569.300000
107.025100 3486.300000
110.016100 15080.400000
111.002300 15187.600000
112.031800 1269.000000
115.020800 2375.300000
121.994300 980.600000
122.036000 740.200000
123.002300 6652.300000
128.026600 12755.600000
132.020300 79826.500000
133.028100 1149.200000
138.012800 5437.900000
138.997100 2378.000000
140.026800 1114.200000
143.008500 7352.500000
152.026500 351873.800000
158.019300 1207.900000
166.007700 5301.300000
170.037000 829.800000

>ms2
50.003500 982.200000
57.975700 11651.600000
65.014500 14623.400000
71.991500 621.900000
74.006900 661.100000
77.014500 5713.500000
83.005200 4594.400000
85.020800 9014.500000
91.030200 3001.900000
95.978800 2719.700000
95.991400 7366.000000
97.020700 928.900000
104.025400 200943.700000
105.033300 15762.200000
110.015900 10274.600000
111.002300 9444.000000
112.031800 2951.800000
121.994600 1412.100000
123.002300 1448.600000
128.026700 13613.200000
132.020300 69320.100000
138.013000 3282.900000
143.008400 2880.800000
152.026500 147506.400000
158.019200 683.200000
166.007900 713.000000

>ms2
50.003600 2741.500000
57.975600 13846.700000
65.014500 14843.100000
71.991400 1423.800000
74.007000 938.300000
77.014500 6228.600000
83.005100 6358.800000
85.020800 12139.500000
91.030200 4621.500000
95.978700 5620.200000
95.991300 7174.500000
97.020800 989.500000
104.025400 186403.300000
105.033200 14971.000000
110.016100 5321.800000
111.002300 6025.600000
112.031800 1283.700000
121.994300 1496.100000
123.002200 789.400000
128.026600 8857.600000
132.020300 35294.100000
152.026500 40808.000000

