>compound EQ98381573
>parentmass 346.0867
>ionization [M-H]-
>formula C16H17N3O4S
>rt 264.000000
>profile orbitrap
#smiles_iso CC1=C(N2C(C(C2=O)NC(=O)C(C3=CC=CC=C3)N)SC1)C(=O)O
#smiles_can CC1=C(N2C(C(C2=O)NC(=O)C(C3=CC=CC=C3)N)SC1)C(=O)O
#inchikey ZAIPMKNFIOOWCQ-UHFFFAOYSA-N
#pubchem_id 2666
#mb_accession EQ301451,EQ301452,EQ301453,EQ301454,EQ301455,EQ301456

>ms2
57.975700 4289.400000
71.991300 5389.900000
73.011700 17998.900000
74.007100 9573.800000
96.045600 8917.400000
96.999200 3298.500000
99.986100 3003.800000
100.022600 33578.500000
100.040400 4415.900000
102.001900 17743.900000
102.034900 21946.100000
102.038300 26351.800000
104.050700 2821.500000
107.061500 73383.600000
108.045700 2756.800000
109.077100 260035.600000
112.022700 61053.100000
112.040500 94738.500000
116.050700 5046.600000
119.061600 11410.200000
121.077300 24370.100000
123.056500 3615.200000
124.022700 20970.100000
124.040400 70485.600000
126.019800 23878.500000
126.038300 60195.200000
128.017700 3898.900000
129.001400 6383.800000
134.061000 4319.600000
135.056500 213365.500000
137.071900 17999.100000
139.087400 8460.900000
140.035400 42709.700000
142.033200 67036.100000
147.056500 34810.200000
149.072000 31073.400000
151.051300 87170.500000
152.017500 46057.900000
156.012500 186811.400000
158.028000 43905.200000
159.056300 23525.200000
162.043600 39097.900000
163.051400 48980.400000
165.066900 228447.700000
166.033200 78239.600000
169.044100 107793.200000
171.056400 5188.000000
172.088100 3566.800000
173.048300 18607.000000
173.071900 301300.900000
175.051200 33179.400000
181.064800 21484.500000
187.051400 64516.900000
189.067000 735433.500000
190.033200 2999.000000
196.007400 63857.100000
196.031000 21501.100000
197.108400 12483.900000
200.059000 5472.900000
201.067000 87604.500000
205.044300 27134.500000
207.059700 575863.800000
207.092500 44505.300000
212.119400 3675.900000
213.034000 5453.100000
213.103100 4864.300000
216.077700 387174.600000
219.077500 96161.500000
224.119300 405062.200000
225.103300 128535.100000
231.113700 2654.400000
233.039000 1033347.900000
240.114300 206956.600000
241.098100 30894.800000
251.082700 53070.200000
252.090300 45956.900000
256.109200 236734.500000
258.106900 52219.800000
259.091100 41891.400000
268.109200 2586047.100000
269.093700 3074.700000
274.102100 22635.900000
275.086100 541651.100000
302.096900 581799.300000
312.099100 217929.500000

>ms2
56.980500 10719.900000
57.975700 14272.200000
58.996100 18994.600000
60.975400 3908.900000
65.014500 2308.800000
68.014200 2698.000000
70.983500 5075.700000
71.991300 19167.400000
72.009100 27736.700000
73.011800 49548.300000
74.007000 101477.300000
80.050500 10042.300000
83.991400 10853.600000
84.009100 9069.700000
85.011900 4234.400000
85.029500 17738.500000
92.050500 16629.200000
93.045800 15667.600000
94.066300 2849.100000
96.045500 17281.500000
96.999200 9726.200000
99.986200 19302.100000
100.022700 39425.000000
100.040400 8949.200000
102.002000 11437.400000
102.035000 30600.500000
102.038400 9387.000000
104.050700 3462.400000
105.045700 21854.400000
107.061500 359107.800000
108.045600 26158.600000
109.077200 434898.700000
110.061300 19320.900000
111.020100 3057.500000
112.022700 31206.800000
112.040500 203021.000000
114.038300 12291.400000
115.022200 4465.700000
116.050700 39184.100000
117.034700 8575.300000
118.030000 2605.300000
118.053800 4621.300000
118.066300 3707.000000
119.061500 18298.500000
120.045500 3481.700000
121.077200 148236.200000
122.048600 17988.000000
122.060900 2557.100000
123.056500 44411.500000
124.022600 44660.700000
124.040400 95228.000000
126.019700 15175.300000
126.038300 52638.300000
127.981600 2902.900000
128.017600 2574.500000
128.050800 3592.000000
129.001800 2817.800000
132.045600 3277.100000
132.056700 3469.600000
133.041000 3539.500000
134.048500 2537.100000
134.061200 39848.400000
135.056500 273216.800000
136.040300 5086.400000
137.072000 64678.300000
139.087700 11518.400000
140.017600 5261.700000
140.035400 16231.400000
141.049400 4409.000000
142.033100 326655.400000
145.077100 2624.300000
146.061100 8935.000000
147.056400 39049.200000
149.072000 4689.800000
151.051200 73306.900000
152.017500 33711.200000
156.012600 11421.700000
156.069300 9009.400000
157.076900 9507.100000
158.028200 85647.700000
159.056400 25883.200000
161.035800 4328.200000
161.071800 2556.800000
162.043600 108278.900000
163.051200 20378.400000
164.035300 12453.800000
165.066900 122210.700000
166.033100 36769.500000
167.028700 3646.300000
168.057000 3304.800000
169.044100 111765.900000
171.056500 27826.600000
172.040300 14728.900000
172.088000 10522.000000
173.048100 90648.900000
173.071900 1238325.600000
175.051300 28493.900000
181.064600 61052.100000
182.097700 4814.700000
183.092700 21072.500000
187.051400 51368.000000
189.049400 120420.100000
189.067000 396127.300000
190.033200 5271.900000
192.049100 5499.900000
196.007300 11127.600000
196.031300 5068.900000
197.108700 28294.600000
198.092400 9052.800000
199.051300 13826.500000
200.059100 60324.500000
201.066900 41512.300000
205.044100 13691.900000
207.059800 277310.600000
207.092700 162921.200000
208.087600 20162.200000
212.119400 16235.800000
213.033600 9251.400000
213.054700 2502.400000
213.103700 18720.100000
214.062000 2633.700000
215.070000 10037.300000
216.077700 290935.100000
217.020300 4632.100000
219.077300 9886.200000
222.103700 11963.100000
223.111600 2470.700000
224.119300 295025.000000
225.103400 85307.800000
229.098300 9029.200000
231.113700 2791.000000
233.039000 705139.900000
240.114300 152849.100000
241.098400 21922.900000
251.082500 20522.100000
252.090400 75589.700000
256.109100 162031.900000
258.106700 10291.300000
259.091600 3459.500000
268.109300 251119.500000
269.092800 3090.900000
274.102400 5500.100000
275.086100 132433.900000
284.081000 10779.400000
302.096700 10013.400000
312.098400 4675.000000

>ms2
56.980400 30116.500000
57.975600 33315.100000
58.996100 22282.100000
59.991400 1820.600000
60.975400 20327.300000
63.962600 2155.800000
65.014600 10136.900000
65.998600 13635.600000
66.035000 4209.000000
67.030200 10572.800000
68.014200 30441.800000
70.983500 19958.200000
71.991300 31726.900000
72.009200 24236.600000
72.999200 8639.100000
73.011800 46198.400000
74.007000 192723.800000
80.050600 16203.900000
81.975800 3979.900000
82.029900 2162.500000
83.991400 18096.000000
84.009200 9136.700000
84.999100 3170.200000
85.029500 11433.800000
86.007100 2814.100000
92.050600 25546.300000
93.045900 41646.500000
94.066400 2535.800000
96.045600 24939.600000
96.999400 5315.700000
99.986300 43661.800000
100.022700 31369.400000
100.040500 2499.000000
101.039700 4128.800000
102.001900 2127.900000
102.035100 33438.700000
104.050900 3149.000000
105.045900 41212.000000
106.053700 4563.700000
107.061500 505009.400000
108.045500 76504.800000
109.077200 314664.100000
110.061400 11892.600000
111.020100 11657.900000
112.040500 166850.200000
114.038400 32512.800000
115.022600 17205.400000
116.050700 73166.300000
117.034700 3867.100000
118.030100 5155.000000
118.053900 3033.200000
118.066300 9207.500000
119.061500 13680.700000
120.045800 3578.000000
121.077200 131563.600000
122.048600 25673.100000
122.061100 4130.200000
123.056500 53275.800000
124.022700 48724.200000
124.040400 66296.000000
125.006500 2789.300000
126.019600 2626.300000
126.038300 28356.300000
127.981500 3019.200000
128.050700 4499.600000
131.061700 2194.900000
132.045600 2294.900000
132.056900 9218.200000
133.040600 3373.700000
134.048700 4113.800000
134.061200 40205.000000
134.072200 4334.900000
135.056500 222645.600000
136.040500 4507.100000
137.072000 32500.700000
139.087700 2589.500000
140.035500 3972.800000
140.050400 2286.700000
141.025300 4720.700000
141.049500 2517.700000
142.033200 226338.000000
143.061600 4342.000000
144.045700 3444.600000
145.077400 2914.200000
147.056400 12248.700000
151.051300 19074.400000
152.017700 24852.600000
155.061400 3545.800000
156.069500 34664.000000
157.077100 10500.300000
158.028100 40807.400000
158.061300 3222.700000
159.056500 19097.700000
161.035700 4435.000000
161.072100 9114.600000
162.043700 49471.600000
163.051500 4250.300000
164.035100 3660.300000
165.066900 12632.600000
166.033100 7788.700000
168.056700 12678.600000
169.044200 30622.100000
171.056300 16833.400000
172.040400 25429.000000
172.088000 4174.600000
173.048200 144938.500000
173.071900 1195505.700000
175.051300 10544.000000
181.064600 36327.300000
183.092700 14632.300000
187.051300 24052.600000
189.049300 69829.300000
189.067100 88541.800000
190.033700 13032.400000
192.048900 5273.900000
197.108700 12123.600000
198.092900 2828.100000
199.051200 25378.700000
200.059200 117219.200000
201.067300 2744.000000
207.060200 27993.200000
207.092800 204527.900000
208.088400 17336.500000
213.054300 4466.900000
213.103100 3368.500000
214.062000 2596.400000
215.069900 7811.100000
216.078000 61656.800000
217.020900 2572.200000
222.104100 4185.100000
223.111800 3834.300000
224.119800 18450.200000
225.103400 20040.000000
229.098300 2568.000000
233.039100 227651.800000
240.114300 18550.200000
251.082700 22699.200000
252.090300 8316.000000
256.109400 22664.400000
268.109300 11233.300000
284.078900 2541.200000

>ms2
55.018900 7364.600000
56.980400 27248.900000
57.975600 39300.400000
58.996100 30850.900000
59.991400 3210.300000
60.975300 18027.200000
63.962500 2745.000000
65.014600 17287.900000
65.998500 36052.400000
66.034900 9034.400000
67.030200 18502.500000
68.014200 52211.800000
70.983500 33709.000000
71.991300 37256.200000
72.009200 17751.800000
72.999200 8559.700000
73.011800 46602.600000
74.007000 190909.400000
78.035100 2466.700000
80.050600 17564.900000
81.046000 2391.300000
81.975700 8161.100000
82.029800 4179.500000
83.991300 21896.200000
84.999100 5178.000000
85.011600 3153.700000
85.029600 12825.400000
87.027400 13133.900000
92.050600 24466.100000
93.045900 45407.300000
96.045600 29274.400000
96.999200 4810.200000
97.994600 3301.100000
98.006900 3675.400000
99.986300 61106.900000
100.022700 19295.300000
100.040500 3403.100000
101.006900 2713.300000
101.039700 14438.000000
102.001900 1899.900000
102.035000 27921.300000
104.050700 8327.200000
105.045900 32253.700000
106.053600 8167.300000
107.061500 528236.700000
108.045500 87037.800000
109.077200 217229.600000
110.061000 4486.700000
111.020000 7893.100000
112.040500 127943.800000
114.038300 32748.800000
115.022300 16108.400000
116.050700 89743.200000
117.034700 21084.600000
118.029900 3457.600000
118.066500 3197.200000
119.025100 3619.500000
119.061500 11487.000000
121.077200 76599.000000
122.048600 22763.100000
122.061400 10611.300000
123.056500 43964.500000
124.022700 38482.300000
124.040400 36032.200000
126.038300 18470.000000
127.981500 3156.500000
128.050700 3386.900000
131.061600 4558.800000
132.056900 4694.800000
133.040700 10151.600000
134.061100 25722.000000
134.072200 2552.600000
135.056500 178283.700000
136.040100 2874.300000
137.072100 22697.900000
140.017900 2251.800000
140.050400 4501.400000
141.025500 9594.700000
142.033200 140192.200000
143.061200 8624.700000
144.045300 2762.100000
146.061300 3968.800000
147.056500 4637.300000
149.043000 4109.300000
151.051500 4706.700000
152.017600 14976.300000
155.061600 11997.300000
156.069400 49129.700000
157.077000 9244.000000
158.028000 18608.600000
158.061000 8420.700000
159.056200 4633.400000
161.036000 2717.700000
162.043500 26896.000000
168.056700 4669.400000
169.044300 8728.000000
171.056300 19690.900000
172.040400 18586.400000
173.048200 107324.900000
173.071900 857178.700000
181.064700 18621.800000
182.097400 2215.800000
183.092600 4200.200000
187.051400 18010.900000
189.049200 22805.500000
189.066900 35357.900000
190.033200 10927.000000
191.061400 4045.700000
197.109100 2607.600000
199.051300 22181.400000
200.059200 72221.600000
207.092800 189502.900000
208.087900 15759.600000
213.103000 3477.800000
216.077800 18842.000000
223.111900 2725.400000
224.119900 2550.100000
225.103000 2188.100000
229.098500 2299.000000
233.039100 76545.800000
240.114200 3087.600000
251.082900 12116.700000

>ms2
55.019000 13862.200000
56.980400 37398.700000
57.975700 39908.000000
58.996000 51061.600000
59.991400 4235.600000
60.975400 11370.900000
65.014500 37858.700000
65.998600 32209.000000
66.035000 9114.100000
67.030300 11936.100000
68.014200 59958.900000
70.983500 59745.600000
71.991300 48874.000000
72.009200 9818.800000
72.975300 3798.000000
72.999200 17777.200000
73.011800 24353.600000
74.007000 162651.900000
80.050700 22014.900000
81.045900 2888.500000
81.975800 4088.300000
82.017200 4130.000000
83.991300 12100.300000
84.999200 11432.200000
85.029600 4303.900000
86.007000 3580.900000
87.027400 5149.600000
92.050600 12102.300000
93.045800 42570.700000
94.066200 2565.900000
96.045500 23459.800000
96.999200 11082.800000
97.994300 2430.800000
98.007000 6036.200000
99.986300 66702.600000
100.022700 14318.500000
101.006700 3007.900000
101.039800 12659.300000
102.034900 15276.500000
104.037900 2104.300000
105.045900 37340.200000
106.053700 4179.700000
107.061500 456856.700000
108.045600 56310.200000
109.077200 96119.800000
110.007100 3401.700000
110.061200 2624.100000
112.040500 68770.100000
114.038300 15371.400000
115.022500 8598.800000
116.050700 99813.800000
117.034600 16976.500000
118.029800 2704.200000
119.025200 2838.600000
119.061600 3747.300000
121.041000 4969.000000
121.077100 27883.000000
122.048700 15949.800000
122.061200 2724.200000
123.056400 29730.300000
124.022700 32938.200000
124.040500 11147.200000
125.006700 3072.000000
126.038400 3129.600000
128.050700 2658.500000
131.061200 2653.400000
132.056800 5081.800000
133.040800 4992.200000
134.061300 13062.200000
134.072500 3788.000000
135.056500 100073.500000
137.072000 12181.500000
140.017700 3140.000000
140.050600 4691.800000
141.025400 10470.300000
142.033100 45592.000000
143.061500 4136.000000
144.045500 3939.300000
149.043100 2957.000000
152.017700 2804.300000
155.061400 10736.000000
156.069500 34217.600000
158.028000 2380.900000
161.035500 2284.600000
167.028600 2537.800000
168.056600 4222.400000
171.056500 9624.700000
172.040400 12117.400000
173.048200 40855.900000
173.071900 279352.300000
181.064400 3110.400000
189.066800 2417.800000
190.033800 2960.200000
191.061700 22627.500000
199.051600 4931.600000
200.059200 18855.400000
207.092700 114483.800000
208.088100 8476.500000
233.039400 9885.200000

>ms2
55.018900 22103.000000
56.980400 41007.400000
57.975700 39237.300000
58.996100 55068.200000
59.991400 11510.600000
60.975400 23330.600000
63.962500 3510.400000
65.014500 61317.500000
65.998500 37126.600000
66.035000 9451.600000
67.030200 8975.000000
68.014200 28864.100000
70.983500 64445.200000
71.991300 48340.800000
72.009200 4862.600000
72.975400 8383.200000
72.999200 18730.400000
73.011800 28550.100000
74.007000 127991.000000
78.034900 4690.500000
80.050600 12284.300000
81.975700 8323.300000
82.017200 4608.700000
83.991300 11853.200000
84.999200 17021.700000
86.007100 3697.800000
87.027500 5094.300000
92.050600 4208.200000
93.045900 26622.300000
96.045600 8559.000000
96.999300 2922.600000
97.994600 3581.700000
98.007000 4447.200000
99.986300 39814.800000
100.022700 4553.700000
101.039700 13513.700000
102.035000 14956.800000
104.038000 2417.400000
105.045900 31915.800000
106.053600 2756.200000
107.061500 317537.400000
108.045600 22901.800000
109.077200 36574.600000
110.006800 2760.300000
112.040600 25371.500000
114.038600 8750.700000
116.050800 80691.500000
117.034700 14151.800000
119.025100 3609.000000
121.040800 11815.300000
121.077000 3404.200000
122.048600 13629.900000
123.056500 19867.400000
124.022600 11786.000000
124.040500 2414.900000
133.040800 3430.400000
134.061200 3353.900000
135.056500 55266.200000
140.017500 3144.300000
140.050500 10490.500000
141.025500 5104.900000
142.033200 11925.300000
143.061400 3491.000000
155.061700 9045.200000
156.069500 16313.100000
161.035300 3829.900000
168.056500 3199.500000
171.056600 2483.800000
172.040600 3040.000000
173.048000 4159.000000
173.072000 63729.600000
191.061600 31460.300000
199.051300 2863.200000
207.092800 41828.100000
208.088200 4796.400000

