>compound EQ99857714
>parentmass 500.2806
>ionization [M-H]-
>formula C32H39NO4
>rt 492.000000
>profile orbitrap
#smiles_iso CC(C)(C1=CC=C(C=C1)C(CCCN2CCC(CC2)C(C3=CC=CC=C3)(C4=CC=CC=C4)O)O)C(=O)O
#smiles_can CC(C)(C1=CC=C(C=C1)C(CCCN2CCC(CC2)C(C3=CC=CC=C3)(C4=CC=CC=C4)O)O)C(=O)O
#inchikey RWTNPBWLLIMQHL-UHFFFAOYSA-N
#pubchem_id 3348
#mb_accession EQ301951,EQ301952,EQ301953,EQ301954,EQ301955,EQ301956

>ms2peaks
147.081700 46312.400000
182.118700 44183.700000
183.081500 270918.500000
188.108000 64193.800000
230.155000 271139.400000
258.150000 742119.300000
266.155100 164484.800000
302.212700 132268.000000
360.231900 46747.300000
378.243800 15041294.500000
456.290900 27147051.600000

>ms2peaks
69.034600 127035.900000
83.050200 22708.700000
84.045600 21543.300000
86.061200 42004.300000
110.061200 304916.300000
112.076800 238725.700000
119.050200 23526.400000
120.045600 47192.400000
121.029500 69581.600000
133.065800 16758.200000
144.058000 22651.700000
145.065900 544358.600000
147.081600 502164.000000
152.108100 48106.200000
154.123900 86459.200000
157.065800 53365.800000
159.081500 376829.200000
170.097500 327410.700000
180.103000 125563.800000
181.065900 48239.200000
182.118600 235352.600000
183.081500 366839.700000
185.084500 90713.700000
186.092500 41290.300000
187.112800 41337.600000
188.108100 1546532.600000
190.087700 16596.600000
230.154900 800759.600000
240.139500 41490.000000
258.150000 14257375.400000
266.155000 47109.100000
300.197000 297663.500000
302.212000 24493.000000
348.232200 15706.800000
360.233200 306128.800000
376.228400 149635.900000
378.243800 10729439.300000
456.291400 248695.300000

>ms2peaks
69.034600 692828.900000
82.066200 19724.000000
83.050300 203057.200000
84.045500 94283.700000
84.081900 80052.200000
86.061100 107196.800000
92.050400 19300.700000
93.034400 15867.700000
94.066400 12039.500000
96.045600 12570.900000
98.061100 23035.300000
108.045500 78689.900000
110.061200 808624.300000
112.076800 738948.000000
119.050200 97470.400000
120.045500 125560.200000
121.029600 58638.600000
124.076700 20423.800000
130.042400 158063.800000
133.065900 56111.900000
134.061200 10764.400000
144.058000 230349.900000
145.065900 946408.400000
147.081600 444889.500000
152.108200 89693.600000
154.123800 54457.600000
157.065800 296520.500000
159.081500 551900.700000
162.092500 64842.900000
168.081900 12765.500000
170.097500 255897.200000
171.081600 44594.900000
180.103100 288908.000000
181.066000 10073.800000
182.118400 82818.300000
183.081500 63427.800000
185.084500 376487.000000
186.092400 206462.100000
187.113000 127281.500000
188.108100 1918339.100000
190.087200 79309.800000
228.139500 22402.500000
230.155000 297522.400000
240.139500 128774.200000
256.134500 63310.000000
258.150000 6227094.600000
300.197200 69432.900000
348.232900 28056.600000
360.233600 95164.500000
376.228100 67758.300000
378.243900 98403.000000

>ms2peaks
82.066300 40605.000000
83.050200 215068.500000
84.045400 114415.400000
84.081800 58237.400000
86.061100 91869.800000
92.050600 58846.600000
93.035000 9867.700000
94.066300 13342.100000
96.045500 37755.100000
98.061100 17947.200000
108.045500 83402.200000
110.061200 714969.800000
112.076800 463090.100000
119.050300 125182.500000
120.045600 139694.100000
121.029400 62749.500000
124.076800 53239.800000
130.042300 242408.800000
131.050300 19117.500000
131.086600 13386.100000
133.065900 61450.700000
134.061400 13192.400000
141.070900 21721.800000
143.050100 49851.600000
144.058000 283940.400000
145.065900 875013.300000
147.081500 249244.300000
152.107800 55372.500000
154.123900 17870.100000
157.065800 494993.700000
159.081500 568762.700000
162.092800 71374.900000
168.081900 11502.300000
169.065500 15106.000000
170.061100 11762.100000
170.097500 168258.700000
171.081500 78114.000000
180.103200 125605.500000
181.065900 19247.700000
182.117900 17137.000000
183.081500 16458.200000
185.084600 187000.800000
186.092500 209956.000000
187.112900 76681.400000
188.108100 1475364.400000
190.087600 74158.800000
228.139000 16960.000000
230.154800 57266.800000
240.139700 83075.500000
256.134500 28994.300000
258.149900 1419437.900000
360.233500 14604.300000

>ms2peaks
80.050500 8698.800000
81.034700 17992.300000
82.066200 39866.300000
83.050200 112924.600000
84.045500 57927.700000
86.061200 21924.000000
92.050600 52051.200000
94.066500 10808.600000
96.045400 22021.500000
108.045500 85467.200000
110.061200 397801.300000
112.076800 134621.900000
119.050200 123025.300000
120.045400 116557.200000
121.029400 32991.100000
124.076900 27132.700000
130.042400 139735.600000
131.050200 60277.500000
131.086500 12034.800000
133.065900 58818.600000
134.061000 12939.900000
141.071200 27134.500000
143.050200 96541.600000
144.058000 90097.700000
145.065900 410520.300000
147.081600 91370.000000
157.065800 577503.600000
159.081500 182473.800000
162.092400 18166.800000
168.082000 43569.200000
169.065300 9371.600000
170.097300 71468.000000
171.081200 26394.300000
185.084600 14809.300000
186.092700 108736.600000
187.113000 15534.500000
188.108100 393737.200000
190.087300 17420.600000
256.134800 10559.800000
258.150300 52875.000000

>ms2peaks
80.050500 10569.800000
81.034500 13632.300000
82.066000 12033.800000
83.050300 56216.300000
84.045500 16259.200000
86.061200 13270.000000
92.050600 41509.600000
96.045600 12873.400000
108.045400 51963.300000
110.061100 101720.000000
112.076700 9639.800000
119.050300 58975.200000
120.045700 44426.400000
130.042400 16865.700000
131.050200 10625.600000
133.065700 14229.300000
143.050200 73532.900000
145.065900 76099.500000
157.065900 385756.400000
159.082000 11461.600000
168.081800 12250.700000
170.061100 17165.100000
170.097000 10160.900000
186.092500 22638.000000
188.107900 40210.700000

