>compound EQ99064064
>parentmass 378.2398
>ionization [M-H]-
>formula C20H33N3O4
>rt 330.000000
>profile orbitrap
#smiles_iso CCN(CC)C(=O)NC1=CC(=C(C=C1)OCC(CNC(C)(C)C)O)C(=O)C
#smiles_can CCN(CC)C(=O)NC1=CC(=C(C=C1)OCC(CNC(C)(C)C)O)C(=O)C
#inchikey JOATXPAWOHTVSZ-UHFFFAOYSA-N
#pubchem_id 2663
#mb_accession EQ301551,EQ301552,EQ301553,EQ301554,EQ301555,EQ301556

>ms2
161.060900 36077.500000
176.034500 454904.900000
176.071600 331370.100000
190.051100 41389.700000
190.087100 218617.300000
204.102700 115706.700000
219.077500 1227244.800000
221.093700 50128.800000
247.108900 38373.300000
248.116600 10003771.100000
263.103400 35816.700000
263.140100 696456.800000
335.221900 32317.300000
378.239600 31254125.300000

>ms2
118.029600 28846.100000
134.024800 31009.200000
149.048000 217250.400000
160.039700 82276.300000
161.060800 623713.300000
164.071900 36153.000000
176.035200 2640800.300000
176.071500 3823292.300000
190.051000 176834.400000
190.087400 2249112.200000
204.102900 1406306.800000
205.110400 83168.100000
219.077400 16666550.600000
221.093000 91272.000000
247.108900 250152.300000
248.116500 18010090.000000
263.103700 160264.000000
263.140000 451913.600000
279.170700 66318.300000
305.150000 27912.100000
378.239600 1376603.800000

>ms2
106.029900 46449.600000
134.024800 314171.500000
134.061200 155198.700000
135.045200 28034.700000
148.040200 58884.900000
148.053200 31665.400000
148.077000 28686.000000
149.048100 617426.000000
150.055900 68918.900000
160.040100 165629.300000
161.060800 1155918.400000
164.071800 43182.500000
176.036100 7876412.400000
176.071200 19309540.500000
190.087300 6366937.200000
204.102900 2503559.000000
219.077400 11465996.700000
221.092400 28027.100000
247.108700 267589.900000
248.116500 1136536.300000
263.140800 27826.700000

>ms2
59.013800 40078.600000
78.034800 57138.600000
93.034500 34897.600000
106.029800 141522.300000
118.029500 73250.100000
119.050200 42634.200000
120.045600 29797.000000
134.024800 1012609.000000
134.061100 515523.800000
135.045200 121897.100000
148.040100 90457.500000
148.053100 28566.800000
148.077000 46490.300000
149.048100 887717.400000
150.056000 112038.000000
160.040300 418494.600000
161.060800 1036367.800000
163.076400 26946.200000
175.064000 30490.600000
176.071100 21581569.300000
188.071700 36640.800000
190.087300 6666263.600000
204.102900 2161213.200000
219.077400 3236602.500000
247.108800 166842.400000
248.116500 69544.400000

>ms2
59.013800 173375.700000
78.034900 266908.700000
92.050600 61260.200000
93.034600 162631.400000
106.029900 757696.800000
107.037600 44775.100000
108.045500 34810.600000
118.029800 182564.600000
119.050300 176487.500000
120.045500 87543.400000
133.053300 30717.000000
134.024800 3244289.800000
134.061100 2426283.800000
135.045200 265377.100000
148.040400 108474.100000
148.076900 182871.100000
149.048200 980113.000000
150.056000 240913.000000
160.040400 1565819.400000
161.060800 840441.900000
162.056200 94495.000000
162.092400 55806.200000
163.076500 56092.600000
174.056100 147330.000000
175.064300 111935.600000
176.036000 7918402.700000
176.071200 17756169.400000
188.071800 106741.500000
190.087400 5295463.100000
204.102900 1176864.800000
219.077400 289733.800000
247.109100 65009.900000

>ms2
59.013800 537397.700000
78.034900 1033532.900000
92.050600 164794.900000
93.034600 656941.600000
106.029900 1703428.800000
107.037700 76693.400000
108.045500 73897.600000
118.029900 689614.700000
119.050200 370523.900000
120.045500 134781.800000
133.053500 72218.500000
134.024900 4657280.800000
134.061100 5188963.900000
135.045100 376065.500000
148.040300 76146.000000
148.076800 278149.100000
149.048200 689251.800000
150.055900 250697.000000
160.040400 3325449.800000
161.060800 590155.300000
162.056100 175229.800000
162.092200 76057.100000
163.076400 44888.900000
174.056100 467267.600000
175.063800 187353.600000
176.035600 4204488.700000
176.071400 9582026.400000
188.071800 181530.900000
190.087400 2789702.300000
203.046300 31166.700000
204.102900 361322.500000
207.053800 53268.100000
219.077500 13508.500000

