>compound EA24433148
>parentmass 253.087
>ionization [M-H]-
>formula C16H14O3
>rt 576.000000
>profile orbitrap
#smiles_iso CC(C1=CC(=CC=C1)C(=O)C2=CC=CC=C2)C(=O)O
#smiles_can CC(C1=CC(=CC=C1)C(=O)C2=CC=CC=C2)C(=O)O
#inchikey DKYWVDODHFEZIM-UHFFFAOYSA-N
#pubchem_id 3825
#mb_accession EA020552,EA020553,EA020558,EA020559

>ms2peaks
169.066200 3733.500000
185.060900 6474.300000
197.061000 473959.900000
209.097100 5389.900000
213.091600 3879.800000
223.076600 3700.000000
241.086900 22475.600000

>ms2peaks
197.061100 66722.200000

>ms2peaks
169.066000 4045.800000
185.061000 6929.400000
197.060900 377381.500000
241.086600 11493.500000

>ms2peaks
197.060700 46256.300000

