>compound EA37726127
>parentmass 380.067
>ionization [M-H]-
>formula C14H15N5O6S
>rt 426.000000
>profile orbitrap
#smiles_iso CC1=NC(=NC(=N1)OC)NC(=O)NS(=O)(=O)C2=CC=CC=C2C(=O)OC
#smiles_can CC1=NC(=NC(=N1)OC)NC(=O)NS(=O)(=O)C2=CC=CC=C2C(=O)OC
#inchikey RSMUVYRMZCOLBH-UHFFFAOYSA-N
#pubchem_id 52999
#mb_accession EA012852,EA012853,EA012854,EA012855,EA012856,EA012857,EA012858,EA012859,EA012860,EA012861,EA012862,EA012863

>ms2peaks
107.036700 6744.800000
139.062900 1779268.300000
181.992100 117641.600000
380.067700 246822.100000

>ms2peaks
139.062900 2121880.000000
181.991700 57537.800000

>ms2peaks
82.041100 9115.600000
107.036600 23338.600000
109.052400 7700.500000
139.062800 1879367.600000
181.992100 42462.000000

>ms2peaks
65.014400 5501.800000
66.010000 20765.700000
82.041300 36826.600000
107.036500 86057.000000
109.052200 16210.300000
139.062800 1058209.700000
181.992100 24410.800000

>ms2peaks
65.014600 15129.900000
66.009800 42000.900000
82.041200 27293.600000
107.036500 128437.500000
109.052000 11801.200000
124.039500 5758.400000
125.047400 10992.100000
139.062700 394460.600000
181.992000 9473.200000

>ms2peaks
65.014600 30555.800000
66.009900 45069.600000
82.041100 13094.900000
107.036500 127993.600000
109.051800 5645.300000
124.039200 5223.700000
139.062700 109968.400000

>ms2peaks
139.062800 1130135.200000
181.991700 54993.100000
214.018200 6727.600000
380.067200 126283.000000

>ms2peaks
82.041400 2966.200000
139.062800 1263377.800000
181.992200 25459.500000

>ms2peaks
82.041200 5344.600000
107.036400 8063.400000
109.052300 2367.400000
139.062800 1032825.800000
181.991700 17748.700000

>ms2peaks
65.014600 2940.900000
66.009900 7574.200000
82.041300 11939.900000
107.036500 28755.300000
109.051600 4536.400000
124.039200 3868.300000
139.062800 529438.600000
181.992100 11236.000000

>ms2peaks
65.014600 4719.400000
66.009900 12632.700000
82.040900 5591.600000
107.036400 50779.700000
109.051600 3939.200000
124.038800 3216.300000
125.046900 3447.200000
139.062600 154440.200000
181.992100 2692.800000

>ms2peaks
65.014500 2965.400000
66.009900 10661.700000
107.036400 21099.300000
125.047300 3249.100000
139.062800 19659.400000

