>compound EA51948837
>parentmass 444.0207
>ionization [M-H]-
>formula C13H9F6N5O4S
>rt 630.000000
>profile orbitrap
#smiles_iso COC1=NC(=NC(=N1)NC(=O)NS(=O)(=O)C2=CC=CC=C2C(F)(F)F)C(F)(F)F
#smiles_can COC1=NC(=NC(=N1)NC(=O)NS(=O)(=O)C2=CC=CC=C2C(F)(F)F)C(F)(F)F
#inchikey KVEQCVKVIFQSGC-UHFFFAOYSA-N
#pubchem_id 11657899
#mb_accession EA274052,EA274053,EA274054,EA274055,EA274056,EA274057,EA274058,EA274059,EA274060,EA274061,EA274062,EA274063

>ms2peaks
193.034800 2755827.900000
194.038300 12504.400000
224.001000 14622.000000
444.019200 37758.500000

>ms2peaks
193.034700 2900181.200000
194.038500 12535.400000
224.000300 14787.400000
444.020500 5163.200000

>ms2peaks
66.009800 22712.200000
136.012600 25743.500000
193.034700 2189831.800000
223.999400 7590.800000

>ms2peaks
66.009900 110896.700000
123.031600 32054.300000
136.013000 64394.900000
161.008400 98529.800000
163.024300 4638.000000
178.011100 10680.100000
193.034800 913844.900000

>ms2peaks
66.009900 145459.000000
123.031500 55790.900000
136.013000 73131.700000
161.008300 125874.900000
178.011400 4965.500000
179.017300 5615.500000
193.034600 173989.600000

>ms2peaks
66.009900 129540.100000
123.031400 33776.900000
136.013100 41115.400000
161.008300 94578.800000
193.034800 23727.100000

>ms2peaks
193.034700 1766960.200000
223.999600 6244.400000
444.021000 21720.200000

>ms2peaks
193.034700 1770213.000000
224.000500 5636.600000

>ms2peaks
50.004800 2684.500000
66.009800 12120.900000
136.013100 12792.600000
161.008400 13162.100000
193.034700 1341942.500000
223.999900 4010.900000

>ms2peaks
66.009800 44237.800000
123.031500 17463.800000
136.012900 32958.100000
136.997000 2801.200000
150.028800 3124.800000
161.008300 38946.100000
163.024100 4359.400000
178.011300 3206.300000
179.018800 2317.400000
193.034600 520812.400000

>ms2peaks
66.009800 66233.500000
123.031400 20858.100000
136.012900 32621.800000
136.996700 2143.200000
161.008300 60518.700000
178.009700 2531.600000
179.018900 5350.800000
193.034500 94399.800000

>ms2peaks
50.004600 933.700000
66.009900 40487.400000
123.030700 4707.500000
136.013000 8991.800000
161.008200 21528.500000

