>compound EA67137157
>parentmass 274.0555
>ionization [M-H]-
>formula C11H14FNO4S
>rt 354.000000
>profile orbitrap
#smiles_iso CC(C)N(C1=CC=C(C=C1)F)C(=O)CS(=O)(=O)O
#smiles_can CC(C)N(C1=CC=C(C=C1)F)C(=O)CS(=O)(=O)O
#inchikey SZCMHDLOUVZYST-UHFFFAOYSA-N
#pubchem_id 16212225
#mb_accession EA066352,EA066353,EA066354,EA066355,EA066356,EA066357,EA066358,EA066359,EA066360,EA066361,EA066362,EA066363

>ms2
274.055900 10062771.200000

>ms2
120.960300 468076.200000
274.055700 7373632.500000

>ms2
76.970300 605917.600000
79.957400 1807188.800000
111.025000 83956.700000
120.960300 2136424.300000
152.088300 275763.500000
168.047400 75692.700000
232.008200 152898.200000
274.055900 1584786.000000

>ms2
76.970400 710884.600000
79.957500 2256236.100000
120.960400 838702.500000
152.088800 245371.700000
274.056200 123695.700000

>ms2
76.970300 750452.100000
79.957400 2539007.700000
93.973200 50382.400000
111.025400 48562.900000
120.960200 361024.800000
136.057000 135862.100000

>ms2
76.970400 358771.600000
79.957400 1869822.100000

>ms2
274.055700 9186583.300000

>ms2
76.970200 79888.300000
79.957300 108612.600000
120.960000 440807.100000
152.087600 42903.200000
232.008700 44856.300000
274.055700 7128201.000000

>ms2
76.970300 397805.600000
79.957400 1365359.800000
111.025400 61751.500000
120.960300 1433701.800000
152.088100 236431.100000
232.008500 79536.800000
274.055600 1010250.800000

>ms2
76.970300 492986.700000
79.957400 2000093.000000
93.973000 24885.800000
111.024900 54322.900000
120.960200 694556.200000
136.056700 54732.000000
152.088300 140240.100000
274.056700 34272.100000

>ms2
76.970300 429649.100000
79.957400 1792350.000000
93.972800 32067.100000
111.025100 34987.000000
120.960000 202880.400000
136.057100 82135.400000
152.088100 35015.100000

>ms2
76.970400 141385.200000
79.957400 1188152.600000
93.972900 17196.600000
120.960100 15783.900000
136.056300 22333.600000
274.055300 14416.900000

