>compound SM00614756
>parentmass 326.2326
>ionization [M+H]+
>formula C18H31NO4
>rt 439.200000
>profile orbitrap
#smiles_iso CC(C)NCC(COC1=CC=C(C=C1)COCCOC(C)C)O
#smiles_can CC(C)NCC(COC1=CC=C(C=C1)COCCOC(C)C)O
#inchikey VHYCDWMUTMEGQY-UHFFFAOYSA-N
#pubchem_id 2405
#mb_accession SM859501

>ms2peaks
56.049700 14148801.000000
58.065300 2198534.000000
60.080900 354666.200000
69.070000 182228.000000
72.080800 16353899.000000
74.060100 45846116.000000
75.044100 1048314.600000
79.054200 495274.200000
84.080800 515991.300000
89.038600 1165938.100000
91.054200 3755978.200000
98.096400 11947350.000000
100.112200 379223.900000
105.069900 1519084.000000
107.049100 6407095.500000
116.107000 99026744.000000
117.069900 308674.500000
119.049100 2510813.200000
119.085600 395730.100000
121.064800 1714964.900000
129.069900 182983.300000
133.064800 5220720.500000
134.060000 347202.600000
137.059700 1070872.100000
145.064800 2984298.200000
147.080400 4519931.500000
162.091300 2764611.000000
163.075300 1128105.100000
180.101600 174213.900000
204.138400 2501171.800000
222.148800 4397176.000000
326.232700 165959168.000000

