>compound SM00407056
>parentmass 280.1543
>ionization [M+H]+
>formula C15H21NO4
>rt 699.120000
>profile orbitrap
#smiles_iso CCC1=CC=CC(=C1N(C(C)COC)C(=O)C(=O)O)C
#smiles_can CCC1=CC=CC(=C1N(C(C)COC)C(=O)C(=O)O)C
#inchikey LNOOSYCKMKZOJB-UHFFFAOYSA-N
#pubchem_id 15842092
#mb_accession SM868501

>ms2peaks
59.049300 1057398.200000
73.064900 7616466.000000
91.054200 851691.700000
93.069900 433670.800000
105.069900 165638.500000
108.080800 147823.300000
117.057200 112464.200000
117.069900 641459.800000
118.065100 762615.100000
119.072900 393396.300000
119.085500 785418.700000
120.080800 333860.800000
129.069900 406940.800000
130.065100 186064.200000
131.072900 3686960.800000
132.080800 1359854.500000
133.088600 887598.300000
134.060200 403422.600000
134.096400 2525952.200000
144.080800 2804737.500000
145.088700 833034.400000
146.096400 8460843.000000
147.104100 271269.200000
148.112000 5661447.000000
158.096500 182366.800000
159.104300 388291.800000
160.075700 819437.900000
160.112100 1365449.800000
161.119800 128543.800000
162.091300 1802000.800000
174.091400 292750.800000
174.127800 1075799.100000
176.143500 3308903.500000
184.112400 294871.300000
202.122600 1192365.600000
204.138400 622289.100000
206.154300 227501.000000
208.096900 340442.400000
220.133200 1872424.100000
234.148900 899152.900000
248.128200 78366600.000000
280.154500 5911862.000000

