>compound SM00315094
>parentmass 477.2303
>ionization [M+H]+
>formula C29H33ClN2O2
>rt 588.480000
>profile orbitrap
#smiles_iso CN(C)C(=O)C(CCN1CCC(CC1)(C2=CC=C(C=C2)Cl)O)(C3=CC=CC=C3)C4=CC=CC=C4
#smiles_can CN(C)C(=O)C(CCN1CCC(CC1)(C2=CC=C(C=C2)Cl)O)(C3=CC=CC=C3)C4=CC=CC=C4
#inchikey RDOIQAHITMMDAJ-UHFFFAOYSA-N
#pubchem_id 3955
#mb_accession SM848903

>ms2
72.044400 14412928.000000
91.054400 419471.200000
115.054200 3240068.800000
167.085600 1223754.500000
178.077500 967691.000000
193.101200 1602135.000000
210.127700 70368952.000000
223.099000 788385.600000
224.083700 556838.900000
238.122600 8371889.500000
266.153900 256098272.000000
477.230600 142686784.000000

