>compound SM00488312
>parentmass 167.0451
>ionization [M+H]+
>formula C7H6N2O3
>rt 56.760000
>profile orbitrap
#smiles_iso C1=CC=C(C(=C1)C(=O)N)[N+](=O)[O-]
#smiles_can C1=CC=C(C(=C1)C(=O)N)[N+](=O)[O-]
#inchikey KLGQWSOYKYFBTR-UHFFFAOYSA-N
#pubchem_id 11876
#mb_accession SM809901

>ms2
50.015300 332681.100000
51.023200 1177739.800000
52.018400 26185.300000
76.031000 22813.900000
78.033800 1824839.500000
81.033500 18824.800000
92.025700 74763.500000
96.044400 41429.500000
120.020500 23742.800000
150.018600 14099669.000000

