>compound SM00785255
>parentmass 382.0832
>ionization [M+H]+
>formula C17H14F3N3O2S
>rt 725.340000
>profile orbitrap
#smiles_iso CC1=CC=C(C=C1)C2=CC(=NN2C3=CC=C(C=C3)S(=O)(=O)N)C(F)(F)F
#smiles_can CC1=CC=C(C=C1)C2=CC(=NN2C3=CC=C(C=C3)S(=O)(=O)N)C(F)(F)F
#inchikey RZEKVGVHFLEQIL-UHFFFAOYSA-N
#pubchem_id 2662
#mb_accession SM851602

>ms2peaks
65.038700 95899.500000
79.980100 426149.200000
91.054200 463277.800000
105.069900 122449.600000
108.044300 113594.600000
109.028400 96342.200000
115.054300 620785.000000
116.062100 466680.500000
117.057300 92863.300000
117.069900 1034741.000000
118.065200 431804.000000
130.065100 167300.700000
131.073000 416296.200000
138.984700 95618.200000
153.051000 235999.900000
160.055700 161515.700000
165.038400 671168.400000
166.046200 148654.700000
180.062000 410875.400000
182.041300 92588.600000
184.017600 311349.300000
184.036600 261688.200000
185.044800 321741.600000
187.047800 144332.900000
193.088700 247427.500000
201.063500 152348.400000
204.081100 91191.100000
205.088800 94565.000000
206.096500 530989.800000
207.104200 1376866.400000
208.112200 285327.800000
221.019100 334613.500000
231.091600 340510.900000
232.099500 411582.100000
233.107300 1497652.100000
235.078000 186916.500000
236.086500 222451.600000
242.083700 152710.400000
243.091800 130523.000000
247.066700 249162.700000
254.077600 187521.600000
255.072700 384390.800000
255.085800 116782.800000
256.093200 114877.200000
260.073900 106769.100000
261.082200 990051.300000
262.090000 694923.600000
263.097900 1429620.500000
267.072900 1820501.400000
272.061700 191667.300000
273.068300 153629.100000
275.079000 629128.900000
279.092400 188433.200000
280.081100 261876.400000
281.088600 4154502.000000
282.096400 5616806.000000
283.104200 2573197.800000
286.072000 159625.100000
287.079000 1691292.100000
294.079400 132877.300000
299.098700 167841.200000
300.087100 3876238.500000
301.094800 4649234.000000
302.102500 3657212.800000
303.110400 5868384.500000
310.064600 97213.100000
311.072500 189671.500000
312.070900 109057.400000
313.113900 164432.600000
314.086000 637244.200000
314.123000 195175.800000
315.129800 282540.000000
317.090100 387380.200000
332.076700 2244467.200000
334.092300 322257.900000
342.070900 860683.600000
362.077000 14087704.000000
365.056700 105980.800000
382.083200 82316456.000000

