>compound SM01509769
>parentmass 341.2111
>ionization [M+H]+
>formula C22H28O3
>rt 690.060000
>profile orbitrap
#smiles_iso CC12CCC(=O)C=C1C=CC3C2CCC4(C3CCC45CCC(=O)O5)C
#smiles_can CC12CCC(=O)C=C1C=CC3C2CCC4(C3CCC45CCC(=O)O5)C
#inchikey UJVLDDZCTMKXJK-UHFFFAOYSA-N
#pubchem_id 319260
#mb_accession SM873101

>ms2
67.054300 534679.900000
69.069900 225313.500000
71.049200 760181.600000
79.054200 2317336.800000
81.069900 864063.000000
83.049100 2724727.000000
85.064700 179360.300000
91.054200 2402147.200000
93.069900 1961269.500000
95.049100 217319.300000
95.085400 578965.000000
97.064800 7476546.500000
99.044000 3995424.800000
105.069900 3937654.500000
107.085500 26354456.000000
109.064700 977247.800000
109.101000 214548.900000
111.044000 586665.700000
111.080500 227112.400000
113.059600 406021.800000
117.069900 582374.400000
119.085500 2641454.000000
121.064800 696927.800000
121.101100 1662103.100000
123.080400 745615.900000
125.059600 258258.100000
129.069900 567225.100000
131.085500 1868865.600000
133.064700 601517.900000
133.101100 1436995.900000
135.080400 1145916.200000
135.116800 317052.200000
137.096000 556530.800000
141.069700 449284.300000
142.077800 240126.800000
143.085500 4750361.000000
145.064800 357005.200000
145.101100 3722615.000000
147.080400 1426855.200000
147.116700 565886.100000
149.096100 1313757.800000
153.090800 325869.500000
154.077900 254524.200000
155.085500 1000024.700000
157.101100 1674414.900000
159.080500 1303894.200000
159.116800 1400180.600000
161.096000 2122273.500000
163.111700 1141851.800000
165.090900 656090.900000
167.085500 213164.000000
167.106900 321680.900000
169.101100 5269366.000000
170.108900 179365.200000
171.080100 455273.300000
171.116800 855039.800000
173.096100 5185489.000000
175.111700 2295436.200000
177.127100 363732.400000
179.106700 991965.100000
181.101000 766648.100000
181.122200 104598.100000
183.116800 1159369.200000
185.095900 172136.100000
185.132500 1298339.600000
186.140500 104929.000000
187.111700 10370905.000000
189.127400 296555.500000
193.101400 252139.800000
195.116900 586043.100000
197.132300 386888.000000
199.111600 580223.100000
199.148100 269425.400000
201.127500 210256.000000
205.122300 3556751.500000
207.117000 338904.100000
209.132400 671665.800000
210.140400 298759.800000
211.111900 267381.500000
211.148100 230062.100000
213.127300 443821.300000
217.122800 103202.600000
221.132200 550544.700000
223.148100 737646.800000
225.127300 297831.800000
225.163700 280149.500000
227.143100 467661.400000
235.148100 310938.000000
237.164000 228487.000000
239.143000 214132.000000
241.158400 543203.800000
243.174700 114056.300000
245.153400 212005.700000
247.148000 487187.000000
249.127100 213468.500000
249.163900 215633.000000
253.158600 294694.800000
257.153400 212851.600000
259.168800 379720.200000
261.163300 392357.800000
263.143000 199385.400000
263.179200 620457.600000
265.158500 789887.400000
267.174500 111445.500000
268.181600 334157.800000
271.169200 192110.600000
277.158900 174505.000000
277.195300 216557.000000
279.174100 426959.500000
281.190200 590635.200000
283.169200 2630605.500000
287.179300 370388.000000
295.205500 433055.200000
297.185100 178000.700000
305.190100 1128555.200000
323.200500 2395323.000000
341.211200 101457184.000000

