>compound SM02060263
>parentmass 345.0767
>ionization [M+H]+
>formula C15H18Cl2N2O3
>rt 816.600000
>profile orbitrap
#smiles_iso CC(C)OC1=C(C=C(C(=C1)N2C(=O)OC(=N2)C(C)(C)C)Cl)Cl
#smiles_can CC(C)OC1=C(C=C(C(=C1)N2C(=O)OC(=N2)C(C)(C)C)Cl)Cl
#inchikey CHNUNORXWHYHNE-UHFFFAOYSA-N
#pubchem_id 29732
#mb_accession SM846603

>ms2
53.002600 61378.500000
57.070100 1243832.900000
84.080800 68452.200000
84.983900 19212.300000
94.028800 21478.000000
111.994900 54053.100000
112.978800 218786.900000
120.960600 59227.300000
122.023600 22156.800000
127.989800 159280.700000
128.997600 374791.100000
129.981600 52198.400000
130.005300 88689.400000
139.005700 54212.900000
139.989600 106997.200000
140.973700 548244.800000
147.971500 389959.700000
148.002700 178399.800000
148.955600 1693768.200000
155.000500 75948.800000
155.984700 626526.700000
156.992200 17396.200000
163.966400 98004.600000
173.950800 892926.200000
175.966500 584241.600000
176.950500 12841598.000000
182.995600 218491.600000
183.979700 2341018.800000
184.003000 162368.000000
184.987500 11205482.000000
191.961400 97575.500000
195.068600 90712.500000
201.945700 1041258.300000
202.953400 154036.900000
202.977700 84161.400000
208.976600 66861.900000
218.972600 197209.500000
219.956300 14217690.000000
223.063000 52989.100000
224.071000 21557.100000
233.971500 22583.100000
239.058000 29085.400000
246.967400 30856.600000
259.039700 163545.200000
285.063800 57074.800000
303.029900 16854656.000000
307.062400 29513.500000
321.040200 23084.900000
335.055700 190472.900000
345.076900 9125142.000000

