>compound SM03977800
>parentmass 132.0808
>ionization [M+H]+
>formula C9H9N
>rt 533.340000
>profile orbitrap
#smiles_iso CC1=CC2=CC=CC=C2N1
#smiles_can CC1=CC2=CC=CC=C2N1
#inchikey BHNHHSOHWZKFOX-UHFFFAOYSA-N
#pubchem_id 7224
#mb_accession SM801802

>ms2
91.054200 80977.100000
105.069800 417545.000000
115.054000 128741.300000
117.057200 4246033.000000
130.065200 66045.300000
131.072900 64198.200000
132.080700 48005992.000000

