>compound SM03199174
>parentmass 430.2588
>ionization [M+H]+
>formula C25H35NO5
>rt 521.220000
>profile orbitrap
#smiles_iso CCN(CCCCOC(=O)C1=CC(=C(C=C1)OC)OC)C(C)CC2=CC=C(C=C2)OC
#smiles_can CCN(CCCCOC(=O)C1=CC(=C(C=C1)OC)OC)C(C)CC2=CC=C(C=C2)OC
#inchikey VYVKHNNGDFVQGA-UHFFFAOYSA-N
#pubchem_id 4031
#mb_accession SM852303

>ms2
65.038700 292823.400000
77.038700 251208.000000
78.046500 745369.800000
91.054200 9718254.000000
93.069800 4784482.000000
94.041200 577270.600000
95.049100 315385.300000
100.112100 8238961.500000
106.041100 506526.200000
107.049100 818360.100000
108.057100 1008132.300000
109.064700 4481720.000000
115.054100 644635.900000
117.069900 1723243.200000
119.060400 760429.400000
121.064800 248058304.000000
134.072700 1562762.800000
149.096100 218710992.000000
165.054600 6913674.000000
248.200700 333305.100000
430.259000 190326944.000000

