>compound SM03805346
>parentmass 230.1167
>ionization [M+H]+
>formula C9H16ClN5
>rt 667.620000
>profile orbitrap
#smiles_iso CCNC1=NC(=NC(=N1)Cl)NC(C)(C)C
#smiles_can CCNC1=NC(=NC(=N1)Cl)NC(C)(C)C
#inchikey FZXISNSWEXTPMF-UHFFFAOYSA-N
#pubchem_id 22206
#mb_accession SM841303

>ms2peaks
57.070000 4968346.000000
61.979200 926225.300000
68.024400 8260521.000000
71.060400 5704668.000000
79.005800 32686646.000000
90.010500 993175.800000
96.055600 35256820.000000
104.001000 13807425.000000
110.046100 3104611.200000
128.056500 467596.200000
132.032200 32116888.000000
138.077300 9158501.000000
146.022700 24699758.000000
174.054100 443093184.000000
230.116700 259611920.000000

