>compound SM04059942
>parentmass 253.0464
>ionization [M+H]+
>formula C11H12N2OS2
>rt 674.520000
>profile orbitrap
#smiles_iso C1COCCN1SC2=NC3=CC=CC=C3S2
#smiles_can C1COCCN1SC2=NC3=CC=CC=C3S2
#inchikey MHKLKWCYGIBEQF-UHFFFAOYSA-N
#pubchem_id 7619
#mb_accession SM884202

>ms2
56.049700 15280565.000000
57.057500 7113604.000000
58.065300 3255572.500000
68.049600 287883.500000
72.044500 351814.600000
86.060100 75217512.000000
87.067900 29631930.000000
118.032200 1028766.200000
136.021600 3546551.200000
148.021400 349567.300000
162.037300 234207.500000
163.032700 266925.500000
163.045300 355193.100000
165.978100 4915396.000000
166.985900 1274026.100000
167.993700 6118267.500000
175.032500 144963.400000
176.040600 175505.900000
182.009100 102858.900000
192.035300 165196.800000
198.004300 428853.800000
205.043200 232789.600000
219.059200 203853.800000
220.066600 7463287.000000
253.046500 102272816.000000

