>compound SM04441905
>parentmass 314.9853
>ionization [M+H]+
>formula C13H9Cl3N2O
>rt 786.840000
>profile orbitrap
#smiles_iso C1=CC(=CC=C1NC(=O)NC2=CC(=C(C=C2)Cl)Cl)Cl
#smiles_can C1=CC(=CC=C1NC(=O)NC2=CC(=C(C=C2)Cl)Cl)Cl
#inchikey ICUTUKXCWQYESQ-UHFFFAOYSA-N
#pubchem_id 7547
#mb_accession SM880703

>ms2
65.038700 33740.400000
92.049400 34626.600000
93.057300 8486202.000000
98.999600 87584.500000
126.010500 2661946.500000
127.018300 17371686.000000
128.026100 14351087.000000
132.960500 71417.200000
154.005400 1177073.400000
159.971500 1472317.100000
161.987100 14567645.000000
187.966400 619110.600000
314.985300 30669090.000000

