>compound SM04625713
>parentmass 411.2191
>ionization [M+H]+
>formula C23H27FN4O2
>rt 427.920000
>profile orbitrap
#smiles_iso CC1=C(C(=O)N2CCCCC2=N1)CCN3CCC(CC3)C4=NOC5=C4C=CC(=C5)F
#smiles_can CC1=C(C(=O)N2CCCCC2=N1)CCN3CCC(CC3)C4=NOC5=C4C=CC(=C5)F
#inchikey RAPZEAPATHNIPO-UHFFFAOYSA-N
#pubchem_id 5073
#mb_accession SM851301

>ms2peaks
67.054300 264661.300000
69.033500 1351761.500000
82.065100 1491235.400000
107.072800 226501.700000
110.060000 3720044.200000
148.112000 613605.600000
150.078800 216886.100000
163.086700 623507.000000
163.122900 992431.800000
191.117800 192843184.000000
411.219100 88021760.000000

