>compound SM04568832
>parentmass 404.1241
>ionization [M+H]+
>formula C22H17N3O5
>rt 678.960000
>profile orbitrap
#smiles_iso CO/C=C(\C1=CC=CC=C1OC2=NC=NC(=C2)OC3=CC=CC=C3C#N)/C(=O)OC
#smiles_can COC=C(C1=CC=CC=C1OC2=NC=NC(=C2)OC3=CC=CC=C3C#N)C(=O)OC
#inchikey WFDXOXNFNRHQEC-GHRIWEEISA-N
#pubchem_id 3034285
#mb_accession SM840502

>ms2peaks
82.028800 697929.800000
83.012800 508732.500000
89.038500 925449.500000
91.054300 654137.700000
103.054200 577384.800000
106.065000 568774.800000
107.049100 1042054.500000
114.033800 665085.700000
116.049400 490087.300000
120.044300 1844126.400000
121.064800 537019.900000
127.041600 255325.900000
129.044700 3024322.500000
130.040000 1642814.200000
130.052500 479412.300000
131.049100 509025.500000
132.044400 623791.200000
133.028400 287961.300000
133.052200 2784848.200000
134.060000 9341163.000000
141.044800 1056524.900000
143.036800 598030.200000
143.060300 4571719.000000
144.044700 266902.400000
145.028400 3373257.000000
145.052100 2637527.000000
146.060100 554568.100000
147.044100 422161.000000
155.060500 875127.100000
156.044300 8295523.500000
157.028400 421468.600000
159.055300 728040.900000
160.039200 793866.800000
161.071000 246272.200000
162.030900 273379.100000
162.054800 990282.200000
169.039500 2774888.000000
170.047400 685196.900000
170.060000 572575.300000
171.031300 1360420.200000
171.055200 3263710.500000
172.039200 12027999.000000
173.047000 1458418.800000
175.039200 242848.600000
177.054400 1936960.500000
182.047600 1047797.800000
182.071400 2020205.000000
183.055300 17706098.000000
184.039500 580400.500000
185.023400 623836.900000
186.054900 547496.400000
186.066400 471087.800000
187.050100 875624.000000
197.071000 264284.200000
199.050100 3101661.200000
200.034100 4718584.500000
201.042000 7388675.500000
201.065800 3743809.500000
202.049800 444970.000000
207.055300 493381.600000
210.042300 5909020.500000
210.066100 2433294.200000
211.050100 1076381.000000
212.034100 475192.400000
216.065600 7202045.000000
227.045300 460966.100000
231.091900 552531.700000
232.075700 252561.600000
233.071100 271948.000000
242.031900 2593947.800000
244.087200 574571.900000
245.070700 596705.600000
245.095100 483838.800000
246.079000 1056121.500000
247.086800 246752.900000
256.086500 246209.600000
258.079500 389008.000000
259.086600 618909.000000
260.070600 242535.900000
261.066500 362869.300000
261.078700 580246.800000
261.102500 280383.000000
262.086400 568244.200000
271.086800 535913.700000
272.070600 311992.900000
272.082000 5046256.500000
273.065900 3098746.200000
273.089400 4870110.500000
274.073500 938345.300000
275.081800 1057447.900000
284.081800 664060.100000
285.066500 267590.100000
286.073500 574499.300000
287.081300 3482442.000000
288.066000 1184890.400000
288.089200 266328.500000
288.113400 738375.100000
289.096800 1309592.000000
299.080900 469308.300000
300.076600 5304902.500000
301.084100 10958783.000000
303.076200 3181832.000000
312.076700 1305487.000000
313.060800 597587.100000
314.092700 243630.300000
315.076800 647208.000000
315.100200 1984621.800000
316.108200 10822300.000000
317.092300 1539706.000000
328.071700 15151355.000000
329.079500 61639124.000000
340.071300 440793.600000
344.103000 69643464.000000
372.098000 240009152.000000
404.124100 11540683.000000

