>compound SM04675068
>parentmass 470.3054
>ionization [M+H]+
>formula C32H39NO2
>rt 684.300000
>profile orbitrap
#smiles_iso CC(C)(C)C1=CC=C(C=C1)C(=O)CCCN2CCC(CC2)OC(C3=CC=CC=C3)C4=CC=CC=C4
#smiles_can CC(C)(C)C1=CC=C(C=C1)C(=O)CCCN2CCC(CC2)OC(C3=CC=CC=C3)C4=CC=CC=C4
#inchikey MJJALKDDGIKVBE-UHFFFAOYSA-N
#pubchem_id 3191
#mb_accession SM849302

>ms2
91.054200 479280.500000
105.069900 503830.100000
146.072700 1541264.600000
152.062100 9501873.000000
161.096100 68866760.000000
165.069900 11606901.000000
166.077800 4347992.000000
167.085500 208976768.000000
169.064700 283909.000000
173.096300 363882.500000
188.119600 3116539.000000
203.143100 116451264.000000
284.201400 440377.500000
302.211600 2872738.500000
470.305700 158010496.000000

