>compound SM04080389
>parentmass 375.1721
>ionization [M+H]+
>formula C22H27ClO3
>rt 710.520000
>profile orbitrap
#smiles_iso CC(=O)C1(CCC2C1(CCC3C2C=C(C4=CC(=O)C5CC5C34C)Cl)C)O
#smiles_can CC(=O)C1(CCC2C1(CCC3C2C=C(C4=CC(=O)C5CC5C34C)Cl)C)O
#inchikey DUSHUSLJJMDGTE-UHFFFAOYSA-N
#pubchem_id 3015
#mb_accession SM874501

>ms2peaks
55.018100 192647.100000
55.054500 190021.800000
59.049300 542676.200000
61.028500 411086.200000
67.054300 518599.900000
69.033500 249738.300000
69.070000 256281.400000
71.049200 258783.000000
79.054200 494690.100000
81.069900 730966.400000
83.049100 628078.800000
85.064800 535478.100000
87.044000 1029085.400000
91.054200 735393.200000
93.069900 994426.600000
95.049200 632071.400000
95.085500 617716.200000
97.064800 521552.800000
99.044100 79454.900000
99.080400 172932.000000
105.069900 1612391.100000
107.049100 301218.000000
107.085500 888890.400000
109.064800 904125.300000
109.101200 397672.100000
111.080500 972079.200000
113.059700 138187.700000
115.054400 77125.600000
117.069900 575223.200000
119.085500 1424519.100000
121.064800 871066.900000
121.101200 684927.900000
123.080500 423348.000000
127.031000 148091.800000
129.069900 589816.700000
130.077600 74261.500000
131.085500 885858.500000
133.064900 155676.800000
133.101100 2356329.500000
135.080500 350592.800000
135.116700 299902.400000
137.096100 233039.200000
139.030800 154663.200000
141.046500 85496.700000
141.069900 355453.700000
142.077500 445145.300000
143.085500 772761.600000
144.056800 88401.000000
144.093200 86451.700000
145.064800 720872.000000
145.101100 1332579.000000
146.072400 157254.500000
147.080300 718373.600000
147.116800 2182265.500000
149.096300 273409.900000
151.111800 267338.400000
154.077700 74214.500000
155.026100 173554.000000
155.085400 984383.300000
156.093400 229136.500000
157.041300 78692.500000
157.064700 245636.000000
157.101200 1069628.400000
158.072500 191556.800000
159.080500 690789.800000
159.116900 631413.100000
161.096100 377316.700000
161.132300 68010.800000
163.030800 80529.100000
163.111700 431921.200000
165.046600 240133.600000
165.070100 291826.700000
166.077800 72069.300000
167.025800 187263.700000
167.085500 313367.900000
168.093400 313040.100000
169.041300 229001.400000
169.064800 68032.100000
169.101100 753806.900000
171.080400 586837.800000
171.117000 480517.000000
172.088000 74481.700000
173.096200 351927.200000
175.111800 1086644.900000
177.046500 730370.200000
177.127400 170225.200000
178.077600 79773.600000
179.025600 175446.000000
179.062200 202520.100000
179.085300 327149.600000
180.093300 234946.500000
181.041400 777492.400000
181.077800 239158.400000
181.101200 841926.900000
182.109100 238756.400000
183.057200 288734.000000
183.080400 351384.300000
183.116800 1007493.400000
184.088400 386790.800000
184.125000 81686.700000
185.096200 1144822.500000
185.132300 245785.800000
187.111900 315384.300000
189.046600 386512.800000
189.127100 262585.200000
191.025700 457736.800000
191.062100 392843.800000
191.085400 164863.500000
192.093400 227398.900000
193.041400 270079.000000
193.078000 149164.700000
193.101200 865996.100000
194.108800 202837.700000
195.057200 276302.400000
195.080400 162753.600000
195.116900 1392105.400000
196.124600 365542.500000
197.096300 322863.900000
197.132600 386304.600000
199.112100 277796.300000
201.046400 196073.400000
201.127000 323294.200000
203.062100 347663.600000
203.085500 175848.500000
204.093200 80018.400000
205.041400 715097.500000
205.077800 214679.600000
205.101100 888888.200000
206.109000 236803.700000
207.057100 361559.100000
207.116800 1231500.900000
208.088300 86803.800000
208.124500 211587.900000
209.096300 473381.600000
209.132300 815210.900000
210.104000 75689.200000
210.139800 207892.200000
211.111600 481208.300000
211.148000 158825.200000
213.127500 220110.100000
215.062500 278373.100000
217.078100 274455.500000
217.101100 382234.400000
218.109000 280256.800000
219.057200 3506608.000000
219.116800 919658.700000
220.124600 272300.200000
221.072800 405873.700000
221.096100 308928.300000
221.132600 932637.100000
222.103800 205557.400000
222.140600 136205.600000
223.111700 635280.400000
223.148300 394035.200000
224.119700 185082.900000
225.127500 369882.800000
226.135400 75728.600000
227.142700 79387.800000
229.077800 210082.200000
229.101100 85046.600000
230.109200 174775.000000
231.057500 140847.800000
231.093400 226848.700000
231.116900 395033.100000
232.124600 326519.200000
233.072700 206907.800000
233.132600 936646.200000
234.104000 84522.800000
234.140300 175690.900000
235.088400 161223.400000
235.111800 627631.500000
235.148100 1245929.000000
236.119400 346672.300000
236.155900 142030.300000
237.127600 848038.900000
237.163500 459262.800000
238.135100 201071.900000
239.143000 616999.400000
241.077800 228826.300000
243.093700 194176.000000
243.116400 168557.600000
244.124700 209549.000000
245.073100 694306.600000
245.109300 242449.000000
245.132400 472762.900000
246.140000 430161.800000
247.088900 87456.000000
247.111700 329312.600000
247.148000 841346.500000
248.119800 205586.600000
248.155700 184461.500000
249.127200 671142.000000
249.163700 853259.000000
250.135300 371636.400000
250.171300 248224.500000
251.143200 1041635.500000
251.179200 526692.800000
252.150700 75271.600000
253.158600 350119.500000
255.093800 311206.900000
257.109200 216924.100000
259.088200 362161.100000
259.111800 70328.400000
259.148200 392788.900000
260.155700 505097.700000
261.104300 142903.700000
261.127200 373535.000000
261.163800 1145031.500000
262.135400 314642.400000
262.172200 64333.400000
263.143000 2509484.000000
264.151300 283160.800000
265.122800 133294.600000
265.158600 508567.700000
269.109900 189883.900000
270.139700 171733.800000
271.088600 159077.500000
271.124800 140513.700000
273.103800 621713.100000
273.127100 77086.900000
273.163200 84670.200000
274.112100 64425.800000
275.119600 241102.200000
275.142700 160069.600000
275.179400 658349.500000
277.158700 1994559.200000
278.166500 1500193.200000
279.174400 3972948.800000
281.108700 78211.300000
283.088700 71976.100000
285.103800 199202.500000
285.163600 228820.500000
287.119300 355099.200000
288.150900 199872.300000
289.134800 170238.600000
291.173800 66186.600000
293.153600 2232677.500000
293.189500 823003.700000
295.169700 75997.000000
296.133000 71451.800000
297.140200 238641.000000
297.185300 277503.600000
299.119800 560230.600000
301.134600 192642.600000
303.174500 1323281.200000
306.161200 525230.900000
313.135300 1685755.100000
314.143000 1304698.000000
315.151000 1250162.600000
321.185000 7460905.500000
322.192900 226258.100000
329.166800 406632.700000
331.146900 64472.000000
333.161000 143621.800000
339.151200 448769.700000
339.195500 420008.500000
357.161600 2844915.200000
375.172200 64210540.000000

