>compound SM05173054
>parentmass 316.1076
>ionization [M+H]+
>formula C16H15F2N3Si
>rt 728.940000
>profile orbitrap
#smiles_iso C[Si](CN1C=NC=N1)(C2=CC=C(C=C2)F)C3=CC=C(C=C3)F
#smiles_can C[Si](CN1C=NC=N1)(C2=CC=C(C=C2)F)C3=CC=C(C=C3)F
#inchikey FQKUGOMFVDPBIZ-UHFFFAOYSA-N
#pubchem_id 73675
#mb_accession SM838502

>ms2peaks
53.038800 3918596.800000
61.010600 2099829.200000
77.038600 14175326.000000
79.001000 2321392.800000
79.054300 5313500.000000
81.033500 806997.400000
91.054200 11665068.000000
94.041300 1777474.800000
95.049100 17414358.000000
103.054200 3202449.000000
105.044700 6426512.500000
105.069900 11802979.000000
109.031500 2382309.500000
109.044700 4248805.000000
115.054200 2890774.000000
128.062200 1665976.800000
129.069700 617785.800000
139.054100 658094.900000
141.016700 1172342.000000
141.069800 5562485.500000
151.037300 1863545.600000
152.062100 8715924.000000
153.069800 11527930.000000
155.085500 1150586.000000
159.060500 856909.400000
164.061900 2624020.500000
165.069900 168059232.000000
166.077700 20652620.000000
167.032400 1784047.200000
168.057100 715087.600000
169.028000 1078381.000000
169.047900 9338276.000000
171.043600 10439287.000000
171.080400 721819.500000
175.022100 2966199.800000
178.077600 4243778.000000
179.085500 4304613.000000
181.075700 1103262.600000
181.101100 769170.900000
183.060500 7078201.500000
183.079900 466404.300000
184.068400 566016.100000
185.076100 22565396.000000
188.064800 920923.000000
189.037600 888408.400000
193.075900 674222.300000
199.038400 1038557.000000
205.069100 678556.700000
217.048000 4056253.800000
219.043500 1702318.000000
220.069800 1593802.800000
227.068500 3873108.200000
231.044000 989867.700000
232.051000 1296837.600000
233.059600 630642.000000
235.039100 1134355.900000
235.058300 1705227.000000
237.054300 4518818.500000
245.059000 757171.900000
245.079400 3294585.000000
247.075100 4220856.000000
249.054000 778361.600000
253.049000 656004.900000
265.085200 2571141.500000
316.107700 430144800.000000

