>compound SM06829082
>parentmass 223.0965
>ionization [M+H]+
>formula C12H14O4
>rt 626.460000
>profile orbitrap
#smiles_iso CCOC(=O)C1=CC=CC=C1C(=O)OCC
#smiles_can CCOC(=O)C1=CC=CC=C1C(=O)OCC
#inchikey FLKPEMZONWLCSK-UHFFFAOYSA-N
#pubchem_id 6781
#mb_accession SM835301

>ms2peaks
65.038500 206295.800000
93.033500 112277.200000
121.028400 1262506.900000
149.023300 66349924.000000
163.039000 872088.100000
167.033900 98555.100000
177.054600 19318612.000000
181.049500 810419.800000

