>compound SM07286551
>parentmass 368.1104
>ionization [M+H]+
>formula C18H16F3NO4
>rt 743.700000
>profile orbitrap
#smiles_iso COC=C(C1=CC=CC=C1COC2=CC=CC(=N2)C(F)(F)F)C(=O)OC
#smiles_can COC=C(C1=CC=CC=C1COC2=CC=CC(=N2)C(F)(F)F)C(=O)OC
#inchikey IBSNKSODLGJUMQ-UHFFFAOYSA-N
#pubchem_id 53394839
#mb_accession SM845203

>ms2
91.054300 969919.600000
102.046400 461105.300000
103.054300 458665.100000
115.054300 5749381.000000
117.069900 9052673.000000
129.069900 464573.000000
130.041400 1203585.100000
131.049200 595898.100000
131.085500 464042.200000
145.064800 87365488.000000
146.072800 1275061.600000
147.080500 167179.000000
162.995500 99836.200000
173.059800 1456225.900000
177.091100 1528212.500000
190.063100 114744.900000
205.086000 35562592.000000

