>compound SM09193014
>parentmass 170.0964
>ionization [M+H]+
>formula C12H11N
>rt 506.220000
>profile orbitrap
#smiles_iso C1=CC=C(C=C1)C2=CC=CC=C2N
#smiles_can C1=CC=C(C=C1)C2=CC=CC=C2N
#inchikey TWBPWBPGNQWFSJ-UHFFFAOYSA-N
#pubchem_id 7015
#mb_accession SM801001

>ms2
65.038600 266264.400000
92.049400 1589439.400000
93.057200 1397696.500000
103.054200 231978.300000
110.060000 845954.600000
115.054100 264421.100000
128.062000 2117535.800000
129.069900 580633.000000
143.085500 4070595.200000
152.062000 4076881.200000
153.069800 16045874.000000
154.064900 342999.700000
154.077700 260425.000000
155.072900 1654458.400000
168.080900 577549.100000
169.065400 262983.400000
169.088500 3153371.000000
170.096300 214456896.000000
181.075800 374698.900000

