>compound SM10472312
>parentmass 251.0373
>ionization [M+H]+
>formula C12H10O4S
>rt 449.340000
>profile orbitrap
#smiles_iso C1=CC(=CC=C1O)S(=O)(=O)C2=CC=C(C=C2)O
#smiles_can C1=CC(=CC=C1O)S(=O)(=O)C2=CC=C(C=C2)O
#inchikey VPWNQTHUCYMVMZ-UHFFFAOYSA-N
#pubchem_id 6626
#mb_accession SM864401

>ms2
55.018000 111682.500000
65.038700 3431704.200000
68.997200 195678.200000
69.033600 35146.400000
71.012800 252856.000000
79.017900 117491.300000
81.033500 142118.700000
93.033400 990067.600000
94.041300 151311.800000
97.028400 46956.600000
109.028400 6151293.000000
110.036300 142355.000000
111.044100 4983712.000000
121.039600 10003794.000000
122.036700 70211.100000
141.000200 47578.600000
156.995400 19819508.000000
251.037200 21682840.000000

