>compound SM10761284
>parentmass 171.1856
>ionization [M+H]+
>formula C10H22N2
>rt 23.280000
>profile orbitrap
#smiles_iso CC1(CC(CC(C1)(C)CN)N)C
#smiles_can CC1(CC(CC(C1)(C)CN)N)C
#inchikey RNLHGQLZWXBQNY-UHFFFAOYSA-N
#pubchem_id 17857
#mb_accession SM812203,SM865504

>ms2
57.070000 1974837.100000
67.054300 2664254.200000
69.069900 3085167.500000
71.085600 4126977.000000
79.054200 493514.000000
81.069900 31949346.000000
83.085600 398318.000000
95.085500 31997534.000000
109.101200 1509622.900000
137.132400 68383064.000000
154.159000 285773312.000000
171.185500 162757344.000000

>ms2
57.070000 319771.500000
67.054300 549153.200000
69.069900 763403.700000
71.085600 822311.500000
79.054200 196247.600000
81.069900 6683720.500000
83.085500 86134.400000
93.069700 116357.500000
95.085500 6113147.500000
107.085300 67742.300000
109.101200 455865.500000
111.080400 98503.500000
125.096000 108833.900000
137.132400 13556345.000000
154.158900 57327608.000000
171.185500 33536404.000000

