>compound SM11712243
>parentmass 221.0743
>ionization [M+H]+
>formula C11H12N2OS
>rt 562.200000
>profile orbitrap
#smiles_iso C1COCCN1C2=NC3=CC=CC=C3S2
#smiles_can C1COCCN1C2=NC3=CC=CC=C3S2
#inchikey VVUVJGRVEYHIHC-UHFFFAOYSA-N
#pubchem_id 77901
#mb_accession SM884101

>ms2peaks
109.010600 4748064.000000
117.057400 2435960.000000
124.021600 1820571.500000
136.021500 19776370.000000
144.068400 710953.800000
150.037300 26574392.000000
175.032700 1585076.500000
176.040300 896959.000000
177.048100 80151576.000000
190.056000 799831.800000
203.063800 1417234.900000
219.058700 851248.100000
221.074400 615200960.000000

