>compound SM11186969
>parentmass 80.0495
>ionization [M+H]+
>formula C5H5N
>rt 26.280000
>profile orbitrap
#smiles_iso C1=CC=NC=C1
#smiles_can C1=CC=NC=C1
#inchikey JUJWROOIHBZHMG-UHFFFAOYSA-N
#pubchem_id 1049
#mb_accession SM813501

>ms2peaks
80.049400 309029952.000000
96.044300 436354.600000

