>compound SM11859459
>parentmass 96.0444
>ionization [M+H]+
>formula C5H5NO
>rt 35.580000
>profile orbitrap
#smiles_iso C1=CC(=CN=C1)O
#smiles_can C1=CC(=CN=C1)O
#inchikey GRFNBEZIAWKNCO-UHFFFAOYSA-N
#pubchem_id 7971
#mb_accession SM804503

>ms2peaks
67.041700 21885.400000
68.049500 254000.600000
78.033800 16847.900000
96.044400 11034976.000000

