>compound SM11766609
>parentmass 187.0754
>ionization [M+H]+
>formula C12H10O2
>rt 640.020000
>profile orbitrap
#smiles_iso COC1=C(C2=CC=CC=C2C=C1)C=O
#smiles_can COC1=C(C2=CC=CC=C2C=C1)C=O
#inchikey YIQGLTKAOHRZOL-UHFFFAOYSA-N
#pubchem_id 79352
#mb_accession SM814501

>ms2peaks
103.054100 503889.300000
115.054000 379599.600000
116.061900 662703.200000
117.069700 74058.900000
127.054000 554191.300000
128.061900 1135475.200000
129.069800 12443189.000000
131.049100 353726.300000
131.085400 322100.100000
141.069800 148776.300000
143.049100 129443.100000
144.056800 39134072.000000
145.064600 1697413.600000
155.060200 1824876.600000
157.064700 28093814.000000
158.072400 105712.500000
159.080300 16292041.000000
169.075900 83545.700000
171.043900 655422.300000
172.051700 2983358.000000
185.059600 933273.900000
187.075200 62472068.000000

