>compound SM11004605
>parentmass 387.253
>ionization [M+H]+
>formula C24H34O4
>rt 748.080000
>profile orbitrap
#smiles_iso C[C@H]1C[C@@H]2[C@H](CC[C@]3([C@H]2CC[C@@]3(C(=O)C)OC(=O)C)C)[C@@]4(C1=CC(=O)CC4)C
#smiles_can CC1CC2C(CCC3(C2CCC3(C(=O)C)OC(=O)C)C)C4(C1=CC(=O)CC4)C
#inchikey PSGAAPLEWMOORI-PEINSRQWSA-N
#pubchem_id 6279
#mb_accession SM874903

>ms2
55.018100 117198.800000
55.054400 356078.600000
59.049300 79705.400000
61.028600 91065.000000
67.054300 1472709.600000
69.033700 70015.700000
69.069900 475057.800000
77.038800 83817.500000
79.054200 966673.600000
81.033500 96484.800000
81.069900 1456519.400000
83.049100 2997756.800000
85.064800 355322.400000
91.054100 624395.000000
93.069900 2108608.000000
95.049100 520390.800000
95.085500 3533908.800000
97.064800 24094342.000000
99.080400 753080.300000
105.069900 2164698.000000
107.085500 1940895.800000
108.056900 236634.500000
109.064700 1058494.000000
109.101200 1374050.000000
111.080400 2399263.200000
117.069800 419169.300000
119.085500 2321736.200000
121.064600 548057.600000
121.101200 1202195.800000
123.080400 45001784.000000
125.096300 105319.800000
129.069900 290242.200000
131.085400 1470780.900000
133.101200 2189320.800000
135.080400 811350.000000
135.116800 970984.600000
137.096000 5238769.000000
139.111700 85972.400000
141.070200 88108.500000
142.078000 82801.300000
143.085600 1238312.000000
144.093100 93557.800000
145.101100 4352189.000000
147.116700 4050924.000000
149.096100 340858.100000
149.132600 490631.000000
151.111800 424298.700000
155.085500 538263.100000
156.093300 332984.900000
157.101100 1696440.500000
158.108700 106318.400000
159.080300 145171.600000
159.116800 2307005.800000
161.096000 466552.800000
161.132400 2707571.000000
163.111700 750402.500000
163.148100 782534.200000
165.127100 73261.500000
169.101300 1101623.500000
170.109000 67645.900000
171.116800 3207828.800000
173.096000 267424.600000
173.132500 4593700.500000
174.140500 130564.600000
175.111800 1250804.000000
175.148100 6240289.000000
177.127300 1115693.400000
177.163700 89209.700000
181.101100 246722.800000
182.108700 235160.600000
183.116900 1084852.000000
184.124400 86902.900000
185.132400 1850190.000000
187.111800 897129.100000
187.148000 2287212.000000
189.127300 1519871.400000
189.163900 499364.100000
191.143000 715510.400000
195.116900 593398.400000
196.124300 67184.800000
197.132500 1627614.900000
198.139800 260051.100000
199.148100 1785692.100000
201.127600 271519.400000
201.163800 770898.800000
203.143100 1199852.500000
203.179400 317882.800000
205.158600 2562868.500000
207.116800 93416.300000
209.132200 642255.600000
211.148100 1415256.900000
213.127300 439682.700000
213.163600 872050.800000
214.135100 4903721.500000
215.143000 1749347.100000
215.179500 100376.400000
217.158800 1030276.200000
221.132500 446340.600000
223.147700 370794.900000
224.155700 148517.000000
225.163800 1822692.600000
226.171200 146871.300000
227.143000 439543.500000
227.179200 1747513.800000
229.158900 115688.200000
231.174300 372028.800000
233.154100 64114.200000
235.147700 155869.700000
237.163700 220067.000000
238.170900 78303.200000
239.142900 367733.700000
239.180000 450393.700000
241.158900 270027.500000
241.194700 139092.500000
243.174000 552829.100000
245.189900 650823.200000
249.163400 312250.600000
251.179500 1007839.500000
252.187700 68987.300000
253.158500 334423.800000
255.174600 85671.100000
257.153500 2305747.800000
265.195000 696031.400000
266.203000 1812677.100000
267.174100 314198.200000
267.210700 6272048.500000
269.190100 1269910.000000
275.162900 71740.500000
281.189800 126429.500000
281.226900 223572.700000
283.205700 2138317.000000
284.213700 1720395.800000
285.221300 14479552.000000
291.210800 1014476.800000
301.216700 79955.200000
303.232100 397333.000000
309.221300 4369486.000000
317.174900 91538.200000
327.231900 36001520.000000
345.242400 435101.200000
387.253000 59813392.000000

