>compound SM12410658
>parentmass 180.0808
>ionization [M+H]+
>formula C13H9N
>rt 555.540000
>profile orbitrap
#smiles_iso C1=CC=C2C=C3C(=CC2=C1)C=CC=N3
#smiles_can C1=CC=C2C=C3C(=CC2=C1)C=CC=N3
#inchikey RFQDDXWZZVRLKO-UHFFFAOYSA-N
#pubchem_id 520238
#mb_accession SM817301

>ms2peaks
152.061600 352697.200000
179.072200 303714.100000
180.080600 261354928.000000

