>compound SM12100127
>parentmass 267.1088
>ionization [M+H]+
>formula C11H14N4O4
>rt 389.040000
>profile orbitrap
#smiles_iso CN1C=NC2=C1C(=O)N(C(=O)N2C)CCCC(=O)O
#smiles_can CN1C=NC2=C1C(=O)N(C(=O)N2C)CCCC(=O)O
#inchikey WKASGTGXOGALBG-UHFFFAOYSA-N
#pubchem_id 151419
#mb_accession SM871101

>ms2
56.049700 30232.400000
69.044800 87000.000000
81.044800 43562.700000
83.024000 67935.800000
83.060400 68302.000000
87.044000 70065.300000
108.055700 87806.400000
109.076000 19102.800000
110.071300 246920.700000
121.063500 15512.400000
122.071200 93843.000000
135.066500 16665.400000
136.050500 114721.700000
136.086800 14024.000000
137.082200 36755.400000
138.066200 1894773.400000
149.082400 70362.500000
150.066300 18125.000000
150.102600 262334.700000
154.061200 139452.500000
162.089800 18306.700000
163.061500 63119.800000
165.077000 203970.400000
178.097700 18692.700000
180.063900 119566.300000
181.072000 3339307.500000
193.072100 8650501.000000
205.108400 388407.000000
207.087700 123513.000000
211.082600 1287694.000000
221.103300 13762505.000000
225.098400 103336.900000
249.098300 12236869.000000
267.108800 5375948.000000

