>compound SM12917451
>parentmass 200.0528
>ionization [M+H]+
>formula C12H9NS
>rt 703.380000
>profile orbitrap
#smiles_iso CC1=NC2=C(S1)C=CC3=CC=CC=C32
#smiles_can CC1=NC2=C(S1)C=CC3=CC=CC=C32
#inchikey OUXMJRMYZCEVKO-UHFFFAOYSA-N
#pubchem_id 75892
#mb_accession SM814802

>ms2peaks
115.054200 6562952.500000
159.026300 35541740.000000
167.072500 265163.300000
168.080700 296183.000000
185.029500 218584.800000
199.045000 188939.900000
200.052800 188438576.000000

