>compound SM12145575
>parentmass 122.0964
>ionization [M+H]+
>formula C8H11N
>rt 29.580000
>profile orbitrap
#smiles_iso CC1=CC(=NC(=C1)C)C
#smiles_can CC1=CC(=NC(=C1)C)C
#inchikey BWZVCCNYKMEVEX-UHFFFAOYSA-N
#pubchem_id 7953
#mb_accession SM806602

>ms2peaks
79.054200 733249.600000
81.069900 520645.300000
106.065000 302187.600000
107.072800 612868.100000
121.088700 429672.600000
122.096400 223113008.000000
124.075600 311515.400000

