>compound SM12730141
>parentmass 212.0585
>ionization [M+H]+
>formula C9H10ClN3O
>rt 344.220000
>profile orbitrap
#smiles_iso C1CN(C(=O)N1)CC2=CN=C(C=C2)Cl
#smiles_can C1CN(C(=O)N1)CC2=CN=C(C=C2)Cl
#inchikey ADWTYURAFSWNSU-UHFFFAOYSA-N
#pubchem_id 15390532
#mb_accession SM846301

>ms2peaks
56.049600 410561.800000
57.070100 86930.600000
65.038700 195822.800000
67.054300 77118.700000
69.008400 106713.300000
70.028800 257420.800000
71.060500 315140.300000
85.039600 374675.200000
86.034900 648902.200000
90.033800 212740.200000
92.049500 593394.300000
93.057200 498720.600000
97.039600 271127.800000
99.055300 14463306.000000
106.065100 102305.900000
107.060400 186643.000000
110.059900 245029.400000
114.010500 937220.600000
114.066200 372446.900000
126.010500 9187990.000000
127.018300 580935.500000
128.026100 53646812.000000
133.076000 459289.500000
142.005400 161081.400000
144.020900 160646.100000
156.088000 6777388.500000
167.037200 88166.800000
168.020900 81405.900000
169.016400 223181.400000
169.052600 622673.800000
176.081800 951191.900000
194.048000 497259.700000
195.032000 1428422.400000
212.058500 70316528.000000

