>compound SM12438160
>parentmass 230.0964
>ionization [M+H]+
>formula C17H11N
>rt 748.890000
>profile orbitrap
#smiles_iso C1=CC=C2C(=C1)C=CC3=CC4=CC=CC=C4N=C32
#smiles_can C1=CC=C2C(=C1)C=CC3=CC4=CC=CC=C4N=C32
#inchikey OAPPEBNXKAKQGS-UHFFFAOYSA-N
#pubchem_id 9181
#mb_accession SM811901,SM830601

>ms2peaks
229.088100 2767492.500000
230.096300 794541120.000000

>ms2peaks
228.080100 1377369.800000
229.088400 2964222.500000
230.096500 1003154048.000000

