>compound SM13739503
>parentmass 214.0896
>ionization [M+H]+
>formula C10H15NO2S
>rt 591.630000
>profile orbitrap
#smiles_iso CCCCNS(=O)(=O)C1=CC=CC=C1
#smiles_can CCCCNS(=O)(=O)C1=CC=CC=C1
#inchikey IPRJXAGUEGOFGG-UHFFFAOYSA-N
#pubchem_id 19241
#mb_accession SM823401,SM878901

>ms2peaks
50.015300 370799.100000
51.023200 516392.700000
53.038800 7668317.000000
55.018100 272054.400000
57.070100 4781676.000000
72.080900 2344503.000000
77.038600 18292406.000000
79.054300 280566.500000
79.980200 239159.000000
81.033500 1254267.600000
81.069900 335887.400000
94.041400 2596836.000000
95.049200 34894380.000000
105.044800 11853565.000000
109.064800 456667.800000
141.000500 67324984.000000
149.023500 68129.900000
158.027100 46743468.000000
159.011000 71264.000000
173.026900 287520.600000
214.089700 7323520.500000

>ms2peaks
51.023100 695666.400000
53.038800 6683069.000000
55.018000 342461.000000
57.070100 4449322.500000
72.080800 2021391.800000
77.038600 14576003.000000
79.054300 267017.000000
81.033500 862074.400000
81.069900 276327.700000
94.041300 1855146.000000
95.049200 27000330.000000
105.044800 9402063.000000
109.064800 359018.300000
141.000400 57023492.000000
149.023400 67949.000000
158.027100 38687440.000000
173.026800 207274.400000
214.089600 5499700.000000

