>compound SM13255091
>parentmass 298.126
>ionization [M+H]+
>formula C18H19NOS
>rt 533.760000
>profile orbitrap
#smiles_iso CNCC[C@@H](C1=CC=CS1)OC2=CC=CC3=CC=CC=C32
#smiles_can CNCCC(C1=CC=CS1)OC2=CC=CC3=CC=CC=C32
#inchikey ZEUITGRIYCTCEM-KRWDZBQOSA-N
#pubchem_id 60835
#mb_accession SM850903

>ms2
97.010700 208272.200000
123.026300 640954.500000
124.034100 275407.200000
129.069800 198772.600000
154.068700 580497.100000
155.085800 349246.100000
157.064900 662022.800000
165.069600 77542.200000
183.080500 921504.900000
239.052400 96508.600000
267.083600 409957.400000
298.126200 5150466.000000

