>compound SM13348866
>parentmass 212.0198
>ionization [M+H]+
>formula C9H9NOS2
>rt 598.380000
>profile orbitrap
#smiles_iso CCOC1=CC2=C(C=C1)NC(=S)S2
#smiles_can CCOC1=CC2=C(C=C1)NC(=S)S2
#inchikey HOASVNMVYBSLSU-UHFFFAOYSA-N
#pubchem_id 719344
#mb_accession SM821703

>ms2peaks
108.044400 303726.800000
122.006000 29329.700000
125.005600 126915.800000
126.013500 150270.600000
140.016500 186092.300000
150.000900 410111.900000
151.008700 2258779.200000
152.016500 318693.300000
155.993700 29745.600000
156.977600 25934.300000
179.040000 302916.100000
180.047800 53265.800000
182.980900 280324.700000
183.988700 10614222.000000
212.019900 22159708.000000

