>compound SM14017376
>parentmass 293.1051
>ionization [M+H]+
>formula C15H17ClN2O2
>rt 541.140000
>profile orbitrap
#smiles_iso CC(C)(C)C(=O)C(N1C=CN=C1)OC2=CC=C(C=C2)Cl
#smiles_can CC(C)(C)C(=O)C(N1C=CN=C1)OC2=CC=C(C=C2)Cl
#inchikey OWEGWHBOCFMBLP-UHFFFAOYSA-N
#pubchem_id 37907
#mb_accession SM818301

>ms2
53.002400 366154.500000
55.054400 570534.100000
57.070100 21024922.000000
67.054300 1452003.500000
69.070000 94414048.000000
70.077800 5042881.000000
81.044800 695115.300000
82.052600 6018457.500000
85.064800 373017.200000
87.080400 140001.800000
95.049100 133926.000000
95.060300 379500.700000
98.999700 1344135.200000
103.030900 1148140.400000
109.039700 6093673.000000
110.999800 147589.000000
113.015300 2189485.200000
115.075400 12924269.000000
124.063100 421567.000000
125.015100 136876.800000
126.994600 8666915.000000
129.010200 14056099.000000
137.107300 3988652.800000
139.005700 858197.300000
141.010200 20212354.000000
155.025800 7921199.500000
159.020600 354806.000000
161.096100 957871.300000
162.104100 135645.900000
165.102300 622586.400000
166.110200 4353716.500000
190.098600 474394.200000
197.072900 55077928.000000
225.067700 2382922.000000
293.105300 129054648.000000

