>compound SM14707712
>parentmass 189.1022
>ionization [M+H]+
>formula C11H12N2O
>rt 364.140000
>profile orbitrap
#smiles_iso CC1=CC(=O)N(N1C)C2=CC=CC=C2
#smiles_can CC1=CC(=O)N(N1C)C2=CC=CC=C2
#inchikey VEQOALNAAJBPNY-UHFFFAOYSA-N
#pubchem_id 2206
#mb_accession SM854601

>ms2peaks
56.049600 10035814.000000
58.065300 9990888.000000
65.038700 692325.800000
70.065200 666040.800000
77.038800 736794.100000
91.054200 2258591.500000
93.033500 480728.700000
95.049200 561619.700000
95.060400 550981.300000
96.044400 918529.500000
96.068200 4239101.500000
98.060100 1354436.500000
103.054200 489267.000000
104.049400 7826089.000000
105.069800 617727.400000
106.065100 3886075.500000
111.055300 521068.100000
117.057200 980814.100000
117.069900 1775179.500000
118.065100 4690403.000000
120.080700 4218725.500000
130.065100 4729899.500000
131.072900 8522978.000000
132.080700 3513405.800000
133.052000 650907.900000
133.075900 1478904.800000
134.096400 565758.100000
144.080700 7456511.000000
145.064700 2935604.800000
145.075700 656178.100000
146.083800 7700623.500000
146.096300 2453160.200000
147.091600 10602598.000000
148.075800 915947.600000
149.070900 629362.500000
157.052100 645389.400000
158.060100 527551.900000
161.107300 7587352.500000
172.075600 2272094.500000
174.078700 4691593.500000
189.102200 414671424.000000

