>compound SM15058209
>parentmass 281.9986
>ionization [M+H]+
>formula C8H12INO2
>rt 609.780000
>profile orbitrap
#smiles_iso CCCCNC(=O)OC#CCI
#smiles_can CCCCNC(=O)OC#CCI
#inchikey DNKGZSOYWMQDTK-UHFFFAOYSA-N
#pubchem_id 9921791
#mb_accession SM821102,SM880402

>ms2
55.018100 562611.600000
57.070100 6007963.000000
68.049700 68119.400000
74.023700 116784.400000
86.096500 175361.700000
88.039300 59584.400000
96.080800 52601.800000
100.075800 121395.100000
116.070800 70861.200000
126.903700 63165.700000
155.094200 271445.200000
164.919800 23397990.000000
166.935300 89747.500000
181.946500 67616.700000
182.930100 63219.900000
238.009100 40795.100000
281.999000 555894.500000

>ms2
53.002400 36924.900000
55.018000 594940.500000
57.070000 5691561.500000
68.049600 43614.400000
74.023700 155377.400000
86.096400 154058.900000
88.039400 63853.100000
96.080800 54283.800000
100.075600 136781.300000
110.096500 35045.800000
116.070600 61870.500000
126.903800 61069.200000
155.094000 228859.100000
164.919600 23471234.000000
166.935200 98409.200000
181.946200 51860.100000
182.930100 42852.700000
238.008700 37725.800000
281.998600 627272.300000

