>compound SM15691214
>parentmass 316.0347
>ionization [M+H]+
>formula C14H9ClF3NO2
>rt 742.440000
>profile orbitrap
#smiles_iso C1CC1C#C[C@]2(C3=C(C=CC(=C3)Cl)NC(=O)O2)C(F)(F)F
#smiles_can C1CC1C#CC2(C3=C(C=CC(=C3)Cl)NC(=O)O2)C(F)(F)F
#inchikey XPOQHMRABVBWPR-ZDUSSCGKSA-N
#pubchem_id 64139
#mb_accession SM851803

>ms2peaks
50.015300 24999.900000
51.023200 273264.700000
53.038800 7054372.500000
81.033600 94038.500000
138.027700 35087.000000
141.069900 24860.200000
142.077600 39657.300000
151.018400 274284.000000
154.065000 93490.900000
164.026100 247430.300000
166.065100 238779.700000
167.073000 1575250.600000
168.080800 8447915.000000
170.052700 90388.400000
174.010400 92635.300000
175.018400 196438.300000
177.057000 38560.600000
182.016800 80197.900000
182.033800 35482.400000
183.995700 32332.900000
184.996300 25269.600000
185.044800 432550.700000
185.063700 114402.500000
188.026200 1466490.800000
189.038400 622866.600000
192.001300 167295.500000
195.048000 144660.700000
196.056100 86784.700000
197.063700 461447.500000
198.052500 94314.000000
198.071100 91800.000000
200.007300 243081.700000
200.026300 45456.700000
201.034000 1904754.200000
202.041700 1829404.000000
203.049700 2723566.200000
204.001500 37526.200000
206.016500 50179.200000
206.041200 98447.300000
208.037500 30283.100000
209.044600 286308.800000
210.011500 98926.600000
212.007300 811677.400000
212.016800 43962.500000
214.046400 29227.100000
215.054200 473209.800000
216.036800 43460.600000
216.062000 806276.800000
217.069900 1091323.200000
218.036700 36102.800000
219.024700 185275.000000
220.013600 1092442.900000
220.032200 89186.900000
222.052600 1966509.500000
223.042600 52004.900000
224.007300 4918920.000000
226.023300 24032.400000
228.021300 54726.300000
229.029000 298418.000000
230.016900 512667.500000
230.035600 26390.400000
231.025000 29329.500000
232.013800 5543670.000000
232.032100 3025969.200000
235.060300 567256.100000
236.068300 1649777.400000
237.015300 685550.900000
237.076100 3741606.500000
239.030800 126745.800000
243.049000 43403.900000
244.013700 11550640.000000
247.039700 106672.500000
248.026900 94444.600000
250.023100 2194329.000000
251.030500 28542.500000
252.038700 1891144.000000
256.013200 97196.800000
257.021100 312910.700000
258.011400 149734.100000
263.055200 169994.400000
270.029100 806765.200000
272.044900 4261467.500000
276.022600 93703.100000
278.018000 1080645.400000
296.028800 125060.200000
298.024300 846576.900000
316.034900 3849261.000000

