>compound SM15964029
>parentmass 265.1911
>ionization [M+H]+
>formula C15H24N2O2
>rt 443.760000
>profile orbitrap
#smiles_iso CCCCNC1=CC=C(C=C1)C(=O)OCCN(C)C
#smiles_can CCCCNC1=CC=C(C=C1)C(=O)OCCN(C)C
#inchikey GKCBAIGFKIBETG-UHFFFAOYSA-N
#pubchem_id 5411
#mb_accession SM862001

>ms2peaks
65.038600 302362.700000
70.065200 1916568.200000
72.080800 70591752.000000
92.049400 2404414.200000
105.057000 754701.300000
106.065100 1005404.600000
120.044400 3404932.800000
148.112000 1036815.900000
176.107000 262150896.000000
220.133200 19049534.000000
265.191100 34461636.000000

