>compound SM15540765
>parentmass 240.0786
>ionization [M+H]+
>formula C12H14ClNO2
>rt 640.440000
>profile orbitrap
#smiles_iso CC1(CON(C1=O)CC2=CC=CC=C2Cl)C
#smiles_can CC1(CON(C1=O)CC2=CC=CC=C2Cl)C
#inchikey KIEDNEWSYUYDSN-UHFFFAOYSA-N
#pubchem_id 54778
#mb_accession SM843201

>ms2
89.038500 2657412.200000
98.999700 979005.500000
100.075800 1634497.000000
114.054800 1133849.800000
125.015300 628226624.000000
128.070600 8786010.000000
140.026100 687243.700000
240.078600 199515376.000000

