>compound SM16331521
>parentmass 428.8912
>ionization [M+H]+
>formula C9H15Cl6O4P
>rt 755.850000
>profile orbitrap
#smiles_iso C(C(CCl)OP(=O)(OC(CCl)CCl)OC(CCl)CCl)Cl
#smiles_can C(C(CCl)OP(=O)(OC(CCl)CCl)OC(CCl)CCl)Cl
#inchikey ASLWPAWFJZFCKF-UHFFFAOYSA-N
#pubchem_id 26177
#mb_accession SM819401,SM880902

>ms2peaks
74.999700 947051.200000
80.973700 11299.500000
98.984300 7231364.500000
116.994800 27775.000000
131.010500 44846.600000
136.999800 23385.500000
172.976900 31791.700000
180.080900 17709.900000
208.953400 1452398.800000
240.979700 16776.900000
318.922600 1460056.500000
428.891900 410103.400000

>ms2peaks
74.999700 417552.200000
98.984200 3299894.800000
116.994700 15765.000000
131.010600 17499.600000
136.999800 15477.500000
158.074000 3531.600000
172.976600 7637.500000
206.023500 3864.600000
208.953300 602551.100000
282.945500 3669.600000
318.922400 616206.500000
428.891700 202213.100000

