>compound SM16257708
>parentmass 187.0754
>ionization [M+H]+
>formula C12H10O2
>rt 659.220000
>profile orbitrap
#smiles_iso COC(=O)C1=CC=CC2=CC=CC=C21
#smiles_can COC(=O)C1=CC=CC2=CC=CC=C21
#inchikey HMRROBKAACRWBP-UHFFFAOYSA-N
#pubchem_id 120056
#mb_accession SM803101

>ms2
91.054200 126675.900000
103.054200 997117.100000
115.054000 743383.900000
116.062000 1115574.500000
127.054000 737486.400000
128.062000 886086.000000
129.069800 774334.800000
131.085500 562648.800000
141.070000 278945.100000
143.049000 487243.400000
144.056900 69529856.000000
145.064700 2669729.200000
155.060300 2655873.800000
158.072600 989545.500000
159.080400 47155712.000000
172.051600 241124.200000
187.075300 88249056.000000

