>compound SM16185216
>parentmass 181.076
>ionization [M+H]+
>formula C12H8N2
>rt 607.680000
>profile orbitrap
#smiles_iso C1=CC=C2C(=C1)N=C3C=CC=CC3=N2
#smiles_can C1=CC=C2C(=C1)N=C3C=CC=CC3=N2
#inchikey PCNDJXKNXGMECE-UHFFFAOYSA-N
#pubchem_id 4757
#mb_accession SM812904

>ms2
111.023100 372380.600000
121.007600 584593.300000
154.064500 357700.900000
180.067800 511897.100000
181.075800 356871392.000000

