>compound SM16832376
>parentmass 284.1412
>ionization [M+H]+
>formula C15H22ClNO2
>rt 716.460000
>profile orbitrap
#smiles_iso CCC1=CC=CC(=C1N(C(C)COC)C(=O)CCl)C
#smiles_can CCC1=CC=CC(=C1N(C(C)COC)C(=O)CCl)C
#inchikey WVQBLGZPHOPPFO-UHFFFAOYSA-N
#pubchem_id 4169
#mb_accession SM841801

>ms2
73.064900 9762565.000000
76.978900 2815087.000000
91.054200 1182187.200000
108.080900 709954.800000
109.064800 385782.600000
117.069900 1021589.100000
118.065200 499369.800000
119.085700 1183721.400000
120.080700 1283588.500000
130.065300 379430.500000
131.073100 749079.300000
131.085600 627702.900000
132.080800 1103882.800000
133.088600 3304414.800000
134.096400 12760770.000000
135.080400 764498.900000
136.112000 369563.700000
143.072800 820837.800000
144.080900 902197.900000
145.088500 1714005.800000
146.096400 5538485.500000
147.104100 832069.100000
148.112000 1513018.900000
158.096500 3108009.500000
159.104300 1502547.500000
160.112100 5137976.500000
162.091100 1082940.100000
174.128100 791588.100000
176.143400 73564512.000000
184.052500 3799268.800000
194.073200 2229232.500000
202.123000 395825.500000
212.083700 5567271.500000
224.082800 330467.700000
224.120200 567369.200000
252.115000 329699584.000000
284.141300 54971064.000000

