>compound SM17860574
>parentmass 264.1758
>ionization [M+H]+
>formula C16H22FNO
>rt 379.860000
>profile orbitrap
#smiles_iso CC1CCN(CC1)CCCC(=O)C2=CC=C(C=C2)F
#smiles_can CC1CCN(CC1)CCCC(=O)C2=CC=C(C=C2)F
#inchikey DKMFBWQBDIGMHM-UHFFFAOYSA-N
#pubchem_id 15387
#mb_accession SM849401

>ms2peaks
95.028900 632371.400000
100.112100 4936264.000000
123.024100 100986512.000000
165.071100 187132208.000000
246.165800 431659.200000
264.175900 135088512.000000

