>compound SM17571328
>parentmass 301.0738
>ionization [M+H]+
>formula C16H13ClN2O2
>rt 634.860000
>profile orbitrap
#smiles_iso CN1C2=C(C=C(C=C2)Cl)C(=NC(C1=O)O)C3=CC=CC=C3
#smiles_can CN1C2=C(C=C(C=C2)Cl)C(=NC(C1=O)O)C3=CC=CC=C3
#inchikey SEQDDYPDSLOBDC-UHFFFAOYSA-N
#pubchem_id 5391
#mb_accession SM860501

>ms2peaks
58.028900 328567.000000
95.049100 305957.600000
104.049400 1920237.600000
117.057400 1233680.000000
125.015200 1635422.400000
138.010500 685865.300000
150.010600 458780.700000
152.026100 1443543.100000
165.069800 329656.800000
166.005700 539024.900000
170.036600 388173.300000
177.021400 5879344.000000
180.021000 7118197.000000
181.088300 328951.300000
193.088600 12872646.000000
205.075800 577494.200000
216.057500 3904562.200000
219.091600 387919.500000
221.083400 519033.200000
228.057300 9722644.000000
239.036900 1430425.800000
245.084200 1158670.100000
255.068300 285094656.000000
257.047200 1023078.600000
271.063200 408137.400000
273.079000 390989.200000
283.063300 60260400.000000
301.073900 117622880.000000

