>compound SM17928086
>parentmass 198.1026
>ionization [M+H]+
>formula C12H11N3
>rt 634.980000
>profile orbitrap
#smiles_iso C1=CC=C(C=C1)N=NC2=CC=C(C=C2)N
#smiles_can C1=CC=C(C=C1)N=NC2=CC=C(C=C2)N
#inchikey QPQKUYVSJWQSDY-UHFFFAOYSA-N
#pubchem_id 6051
#mb_accession SM811302

>ms2peaks
50.015300 2441753.000000
51.023100 2451050.200000
53.038800 7606290.000000
55.018000 922185.800000
65.038600 728252.100000
77.038600 53556460.000000
79.054200 818029.800000
81.033500 7734784.500000
81.069900 1187767.600000
91.054100 391548.900000
92.049400 2605363.500000
93.057300 5392028.500000
94.041300 9440026.000000
95.049100 138063392.000000
105.044700 58317344.000000
106.041600 340976.500000
106.052400 862501.900000
107.049100 297316.700000
109.064800 2221980.800000
110.060100 330932.800000
128.062000 438206.500000
152.062000 905624.200000
153.069900 1185931.900000
169.088600 633329.800000
170.096100 441352.100000
181.075600 389702.200000
196.086800 283969.500000
198.102500 260740448.000000

