>compound SM17910990
>parentmass 342.0771
>ionization [M+H]+
>formula C15H17Cl2N3O2
>rt 744.840000
>profile orbitrap
#smiles_iso CCCC1COC(O1)(CN2C=NC=N2)C3=C(C=C(C=C3)Cl)Cl
#smiles_can CCCC1COC(O1)(CN2C=NC=N2)C3=C(C=C(C=C3)Cl)Cl
#inchikey STJLVHWMYQXCPB-UHFFFAOYSA-N
#pubchem_id 43234
#mb_accession SM841502

>ms2
53.002400 363957.300000
53.997600 114744.300000
67.054300 1090423.500000
69.069900 33716832.000000
70.040000 3818067.000000
87.080400 389604.100000
122.999700 162992.600000
158.976300 76131904.000000
169.005000 122766.100000
172.955600 2212636.000000
172.992100 486595.100000
186.971200 4153530.800000
190.966000 1245482.000000
204.981800 3733486.200000
220.027100 116449.700000
256.003800 275834.700000
259.028700 1103031.500000
273.044400 771486.900000
342.077200 92810136.000000

