>compound SM18173098
>parentmass 395.0813
>ionization [M+H]+
>formula C19H11F5N2O2
>rt 791.520000
>profile orbitrap
#smiles_iso C1=CC(=CC(=C1)OC2=C(C=CC=N2)C(=O)NC3=C(C=C(C=C3)F)F)C(F)(F)F
#smiles_can C1=CC(=CC(=C1)OC2=C(C=CC=N2)C(=O)NC3=C(C=C(C=C3)F)F)C(F)(F)F
#inchikey WYEHFWKAOXOVJD-UHFFFAOYSA-N
#pubchem_id 91735
#mb_accession SM838403

>ms2
78.033900 67039.300000
95.012800 55830.500000
96.044400 284016.200000
122.023800 66590.000000
140.034700 116828.500000
141.057200 79413.000000
145.026100 43953.300000
158.039800 32780.800000
169.052200 416431.600000
172.037000 57129.400000
178.027300 75656.000000
183.041600 962667.400000
185.051000 109247.100000
188.051000 51919.600000
190.046200 759344.600000
191.054100 79646.600000
196.038700 33274.500000
197.047200 31626.200000
198.054700 93199.400000
210.052500 595960.100000
213.045900 94407.700000
214.048700 97777.200000
216.045700 80158.700000
218.041200 1059274.500000
219.048900 488401.000000
233.052100 1211399.000000
238.047400 3368421.000000
246.036100 4939720.500000
265.054800 296754.300000
266.042300 29899000.000000
284.052900 2018071.800000
298.068400 131025.300000
307.068300 105925.900000
335.062500 331191.800000
355.069000 208399.900000
357.065800 111985.000000
375.075300 596988.100000
377.070700 335698.800000
395.081500 22458590.000000

