>compound SM18154689
>parentmass 329.186
>ionization [M+H]+
>formula C19H24N2O3
>rt 439.440000
>profile orbitrap
#smiles_iso CC(CCC1=CC=CC=C1)NCC(C2=CC(=C(C=C2)O)C(=O)N)O
#smiles_can CC(CCC1=CC=CC=C1)NCC(C2=CC(=C(C=C2)O)C(=O)N)O
#inchikey SGUAFYQXFOLMHL-UHFFFAOYSA-N
#pubchem_id 3869
#mb_accession SM818801

>ms2
65.038700 118062.900000
79.054300 68293.400000
91.054300 12791263.000000
94.065200 57337.100000
105.070100 53931.400000
106.065200 478534.900000
107.049300 190485.100000
116.049400 171288.900000
117.033400 20834.200000
118.065200 49080.400000
119.049200 97840.800000
120.044500 155222.000000
133.052300 72680.100000
133.101300 144746.900000
134.060100 1102957.100000
135.044200 189747.100000
136.075800 85049.200000
144.044500 209000.100000
145.028400 58159.100000
147.044000 315533.900000
148.075800 16694.200000
148.112000 26621.500000
161.059900 66472.400000
162.055000 15175302.000000
164.070700 1384067.000000
165.054800 1242196.200000
172.076000 22701.500000
179.081600 1482274.100000
180.065600 359056.400000
190.086400 1656431.800000
194.081300 198175.200000
207.113000 2221086.200000
208.097600 102660.800000
222.113000 16003.800000
252.102100 26614.100000
294.149100 3907429.800000
311.175700 14446053.000000
312.159700 494232.500000
329.186200 9270597.000000

