>compound SM18766499
>parentmass 136.0215
>ionization [M+H]+
>formula C7H5NS
>rt 471.420000
>profile orbitrap
#smiles_iso C1=CC=C2C(=C1)N=CS2
#smiles_can C1=CC=C2C(=C1)N=CS2
#inchikey IOJUPLGTWVMSFF-UHFFFAOYSA-N
#pubchem_id 7222
#mb_accession SM882102

>ms2peaks
65.038800 125672.200000
109.010600 952605.600000
136.021400 125488040.000000

