>compound SM19732481
>parentmass 319.1628
>ionization [M+H]+
>formula C15H21F3N2O2
>rt 545.100000
>profile orbitrap
#smiles_iso COCCCC/C(=N\OCCN)/C1=CC=C(C=C1)C(F)(F)F
#smiles_can COCCCCC(=NOCCN)C1=CC=C(C=C1)C(F)(F)F
#inchikey CJOFXWAVKWHTFT-XSFVSMFZSA-N
#pubchem_id 5324346
#mb_accession SM851903

>ms2peaks
53.002400 641755.400000
53.038800 1559603.800000
55.054400 6106553.500000
56.025800 1539743.800000
57.070100 3167426.800000
60.044500 804330.100000
62.060200 6908822.500000
71.049200 227681200.000000
87.080400 23275036.000000
114.091300 312861.100000
130.065100 1446010.500000
131.073000 3268490.200000
159.041600 687112.300000
165.051200 254526.000000
171.041300 278464.300000
172.036800 3067561.800000
174.052900 291890.000000
180.061900 2915341.800000
183.042000 642061.100000
185.057300 834817.600000
191.066100 243809.700000
198.052600 1502341.800000
199.060400 260637.700000
199.072900 612328.500000
200.068200 22144766.000000
209.057100 620809.900000
211.060000 617588.200000
212.068300 560689.600000
214.083900 309403.600000
224.068300 848013.400000
226.083800 12909246.000000
227.091400 623097.500000
228.099400 11472534.000000
240.099000 359298.700000
242.079400 232170.700000
242.091200 961491.200000
244.094400 5230878.000000
258.110200 29380400.000000
259.118000 15128197.000000
260.125800 15149279.000000
270.110000 791060.700000
272.126000 264553.800000
276.121000 674308.000000
302.136600 2084446.600000
319.162900 90218656.000000

