>compound SM19546596
>parentmass 296.07
>ionization [M+H]+
>formula C12H13N3O4S
>rt 459.660000
>profile orbitrap
#smiles_iso CC1=CC(=NO1)NS(=O)(=O)C2=CC=C(C=C2)NC(=O)C
#smiles_can CC1=CC(=NO1)NS(=O)(=O)C2=CC=C(C=C2)NC(=O)C
#inchikey GXPIUNZCALHVBA-UHFFFAOYSA-N
#pubchem_id 65280
#mb_accession SM858902

>ms2peaks
65.038600 9703455.000000
68.049500 113896.100000
72.044400 129508.800000
79.054200 101084.200000
80.049400 334181.500000
92.049400 2434448.800000
93.033400 6563923.000000
93.057200 4326945.500000
94.065100 2295795.800000
97.039500 123800.500000
98.047400 144447.100000
99.055200 3503101.500000
106.065000 343633.500000
107.060300 754965.600000
108.044300 14312738.000000
110.060000 650557.600000
111.044000 127835.000000
118.065200 187108.700000
119.060000 75316.900000
121.076000 89808.100000
124.039100 100677.400000
131.060300 311605.600000
132.068100 445126.700000
133.075900 109194.000000
134.060000 26120906.000000
135.067700 982784.200000
136.075600 9439342.000000
140.016300 186263.800000
143.060400 92944.100000
145.075800 112119.400000
146.071200 4561557.000000
147.055100 229637.600000
147.079000 2817210.800000
148.063000 143718.000000
148.086800 672934.600000
149.070900 271515.500000
150.054900 1934638.900000
150.078700 124290.800000
151.032400 227507.800000
152.070600 1324882.900000
156.011200 2371131.000000
156.995300 190811.900000
160.086800 6093578.500000
161.001400 766994.100000
161.071000 209998.900000
162.066100 3608022.200000
172.029600 84787.600000
172.086800 270811.600000
173.058200 121992.300000
174.022000 623042.900000
176.027600 1175916.400000
177.011300 165013.000000
188.081700 7756839.500000
189.089600 1484983.500000
190.097400 2691912.800000
191.081600 96503.800000
193.042900 119370.200000
194.038200 4404319.500000
195.022000 233378.900000
198.021800 16596285.000000
201.065800 570511.400000
202.097100 446616.700000
214.097300 426241.000000
216.032300 272841.400000
216.089400 192982.700000
218.038300 466154.000000
230.092200 831723.400000
232.108000 580548.900000
236.048700 2316676.200000
254.059400 359908.800000
278.060000 225790.000000
296.069900 66643576.000000

