>compound SM19833573
>parentmass 303.2319
>ionization [M+H]+
>formula C20H30O2
>rt 890.640000
>profile orbitrap
#smiles_iso CC(C)C1=CC2=CC[C@@H]3[C@@]([C@H]2CC1)(CCC[C@@]3(C)C(=O)O)C
#smiles_can CC(C)C1=CC2=CCC3C(C2CC1)(CCCC3(C)C(=O)O)C
#inchikey RSWGJHLUYNHPMX-ONCXSQPRSA-N
#pubchem_id 10569
#mb_accession SM833703

>ms2
57.070100 5411.900000
67.054300 14675.500000
69.070000 11975.900000
79.054300 16903.600000
81.069900 54113.900000
91.054200 5980.800000
93.069900 64514.800000
95.085500 14999.500000
105.069900 6788.400000
107.085500 48909.400000
109.101300 63831.600000
111.116800 2995.500000
119.085500 5190.700000
121.101200 82112.800000
123.116900 219272.400000
133.101400 22729.000000
135.116900 60318.800000
137.132600 23617.400000
139.111900 27373.900000
147.116700 19204.800000
149.132500 80082.000000
159.116500 4395.600000
161.132700 3097.800000
167.106700 23787.600000
173.132400 4251.800000
179.106700 3763.500000
193.122700 3562.100000
201.163700 14450.900000
257.226500 72581.400000
285.221000 23965.600000
303.232100 179607.400000

