>compound SM20197418
>parentmass 296.1412
>ionization [M+H]+
>formula C16H22ClNO2
>rt 711.900000
>profile orbitrap
#smiles_iso CCOCCN(C(=O)CCl)C(=C(C)C)C1=CC=CC=C1
#smiles_can CCOCCN(C(=O)CCl)C(=C(C)C)C1=CC=CC=C1
#inchikey CSWIKHNSBZVWNQ-UHFFFAOYSA-N
#pubchem_id 6450826
#mb_accession SM839902

>ms2peaks
65.038700 449628.100000
70.040100 341805.200000
73.064800 13444339.000000
91.054200 62730916.000000
103.054300 2007650.400000
104.049400 534243.800000
105.069900 3301083.000000
115.054100 2248859.200000
116.062100 8088593.500000
120.021100 592950.200000
128.062200 441369.300000
129.069900 16813960.000000
131.085500 247297792.000000
132.080600 325693.700000
133.064800 456611.000000
134.036700 1366642.800000
146.096400 464740.600000
147.104000 971038.200000
148.052300 2061559.200000
148.112000 440948.500000
159.104200 340568.200000
160.112100 3674969.800000
172.111800 280894.200000
174.127800 1804793.900000
176.107000 1398966.200000
190.122400 599553.500000
219.161900 833019.800000
220.169600 8217656.000000
250.099400 98153544.000000
296.141300 66403700.000000

