>compound SM21261299
>parentmass 391.23
>ionization [M+H]+
>formula C15H30N6O6
>rt 596.160000
>profile orbitrap
#smiles_iso COCN(COC)C1=NC(=NC(=N1)N(COC)COC)N(COC)COC
#smiles_can COCN(COC)C1=NC(=NC(=N1)N(COC)COC)N(COC)COC
#inchikey BNCADMBVWNPPIZ-UHFFFAOYSA-N
#pubchem_id 62479
#mb_accession SM822601,SM881201

>ms2peaks
69.044800 2583346.000000
82.040100 364892.400000
84.055600 124931.600000
94.040000 121873.800000
96.055700 2234251.000000
121.050900 128345.400000
123.066500 620464.600000
148.061700 401074.200000
150.077600 373336.000000
177.088400 119454216.000000
191.104000 443082.600000
193.119900 1193525.000000
207.099000 34350952.000000
209.114900 1096835.100000
223.130100 128634.800000
239.125400 456343.000000
253.141000 2562177.500000
269.136000 1310702.400000
283.151600 47692604.000000
301.162300 2007025.600000
315.178000 1900362.500000
329.193500 1134971.900000
345.189100 222804.800000
359.204100 9948438.000000
377.214500 2265997.000000
391.230500 1077889.500000

>ms2peaks
69.044800 2482596.800000
80.024700 579790.400000
82.040100 157134.800000
96.055600 1857941.200000
123.066500 418752.800000
148.062000 479817.500000
150.077400 441201.100000
177.088400 124885992.000000
191.104400 276682.500000
193.119900 1291830.100000
207.099000 41221656.000000
209.114700 1178709.200000
221.115100 135886.700000
223.130200 320222.200000
239.125100 580827.200000
253.140800 3558293.500000
269.135700 1897769.200000
283.151500 62012404.000000
285.167300 129569.000000
301.162200 3010972.000000
315.177900 2627204.200000
329.193700 1713335.500000
345.188200 345967.800000
359.204000 12364200.000000
377.214600 2813683.800000
391.229900 1761142.000000

