>compound SM22437519
>parentmass 278.2115
>ionization [M+H]+
>formula C17H27NO2
>rt 420.240000
>profile orbitrap
#smiles_iso CN(C)CC(C1=CC=C(C=C1)OC)C2(CCCCC2)O
#smiles_can CN(C)CC(C1=CC=C(C=C1)OC)C2(CCCCC2)O
#inchikey PNVNVHUZROJLTJ-UHFFFAOYSA-N
#pubchem_id 5656
#mb_accession SM832201

>ms2
58.065300 24419702.000000
79.054400 97801.900000
81.069900 233600.800000
107.085900 131035.800000
121.064900 3290944.000000
135.080600 104605.800000
147.080500 1456198.600000
152.143400 85962.000000
159.080400 256478.900000
173.096400 661085.000000
215.143300 1087204.900000
222.077900 70093.600000
260.201300 5900813.500000
278.211800 9778740.000000

