>compound SM23930546
>parentmass 276.082
>ionization [M+H]+
>formula C12H18ClNO2S
>rt 663.120000
>profile orbitrap
#smiles_iso CC1=CSC(=C1N(C(C)COC)C(=O)CCl)C
#smiles_can CC1=CSC(=C1N(C(C)COC)C(=O)CCl)C
#inchikey JLYFCTQDENRSOL-UHFFFAOYSA-N
#pubchem_id 91744
#mb_accession SM839002

>ms2peaks
56.049700 458056.400000
58.995200 1039637.600000
73.064800 6859818.500000
76.978900 4051163.200000
93.069900 1370790.200000
94.065100 465599.700000
95.073000 1313964.400000
99.026400 774658.500000
107.085600 467578.700000
108.080800 1675313.000000
111.026300 28518442.000000
112.034000 755842.300000
113.041900 1483700.500000
114.037200 566286.400000
116.026300 1243867.500000
117.069900 911915.400000
120.080800 790020.500000
122.096400 582218.900000
124.034000 942869.800000
125.041900 2829265.800000
126.037200 8372657.500000
127.021300 1220062.800000
127.045000 725037.800000
127.057600 1574357.100000
128.052800 3084541.500000
129.037000 1397601.400000
133.088600 565661.600000
134.096400 1933605.900000
135.104200 4879508.000000
137.029500 1184621.200000
138.037100 4053085.800000
139.057500 573686.000000
140.052800 1257590.900000
141.073200 521889.300000
149.042000 495865.600000
150.037200 2868765.000000
151.044900 802599.800000
151.057600 8518532.000000
152.016400 1674580.500000
152.052800 5961555.000000
153.024300 3738165.200000
153.060700 1310058.000000
154.032200 843583.600000
166.032200 2017049.000000
166.068500 2450289.800000
167.076300 8150389.500000
168.084200 112347136.000000
174.013700 572814.800000
186.013900 6750033.000000
202.008800 1414602.100000
203.016600 3794343.000000
204.024600 2410602.200000
244.055800 435716000.000000
276.082100 52765740.000000

