>compound SM24412503
>parentmass 191.9614
>ionization [M+H]+
>formula C6H3Cl2NO2
>rt 148.680000
>profile orbitrap
#smiles_iso C1=CC(=NC(=C1Cl)C(=O)O)Cl
#smiles_can C1=CC(=NC(=C1Cl)C(=O)O)Cl
#inchikey HUBANNPOLNYSAD-UHFFFAOYSA-N
#pubchem_id 15553
#mb_accession SM845102

>ms2
72.984100 4636.400000
74.015300 4691.200000
75.023200 3564.900000
84.984000 4905.900000
108.984100 4334.500000
109.979100 5682.200000
117.945700 5703.900000
127.989700 22871.400000
136.966900 3295.100000
139.005700 14334.000000
145.955800 61492.700000
159.945900 19767.200000
163.966300 720453.200000
173.951000 31806.200000
177.956300 61837.200000
191.961300 1967439.400000
193.965300 3299.400000

