>compound SM24099539
>parentmass 136.0505
>ionization [M+H]+
>formula C6H5N3O
>rt 98.610000
>profile orbitrap
#smiles_iso C1=CC2=NNN=C2C(=C1)O
#smiles_can C1=CC2=NNN=C2C(=C1)O
#inchikey JMTMSDXUXJISAY-UHFFFAOYSA-N
#pubchem_id 135399369
#mb_accession SM821301,SM868101

>ms2
53.038800 545033.800000
54.034100 304591.600000
63.023100 248240.500000
68.013200 170030.100000
80.049500 11521138.000000
81.033600 1078709.100000
90.033900 368539.900000
108.044500 906017.400000
136.050600 158305648.000000

>ms2
53.038800 229378.600000
54.034000 130208.500000
63.022900 163251.800000
68.013200 151475.400000
80.049500 6935366.500000
81.033500 633763.100000
90.033800 256628.000000
108.044400 651382.400000
136.050500 105975400.000000

