>compound SM25994048
>parentmass 215.0703
>ionization [M+H]+
>formula C13H10O3
>rt 638.100000
>profile orbitrap
#smiles_iso C1=CC=C(C=C1)C(=O)C2=C(C=C(C=C2)O)O
#smiles_can C1=CC=C(C=C1)C(=O)C2=C(C=C(C=C2)O)O
#inchikey ZXDDPOHVAMWLBH-UHFFFAOYSA-N
#pubchem_id 8572
#mb_accession SM833201

>ms2
77.038800 61458.100000
81.033600 131129.200000
95.049300 44545.200000
105.033600 1599906.000000
109.028900 13624.600000
137.023400 6662219.500000
215.070500 4477923.500000

