>compound SM25703026
>parentmass 253.0309
>ionization [M+H]+
>formula C10H9ClN4S
>rt 466.740000
>profile orbitrap
#smiles_iso C1CSC(=NC#N)N1CC2=CN=C(C=C2)Cl
#smiles_can C1CSC(=NC#N)N1CC2=CN=C(C=C2)Cl
#inchikey HOKKPVIRMVDYPB-UHFFFAOYSA-N
#pubchem_id 115224
#mb_accession SM842402

>ms2
63.023200 300933.300000
72.983900 494654.700000
81.033600 314422.600000
90.033800 5103102.500000
91.041600 633046.800000
98.999500 2178436.800000
126.010500 201998224.000000
128.026100 273389.700000
144.021000 1715897.800000
151.005600 1068938.200000
157.051000 392325.300000
186.013900 12538586.000000
190.043200 429401.400000
193.027600 386882.800000
194.047800 269282.700000
211.009100 1690273.800000
217.054300 1649533.100000
226.020000 2192658.000000
236.004400 848095.900000
253.030900 100396432.000000

