>compound SM26652582
>parentmass 196.0604
>ionization [M+H]+
>formula C9H9NO4
>rt 237.900000
>profile orbitrap
#smiles_iso CC(=O)NC1=CC(=C(C=C1)O)C(=O)O
#smiles_can CC(=O)NC1=CC(=C(C=C1)O)C(=O)O
#inchikey GEFDRROBUCULOD-UHFFFAOYSA-N
#pubchem_id 65512
#mb_accession SM862204

>ms2
65.038600 20979.200000
73.028400 48164.200000
80.049400 168055.800000
81.033500 41236.700000
92.049500 38401.900000
93.033500 14191.000000
108.044300 1501616.100000
109.028300 25740.000000
110.060000 331427.800000
122.059900 39796.100000
134.059900 36609.500000
136.039200 5748645.000000
137.023200 22815.000000
150.055000 94904.400000
152.070500 484779.500000
154.049800 251014.500000
178.049800 8438411.000000
196.060400 4945651.000000

