>compound SM26505102
>parentmass 225.1135
>ionization [M+H]+
>formula C13H12N4
>rt 359.220000
>profile orbitrap
#smiles_iso CN1C2=C(N=CC(=C2)C3=CC=CC=C3)N=C1N
#smiles_can CN1C2=C(N=CC(=C2)C3=CC=CC=C3)N=C1N
#inchikey UQVKZNNCIHJZLS-UHFFFAOYSA-N
#pubchem_id 1530
#mb_accession SM831701

>ms2peaks
140.049200 378344.300000
157.076100 954753.400000
165.077100 533124.400000
167.060600 713824.900000
181.075700 414517.300000
183.091800 853020.000000
184.086900 714435.600000
208.087100 1426030.600000
210.090100 14844303.000000
225.113500 342511808.000000

