>compound SM26191143
>parentmass 203.0525
>ionization [M+H]+
>formula C12H10OS
>rt 563.400000
>profile orbitrap
#smiles_iso C1=CC=C(C=C1)S(=O)C2=CC=CC=C2
#smiles_can C1=CC=C(C=C1)S(=O)C2=CC=CC=C2
#inchikey JJHHIJFTHRNPIK-UHFFFAOYSA-N
#pubchem_id 13679
#mb_accession SM808801

>ms2peaks
53.038800 746105.100000
65.038800 373410.000000
77.038800 2518468.200000
78.046400 3166422.200000
81.033500 979875.700000
94.041300 4324748.000000
95.049100 1767318.900000
97.010600 17066318.000000
105.044700 518573.700000
109.010600 21064208.000000
110.018400 2020601.500000
111.026300 629462.100000
125.005500 92577016.000000
126.013300 5131410.000000
141.069800 343445.200000
142.077500 649639.700000
147.026200 1525316.100000
153.069700 841092.400000
154.077500 1956404.500000
155.085500 2890324.800000
170.072500 487272.200000
171.026400 1155181.500000
175.057300 346133.300000
184.033900 686969.700000
185.041900 28399058.000000
186.049700 156862144.000000
203.052400 334237408.000000

