>compound SM29623074
>parentmass 204.1019
>ionization [M+H]+
>formula C12H13NO2
>rt 585.360000
>profile orbitrap
#smiles_iso CC1=CC2=C(C=C1)N(C(=O)C2=O)C(C)C
#smiles_can CC1=CC2=C(C=C1)N(C(=O)C2=O)C(C)C
#inchikey SYJHSTNDLFUIMT-UHFFFAOYSA-N
#pubchem_id 2145522
#mb_accession SM802401

>ms2peaks
79.054200 669136.700000
89.038700 338120.900000
91.054200 977856.800000
106.065100 5157057.000000
116.049400 1290736.900000
134.060000 2894757.200000
144.044400 5483532.500000
144.055200 594788.800000
162.054900 319005440.000000
180.065500 346962.400000
194.081200 629265.800000
204.101900 80996128.000000

