>compound SM29486614
>parentmass 119.0604
>ionization [M+H]+
>formula C7H6N2
>rt 381.330000
>profile orbitrap
#smiles_iso C1=CC=C2C(=C1)C=NN2
#smiles_can C1=CC=C2C(=C1)C=NN2
#inchikey BAXOFTOLAUCFNW-UHFFFAOYSA-N
#pubchem_id 9221
#mb_accession SM815301,SM831203

>ms2peaks
59.049300 260127.400000
65.038600 844113.500000
92.049400 6781163.000000
119.060300 120263760.000000

>ms2peaks
59.049300 265711.800000
65.038700 1035369.800000
92.049500 7727549.000000
119.060400 139034992.000000

