>compound SM30255670
>parentmass 311.1543
>ionization [M+H]+
>formula C22H18N2
>rt 581.700000
>profile orbitrap
#smiles_iso C1=CC=C(C=C1)C2=CC=C(C=C2)C(C3=CC=CC=C3)N4C=CN=C4
#smiles_can C1=CC=C(C=C1)C2=CC=C(C=C2)C(C3=CC=CC=C3)N4C=CN=C4
#inchikey OCAPBUJLXMYKEJ-UHFFFAOYSA-N
#pubchem_id 2378
#mb_accession SM849101

>ms2peaks
91.054200 15924800.000000
115.054300 8467265.000000
141.069800 1662505.600000
165.069900 17350806.000000
166.077700 343169.600000
178.077600 436473.600000
202.077400 1288176.600000
215.085600 5367623.000000
227.085700 1032362.100000
228.093400 15059243.000000
241.101100 5444254.500000
242.109100 1936333.800000
243.116900 161667568.000000

