>compound SM30103842
>parentmass 310.1413
>ionization [M+H]+
>formula C17H18F3NO
>rt 552.600000
>profile orbitrap
#smiles_iso CNCCC(C1=CC=CC=C1)OC2=CC=C(C=C2)C(F)(F)F
#smiles_can CNCCC(C1=CC=CC=C1)OC2=CC=C(C=C2)C(F)(F)F
#inchikey RTHCYVBBDHJXIQ-UHFFFAOYSA-N
#pubchem_id 3386
#mb_accession SM832103

>ms2
148.112300 1101571.800000
310.141700 2297271.000000

