>compound SM30393422
>parentmass 194.0964
>ionization [M+H]+
>formula C14H11N
>rt 548.040000
>profile orbitrap
#smiles_iso C1=CC=C2C=C3C=C(C=CC3=CC2=C1)N
#smiles_can C1=CC=C2C=C3C=C(C=CC3=CC2=C1)N
#inchikey YCSBALJAGZKWFF-UHFFFAOYSA-N
#pubchem_id 11937
#mb_accession SM800802

>ms2
128.062000 537709.200000
152.061800 478966.300000
153.069800 5476341.500000
165.069800 502678.100000
167.085500 5107544.500000
176.062000 850850.300000
177.069800 12522166.000000
178.077700 5571720.500000
181.064700 4349880.500000
193.088700 17775816.000000
194.096300 199939648.000000

