>compound SM31455269
>parentmass 147.0665
>ionization [M+H]+
>formula C7H6N4
>rt 348.060000
>profile orbitrap
#smiles_iso C1=CC=C(C=C1)C2=NNN=N2
#smiles_can C1=CC=C(C=C1)C2=NNN=N2
#inchikey MARUHZGHZWCEQU-UHFFFAOYSA-N
#pubchem_id 87425
#mb_accession SM836801

>ms2peaks
65.038600 37728.300000
66.046400 46938.400000
77.038400 92411.100000
90.046400 66294.800000
91.054200 245959.100000
92.049200 29825.200000
95.048900 53721.900000
104.049400 27829054.000000
119.060300 506456.200000
147.066400 4119690.800000

