>compound SM32798670
>parentmass 260.1645
>ionization [M+H]+
>formula C16H21NO2
>rt 438.060000
>profile orbitrap
#smiles_iso CC(C)NCC(COC1=CC=CC2=CC=CC=C21)O
#smiles_can CC(C)NCC(COC1=CC=CC2=CC=CC=C21)O
#inchikey AQHHHDLHHXJYJD-UHFFFAOYSA-N
#pubchem_id 4946
#mb_accession SM855601

>ms2peaks
56.049600 20465772.000000
58.065300 22003054.000000
60.080900 1673418.200000
72.080800 29168150.000000
74.060100 33197158.000000
84.080800 982662.600000
86.096400 6347901.500000
90.054800 870886.600000
98.096400 23301566.000000
100.112000 4116376.800000
115.054200 781236.200000
116.107000 57079620.000000
128.062100 401537.600000
129.069800 6134166.500000
132.101800 1331209.000000
141.069800 4193838.800000
143.049100 778749.100000
145.064800 3327825.800000
153.069900 2909790.000000
154.077600 440672.900000
155.085500 18253784.000000
157.064800 19837536.000000
165.070000 4990664.500000
168.057100 1242368.600000
171.080300 705314.200000
183.080500 34023636.000000
218.117500 5198833.000000
242.153600 954762.400000
260.164500 270543264.000000

