>compound SM32673960
>parentmass 291.0895
>ionization [M+H]+
>formula C15H15ClN2O2
>rt 698.280000
>profile orbitrap
#smiles_iso CN(C)C(=O)NC1=CC=C(C=C1)OC2=CC=C(C=C2)Cl
#smiles_can CN(C)C(=O)NC1=CC=C(C=C1)OC2=CC=C(C=C2)Cl
#inchikey IVUXTESCPZUGJC-UHFFFAOYSA-N
#pubchem_id 16115
#mb_accession SM842603

>ms2peaks
56.013300 780297.000000
70.040000 5286555.000000
72.044400 203569280.000000
106.065100 542304.200000
118.065200 3317829.500000
119.073000 1042427.300000
120.080600 371162.000000
126.994400 453605.800000
147.067900 1614797.800000
163.030900 1675649.000000
163.086500 1127976.500000
164.094500 6231268.000000
218.036800 7364475.500000
246.031600 440838.900000
291.089600 166706496.000000

