>compound SM32574694
>parentmass 176.0706
>ionization [M+H]+
>formula C10H9NO2
>rt 420.180000
>profile orbitrap
#smiles_iso CC1=CC(=O)OC2=C1C=CC(=C2)N
#smiles_can CC1=CC(=O)OC2=C1C=CC(=C2)N
#inchikey GLNDAGDHSLMOKX-UHFFFAOYSA-N
#pubchem_id 92249
#mb_accession SM884001

>ms2
68.013300 766781.900000
79.054300 684475.600000
91.054300 1313512.000000
93.057300 484958.200000
93.069800 734134.200000
103.054200 4709790.500000
105.069900 4663552.500000
109.064700 652272.800000
115.054200 9748562.000000
117.057300 21936710.000000
118.065200 582035.900000
120.080800 41389352.000000
130.065100 5115348.000000
131.049200 1797069.500000
131.072900 4135492.800000
132.080800 12681677.000000
133.052300 2224461.000000
133.064900 1535973.900000
134.060100 817806.000000
143.060700 682887.600000
148.075700 8032350.000000
176.070600 478165248.000000

