>compound SM33581672
>parentmass 136.0757
>ionization [M+H]+
>formula C8H9NO
>rt 53.640000
>profile orbitrap
#smiles_iso CC(=O)C1=CC(=CC=C1)N
#smiles_can CC(=O)C1=CC(=CC=C1)N
#inchikey CKQHAYFOPRIUOM-UHFFFAOYSA-N
#pubchem_id 7417
#mb_accession SM803501

>ms2peaks
53.038800 92348.600000
65.038700 111226.100000
77.038500 288710.000000
91.054200 5392168.000000
93.057100 172998.200000
94.065100 48843736.000000
95.049100 254106.300000
119.049100 1517991.200000
136.075600 69262312.000000
147.055200 134060.300000

