>compound SM33597993
>parentmass 255.0838
>ionization [M+H]+
>formula C16H14OS
>rt 816.540000
>profile orbitrap
#smiles_iso CC(C)C1=CC2=C(C=C1)SC3=CC=CC=C3C2=O
#smiles_can CC(C)C1=CC2=C(C=C1)SC3=CC=CC=C3C2=O
#inchikey KTALPKYXQZGAEG-UHFFFAOYSA-N
#pubchem_id 79633
#mb_accession SM820403,SM880001

>ms2
184.034000 1725401.100000
185.041500 447005.900000
212.029300 231912.800000
213.036900 124025976.000000
239.053400 443158.600000
240.060800 608375.200000
255.083900 145861056.000000

>ms2
184.034100 3938482.800000
185.041800 943083.400000
213.036900 260258720.000000
239.053100 774639.000000
240.060800 1226000.400000
255.083900 330126336.000000

