>compound SM33507258
>parentmass 455.2904
>ionization [M+H]+
>formula C27H38N2O4
>rt 525.600000
>profile orbitrap
#smiles_iso CC(C)C(CCCN(C)CCC1=CC(=C(C=C1)OC)OC)(C#N)C2=CC(=C(C=C2)OC)OC
#smiles_can CC(C)C(CCCN(C)CCC1=CC(=C(C=C1)OC)OC)(C#N)C2=CC(=C(C=C2)OC)OC
#inchikey SGTNSNPWRIOYBX-UHFFFAOYSA-N
#pubchem_id 2520
#mb_accession SM855703

>ms2
58.065300 9143284.000000
77.038600 341390.800000
79.054300 5278217.500000
84.080800 1378273.000000
86.096500 902388.200000
91.054200 1538004.800000
93.069900 215687.600000
94.065100 646194.200000
95.049200 591065.400000
95.085500 209045.100000
96.080800 1985490.400000
103.054200 4664744.000000
104.062000 885885.900000
105.069900 17513616.000000
107.049200 1727965.800000
107.085600 617059.400000
108.056900 265346.700000
108.080700 488976.800000
109.064900 288826.800000
110.096400 642449.900000
115.054200 291716.200000
117.070000 497082.100000
118.041400 2645004.800000
119.049000 1323657.000000
120.056900 2492994.500000
121.064800 3239256.200000
122.072600 1298614.800000
122.096400 2825795.500000
123.080500 556436.900000
124.052100 232450.500000
131.049000 1017710.800000
132.057100 526905.400000
133.064800 13731011.000000
134.072600 8789941.000000
135.044100 6062074.500000
135.080500 5938570.000000
136.051900 657402.900000
137.059600 1414653.900000
137.096300 455916.800000
138.067700 881370.100000
139.075200 1107822.100000
146.072600 468146.800000
149.059600 1322859.800000
150.067600 62086936.000000
151.075400 6995719.000000
152.083200 783403.200000
163.075400 241001.300000
164.083100 488031.800000
165.091100 198231856.000000
175.075500 215110.700000
176.070800 587130.600000
177.091100 5413099.500000
187.099000 723425.100000
190.086100 671312.100000
191.106400 903252.800000
194.117500 295294.400000
202.086400 803006.500000
203.094200 608246.400000
204.102000 230117.500000
212.119600 495607.200000
214.123300 206059.000000
217.109900 1149160.500000
218.117600 2487156.000000
233.154100 505677.800000
243.137800 1219576.000000
245.141100 801798.000000
260.164600 9708070.000000
261.159900 2501508.200000
303.206800 32869366.000000
455.290600 161114080.000000

