>compound SM34898200
>parentmass 256.1099
>ionization [M+H]+
>formula C13H18ClNO2
>rt 631.320000
>profile orbitrap
#smiles_iso CC1=C(C(=CC=C1)C)N(CCOC)C(=O)CCl
#smiles_can CC1=C(C(=CC=C1)C)N(CCOC)C(=O)CCl
#inchikey SCCDDNKJYDZXMM-UHFFFAOYSA-N
#pubchem_id 39722
#mb_accession SM839501

>ms2peaks
76.978900 3283111.200000
79.054200 490376.700000
91.054200 263441.500000
103.054300 336596.800000
105.069800 2912446.500000
118.065000 511049.900000
119.085800 470708.100000
120.080800 422889.800000
121.064800 633315.200000
131.072900 1077199.800000
131.085400 850474.600000
132.080700 3669833.800000
133.088700 1654857.200000
144.080700 514170.700000
146.096400 1249525.200000
147.104300 1069658.800000
148.112000 66617840.000000
174.091400 708516.300000
224.083600 209240336.000000
256.109800 17560662.000000

