>compound SM34785052
>parentmass 361.1394
>ionization [M+H]+
>formula C18H20N2O6
>rt 700.140000
>profile orbitrap
#smiles_iso CCOC(=O)C1=C(NC(=C(C1C2=CC(=CC=C2)[N+](=O)[O-])C(=O)OC)C)C
#smiles_can CCOC(=O)C1=C(NC(=C(C1C2=CC(=CC=C2)[N+](=O)[O-])C(=O)OC)C)C
#inchikey PVHUJELLJLJGLN-UHFFFAOYSA-N
#pubchem_id 4507
#mb_accession SM849802

>ms2peaks
67.018000 928390.200000
84.044400 295298.100000
85.028400 170230.900000
99.044100 550600.100000
106.065000 47339.900000
110.023400 67042.700000
113.059600 83547.900000
115.054100 67414.900000
118.041300 61933.600000
126.054900 178144.200000
128.049600 41539.000000
128.062000 91202.500000
134.060000 240466.700000
139.053900 72539.600000
140.061800 164482.300000
140.070500 632420.400000
141.070000 81188.900000
142.049900 154200.900000
142.077500 79239.000000
150.018700 148944.300000
152.034100 56253.700000
152.070500 49917.000000
153.069500 50045.000000
154.041000 78490.000000
154.086100 158512.900000
156.057200 54779.500000
156.065500 62909.900000
166.086200 986056.600000
167.073100 174834.300000
168.057200 539309.500000
168.080800 946517.000000
171.103900 153856.000000
174.054900 84856.700000
176.034100 325299.500000
178.049600 49149.900000
180.080900 485547.600000
181.088500 603943.400000
182.059600 46532.000000
182.072800 37718.800000
182.096600 614159.400000
183.068000 47490.000000
183.104500 607471.900000
184.052300 43603.300000
184.075600 70848.800000
185.119700 54974.000000
186.055000 1046551.900000
194.096500 92100.900000
195.067800 157935.900000
196.052200 61042.600000
196.075900 260637.100000
196.112000 60669.600000
197.047400 48420.200000
197.083500 218955.700000
197.120100 158565.800000
198.067700 39093.900000
198.091400 238368.200000
200.034300 648080.600000
200.070600 62553.100000
207.067800 84315.400000
208.075500 660841.400000
209.083600 2409693.800000
210.077000 144906.300000
210.091400 2164744.200000
211.087400 58669.900000
211.099100 1058693.800000
212.070400 299185.200000
212.094400 187122.800000
213.078600 51364.200000
214.049700 347611.800000
214.086600 91004.100000
215.081400 50961.500000
215.094300 93218.000000
216.066100 48432.900000
217.060700 183389.100000
221.071000 47816.000000
222.055300 51015.600000
223.063900 37932.000000
223.086900 175415.800000
224.070500 80254.000000
224.107200 51854.300000
225.066000 182017.100000
225.078400 381969.900000
226.086300 3119178.000000
227.081500 1115129.000000
227.093800 248852.800000
228.064800 55951.100000
228.089100 246996.800000
228.100700 42197.100000
229.097600 181983.200000
229.109500 62919.400000
232.060700 200988.800000
235.062400 57586.700000
236.070500 433401.800000
237.078300 645867.800000
238.050000 51216.200000
238.073600 427014.600000
238.107900 56541.200000
239.081600 546170.800000
240.065800 305394.500000
240.089600 835249.400000
240.100900 87583.700000
241.060800 536237.500000
241.073400 569802.200000
242.044600 91797.700000
242.068700 167124.200000
242.081100 349732.500000
243.089200 388923.500000
246.076400 46733.100000
253.073200 923486.500000
254.081200 2840743.800000
255.076400 3231797.500000
255.089200 1907061.000000
256.084600 250128.800000
256.096800 152390.600000
257.069000 67292.700000
257.092200 1107536.900000
257.105100 83194.500000
259.072100 65195.200000
265.061000 72108.400000
266.068700 168501.000000
267.075900 57379.300000
267.089100 876350.800000
268.096900 1521239.800000
269.068700 262233.700000
269.104600 2820089.000000
270.076500 134350.900000
270.099800 64612.200000
271.071600 59445.700000
272.055300 187050.600000
273.086800 295716.600000
281.091700 65125.100000
281.105300 68680.600000
282.112600 91542.300000
283.071400 4068534.800000
283.119900 406605.000000
284.078900 659504.200000
284.092300 78703.400000
285.063400 470700.300000
285.123400 49327.000000
287.078900 451260.800000
287.102800 170278.500000
290.065600 46843.200000
297.087600 88302.600000
298.094900 1407818.400000
299.079400 446913.600000
301.081500 3327518.200000
301.094100 346758.900000
312.110400 451160.100000
315.097600 35791844.000000
318.096600 62615.600000
329.113300 27844576.000000
333.109300 62752.400000
361.139500 8097867.000000

