>compound SM34979047
>parentmass 298.2741
>ionization [M+H]+
>formula C18H35NO2
>rt 574.620000
>profile orbitrap
#smiles_iso CCCN(CC)CC1COC2(O1)CCC(CC2)C(C)(C)C
#smiles_can CCCN(CC)CC1COC2(O1)CCC(CC2)C(C)(C)C
#inchikey PUYXTUJWRLOUCW-UHFFFAOYSA-N
#pubchem_id 86160
#mb_accession SM840301

>ms2
57.070100 401360.900000
58.065300 6972283.500000
72.080800 17250082.000000
83.085500 1027306.100000
84.080800 1981905.600000
86.096500 1294389.600000
100.112100 140005584.000000
102.091300 4524644.000000
116.107100 386232.200000
126.127800 2388138.500000
144.138300 361440768.000000
160.133400 1452204.800000
298.274200 254401168.000000

