>compound SM34310614
>parentmass 309.0427
>ionization [M+H]+
>formula C14H12O6S
>rt 620.040000
>profile orbitrap
#smiles_iso COC1=C(C=C(C(=C1)O)C(=O)C2=CC=CC=C2)S(=O)(=O)O
#smiles_can COC1=C(C=C(C(=C1)O)C(=O)C2=CC=CC=C2)S(=O)(=O)O
#inchikey CXVGEDCSTKKODG-UHFFFAOYSA-N
#pubchem_id 19988
#mb_accession SM880203

>ms2
55.018100 13388.400000
68.997200 27376.200000
77.038700 17141.700000
79.017900 29004.100000
95.049200 47138.600000
97.028500 79129.600000
105.033500 426811.800000
107.012800 21238.400000
119.012800 10582.900000
121.028300 29714.500000
122.036200 6305.700000
123.007600 12639.000000
125.023300 24929.600000
128.062100 5586.200000
133.999800 13148.900000
135.007700 479687.800000
141.018200 27866.100000
141.069900 60237.800000
149.023700 12087.400000
151.039000 69814.100000
152.010500 24052.000000
153.069700 6808.100000
155.034100 4381.300000
167.034100 19354.300000
169.064900 10847.600000
183.028800 11804.800000
183.044100 13993.900000
197.059800 56522.800000
198.969600 409131.500000
211.039000 125808.100000
212.046900 40430.200000
227.070200 18564.800000
228.041300 32194.000000
230.995900 3702482.000000
243.065300 101160.800000
291.032600 16182.500000
309.042900 3328385.500000

