>compound SM35664011
>parentmass 331.015
>ionization [M+H]+
>formula C12H11ClN2O5S
>rt 545.100000
>profile orbitrap
#smiles_iso C1=COC(=C1)CNC2=CC(=C(C=C2C(=O)O)S(=O)(=O)N)Cl
#smiles_can C1=COC(=C1)CNC2=CC(=C(C=C2C(=O)O)S(=O)(=O)N)Cl
#inchikey ZZUFCTLCJUWOSV-UHFFFAOYSA-N
#pubchem_id 3440
#mb_accession SM850104

>ms2
53.038800 50807.000000
81.033500 1285076.000000
96.044500 9490.600000
98.984200 24247.100000
115.948000 4454.400000
134.096800 4272.800000
185.995300 6709.600000
203.013300 5075.800000
205.010100 33541.100000
222.012800 7048.200000
231.997500 4857.300000
233.005000 3817.200000
237.000300 8124.900000
244.978400 4716.300000
256.994600 4610.700000
262.988900 24387.000000
284.991400 7962.200000

