>compound SM35257417
>parentmass 406.072
>ionization [M+H]+
>formula C19H17Cl2N3O3
>rt 778.980000
>profile orbitrap
#smiles_iso CC1COC(O1)(CN2C=NC=N2)C3=C(C=C(C=C3)OC4=CC=C(C=C4)Cl)Cl
#smiles_can CC1COC(O1)(CN2C=NC=N2)C3=C(C=C(C=C3)OC4=CC=C(C=C4)Cl)Cl
#inchikey BQYJATMQXGBDHF-UHFFFAOYSA-N
#pubchem_id 86173
#mb_accession SM845701

>ms2peaks
70.040100 567193.100000
86.999500 153321.200000
126.994600 282314.500000
129.010100 352879.700000
129.069900 1253844.400000
139.005700 825282.100000
139.030900 484771.400000
141.010000 1078080.000000
152.062100 3232464.500000
153.069900 1434396.100000
163.031000 287902.900000
164.038600 1770058.900000
181.064700 1706225.400000
187.030900 3298045.200000
188.038700 9848140.000000
215.025500 1102343.800000
216.033300 833678.200000
223.007600 5717790.500000
251.002500 144259408.000000
256.064900 256773.000000
261.994600 602383.200000
263.003600 494434.800000
264.981800 5854790.500000
273.031200 157847.600000
291.033800 3418746.200000
323.023700 2146670.200000
337.039300 12752695.000000
406.072100 103909592.000000

