>compound SM35718757
>parentmass 292.206
>ionization [M+H]+
>formula C21H25N
>rt 588.180000
>profile orbitrap
#smiles_iso CC(C)(C)C#C/C=C/CN(C)CC1=CC=CC2=CC=CC=C21
#smiles_can CC(C)(C)C#CC=CCN(C)CC1=CC=CC2=CC=CC=C21
#inchikey DOMXUEMWDBAQBQ-WEVVVXLNSA-N
#pubchem_id 1549008
#mb_accession SM860901

>ms2
53.038800 1101983.000000
55.054400 604925.300000
57.070000 1206454.000000
77.038600 2084877.100000
79.054300 8744926.000000
91.054200 13304517.000000
93.069900 38790168.000000
95.049100 4585717.000000
103.054300 1432236.200000
105.044600 1170810.100000
105.069900 8321275.500000
106.077700 616742.100000
115.054200 2736080.500000
119.085500 2095419.100000
121.101200 2904397.800000
123.080400 917623.100000
141.069800 449640064.000000
150.127800 3916394.500000
165.069800 894092.200000
170.096500 8378682.500000
179.085600 2057799.500000
190.077700 538161.200000
191.085900 700881.400000
193.101200 736651.200000
203.085600 786773.800000
205.101100 4680062.500000
236.143000 1235929.200000
249.163800 584164.200000
261.163800 2531638.000000
292.206000 147939024.000000

