>compound SM37227089
>parentmass 331.1904
>ionization [M+H]+
>formula C20H26O4
>rt 846.420000
>profile orbitrap
#smiles_iso C1CCC(CC1)OC(=O)C2=CC=CC=C2C(=O)OC3CCCCC3
#smiles_can C1CCC(CC1)OC(=O)C2=CC=CC=C2C(=O)OC3CCCCC3
#inchikey VOWAEIGWURALJQ-UHFFFAOYSA-N
#pubchem_id 6777
#mb_accession SM827002

>ms2peaks
55.054400 295133.800000
65.038900 226532.400000
83.085500 992051.100000
121.028300 490173.500000
149.023300 75907032.000000
163.038900 1372835.400000
167.033800 17993046.000000
181.049400 1202583.600000
231.101600 941512.500000
249.112100 6594526.000000
331.190300 1221939.500000

