>compound SM37117813
>parentmass 254.1434
>ionization [M+H]+
>formula C11H19N5S
>rt 627.960000
>profile orbitrap
#smiles_iso CC(C)(C)NC1=NC(=NC(=N1)NC2CC2)SC
#smiles_can CC(C)(C)NC1=NC(=NC(=N1)NC2CC2)SC
#inchikey HDHLIWCXDDZUFH-UHFFFAOYSA-N
#pubchem_id 91590
#mb_accession SM879801

>ms2peaks
56.049700 6958568.500000
57.070100 2639201.200000
58.065300 2644067.000000
68.024400 2587194.500000
70.040100 858560.300000
74.005900 6406301.500000
81.044900 1720909.500000
83.060400 39314048.000000
87.026300 3486048.800000
89.042000 954693.400000
91.032500 53266060.000000
108.055700 22661518.000000
114.012100 1699957.900000
114.037300 4300792.000000
116.027700 10971611.000000
125.082200 16234383.000000
127.007500 467386.600000
131.063700 518768.100000
150.077500 6646077.000000
152.093200 1177219.800000
156.033900 6249075.000000
156.059000 12627126.000000
158.049500 1767966.900000
170.049500 3831645.000000
171.070000 2014039.500000
198.080900 446362240.000000
239.120400 449444.400000
254.143500 359910464.000000

