>compound SM38569943
>parentmass 330.137
>ionization [M+H]+
>formula C15H23NO5S
>rt 726.420000
>profile orbitrap
#smiles_iso CCC1=CC=CC(=C1N(C(C)COC)C(=O)CS(=O)(=O)O)C
#smiles_can CCC1=CC=CC(=C1N(C(C)COC)C(=O)CS(=O)(=O)O)C
#inchikey CIGKZVUEZXGYSV-UHFFFAOYSA-N
#pubchem_id 6426849
#mb_accession SM868601

>ms2peaks
73.064900 1676160.900000
82.065200 200330.000000
108.080900 89096.000000
117.070100 49199.000000
120.080800 136116.200000
131.073200 62116.800000
132.080800 551916.900000
133.088800 213203.700000
133.101200 58272.000000
134.096500 628937.800000
135.104300 58787.600000
136.112100 722788.200000
143.085600 256127.600000
144.080800 343877.700000
145.088700 242325.000000
145.101200 83923.800000
146.096500 1263207.500000
148.075700 79192.000000
148.112100 246323.200000
158.096500 337264.000000
158.109100 238108.300000
159.104400 339808.200000
160.112100 7689288.000000
162.091400 64019.900000
174.127900 3445361.800000
175.135700 1326587.400000
176.143500 3133228.800000
188.107100 514837.500000
188.143400 106005.700000
202.122700 12924505.000000
216.138900 88097.300000
217.146200 421093.100000
218.154200 158328.200000
232.133100 120191.800000
234.149100 414653.800000
240.069000 75152.800000
258.079600 307569.900000
280.099800 132424.200000
298.111000 40890944.000000
330.137200 8185291.500000

