>compound SM38313859
>parentmass 214.126
>ionization [M+H]+
>formula C11H19NOS
>rt 708.570000
>profile orbitrap
#smiles_iso CCCCCCCCN1C(=O)C=CS1
#smiles_can CCCCCCCCN1C(=O)C=CS1
#inchikey JPMIIZHYYWMHDT-UHFFFAOYSA-N
#pubchem_id 33528
#mb_accession SM821001,SM879601

>ms2
57.070100 49969516.000000
58.995200 846830.000000
71.085600 51237404.000000
83.990300 564093.900000
84.974300 589266.600000
102.000900 304067040.000000
214.126100 171122368.000000

>ms2
57.070100 69374736.000000
58.995200 775342.000000
71.085600 71046880.000000
83.990200 764047.600000
84.974200 813966.100000
102.000800 422698912.000000
214.126000 251384144.000000

