>compound SM38613909
>parentmass 257.0808
>ionization [M+H]+
>formula C15H12O4
>rt 635.880000
>profile orbitrap
#smiles_iso C1=CC=C(C=C1)COC(=O)C2=CC=CC=C2C(=O)O
#smiles_can C1=CC=C(C=C1)COC(=O)C2=CC=CC=C2C(=O)O
#inchikey XIKIUQUXDNHBFR-UHFFFAOYSA-N
#pubchem_id 31736
#mb_accession SM823104

>ms2
65.038700 731952.100000
91.054300 72634248.000000
149.023400 1390967.900000

