>compound SM38525107
>parentmass 189.9821
>ionization [M+H]+
>formula C7H5Cl2NO
>rt 139.620000
>profile orbitrap
#smiles_iso C1=CC(=C(C(=C1)Cl)C(=O)N)Cl
#smiles_can C1=CC(=C(C(=C1)Cl)C(=O)N)Cl
#inchikey JHSPCUHPSIUQRB-UHFFFAOYSA-N
#pubchem_id 16183
#mb_accession SM842901

>ms2
75.023300 53747.000000
84.983900 105429.900000
108.984200 64609.600000
126.994400 61732.000000
128.002400 65551.800000
139.005800 84191.100000
144.960500 117925.100000
146.976200 530368.800000
155.000600 55219.100000
162.971000 103931.900000
164.001000 88095.800000
171.971400 1475874.000000
172.955500 36456480.000000
189.982000 45985340.000000

