>compound SM39855104
>parentmass 148.0757
>ionization [M+H]+
>formula C9H9NO
>rt 397.260000
>profile orbitrap
#smiles_iso C1=CC=C(C=C1)/C=C/C(=O)N
#smiles_can C1=CC=C(C=C1)C=CC(=O)N
#inchikey APEJMQOBVMLION-VOTSOKGWSA-N
#pubchem_id 5273472
#mb_accession SM817801

>ms2peaks
77.038800 219706.500000
79.054200 138932.100000
95.049100 51870.700000
102.046200 54460.900000
103.054200 10759963.000000
105.069800 2948063.500000
106.065100 646152.200000
130.065200 128721.100000
131.049100 49947236.000000
148.075600 19728706.000000

