>compound SM39129337
>parentmass 100.0757
>ionization [M+H]+
>formula C5H9NO
>rt 50.760000
>profile orbitrap
#smiles_iso CN1CCCC1=O
#smiles_can CN1CCCC1=O
#inchikey SECXISVLQFMRJM-UHFFFAOYSA-N
#pubchem_id 13387
#mb_accession SM869701

>ms2peaks
58.028800 8414726.000000
69.033500 6723048.000000
71.049100 976045.200000
72.080800 537133.200000
82.065100 1973744.000000
98.059900 1540732.800000
100.075500 340936128.000000

