>compound SM39212779
>parentmass 256.0596
>ionization [M+H]+
>formula C9H10ClN5O2
>rt 377.040000
>profile orbitrap
#smiles_iso C1CN(C(=N1)N[N+](=O)[O-])CC2=CN=C(C=C2)Cl
#smiles_can C1CN(C(=N1)N[N+](=O)[O-])CC2=CN=C(C=C2)Cl
#inchikey YWTYJOPNNQFBPC-UHFFFAOYSA-N
#pubchem_id 86418
#mb_accession SM839401

>ms2peaks
56.049700 1030512.100000
57.044900 67849.200000
71.060400 263741.500000
72.068300 152409.000000
84.055600 8974555.000000
90.033800 232789.600000
92.049400 106953.000000
93.057200 44285.900000
97.063400 446980.000000
98.071300 396477.800000
99.055300 1190729.800000
106.065200 39118.400000
107.060400 43874.100000
114.010400 106288.100000
119.060200 40121.200000
126.010500 2339913.800000
127.018400 88435.700000
128.007500 5281323.000000
128.026100 4840773.500000
131.060300 87021.500000
132.068200 43331.000000
133.063300 188188.200000
133.076000 291620.500000
134.071300 191664.900000
140.013400 90787.900000
141.021400 275252.400000
146.058500 220972.900000
146.071300 583044.600000
147.066500 557490.300000
148.086900 245260.400000
151.018400 586947.100000
153.021200 90577.600000
158.071300 288715.400000
159.066200 133441.500000
159.079200 251283.900000
166.029000 73278.100000
167.024800 245982.000000
167.037000 466413.600000
168.032200 83452.300000
168.044800 42544.000000
173.082100 948445.200000
174.090000 3943663.000000
175.097800 32811832.000000
176.081900 116457.300000
180.032300 166212.100000
181.027600 240078.600000
181.039700 155833.500000
193.040200 228772.200000
194.047800 368520.100000
195.031900 140972.000000
195.043400 127595.400000
208.051400 37750.300000
209.058800 37511032.000000
210.066600 7230062.500000
212.058500 6281230.500000
226.061700 153485.600000
256.059500 10912223.000000

