>compound SM39376587
>parentmass 213.9862
>ionization [M+H]+
>formula C8H8BrNO
>rt 521.580000
>profile orbitrap
#smiles_iso CC(=O)NC1=CC=C(C=C1)Br
#smiles_can CC(=O)NC1=CC=C(C=C1)Br
#inchikey MSLICLMCQYQNPK-UHFFFAOYSA-N
#pubchem_id 7683
#mb_accession SM825601

>ms2peaks
66.046500 88798.000000
92.049400 139542.900000
93.057300 47525712.000000
94.041300 69033.300000
135.067800 2946596.800000
171.975600 19039490.000000
172.960000 116631.100000
195.975600 170092.000000
213.986100 42293628.000000

