>compound SM40456983
>parentmass 296.103
>ionization [M+H]+
>formula C16H13N3O3
>rt 588.420000
>profile orbitrap
#smiles_iso COC(=O)NC1=NC2=C(N1)C=C(C=C2)C(=O)C3=CC=CC=C3
#smiles_can COC(=O)NC1=NC2=C(N1)C=C(C=C2)C(=O)C3=CC=CC=C3
#inchikey OPXLLQIJSORQAM-UHFFFAOYSA-N
#pubchem_id 4030
#mb_accession SM853401

>ms2
53.038800 1667590.200000
77.038600 3832538.800000
95.049100 6242958.000000
105.033500 74664888.000000
159.043200 638409.700000
160.050700 690408.600000
186.029800 4815780.500000
186.041100 516576.800000
208.087000 619761.100000
236.081600 1107650.900000
237.090000 501991.200000
264.076800 452767616.000000
296.103000 319187808.000000

