>compound SM40997769
>parentmass 230.1751
>ionization [M+H]+
>formula C12H23NO3
>rt 640.980000
>profile orbitrap
#smiles_iso CCC(C)OC(=O)N1CCCCC1CCO
#smiles_can CCC(C)OC(=O)N1CCCCC1CCO
#inchikey QLHULAHOXSSASE-UHFFFAOYSA-N
#pubchem_id 125098
#mb_accession SM822901,SM882501

>ms2
56.049700 1310358.800000
57.033700 539784.600000
57.070100 1537758.600000
67.054300 7602907.000000
69.070000 2132347.800000
70.065200 3135610.200000
71.049200 13859648.000000
83.085500 528750.900000
84.080800 7751883.000000
93.069900 1770159.600000
95.085600 22018050.000000
112.112200 27630128.000000
113.096200 8436155.000000
128.070700 12633408.000000
130.122700 434910208.000000
156.102000 30431112.000000
174.112600 21231846.000000
186.185300 2107949.500000
230.175300 14895894.000000

>ms2
56.049700 1418593.600000
57.033700 792033.100000
57.070000 1919455.100000
67.054300 9378628.000000
69.070000 1901789.100000
70.065200 3043828.000000
71.049200 16766596.000000
83.085600 981653.200000
84.080800 9380080.000000
93.069900 2454326.000000
95.085500 25282246.000000
112.112100 32861584.000000
113.096100 8945846.000000
128.070600 13229252.000000
130.122700 486590432.000000
156.102000 31385888.000000
174.112600 23114636.000000
186.185300 2046713.000000
230.175200 16108737.000000

