>compound SM40874859
>parentmass 329.0245
>ionization [M+H]+
>formula C14H13ClO5S
>rt 555.600000
>profile orbitrap
#smiles_iso CS(=O)(=O)C1=CC(=C(C=C1)C(=O)C2C(=O)CCCC2=O)Cl
#smiles_can CS(=O)(=O)C1=CC(=C(C=C1)C(=O)C2C(=O)CCCC2=O)Cl
#inchikey PQTBTIFWAXVEPB-UHFFFAOYSA-N
#pubchem_id 91760
#mb_accession SM865801

>ms2peaks
55.018000 107943.400000
68.997200 4588186.500000
78.984800 120406.800000
83.049100 27562.100000
87.044100 16450.000000
97.028400 201543.000000
98.984100 69840.400000
111.044000 5717078.500000
139.038900 3591190.200000
157.049500 7694986.500000
159.053800 18396.300000
171.065100 650187.400000
178.989900 29028.200000
190.992700 216624.400000
202.062300 90690.500000
214.062400 267716.100000
215.069700 40645.500000
230.057400 63510.600000
231.064800 19983.100000
240.972000 118185.700000
246.052400 154616.100000
249.031200 161635.400000
250.038800 33517.500000
283.018900 48059.200000
293.047800 910840.600000
311.013600 23844.300000
329.024500 9923007.000000

