>compound SM40973353
>parentmass 270.1255
>ionization [M+H]+
>formula C14H20ClNO2
>rt 711.480000
>profile orbitrap
#smiles_iso CCC1=CC=CC(=C1N(COCC)C(=O)CCl)C
#smiles_can CCC1=CC=CC(=C1N(COCC)C(=O)CCl)C
#inchikey VTNQPKFIQCLBDU-UHFFFAOYSA-N
#pubchem_id 1988
#mb_accession SM848201

>ms2peaks
59.049300 3102108.200000
75.994800 22122.900000
76.978800 157845.600000
90.010500 987846.700000
91.054400 71649.200000
93.070100 14704.100000
104.026200 24049.600000
105.069800 15891.800000
117.057300 15831.100000
120.080900 133350.200000
131.072800 27511.900000
131.085500 426621.400000
132.080700 227303.200000
133.088600 1210669.600000
134.096500 55250.800000
143.073300 24880.800000
144.080900 23848.300000
145.088600 58245.600000
146.096500 183650.500000
147.104500 127422.800000
148.112100 9116538.000000
149.096200 794041.100000
156.081100 19297.600000
157.088700 16200.100000
158.096400 92022.100000
159.104500 25424.900000
160.112100 71944.300000
170.096400 75169.400000
171.104200 29896.100000
173.083900 25544.900000
188.107200 90926.500000
192.057500 108192.000000
194.073200 340329.600000
206.073300 390306.200000
210.068000 245722.800000
224.083700 14386414.000000
240.114900 110763.600000
256.110000 58713.100000
270.125600 2280662.000000

