>compound SM43534733
>parentmass 441.167
>ionization [M+H]+
>formula C24H20N6O3
>rt 675.720000
>profile orbitrap
#smiles_iso CCOC1=NC2=CC=CC(=C2N1CC3=CC=C(C=C3)C4=CC=CC=C4C5=NNN=N5)C(=O)O
#smiles_can CCOC1=NC2=CC=CC(=C2N1CC3=CC=C(C=C3)C4=CC=CC=C4C5=NNN=N5)C(=O)O
#inchikey HTQMVQVXFRQIKW-UHFFFAOYSA-N
#pubchem_id 2541
#mb_accession SM818201

>ms2
56.049700 81583.000000
67.041900 105432.900000
80.049600 127725.200000
105.045100 71688.500000
108.080700 79892.000000
115.054500 96235.900000
116.049600 88703.400000
129.044900 84662.300000
129.069800 99576.500000
140.049600 356181.100000
145.039600 141045.200000
151.049900 83453.500000
152.062200 1508521.800000
153.070000 2378463.800000
161.034700 1004682.600000
163.054100 454393.000000
165.070100 7352895.000000
166.065400 293334.600000
166.078000 248481.200000
167.073300 425982.200000
167.085700 1577050.200000
168.080600 62898.700000
173.034600 589793.900000
177.057600 698966.300000
177.070200 376578.700000
178.065300 255058.800000
178.077900 4568997.500000
179.045300 973403.200000
179.073300 637684.200000
179.085800 580711.900000
180.080900 7258471.000000
181.076400 75361.400000
189.066000 147565.400000
190.065300 7084670.500000
191.045500 406891.600000
191.073100 3466441.200000
191.086000 291787.800000
192.068300 1563944.500000
192.081000 5431237.500000
193.088800 4835848.500000
194.096600 6645786.000000
195.091800 70802.000000
196.076000 353903.200000
203.072900 126397.600000
204.080800 92394.900000
205.076100 2233297.800000
206.084100 4457396.000000
206.109700 447346.700000
207.077300 1922230.800000
207.091900 11376769.000000
208.075500 276082.600000
208.112300 2010644.900000
210.091500 10535266.000000
217.088900 699806.100000
218.096700 1471774.200000
219.091900 1572017.800000
220.099900 1906603.500000
224.107400 251764.900000
232.100100 131843.500000
233.071800 97413.200000
233.107500 1014128.700000
234.115500 2405890.000000
235.098200 2049654.600000
235.123200 6324318.500000
239.086600 76363.100000
251.129700 269443.700000
263.129400 37567460.000000
267.124600 127416.900000
279.092600 85647.200000
281.107500 152318.000000
282.091700 314464.000000
294.079300 73879.900000
294.103000 79814.100000
295.155500 107851.400000
297.102700 141596.800000
307.087200 141438.800000
308.094500 246111.300000
308.118600 864908.500000
309.102500 1843026.600000
310.109000 566413.200000
322.098200 388412.200000
323.104800 113876.700000
324.113300 661588.600000
334.098300 79359.000000
335.080500 71718.100000
336.090900 65986.800000
337.096800 1006352.200000
338.105400 3236852.000000
348.101100 328904.300000
349.085000 803331.600000
349.108700 1260519.400000
350.092900 2439022.500000
351.100900 656912.700000
352.108500 5928500.500000
365.103700 145588.800000
367.119200 251643.200000
367.143100 104987.300000
368.102900 246847.400000
377.140600 88663.600000
380.140000 932307.100000
395.127000 164302.900000
395.150800 2992695.200000
423.156900 18964216.000000
441.168000 1821814.000000

