>compound SM44323484
>parentmass 271.0415
>ionization [M+H]+
>formula C10H11ClN4OS
>rt 371.400000
>profile orbitrap
#smiles_iso C1CSC(=NC(=O)N)N1CC2=CN=C(C=C2)Cl
#smiles_can C1CSC(=NC(=O)N)N1CC2=CN=C(C=C2)Cl
#inchikey LEZHOZPJYAQQNU-UHFFFAOYSA-N
#pubchem_id 86222983
#mb_accession SM847002

>ms2peaks
61.010800 69416.800000
72.984200 52125.600000
90.033800 618613.700000
91.041700 65341.500000
98.999500 285777.100000
101.016800 535189.300000
103.032400 409914.200000
126.010500 39196564.000000
127.018300 74739.300000
128.025900 83997.100000
129.011700 216231.900000
132.055600 349749.700000
143.037200 88397.000000
144.021100 208143.600000
165.048100 156699.800000
168.032300 235266.000000
186.013900 1542271.000000
192.058900 815942.200000
211.008900 142368.400000
228.035600 13007801.000000
229.019200 51621.800000
254.014900 18320708.000000
271.041400 4971930.500000

