>compound SM45358468
>parentmass 108.0808
>ionization [M+H]+
>formula C7H9N
>rt 26.220000
>profile orbitrap
#smiles_iso C1=CC=C(C=C1)CN
#smiles_can C1=CC=C(C=C1)CN
#inchikey WGQKYBSKWIADBV-UHFFFAOYSA-N
#pubchem_id 7504
#mb_accession SM808401

>ms2
65.038600 2049406.900000
67.054300 5668716.000000
91.054200 65472456.000000
92.049500 1067951.200000
93.057100 1778236.200000
107.073000 1010293.400000
108.080700 767106880.000000
110.060000 3063149.500000

