>compound SM46080901
>parentmass 68.0495
>ionization [M+H]+
>formula C4H5N
>rt 54.900000
>profile orbitrap
#smiles_iso C1=CNC=C1
#smiles_can C1=CNC=C1
#inchikey KAESVJOAVNADME-UHFFFAOYSA-N
#pubchem_id 8027
#mb_accession SM815506

>ms2peaks
53.002400 6347.900000
68.049600 2177870.000000

