>compound SM47812085
>parentmass 326.1751
>ionization [M+H]+
>formula C20H23NO3
>rt 749.400000
>profile orbitrap
#smiles_iso CC1=C(C(=CC=C1)C)N(C(C)C(=O)OC)C(=O)CC2=CC=CC=C2
#smiles_can CC1=C(C(=CC=C1)C)N(C(C)C(=O)OC)C(=O)CC2=CC=CC=C2
#inchikey CJPQIRJHIZUAQP-UHFFFAOYSA-N
#pubchem_id 51369
#mb_accession SM844702

>ms2peaks
65.038600 497298.200000
91.054200 58677508.000000
105.069800 302760.900000
106.065000 453231.400000
107.072900 155290.900000
118.065100 144442.000000
120.080800 375537.400000
121.088500 30084514.000000
122.096300 2466727.000000
131.085600 240467.000000
133.088200 420077.300000
148.111900 106403408.000000
208.133100 39869828.000000
211.135300 120749.700000
266.153800 14936248.000000
294.148700 39971332.000000
326.175000 21486014.000000

