>compound SM47747947
>parentmass 214.1121
>ionization [M+H]+
>formula C8H15N5S
>rt 454.320000
>profile orbitrap
#smiles_iso CCNC1=NC(=NC(=N1)SC)NCC
#smiles_can CCNC1=NC(=NC(=N1)SC)NCC
#inchikey MGLWZSOBALDPEK-UHFFFAOYSA-N
#pubchem_id 13905
#mb_accession SM840401

>ms2
68.024400 17680488.000000
71.060400 35119264.000000
74.005900 3905384.800000
91.032400 1967727.600000
96.055600 56251868.000000
102.037200 4156954.500000
113.082300 1339369.600000
116.027700 15449974.000000
119.063700 647689.100000
124.086900 112104048.000000
138.077400 2086995.500000
141.113300 848580.100000
144.058900 45411664.000000
158.049200 926747.100000
166.108700 22307704.000000
186.080800 14415960.000000
199.088300 1238976.400000
214.112000 573988288.000000

