>compound SM47185411
>parentmass 151.0866
>ionization [M+H]+
>formula C8H10N2O
>rt 26.600000
>profile orbitrap
#smiles_iso CC(=O)NC1=CC=C(C=C1)N
#smiles_can CC(=O)NC1=CC=C(C=C1)N
#inchikey CHMBIJAOCISYEW-UHFFFAOYSA-N
#pubchem_id 31230
#mb_accession SM805302,SM811203,SM865601

>ms2
65.038600 243073.000000
82.065100 257019.700000
92.049400 5920664.500000
93.057200 296268.100000
106.065000 486304.400000
108.068100 1536534.500000
109.075900 55484264.000000
110.059900 2449283.200000
133.075900 3815480.500000
134.060000 143412.600000
151.086500 74547112.000000

>ms2
65.038600 837933.100000
80.049500 242968.800000
82.065100 732477.400000
92.049400 18694922.000000
93.057200 1046995.900000
106.065000 1672471.400000
108.068100 5583686.500000
109.076000 179149264.000000
110.060000 7712999.000000
133.076000 11937290.000000
134.060100 403411.600000
136.063100 2167410.200000
151.086500 234819680.000000

>ms2
65.038600 478740.500000
80.049500 222376.500000
82.065100 414023.200000
92.049500 9296896.000000
93.057200 457849.600000
106.065100 623552.500000
108.068200 2490780.200000
109.076000 92335048.000000
110.060000 3913437.800000
133.076000 6414801.000000
134.060100 200158.000000
151.086500 121182656.000000

