>compound SM48332070
>parentmass 369.125
>ionization [M+H]+
>formula C21H21O4P
>rt 842.580000
>profile orbitrap
#smiles_iso CC1=CC=CC=C1OP(=O)(OC2=CC=CC=C2C)OC3=CC=CC=C3C
#smiles_can CC1=CC=CC=C1OP(=O)(OC2=CC=CC=C2C)OC3=CC=CC=C3C
#inchikey YSMRWXYRXBRSND-UHFFFAOYSA-N
#pubchem_id 6527
#mb_accession SM883201

>ms2
65.038700 7478796.000000
77.038600 662546.600000
79.054300 6176837.500000
91.054200 45062512.000000
95.049100 964945.400000
105.069800 746656.500000
107.049100 21482052.000000
108.057000 890023.700000
109.064800 6173166.000000
119.060400 3166215.000000
141.069800 1805210.900000
152.062200 978633.800000
153.009900 1356004.900000
153.069900 4643327.000000
154.017800 1667338.100000
165.069900 43234232.000000
166.077700 64675780.000000
171.020800 594042.400000
178.077600 1476796.200000
179.085400 6142181.000000
180.093300 1290568.600000
181.101100 11147562.000000
187.015500 935984.100000
189.031100 3704083.800000
195.080700 711339.800000
196.088300 8732537.000000
197.096300 795987.300000
199.111700 3141494.800000
215.062200 1340665.500000
241.101200 5057482.000000
243.057000 9345969.000000
255.116700 2095677.500000
256.124600 10069195.000000
261.067600 44938748.000000
271.148200 808657.900000
275.083100 3241891.200000
277.062500 616223.600000
279.078200 15022648.000000
333.104200 524646.900000
351.114300 1432606.800000
369.125200 333196768.000000

