>compound SM49820826
>parentmass 491.2323
>ionization [M+H]+
>formula C24H34N4O5S
>rt 751.560000
>profile orbitrap
#smiles_iso CCC1=C(CN(C1=O)C(=O)NCCC2=CC=C(C=C2)S(=O)(=O)NC(=O)NC3CCC(CC3)C)C
#smiles_can CCC1=C(CN(C1=O)C(=O)NCCC2=CC=C(C=C2)S(=O)(=O)NC(=O)NC3CCC(CC3)C)C
#inchikey WIGIZIANZCJQQY-UHFFFAOYSA-N
#pubchem_id 3476
#mb_accession SM851202

>ms2peaks
53.038800 71720.100000
55.054400 680690.600000
70.065300 154143.700000
77.038700 105520.500000
79.054200 191155.600000
81.069900 832467.500000
83.085600 300088.600000
91.054200 102829.800000
93.057300 52086.600000
95.049200 187470.000000
96.044400 89785.200000
96.080800 106988.700000
97.052300 134227.000000
97.101200 332883.600000
98.060100 342816.600000
98.096500 252973.600000
103.054200 1006803.800000
108.080800 505494.500000
109.064800 1245743.000000
110.059900 40341.000000
114.127800 521183.100000
118.065200 419786.800000
119.049300 88686.200000
120.057000 36219.800000
120.080900 92767.000000
121.064900 741742.800000
124.075700 1520648.000000
126.091400 27720652.000000
131.060400 1241664.100000
151.021100 180300.400000
151.086500 174644.500000
152.070500 561079.200000
160.076000 32817.900000
167.016200 2192483.800000
168.065400 43274.600000
170.081200 2110500.800000
174.066300 595129.700000
179.081700 192877.200000
181.097200 2622148.000000
184.042800 114195.500000
184.097100 138046.900000
192.011900 81119.600000
210.022100 431630.800000
228.032400 103920.200000
229.064600 109948.400000
242.048800 46707.800000
243.148400 28286.600000
246.043000 90515.500000
260.058600 41866.500000
271.144100 118123.500000
287.139200 132561.000000
292.099300 178467.900000
335.106100 1341148.900000
352.132700 22406742.000000
353.118000 36175.600000
353.139000 38491.800000
378.112000 638606.000000
491.233300 179109.600000

