>compound SM49709387
>parentmass 137.0709
>ionization [M+H]+
>formula C7H8N2O
>rt 30.600000
>profile orbitrap
#smiles_iso C1=CC(=CC=C1C(=O)N)N
#smiles_can C1=CC(=CC=C1C(=O)N)N
#inchikey QIKYZXDTTPVVAC-UHFFFAOYSA-N
#pubchem_id 76079
#mb_accession SM811402,SM865901

>ms2peaks
65.038600 897721.100000
68.049500 462380.600000
77.038600 372947.900000
81.070000 263630.200000
92.049500 5325992.500000
93.057200 306843.300000
94.065100 42650020.000000
95.049200 442725.700000
110.060100 894586.900000
119.060400 251203.700000
120.044400 221510864.000000
137.070900 69466024.000000

>ms2peaks
65.038600 235662.600000
68.049500 96877.500000
77.038400 110077.100000
81.070000 131798.400000
92.049500 1715663.600000
94.065100 12418693.000000
95.049200 138288.800000
109.064800 123612.900000
110.060000 202360.200000
120.044400 67236744.000000
137.070900 20974796.000000

