>compound SM49999277
>parentmass 117.0659
>ionization [M+H]+
>formula C4H8N2O2
>rt 45.060000
>profile orbitrap
#smiles_iso C1COCCN1N=O
#smiles_can C1COCCN1N=O
#inchikey ZKXDGKXYMTYWTB-UHFFFAOYSA-N
#pubchem_id 6046
#mb_accession SM868901

>ms2
56.049600 742559.100000
57.057500 1736838.100000
59.049300 14001968.000000
71.049100 43422.000000
72.044400 187976.900000
73.039700 3346471.500000
86.060000 9610584.000000
87.067800 15228319.000000
117.065800 40289716.000000

