>compound SM49911728
>parentmass 284.024
>ionization [M+H]+
>formula C13H11Cl2NO2
>rt 695.640000
>profile orbitrap
#smiles_iso CC12CC1(C(=O)N(C2=O)C3=CC(=CC(=C3)Cl)Cl)C
#smiles_can CC12CC1(C(=O)N(C2=O)C3=CC(=CC(=C3)Cl)Cl)C
#inchikey QXJKBPAVAHBARF-UHFFFAOYSA-N
#pubchem_id 36242
#mb_accession SM848503

>ms2
60.080900 15879.700000
65.038700 17904.000000
67.054400 200833.000000
69.033600 13204.200000
69.070000 36107.100000
95.049200 183492.200000
96.057000 6091.200000
113.059600 15485.200000
127.018100 3042.600000
132.960700 3279.400000
134.096700 3819.900000
146.096400 4088.900000
151.018500 4511.100000
157.029000 3920.800000
157.088900 12978.900000
158.096600 5266.700000
159.971600 67137.500000
161.987100 5530.800000
165.034200 5306.600000
171.971600 31932.500000
172.966800 5665.900000
173.987600 6232.300000
177.046800 5954.600000
178.041900 31976.700000
179.013300 11170.300000
179.049700 6842.600000
180.021000 48021.000000
185.987300 91980.000000
187.966500 53037.100000
188.002300 3733.500000
192.057400 49034.500000
193.065500 29335.700000
197.987200 24258.900000
199.966400 16438.700000
200.002800 4191.500000
202.042000 4837.000000
203.049700 18996.000000
206.037300 2875.100000
212.003000 44740.900000
213.011700 3633.900000
213.022700 5707.300000
213.982200 69931.400000
214.018700 12769.300000
214.990100 3503.300000
220.052500 22359.900000
221.060100 18896.200000
227.997800 5671.400000
228.034100 88767.800000
238.018600 34105.800000
241.005200 11796.800000
256.029100 498745.100000
284.024200 1338189.500000

