>compound SM50678439
>parentmass 389.1626
>ionization [M+H]+
>formula C21H25ClN2O3
>rt 604.140000
>profile orbitrap
#smiles_iso C1CN(CCN1CCOCC(=O)O)C(C2=CC=CC=C2)C3=CC=C(C=C3)Cl
#smiles_can C1CN(CCN1CCOCC(=O)O)C(C2=CC=CC=C2)C3=CC=C(C=C3)Cl
#inchikey ZKLPARSLTMPFCP-UHFFFAOYSA-N
#pubchem_id 2678
#mb_accession SM858203

>ms2peaks
58.065300 482628.700000
70.065200 1749261.500000
72.080800 26216714.000000
84.068200 880442.200000
129.070100 758873.700000
130.073200 476041.000000
145.064700 454243.200000
165.069800 34551096.000000
166.077700 102401592.000000
183.080500 6350329.500000
187.107700 4716472.000000
193.076100 4023236.000000
199.031000 837031.000000
201.046500 346288704.000000
389.162600 60361964.000000

