>compound SM50493902
>parentmass 103.0324
>ionization [M+H]+
>formula C3H6N2S
>rt 29.280000
>profile orbitrap
#smiles_iso C1CNC(=S)N1
#smiles_can C1CNC(=S)N1
#inchikey PDQAZBWRQCGBEV-UHFFFAOYSA-N
#pubchem_id 2723650
#mb_accession SM870403

>ms2peaks
58.995100 130810.000000
60.055800 4949741.500000
69.044800 374162.500000
76.021600 405646.900000
86.005900 2235487.500000
86.034900 973659.200000
103.032400 89560536.000000

