>compound SM51580093
>parentmass 311.2006
>ionization [M+H]+
>formula C21H26O2
>rt 679.860000
>profile orbitrap
#smiles_iso CCC12CCC3C(C1C=CC2(C#C)O)CCC4=CC(=O)CCC34
#smiles_can CCC12CCC3C(C1C=CC2(C#C)O)CCC4=CC(=O)CCC34
#inchikey SIGSPDASOTUPFS-UHFFFAOYSA-N
#pubchem_id 2999
#mb_accession SM874002

>ms2peaks
53.002400 877728.600000
53.038800 541373.900000
55.018000 1147645.100000
55.054400 969567.200000
57.033600 704011.200000
65.038800 441114.900000
67.054300 3719352.500000
69.033600 571705.600000
69.069900 849701.200000
71.049200 377776.800000
77.038600 754595.300000
79.054200 6618923.500000
81.033500 9820796.000000
81.069900 6277782.000000
83.049100 9631687.000000
91.054200 8078782.500000
93.069800 5593648.000000
95.049200 2034719.500000
95.085500 4429717.500000
97.064900 783347.400000
97.101200 147450.900000
103.054200 1005891.800000
105.033500 2524576.800000
105.069900 6930046.500000
107.049100 6802931.500000
107.085500 3495479.500000
109.064800 28263590.000000
109.101200 2384050.500000
111.080500 290405.200000
115.054200 1332571.600000
116.062100 177143.700000
117.069900 5071699.500000
119.049000 565690.200000
119.085500 6761688.500000
121.064800 2467572.200000
121.101200 2553623.500000
123.080400 2084899.100000
123.116900 473625.100000
125.096000 133319.000000
128.062100 1404171.500000
129.069900 5402282.500000
130.077700 608332.200000
131.049000 463564.900000
131.085500 6808069.500000
133.064800 4829605.000000
133.101100 4216892.000000
135.080400 5727075.500000
135.116700 1008742.100000
137.096000 702572.300000
141.069800 2877382.200000
142.077700 1426413.900000
143.085500 5093342.000000
144.057000 335671.100000
144.093200 137387.400000
145.064700 1821689.100000
145.101100 5877421.500000
146.072500 324362.000000
147.080400 4340279.000000
147.116800 2259719.200000
149.096100 4749770.500000
149.132400 606410.500000
151.111500 145999.700000
153.069700 1178736.500000
154.077700 777054.400000
155.085500 3333574.500000
156.093200 374276.900000
157.064800 953116.300000
157.101200 3951326.500000
158.072600 355338.500000
159.080400 3144976.500000
159.116900 2467992.800000
160.088400 294038.200000
161.096100 3289227.800000
161.132300 1911608.000000
163.111600 2225124.200000
165.070100 884138.400000
166.077800 677402.100000
167.085500 2199150.800000
168.093300 1377439.000000
169.101200 2780457.500000
170.109000 189298.400000
171.080400 928134.800000
171.116700 4177506.000000
172.088300 293052.300000
173.096100 2033373.800000
173.132600 2369336.200000
174.104000 169755.800000
175.111700 2818823.000000
175.148400 739327.600000
177.127300 181195.200000
178.077900 402283.600000
179.085400 985321.900000
180.093500 310296.900000
181.101000 3123922.000000
182.108900 491199.200000
183.080800 554732.200000
183.116900 4022714.200000
184.088000 155444.900000
185.096000 1181006.100000
185.132500 2464386.500000
187.111800 1355222.600000
187.147900 592795.900000
188.119500 362710.400000
189.127400 1114548.800000
189.164500 276707.100000
191.085500 833086.400000
192.093100 293105.100000
193.101200 1295483.100000
194.108900 489998.400000
195.080700 299954.200000
195.116900 2273219.200000
196.124700 321525.400000
197.096200 827728.800000
197.132500 1702438.800000
199.111700 1469198.800000
199.147900 957056.500000
201.127400 4568157.500000
201.163700 1480576.000000
203.085100 277171.800000
203.106700 191204.800000
203.143100 1290668.800000
204.093400 484936.800000
205.101300 1077314.600000
206.109200 318021.000000
207.116900 1054342.200000
209.096100 828335.000000
209.132400 1464183.900000
211.111500 624882.100000
211.148000 989538.000000
213.127300 948964.400000
213.163700 2125606.200000
214.135300 163509.400000
215.107500 133876.800000
215.143200 975551.400000
217.101100 189349.000000
217.158800 326899.500000
218.109100 490490.000000
219.117000 1003607.800000
219.174200 1017752.700000
220.124800 369097.900000
221.132500 916571.000000
223.111700 900961.900000
223.147900 1659201.500000
224.119300 150828.000000
225.127500 403342.200000
225.163800 1665205.500000
227.142900 657548.300000
228.150700 138347.200000
229.158500 549392.200000
230.166200 985200.300000
231.116700 371361.900000
231.174300 2535956.000000
232.124500 159216.200000
233.132500 887755.600000
235.148100 1594224.000000
237.127100 825801.800000
237.163700 529246.800000
239.142900 738680.000000
239.179600 446939.200000
241.159000 919704.800000
243.174400 2352463.500000
246.140100 451931.800000
247.147800 695415.900000
249.163400 718397.300000
251.143600 596002.200000
251.179400 645186.600000
253.158700 775056.100000
255.138100 313816.200000
255.174200 134705.700000
264.151000 400320.600000
265.158700 885127.400000
265.195100 512402.800000
267.175000 154466.100000
269.189700 308191.800000
275.179500 1001959.100000
283.169600 301920.700000
283.205500 344406.400000
293.190000 4311726.500000
311.200500 129224096.000000

