>compound SM51038622
>parentmass 288.1747
>ionization [M+H]+
>formula C21H21N
>rt 599.160000
>profile orbitrap
#smiles_iso C1=CC=C(C=C1)CN(CC2=CC=CC=C2)CC3=CC=CC=C3
#smiles_can C1=CC=C(C=C1)CN(CC2=CC=CC=C2)CC3=CC=CC=C3
#inchikey MXHTZQSKTCCMFG-UHFFFAOYSA-N
#pubchem_id 24321
#mb_accession SM837601

>ms2peaks
65.038600 3857032.800000
91.054200 311825088.000000
106.065000 842607.700000
115.054100 316603.500000
120.080700 9195466.000000
141.069500 771072.300000
153.069900 1005894.600000
165.069900 3273717.500000
166.077600 9511560.000000
179.085300 2211911.500000
181.101000 38499572.000000
196.112000 22460484.000000
288.174600 177711088.000000

