>compound SM51604104
>parentmass 86.0059
>ionization [M+H]+
>formula C3H3NS
>rt 53.760000
>profile orbitrap
#smiles_iso C1=CSC=N1
#smiles_can C1=CSC=N1
#inchikey FZWLAAWBMGSTSO-UHFFFAOYSA-N
#pubchem_id 9256
#mb_accession SM815801

>ms2
57.987300 21757.800000
58.995100 389643.900000
86.005900 14953255.000000

