>compound SM51162731
>parentmass 95.0604
>ionization [M+H]+
>formula C5H6N2
>rt 33.300000
>profile orbitrap
#smiles_iso CC1=NN=CC=C1
#smiles_can CC1=NN=CC=C1
#inchikey MXDRPNGTQDRKQM-UHFFFAOYSA-N
#pubchem_id 74208
#mb_accession SM804205

>ms2
65.038600 506403.700000
67.041700 1475324.000000
67.054300 401974.600000
68.049500 3848936.200000
78.033900 579809.800000
95.060300 216129056.000000

