>compound SM52285934
>parentmass 313.1434
>ionization [M+H]+
>formula C19H20O4
>rt 791.580000
>profile orbitrap
#smiles_iso CCCCOC(=O)C1=CC=CC=C1C(=O)OCC2=CC=CC=C2
#smiles_can CCCCOC(=O)C1=CC=CC=C1C(=O)OCC2=CC=CC=C2
#inchikey IRIAEXORFWYRCZ-UHFFFAOYSA-N
#pubchem_id 2347
#mb_accession SM836901

>ms2
57.070100 484887.600000
65.038700 1114552.900000
91.054200 95839864.000000
121.028400 451610.300000
149.023400 38003172.000000
163.038900 686730.200000
181.049500 626795.100000
205.086000 3102814.200000

