>compound SM52248435
>parentmass 201.0692
>ionization [M+H]+
>formula C8H12N2O2S
>rt 254.400000
>profile orbitrap
#smiles_iso CN(C)S(=O)(=O)C1=CC=C(C=C1)N
#smiles_can CN(C)S(=O)(=O)C1=CC=C(C=C1)N
#inchikey BABGMPQXLCJMSK-UHFFFAOYSA-N
#pubchem_id 74369
#mb_accession SM821201,SM878401

>ms2peaks
65.038700 3267053.200000
68.049600 2761659.800000
69.033600 243633.800000
78.033900 310340.600000
79.017900 424900.200000
80.049500 355548.200000
92.049500 34531696.000000
96.044400 451219.900000
108.044400 38480896.000000
110.060000 3408196.200000
120.055600 659532.000000
156.011300 107345920.000000
201.069200 5152488.000000

>ms2peaks
53.038800 81803.200000
55.018100 83800.800000
65.038700 2070017.800000
68.049600 2125812.500000
69.033600 95160.900000
78.033900 231924.100000
79.017800 323731.100000
80.049500 248804.600000
92.049500 23534666.000000
95.036600 89778.100000
96.044300 299572.700000
108.044400 26327126.000000
110.060100 2363322.200000
120.055600 441535.600000
130.982000 90284.300000
144.997500 81986.300000
156.011300 70716040.000000
201.069200 3943650.500000

