>compound SM53512283
>parentmass 377.2071
>ionization [M+H]+
>formula C20H28N2O5
>rt 491.460000
>profile orbitrap
#smiles_iso CCOC(=O)[C@H](CCC1=CC=CC=C1)N[C@@H](C)C(=O)N2CCC[C@H]2C(=O)O
#smiles_can CCOC(=O)C(CCC1=CC=CC=C1)NC(C)C(=O)N2CCCC2C(=O)O
#inchikey GBXSMTUPTTWBMN-XIRDDKMYSA-N
#pubchem_id 5388962
#mb_accession SM861601

>ms2peaks
56.049700 2814099.800000
58.065300 92991.800000
70.065200 1287587.000000
73.064800 2277800.000000
82.065100 94901.900000
84.044400 183498.200000
91.054200 9732287.000000
98.060000 267222.300000
102.055000 6402665.000000
105.069900 451627.400000
115.054100 304047.500000
116.070600 2084738.200000
117.069900 29963480.000000
119.085400 85551.600000
130.086300 22115902.000000
134.096400 11301081.000000
142.086300 189993.200000
143.085500 362746.700000
144.080700 387611.600000
160.112100 21950892.000000
162.127600 576150.800000
188.107100 177905.600000
206.117500 1418337.900000
206.153800 239863.300000
232.133400 769222.900000
234.148900 57884304.000000
257.165200 89180.700000
280.153900 175498.500000
303.170400 15374014.000000
377.207200 82664200.000000

