>compound SM53205856
>parentmass 233.1107
>ionization [M+H]+
>formula C13H16N2S
>rt 581.520000
>profile orbitrap
#smiles_iso C1CCC(CC1)NC2=NC3=CC=CC=C3S2
#smiles_can C1CCC(CC1)NC2=NC3=CC=CC=C3S2
#inchikey UPWPIFMHSFSVLE-UHFFFAOYSA-N
#pubchem_id 591790
#mb_accession SM884701

>ms2peaks
55.054400 15312236.000000
83.085500 22165590.000000
92.049600 1213666.500000
109.010700 1724588.600000
124.021600 2978826.800000
151.032500 347609024.000000
233.110700 488287584.000000

