>compound SM53351010
>parentmass 200.0069
>ionization [M+H]+
>formula C8H10BrN
>rt 634.980000
>profile orbitrap
#smiles_iso CN(C)C1=CC(=CC=C1)Br
#smiles_can CN(C)C1=CC(=CC=C1)Br
#inchikey USEXQPWLCGBYNT-UHFFFAOYSA-N
#pubchem_id 140102
#mb_accession SM810801

>ms2peaks
53.038700 75381.800000
77.038500 82546.900000
81.033500 22685.200000
95.049100 360515.800000
105.044700 129367.000000
106.065000 110709.400000
120.080700 58029.400000
121.088500 648709.000000
183.975600 899351.600000
184.983400 9924511.000000
200.006800 18069470.000000

