>compound SM54949344
>parentmass 166.0499
>ionization [M+H]+
>formula C8H7NO3
>rt 57.540000
>profile orbitrap
#smiles_iso C1=CC=C(C(=C1)C(=O)N)C(=O)O
#smiles_can C1=CC=C(C(=C1)C(=O)N)C(=O)O
#inchikey CYMRPDYINXWJFU-UHFFFAOYSA-N
#pubchem_id 6957
#mb_accession SM870004

>ms2peaks
59.049300 4942.500000
65.038600 28084.900000
72.044500 4916.500000
87.044100 48304.700000
93.033500 20884.800000
111.043900 5674.900000
120.044400 10746.300000
121.028500 193259.600000
121.039700 27610.400000
124.039300 6974.600000
130.028800 102436.800000
138.055200 11364.100000
148.039300 514665.700000
149.023400 4845701.000000
166.050000 21341.400000

