>compound SM54253343
>parentmass 230.0964
>ionization [M+H]+
>formula C17H11N
>rt 535.620000
>profile orbitrap
#smiles_iso C1=CC=C2C(=C1)C=CC3=NC4=CC=CC=C4C=C32
#smiles_can C1=CC=C2C(=C1)C=CC3=NC4=CC=CC=C4C=C32
#inchikey JEGZRTMZYUDVBF-UHFFFAOYSA-N
#pubchem_id 9180
#mb_accession SM803002

>ms2peaks
229.088100 1337680.000000
230.096300 527507072.000000

