>compound SM54390277
>parentmass 426.1691
>ionization [M+H]+
>formula C22H24ClN5O2
>rt 459.780000
>profile orbitrap
#smiles_iso C1CN(CCC1N2C3=C(C=C(C=C3)Cl)NC2=O)CCCN4C5=CC=CC=C5NC4=O
#smiles_can C1CN(CCC1N2C3=C(C=C(C=C3)Cl)NC2=O)CCCN4C5=CC=CC=C5NC4=O
#inchikey FGXWKSZFVQUSTL-UHFFFAOYSA-N
#pubchem_id 3151
#mb_accession SM851701

>ms2peaks
84.080800 437713.100000
98.096500 356842.600000
119.060400 7202980.500000
124.112100 274406.000000
134.047400 236227.500000
147.055200 58768240.000000
172.063000 182672.600000
175.086600 91271344.000000
207.032000 515000.200000
235.063400 846606.300000
252.089800 1116654.400000
256.144700 184081.700000
258.160100 377544.500000
292.121500 227619.500000
426.169100 65904464.000000

