>compound SM55915144
>parentmass 367.2268
>ionization [M+H]+
>formula C24H30O3
>rt 687.780000
>profile orbitrap
#smiles_iso CC12CCC(=O)C=C1C3CC3C4C2CCC5(C4C6CC6C57CCC(=O)O7)C
#smiles_can CC12CCC(=O)C=C1C3CC3C4C2CCC5(C4C6CC6C57CCC(=O)O7)C
#inchikey METQSPRSQINEEU-UHFFFAOYSA-N
#pubchem_id 12803450
#mb_accession SM874102

>ms2peaks
55.018000 803487.100000
55.054400 666930.200000
65.038700 412634.600000
67.054300 4103911.800000
69.033600 440139.800000
69.069900 968626.600000
71.049100 273985.000000
77.038600 327961.700000
79.054200 4250143.500000
81.069900 3998754.500000
83.049100 6814019.500000
85.028400 720427.600000
85.064800 342749.400000
91.054200 4428515.500000
93.069900 7665671.000000
95.049100 765564.100000
95.085500 2047890.900000
97.064800 31949520.000000
99.044000 482422.900000
103.054300 199259.900000
105.069900 7559937.500000
107.049000 539474.500000
107.085500 5681165.500000
109.064800 2463570.500000
109.101100 536205.400000
111.044100 3797005.200000
111.080400 660232.500000
115.054300 281493.500000
116.062000 203642.400000
117.069900 2941550.200000
119.085500 5421441.000000
121.064800 2726034.000000
121.101200 1325720.100000
123.080400 4144717.000000
125.059700 678022.700000
128.062000 617563.800000
129.069800 2540676.200000
130.077700 122383.500000
131.085500 7970396.500000
133.064700 637777.000000
133.101200 2849090.800000
135.080400 4001110.000000
135.116700 657276.400000
136.088300 240694.000000
137.059500 255956.000000
137.096000 590935.100000
141.069800 1036928.400000
142.077700 872738.100000
143.085500 6522545.000000
144.093300 427297.000000
145.064700 504247.400000
145.101100 4464878.500000
147.080400 3542622.200000
147.116800 959195.300000
149.096100 4334095.500000
151.075300 660053.200000
151.111700 211023.000000
153.069800 346019.200000
153.091000 1454913.600000
154.077600 250145.900000
155.085500 2626187.800000
156.093400 760763.900000
157.101200 5010740.000000
158.108800 215931.000000
159.080400 3715037.800000
159.116800 4285024.000000
160.088200 245759.900000
161.096100 1505808.100000
161.132300 401687.500000
163.075300 256053.100000
163.111800 382861.700000
165.069700 495519.200000
165.091000 760941.500000
167.085600 661114.600000
167.106700 241837.300000
168.093500 366578.300000
169.101100 3377671.800000
170.108800 205418.500000
171.080500 518357.900000
171.116800 6525781.000000
173.096100 1927279.900000
173.132400 1294670.600000
175.111700 912990.200000
177.091000 2936036.500000
177.127200 487617.300000
179.085500 599128.900000
179.106500 290478.000000
180.093100 361033.700000
181.101100 1462493.100000
182.109400 489543.600000
183.080500 324142.500000
183.116900 2876760.800000
184.124400 117962.800000
185.096100 1192923.500000
185.132400 2113648.500000
187.111700 1203570.400000
187.148300 333107.200000
189.090600 189069.000000
189.127300 838593.900000
191.106700 430231.000000
193.101300 974668.400000
194.109200 293471.500000
195.116900 2639554.500000
197.096100 632631.500000
197.132500 4292869.000000
199.111800 1270354.200000
199.148100 594476.400000
201.091000 117528.200000
201.127400 1492020.500000
203.106900 410931.000000
203.143100 207535.600000
205.101300 388627.200000
205.122200 272254.400000
206.109000 328183.800000
207.116800 787625.600000
208.124600 186801.800000
209.096200 123832.600000
209.132400 1400533.600000
211.111700 707617.400000
211.148000 1100443.000000
213.127300 1173993.800000
215.106400 352428.500000
215.142900 877385.500000
217.122300 492008.200000
219.116400 445033.300000
219.138100 959475.800000
220.124900 195909.600000
221.132400 1570364.400000
223.111800 299151.900000
223.148000 952910.900000
225.127200 645625.100000
225.163900 552816.400000
227.143000 694057.900000
229.122100 304577.200000
231.116900 120949.600000
231.137900 1361709.900000
233.132000 559728.000000
235.148300 1162104.100000
237.127300 614473.600000
237.164000 509748.300000
239.143100 2256126.000000
241.122200 226899.200000
241.158900 430555.400000
243.137900 286753.000000
247.148100 565225.800000
249.164100 433721.900000
251.142900 570716.800000
251.178800 384398.900000
253.158900 1077199.000000
255.137800 431800.500000
257.153400 1827705.400000
261.163500 393794.000000
263.143200 119524.200000
263.179100 219722.200000
265.158500 548421.900000
267.174400 331079.300000
269.153800 336788.700000
269.189900 122107.000000
271.169500 125678.300000
275.143000 125898.300000
275.179100 240021.900000
276.187300 242246.400000
279.138400 178719.500000
279.174500 288510.700000
281.153400 255693.200000
283.169700 440767.300000
285.184900 320953.200000
287.179700 280977.100000
289.159000 116595.300000
289.195000 947124.500000
291.174300 211853.500000
293.153100 380168.300000
295.169300 1118012.500000
303.210400 123828.400000
305.189900 315066.500000
307.169400 116249.300000
307.205500 1255408.800000
309.184900 191943.800000
313.194900 454924.000000
321.185100 233683.000000
321.220900 574754.500000
323.199900 226275.500000
331.205500 1304706.600000
349.216100 3799897.000000
367.226900 114671840.000000

