>compound SM56248747
>parentmass 223.0965
>ionization [M+H]+
>formula C12H14O4
>rt 619.920000
>profile orbitrap
#smiles_iso CC(C)COC(=O)C1=CC=CC=C1C(=O)O
#smiles_can CC(C)COC(=O)C1=CC=CC=C1C(=O)O
#inchikey RZJSUWQGFCHNFS-UHFFFAOYSA-N
#pubchem_id 92272
#mb_accession SM823305

>ms2peaks
57.070100 6175170.500000
65.038600 483056.700000
93.033500 286859.900000
121.028500 3135443.200000
121.039600 373763.000000
149.023400 120885120.000000
163.039000 1718959.000000
167.034000 1964752.200000
181.049600 1583459.600000

