>compound SM56074753
>parentmass 329.0591
>ionization [M+H]+
>formula C16H12N2O4S
>rt 804.180000
>profile orbitrap
#smiles_iso C1=CC=C2C(=C1)C=CC(=C2N=NC3=CC=C(C=C3)S(=O)(=O)O)O
#smiles_can C1=CC=C2C(=C1)C=CC(=C2N=NC3=CC=C(C=C3)S(=O)(=O)O)O
#inchikey RDUJRVXKAIVTDH-UHFFFAOYSA-N
#pubchem_id 11315
#mb_accession SM821801

>ms2
75.023100 17138.500000
77.038700 20570.600000
80.049500 73955.800000
81.033600 10493.900000
91.054200 39005.900000
92.049600 16054.200000
95.049100 35677.300000
101.038500 30670.300000
105.044800 6819.000000
108.044400 757758.700000
109.052200 69463.900000
115.054200 6160.900000
119.049100 46439.000000
127.041300 5186.600000
128.049500 3980933.500000
129.044800 114865.100000
146.060100 630127.400000
156.044400 4325810.000000
158.060200 35628.200000
160.075800 63754.500000
173.014200 2335554.500000
174.055100 478062.800000
174.992200 23485.000000
188.070700 195911.100000
218.084100 15387.700000
219.091800 53629.000000
220.076000 5083.300000
220.099400 17360.200000
229.076300 12718.600000
230.083900 15995.200000
231.091700 51568.600000
232.099800 23395.700000
235.086600 7272.300000
247.086900 61147.600000
248.094500 89144.200000
249.102300 21958.100000
250.074100 5717.000000
251.000800 6343.300000
279.076700 5339.900000
301.063900 7415.800000
311.048700 384661.100000
312.056500 1597540.500000
314.035600 29963.300000
328.051200 15444.800000
329.059300 4854131.500000

