>compound SM56945901
>parentmass 275.0485
>ionization [M+H]+
>formula C13H10N2O3S
>rt 253.290000
>profile orbitrap
#smiles_iso C1=CC=C(C=C1)C2=NC3=C(N2)C=C(C=C3)S(=O)(=O)O
#smiles_can C1=CC=C(C=C1)C2=NC3=C(N2)C=C(C=C3)S(=O)(=O)O
#inchikey UVCJGUGAGLDPAA-UHFFFAOYSA-N
#pubchem_id 33919
#mb_accession SM823802,SM878701

>ms2
80.049500 127869.200000
92.049400 99368.400000
108.044400 492980.000000
182.083900 288300.800000
193.076100 684283.900000
194.083900 11425270.000000
195.091700 3042389.000000
210.078700 313488.400000
211.086600 1961878.900000
226.073700 2431098.500000
275.048400 83623816.000000

>ms2
80.049500 48281.600000
92.049400 53565.000000
108.044400 215259.100000
182.083800 102734.300000
193.076100 240308.200000
194.083900 4319566.000000
195.091700 1137100.000000
210.078700 135681.400000
211.086600 706983.100000
226.073700 1064267.400000
275.048400 31359436.000000

