>compound SM57299513
>parentmass 258.2428
>ionization [M+H]+
>formula C15H31NO2
>rt 795.060000
>profile orbitrap
#smiles_iso CCCCCCCCCCCC(=O)NCC(C)O
#smiles_can CCCCCCCCCCCC(=O)NCC(C)O
#inchikey MMBILEWCGWTAOV-UHFFFAOYSA-N
#pubchem_id 9903249
#mb_accession SM876601

>ms2peaks
55.054400 509661.200000
57.070000 11527404.000000
58.065300 117545624.000000
59.049300 365232.100000
67.054300 2246016.000000
69.069900 740966.300000
71.085600 7306884.500000
76.075700 141254864.000000
81.069900 2790309.200000
83.085500 1485786.400000
85.101200 4291677.000000
95.085500 6987417.000000
97.101200 625265.700000
109.101200 3843417.000000
123.116800 817652.200000
165.163700 370337.900000
183.174400 1549092.800000
240.232100 24607316.000000
241.216200 6788698.500000
258.242800 58541636.000000

