>compound SM57920232
>parentmass 122.0964
>ionization [M+H]+
>formula C8H11N
>rt 97.920000
>profile orbitrap
#smiles_iso CC1=C(C(=CC=C1)C)N
#smiles_can CC1=C(C(=CC=C1)C)N
#inchikey UFFBMTHBGFGIHF-UHFFFAOYSA-N
#pubchem_id 6896
#mb_accession SM809801,SM882401

>ms2peaks
77.038500 679958.600000
79.054200 6976366.000000
95.049100 866557.800000
103.054200 4157236.500000
105.069900 84990712.000000
106.065000 845931.800000
107.072900 50411736.000000
120.057000 969391.600000
120.080700 1121557.200000
122.096400 335965504.000000
133.076000 3797562.800000

>ms2peaks
77.038500 472637.800000
79.054200 3421310.000000
95.049100 472481.600000
103.054200 1840410.000000
105.069900 43493848.000000
106.064900 415929.000000
107.073000 24737370.000000
120.057000 309716.700000
120.080800 625256.900000
122.096400 168795920.000000
133.076000 1843443.100000

