>compound SM58277379
>parentmass 215.9784
>ionization [M+H]+
>formula C7H5NO3S2
>rt 423.750000
>profile orbitrap
#smiles_iso C1=CC=C2C(=C1)N=C(S2)S(=O)(=O)O
#smiles_can C1=CC=C2C(=C1)N=C(S2)S(=O)(=O)O
#inchikey ZCXGMSGCBDSEOY-UHFFFAOYSA-N
#pubchem_id 30647
#mb_accession SM820101,SM882601

>ms2
78.033900 109211.200000
84.002900 11127.300000
90.033800 99684.800000
92.049500 358568.200000
94.995100 46727.700000
96.044400 67596.800000
98.006000 13026.900000
106.028800 636125.200000
106.994900 24419.100000
108.003100 11089.500000
108.997900 9811.600000
109.010700 70611.000000
110.006000 60176.100000
114.967100 117792.200000
122.005900 73517.200000
124.021600 359867.900000
124.039200 25044.300000
134.005900 2720194.500000
135.013500 24614.700000
136.021400 26267.000000
138.000800 82533.600000
141.978000 324431.800000
150.000900 43400.000000
151.008500 17248.000000
152.016500 2088267.900000
153.978000 589304.500000
162.012000 211546.600000
169.972900 1475109.900000
173.973400 23154.800000
215.978500 8626452.000000

>ms2
68.049600 15254.700000
78.033900 126186.800000
82.995000 11420.000000
90.033800 110213.700000
92.049500 368399.800000
94.995000 44174.900000
96.044400 66597.700000
98.006000 17403.000000
106.028700 674419.400000
106.995000 25585.600000
108.998000 11785.000000
109.010700 86233.600000
110.005900 67477.200000
114.967100 116706.800000
122.005900 76233.700000
124.021600 361538.300000
124.039300 20154.100000
134.005900 2660213.500000
135.013400 36965.500000
136.021300 24970.700000
138.000800 90190.700000
141.978000 340429.600000
150.001100 35398.600000
151.008600 16558.900000
152.016500 2174224.200000
153.978000 629888.100000
162.012000 216554.700000
169.972900 1543235.800000
215.978400 9891665.000000

