>compound SM59446383
>parentmass 376.9859
>ionization [M+H]+
>formula C13H18Br2N2O
>rt 346.920000
>profile orbitrap
#smiles_iso C1CC(CCC1NCC2=C(C(=CC(=C2)Br)Br)N)O
#smiles_can C1CC(CCC1NCC2=C(C(=CC(=C2)Br)Br)N)O
#inchikey JBDGDEWWOUBZPM-UHFFFAOYSA-N
#pubchem_id 2132
#mb_accession SM849201

>ms2
81.069900 13116.700000
98.060100 21827.100000
104.049600 5330.200000
116.107100 35175.600000
166.074300 15634.000000
182.968000 20827.000000
261.886300 451792.800000
376.986300 103132.300000

