>compound SM59519174
>parentmass 108.0808
>ionization [M+H]+
>formula C7H9N
>rt 28.560000
>profile orbitrap
#smiles_iso CNC1=CC=CC=C1
#smiles_can CNC1=CC=CC=C1
#inchikey AFBPFSWMIHJQDM-UHFFFAOYSA-N
#pubchem_id 7515
#mb_accession SM812601

>ms2
66.046500 365356.300000
80.049500 273147.000000
91.054200 1305723.600000
92.049400 346960.200000
93.057300 202538224.000000
108.080700 197660144.000000

