>compound SM59674098
>parentmass 559.2603
>ionization [M+H]+
>formula C33H35FN2O5
>rt 744.240000
>profile orbitrap
#smiles_iso CC(C)C1=C(C(=C(N1CC[C@H](C[C@H](CC(=O)O)O)O)C2=CC=C(C=C2)F)C3=CC=CC=C3)C(=O)NC4=CC=CC=C4
#smiles_can CC(C)C1=C(C(=C(N1CCC(CC(CC(=O)O)O)O)C2=CC=C(C=C2)F)C3=CC=CC=C3)C(=O)NC4=CC=CC=C4
#inchikey XUKUURHRXDUEBC-KAYWLYCHSA-N
#pubchem_id 60823
#mb_accession SM859301

>ms2peaks
53.038800 52011.000000
55.054400 137492.300000
57.033600 29261.400000
59.049300 49533.800000
65.038700 38952.800000
71.012900 152745.000000
71.049200 97880.800000
77.038600 46675.600000
79.054200 625669.600000
83.049100 493040.100000
85.064800 23572.100000
89.023300 170638.200000
91.054300 35724.900000
92.049500 601248.700000
95.049100 196925.500000
97.028400 109519.500000
97.064700 87659.100000
99.080500 41984.100000
101.059700 325379.200000
104.049400 88785.100000
105.070000 23067.800000
107.049000 83864.600000
109.044700 116953.400000
115.054300 181164.300000
117.057400 79437.900000
120.044400 536960.500000
122.039900 144098.800000
125.059800 97284.800000
128.062000 35359.900000
129.070000 179763.400000
132.044300 47545.700000
133.044700 218292.100000
135.047700 43022.000000
147.060300 44423.700000
154.065100 49624.200000
167.072700 24493.300000
172.055500 33431.800000
179.085700 34403.700000
180.080400 27914.200000
185.076500 73493.600000
197.096100 26782.100000
198.071000 23749.200000
203.085500 172236.900000
209.076200 328717.500000
215.085400 27527.100000
218.096800 30352.300000
221.075900 86137.100000
222.084500 30065.900000
223.091700 165303.900000
223.101000 22313.900000
230.096300 356704.700000
233.076100 833550.100000
234.084000 39110.400000
235.079100 417444.100000
236.087100 90606.300000
237.094700 373723.800000
238.102600 1676439.800000
242.096900 24251.800000
248.087100 1078958.000000
249.094800 2072166.200000
250.102700 21213996.000000
251.110000 117564.500000
252.118400 670224.600000
256.074900 25119.600000
259.092900 69900.200000
261.094700 276979.900000
262.102800 1244493.800000
263.110500 86870.800000
264.081900 382204.200000
264.118100 453477.100000
264.130900 24659.700000
274.102400 253440.900000
275.110500 265591.800000
275.122800 30932.400000
276.082900 775685.000000
276.118400 8344824.500000
277.088500 26037.000000
277.126300 415460.500000
278.097200 130350.200000
278.134100 174905.000000
279.141800 296990.800000
280.149700 613143.200000
287.109500 35306.600000
288.118400 340864.500000
289.125800 153545.300000
290.134200 514663.100000
291.142300 23434.400000
292.149600 7249022.500000
294.092600 99216.900000
294.128800 126595.800000
294.165300 1051017.000000
300.118600 110881.500000
301.125800 82074.100000
302.097500 309733.600000
302.133900 1167992.500000
303.105400 26650.100000
303.141600 145468.200000
304.114100 37189.200000
304.149500 101851.400000
306.129000 642185.800000
308.145400 27263.000000
316.112600 21416.300000
316.149400 332678.000000
318.128900 319506.300000
318.165300 1210724.200000
320.108100 160714.600000
320.144600 779551.500000
326.134900 23086.800000
334.123300 43785.700000
334.197200 35643.300000
336.139200 49136.700000
336.175900 300862.300000
342.129400 98883.200000
344.144300 433050.400000
344.181400 84199.900000
346.124500 37512.200000
360.139100 152150.300000
360.212600 40620.600000
361.147500 102249.800000
362.155100 2696239.200000
362.187800 202866.800000
369.139900 47611.200000
370.123900 89732.000000
378.223700 158388.400000
379.157800 280525.600000
380.165700 3796425.800000
380.200600 298596.200000
398.176100 561082.000000
402.186400 178836.700000
404.202500 676426.700000
406.144600 92832.200000
406.181900 128191.000000
413.202000 91917.400000
422.212700 2452867.800000
424.156700 157670.400000
430.182300 174758.000000
440.223400 18073622.000000
448.192400 439363.300000
466.202700 4588019.000000
467.206500 87945.000000
541.248500 79389.600000
559.260500 11950396.000000

