>compound SM60075033
>parentmass 296.116
>ionization [M+H]+
>formula C14H18ClN3O2
>rt 694.860000
>profile orbitrap
#smiles_iso CC(C)(C)C(C(N1C=NC=N1)OC2=CC=C(C=C2)Cl)O
#smiles_can CC(C)(C)C(C(N1C=NC=N1)OC2=CC=C(C=C2)Cl)O
#inchikey BAZVSMNPJJMILC-UHFFFAOYSA-N
#pubchem_id 41368
#mb_accession SM844202

>ms2
57.070100 797278.400000
59.049300 278703.500000
69.069900 443865.400000
70.040100 120454600.000000
99.080500 5151104.000000
127.012200 135269.800000
141.010100 191384.800000
169.041400 165322.700000
209.072900 193192.000000
227.083300 1801531.400000
296.116400 374874.400000

