>compound SM61089079
>parentmass 313.2162
>ionization [M+H]+
>formula C21H28O2
>rt 708.240000
>profile orbitrap
#smiles_iso CCC12CCC3C(C1CCC2(C#C)O)CCC4=CC(=O)CCC34
#smiles_can CCC12CCC3C(C1CCC2(C#C)O)CCC4=CC(=O)CCC34
#inchikey WWYNJERNGUHSAO-UHFFFAOYSA-N
#pubchem_id 4542
#mb_accession SM873701

>ms2peaks
53.038800 281790.600000
55.054400 952812.900000
57.033700 473979.600000
57.070100 256928.900000
65.038700 160301.300000
67.054300 4360423.500000
69.033600 102192.200000
69.070000 1329263.200000
71.049300 121233.800000
77.038700 173958.800000
79.054200 5562418.000000
81.033600 550718.100000
81.069900 6543151.000000
83.049100 8931096.000000
91.054200 9231650.000000
93.069900 6482979.500000
95.049100 1285031.800000
95.085500 5243865.000000
97.064800 1181638.100000
97.101200 148681.200000
103.054200 486586.000000
105.069900 8639257.000000
107.049100 5119221.500000
107.085500 4960676.000000
109.064800 22461170.000000
109.101100 2323873.800000
111.080500 337523.200000
115.054200 620174.100000
116.062200 403484.500000
117.069900 5152224.500000
119.085500 6357087.500000
121.064800 1675478.100000
121.101200 2512833.800000
123.080400 3995633.800000
123.116800 2618534.200000
125.096000 1368002.100000
128.061900 1049939.000000
129.069900 4519408.500000
130.077700 715052.100000
131.085500 7988082.000000
133.064800 1325127.000000
133.101200 7676766.500000
135.080400 6687394.000000
135.116800 2118458.000000
137.096000 718741.100000
137.132500 633875.800000
141.069800 1487219.200000
142.077700 789875.400000
143.085500 5126788.000000
144.057100 123641.100000
144.093300 420723.500000
145.064900 503488.200000
145.101200 6145683.500000
147.080400 1898996.100000
147.116800 2767002.800000
148.088200 137565.400000
149.096100 4225430.000000
149.132400 752425.000000
151.111600 568509.900000
153.070000 401856.100000
154.077700 153805.700000
155.085500 1977036.900000
156.093500 455721.200000
157.065000 423889.100000
157.101200 5781426.500000
158.108900 331820.400000
159.080400 1533453.600000
159.116800 5149613.500000
161.096100 2977179.000000
161.132400 1065951.400000
163.111700 2002248.800000
163.148200 284005.300000
165.070000 457443.700000
165.127600 133079.400000
166.077700 141969.500000
167.085500 1163387.600000
168.093100 553221.400000
169.101200 2269154.200000
170.108900 389378.000000
171.080400 292465.200000
171.116800 3809584.500000
173.096000 812409.700000
173.132500 2001458.400000
175.111800 2108933.000000
175.148100 1392205.500000
177.127400 333217.500000
178.078500 138706.600000
179.085400 614149.100000
180.093100 148374.900000
181.101000 1705492.900000
182.109200 306617.800000
183.116900 3025186.000000
184.124900 142286.400000
185.096100 844409.200000
185.132500 4661914.000000
187.111800 1279006.100000
187.148100 2411793.800000
188.119500 378130.400000
189.127400 1486725.900000
191.142700 277021.700000
193.101200 956470.200000
194.109000 96002.600000
195.116900 1825134.500000
196.124700 125353.700000
197.096100 272374.600000
197.132600 1936605.200000
198.140200 113592.600000
199.111600 768272.100000
199.148200 2176691.200000
201.127200 904246.300000
201.164000 536699.400000
203.143100 648808.600000
205.101500 149025.100000
206.109300 380249.100000
207.116700 1236644.100000
208.124700 318223.900000
209.132300 1080411.100000
210.140300 97312.300000
211.111800 480661.400000
211.148300 946255.900000
213.127200 675958.100000
213.163600 374904.000000
215.143000 578447.200000
215.179300 321936.400000
217.158700 123240.300000
219.116400 289693.800000
220.124800 340074.300000
221.132400 1335052.500000
222.140000 135298.200000
223.148800 614319.000000
225.126900 620782.400000
225.163800 1705509.500000
227.142900 437044.600000
227.179400 3487520.500000
229.158400 105750.400000
233.132500 308886.300000
234.140200 113188.800000
235.148100 1276723.800000
236.155400 113119.700000
237.163800 2189248.000000
238.135500 158291.800000
239.143400 645442.100000
239.179600 379839.900000
241.158700 544160.400000
243.174400 493882.700000
245.190000 11891885.000000
247.148100 118866.700000
248.155900 557369.400000
249.163900 907187.400000
251.179800 521157.000000
253.158600 441754.200000
253.195400 482238.100000
255.174500 390505.200000
266.166400 608565.900000
267.174500 766405.600000
267.210400 158719.500000
277.195200 1750235.100000
284.177000 105259.900000
295.205800 4525055.000000
313.216200 92956256.000000

