>compound SM61766754
>parentmass 149.9775
>ionization [M+H]+
>formula C4H4ClNOS
>rt 128.940000
>profile orbitrap
#smiles_iso CN1C(=O)C=C(S1)Cl
#smiles_can CN1C(=O)C=C(S1)Cl
#inchikey DHNRXBZYEKSXIM-UHFFFAOYSA-N
#pubchem_id 33344
#mb_accession SM881901

>ms2peaks
58.028900 357062.300000
58.995200 230209.500000
59.990400 195457.500000
63.994900 78063.700000
66.010600 74355.300000
70.995100 419246.100000
78.010500 264165.500000
78.940400 133371.300000
86.005900 302149.700000
87.013700 78764.300000
92.955900 124925.000000
94.971700 314053.200000
95.990200 609241.700000
102.940400 80530.900000
102.994600 180093.400000
104.956000 529567.400000
106.005400 193761.700000
106.971700 497389.000000
114.000800 79899.300000
115.008700 1288068.100000
116.997600 150427.200000
118.935300 685589.600000
120.950900 457264.000000
121.982400 98308.300000
132.950900 314672.000000
134.954000 428210.200000
149.977500 61362776.000000

