>compound SM61807917
>parentmass 150.0372
>ionization [M+H]+
>formula C8H7NS
>rt 557.700000
>profile orbitrap
#smiles_iso CC1=NC2=CC=CC=C2S1
#smiles_can CC1=NC2=CC=CC=C2S1
#inchikey DXYYSGDWQCSKKO-UHFFFAOYSA-N
#pubchem_id 8446
#mb_accession SM878603

>ms2peaks
59.049300 11075.600000
65.038700 4865.600000
92.049600 14923.200000
105.033600 10521.100000
107.049400 3948.600000
109.010800 34223.300000
110.060100 38514.900000
117.057300 13767.500000
120.044500 136738.000000
124.021700 11388.100000
134.006100 3427.300000
134.059900 3300.900000
152.016700 849428.900000

