>compound SM61863846
>parentmass 313.2162
>ionization [M+H]+
>formula C21H28O2
>rt 727.620000
>profile orbitrap
#smiles_iso CC(=O)[C@H]1CC[C@@H]2[C@@]1(CC[C@@H]3[C@H]2C=CC4=CC(=O)CC[C@@]34C)C
#smiles_can CC(=O)C1CCC2C1(CCC3C2C=CC4=CC(=O)CCC34C)C
#inchikey JGMOKGBVKVMRFX-HQZYFCCVSA-N
#pubchem_id 9051
#mb_accession SM874701

>ms2peaks
55.018000 86689.700000
55.054400 286141.900000
59.049300 43933.900000
67.054300 570290.800000
69.070000 307378.600000
71.049200 1160546.500000
79.054200 694869.600000
81.069900 1181886.200000
83.049200 1158476.500000
83.085500 90667.500000
85.064800 3157208.000000
91.054200 576254.200000
93.069900 1346709.100000
95.085500 2212491.500000
97.064800 3108168.800000
99.044100 458764.700000
99.080500 67068.300000
105.069900 1407704.600000
107.049100 473838.200000
107.085500 1270526.400000
109.064800 1177354.400000
109.101200 997714.600000
111.080400 326265.400000
113.059600 58255.400000
113.096100 229512.000000
117.069900 341416.500000
119.085600 1551085.800000
121.064800 1273159.400000
121.101300 766846.800000
123.080500 941916.600000
123.116800 147007.900000
125.096000 136589.600000
127.075500 416961.900000
128.061900 61245.500000
129.069900 587900.900000
131.085500 1806096.100000
133.064800 582120.600000
133.101200 1672455.400000
135.080500 333531.700000
135.116800 812713.600000
137.096000 488610.000000
141.069800 219672.700000
142.077700 285472.800000
143.085500 1539718.800000
144.093100 51895.100000
145.064900 145381.200000
145.101200 1887639.600000
147.080400 989468.400000
147.116800 885533.600000
149.096100 998337.100000
149.132700 220181.400000
151.111900 319650.500000
153.069100 57271.700000
155.085500 1424611.400000
156.093200 204096.000000
157.101200 2350665.000000
158.072900 54879.500000
159.080500 385685.200000
159.116900 2366790.000000
160.088000 44273.200000
161.096100 1737709.000000
161.132400 325104.600000
162.103900 81496.300000
163.111700 1528335.400000
165.069800 61749.500000
166.077800 137928.900000
167.085600 207579.200000
168.093000 73583.600000
169.101200 1295717.400000
170.109200 42520.500000
171.080400 1086576.000000
171.116800 2016573.200000
173.096100 2780685.200000
173.132600 786822.600000
175.111800 2087853.000000
175.148400 218331.600000
177.127400 937302.200000
179.085600 80612.600000
180.092900 42275.100000
181.101100 780132.900000
182.108900 186373.300000
183.116900 1437245.000000
184.124500 75689.200000
185.095800 296168.200000
185.132500 975035.500000
187.111600 644309.700000
187.148200 867966.400000
189.127400 678264.100000
189.163500 59286.800000
191.143100 153359.400000
192.093000 70184.200000
193.101200 248081.900000
194.108900 46684.800000
195.116800 1307349.500000
195.125100 65737.400000
196.124300 261098.700000
197.096000 84892.100000
197.132500 1589455.400000
198.140000 46257.600000
199.111800 1689819.600000
199.148300 641812.600000
201.127500 748590.400000
201.163800 190418.500000
203.143200 211051.300000
206.108600 85442.200000
207.116800 498847.400000
207.138700 41958.300000
208.124500 63480.600000
209.132400 755317.600000
210.140200 217919.600000
211.111700 582404.400000
211.148100 2445864.800000
212.119800 65450.600000
213.127300 783180.900000
213.163700 607051.600000
214.135400 69651.700000
215.143300 482789.800000
215.179500 307822.700000
217.158500 269762.300000
220.125000 45881.600000
221.132600 966035.000000
222.140400 196180.800000
223.148200 235147.000000
224.120000 65140.900000
225.127400 1096703.900000
225.163800 1185446.600000
227.143000 522903.200000
227.179300 210726.600000
228.151000 138798.500000
229.158800 2093319.000000
231.174500 262611.200000
234.140500 45092.500000
235.148100 613893.800000
237.163700 1603433.100000
239.143100 1580676.800000
240.151100 59693.400000
241.158400 45014.800000
243.174500 486478.300000
245.190600 67976.800000
248.155200 48885.500000
249.163800 342610.200000
251.179500 979962.900000
252.187000 288229.200000
253.159000 432046.000000
253.195100 2715349.800000
255.174200 1770838.500000
265.159700 64338.900000
267.174600 466905.100000
267.210700 326371.700000
269.190100 1741838.000000
271.205700 1383583.800000
277.195200 1938789.000000
280.181800 46981.500000
285.220700 50518.200000
295.205800 11909144.000000
298.192800 69042.800000
313.216200 41844616.000000

