>compound SM61726189
>parentmass 279.1452
>ionization [M+H]+
>formula C13H18N4O3
>rt 478.920000
>profile orbitrap
#smiles_iso CC(=O)CCCCN1C(=O)C2=C(N=CN2C)N(C1=O)C
#smiles_can CC(=O)CCCCN1C(=O)C2=C(N=CN2C)N(C1=O)C
#inchikey BYPFEZZEUUWMEJ-UHFFFAOYSA-N
#pubchem_id 4740
#mb_accession SM861402

>ms2
67.029200 523857.000000
69.044800 1031689.400000
79.054300 309182.100000
81.069800 1471723.600000
83.060400 3691368.200000
96.055700 451848.500000
99.080500 70432968.000000
108.055600 963609.900000
110.071300 15175934.000000
112.086900 6660083.500000
135.066500 1800438.900000
137.082200 3865053.000000
138.066200 37392168.000000
149.023500 326166.700000
156.076800 7008471.000000
163.061300 2659978.000000
181.072000 166860240.000000
193.072200 1988082.800000
221.103800 972978.700000
279.145300 190495152.000000

