>compound SM63855472
>parentmass 200.074
>ionization [M+H]+
>formula C9H13NO2S
>rt 523.950000
>profile orbitrap
#smiles_iso CCNS(=O)(=O)C1=CC=CC=C1C
#smiles_can CCNS(=O)(=O)C1=CC=CC=C1C
#inchikey NATWUQFQFMZVMT-UHFFFAOYSA-N
#pubchem_id 14110
#mb_accession SM823601,SM881601

>ms2
53.038800 132993.800000
55.018000 983948.700000
55.054400 137240.900000
65.038700 9235211.000000
67.054300 4494833.500000
77.038700 603094.500000
91.054300 82058816.000000
94.041300 167466.800000
95.049200 1712699.100000
105.044800 165513.500000
108.057000 2011840.000000
109.064800 60789192.000000
119.060400 78684312.000000
120.057500 721943.500000
123.080500 266880.800000
155.016200 121191912.000000
173.026500 136347.200000
187.042500 151262.000000
200.074100 9541785.000000

>ms2
53.038800 102982.400000
55.018100 543678.700000
65.038700 6098354.500000
67.054300 3079796.800000
77.038700 234444.100000
91.054200 49925056.000000
95.049100 969386.900000
108.056900 1221714.000000
109.064800 37679920.000000
119.060400 48201572.000000
120.057500 271040.600000
123.080400 238903.600000
155.016100 84602040.000000
172.042500 185060.500000
187.042400 241819.100000
200.074000 7357983.000000

