>compound SM63963934
>parentmass 218.0845
>ionization [M+H]+
>formula C9H15NO3S
>rt 351.660000
>profile orbitrap
#smiles_iso C[C@H](CS)C(=O)N1CCC[C@H]1C(=O)O
#smiles_can CC(CS)C(=O)N1CCCC1C(=O)O
#inchikey FAKRSMQSSFJEIM-RQJHMYQMSA-N
#pubchem_id 44093
#mb_accession SM861901

>ms2peaks
70.065200 16540395.000000
75.026300 9400146.000000
95.085500 53190.400000
97.064700 36510.900000
103.021200 201177.700000
109.101100 19142.700000
114.054900 45679.700000
116.070600 17676558.000000
137.095700 20042.700000
155.106500 45508.700000
172.079000 4405647.000000
184.096900 72044.400000
200.073900 717682.400000
218.084500 6912122.500000

