>compound SM63893347
>parentmass 251.0468
>ionization [M+H]+
>formula C12H11O4P
>rt 670.530000
>profile orbitrap
#smiles_iso C1=CC=C(C=C1)OP(=O)(O)OC2=CC=CC=C2
#smiles_can C1=CC=C(C=C1)OP(=O)(O)OC2=CC=CC=C2
#inchikey ASMQGLCHMVWBQR-UHFFFAOYSA-N
#pubchem_id 13282
#mb_accession SM822501,SM881501

>ms2peaks
50.015400 114810.600000
53.038800 1124529.200000
55.018100 58911.300000
60.081000 62468.100000
77.038600 2252634.800000
81.033600 114541.200000
81.069900 48669.000000
94.041300 329157.500000
95.049200 6125177.500000
98.984200 71700.500000
105.044800 1424667.100000
109.064900 62006.000000
129.010100 67121.000000
151.054200 81236.700000
152.062100 2807952.200000
153.069900 3937643.200000
157.005000 300097.800000
168.057100 293103.400000
169.064900 209098.400000
171.080600 205619.600000
175.015600 1767066.900000
179.060500 90371.600000
181.076200 59779.100000
215.025700 422123.900000
233.036400 2884536.500000
251.046900 31278444.000000

>ms2peaks
50.015300 93551.400000
53.038800 1167803.100000
77.038600 2136487.800000
81.033600 138553.600000
94.041300 365483.700000
95.049200 6713321.500000
98.984200 114303.300000
105.044700 1426512.900000
109.064700 65993.700000
129.010000 70208.500000
151.053900 59386.700000
152.062100 2877919.000000
153.069900 4202043.500000
157.004900 263347.200000
168.056900 300612.100000
169.064800 234161.700000
171.080400 253115.400000
175.015500 1990930.600000
179.060300 68074.600000
181.075800 69410.400000
215.025600 410639.000000
233.036300 2950708.000000
251.046800 31530964.000000

