>compound SM63009867
>parentmass 235.1441
>ionization [M+H]+
>formula C13H18N2O2
>rt 608.640000
>profile orbitrap
#smiles_iso C1CCC(CC1)N2C(=O)C3=C(CCC3)NC2=O
#smiles_can C1CCC(CC1)N2C(=O)C3=C(CCC3)NC2=O
#inchikey ZTMKADLOSYKWCA-UHFFFAOYSA-N
#pubchem_id 16559
#mb_accession SM842702

>ms2peaks
55.054400 418783.700000
82.065100 1041752.200000
83.085500 1182503.800000
110.060100 976866.200000
135.055300 1299282.100000
136.039300 2524610.000000
153.065800 112068096.000000
235.144100 12388655.000000

