>compound SM63895213
>parentmass 347.102
>ionization [M+H]+
>formula C12H18N4O6S
>rt 715.320000
>profile orbitrap
#smiles_iso CCCN(CCC)C1=C(C=C(C=C1[N+](=O)[O-])S(=O)(=O)N)[N+](=O)[O-]
#smiles_can CCCN(CCC)C1=C(C=C(C=C1[N+](=O)[O-])S(=O)(=O)N)[N+](=O)[O-]
#inchikey UNAHYJYOSSSJHH-UHFFFAOYSA-N
#pubchem_id 29393
#mb_accession SM846503

>ms2
52.018400 22392.400000
53.002400 20814.200000
56.013300 128523.000000
56.049700 10467.100000
57.033700 61138.400000
58.028900 3338.200000
58.065300 17209.800000
59.049400 12911.800000
60.080900 12570.700000
63.985300 18242.200000
64.018300 7565.200000
65.026100 19055.500000
66.021300 3843.500000
66.033900 5711.500000
68.013200 7458.800000
70.028900 6919.900000
70.065300 3600.800000
77.026100 3224.400000
78.033900 47887.800000
79.029100 23215.500000
79.041800 4819.300000
80.013200 20672.300000
80.036800 3593.600000
80.049500 7210.400000
84.044400 15069.200000
85.088800 3348.400000
91.029100 3839.300000
91.054200 6638.200000
92.013300 4475.800000
92.036900 27298.900000
92.049500 5954.200000
93.021000 6498.800000
93.044800 16896.800000
93.070000 2943.100000
94.028800 7397.200000
94.052600 4432.200000
95.024100 13769.600000
96.008100 4615.500000
102.054900 7152.100000
103.054300 4646.900000
104.024500 4001.700000
104.049400 19445.300000
105.021100 2876.000000
105.044800 32633.400000
105.057200 6415.000000
106.052600 4487.600000
107.024000 7424.600000
108.007900 4139.800000
109.015800 5649.900000
115.054500 4767.000000
117.032100 4890.100000
117.044800 6495.800000
117.057400 70556.700000
118.039700 3179.500000
118.064900 5165.700000
119.024100 36348.300000
120.055700 6063.700000
120.080700 17596.500000
121.039600 23968.200000
122.023900 3152.500000
123.018800 4818.000000
124.026600 3529.900000
125.034300 2958.700000
130.065200 4734.000000
131.024100 3824.700000
131.060300 14104.700000
131.073100 5615.600000
132.018700 3069.400000
132.031700 44083.100000
132.055700 3547.300000
132.080800 51529.500000
133.039700 90984.700000
133.052100 6410.400000
134.035100 3287.400000
134.047500 14991.900000
135.018800 6104.600000
135.042600 5431.100000
136.026800 14797.200000
137.034700 4962.500000
143.059900 4349.700000
144.101900 20522.000000
145.039700 110165.400000
145.076000 19875.100000
145.105200 33361.800000
146.084300 3200.600000
148.014200 20560.500000
148.050500 17877.800000
148.075600 17352.500000
149.022200 6080.700000
149.034700 43950.200000
150.030100 5224.500000
150.042100 3521.800000
151.050000 5325.700000
152.021500 14072.300000
159.055200 6983.000000
160.063600 3964.600000
161.045600 3095.500000
161.070800 39726.900000
163.050300 3834.500000
165.017200 4520.600000
165.029500 7006.400000
166.037100 3180.800000
167.045300 6503.700000
168.016700 5072.300000
170.014400 25880.200000
171.022300 29190.200000
176.081700 3552.100000
177.066000 36604.200000
178.024900 13886.400000
178.073900 15057.400000
179.032500 13628.000000
180.040400 13850.700000
182.019700 16046.600000
182.096200 3179.900000
184.035200 12172.000000
194.018700 3805.000000
196.035300 6577.900000
197.025200 24050.300000
198.014600 408692.100000
201.020600 4946.200000
206.030800 26809.100000
212.012400 39879.100000
213.020400 69377.000000
214.016400 3699.400000
214.028500 11995.500000
217.015100 22239.300000
218.022700 3735.200000
223.041000 4084.400000
224.048900 13087.600000
224.066700 13949.200000
225.057000 26359.200000
227.023600 3068.700000
227.995800 8391.700000
228.007400 115571.700000
229.986600 5966.700000
230.012000 2820.400000
230.023400 13946.000000
231.018300 49369.800000
231.979200 4709.700000
232.002400 56832.900000
238.028000 4379.800000
240.044000 37024.800000
240.061600 288759.700000
241.051300 7334.100000
241.986800 11856.800000
242.010500 39033.800000
243.018400 296100.300000
244.986200 3330.800000
244.997900 29268.300000
245.981700 371355.500000
246.005300 20551.100000
247.013300 352822.800000
255.017900 4167.000000
256.038800 48617.400000
256.055500 6591.400000
259.013300 267804.500000
263.008300 254154.200000
267.122200 4709.200000
269.034100 34488.000000
270.042100 23668.000000
271.049600 62753.600000
271.087400 3689.400000
278.007800 6125.300000
287.044600 158032.500000
288.028700 642758.400000
289.060100 14591.900000
301.060400 124378.100000
305.055200 588422.300000
309.060700 19203.100000
313.097000 26385.900000
329.091800 6736.000000
347.102200 2782456.500000

