>compound SM64183754
>parentmass 253.1659
>ionization [M+H]+
>formula C12H20N4O2
>rt 542.580000
>profile orbitrap
#smiles_iso CN1C(=NC(=O)N(C1=O)C2CCCCC2)N(C)C
#smiles_can CN1C(=NC(=O)N(C1=O)C2CCCCC2)N(C)C
#inchikey CAWXEEYDBZRFPE-UHFFFAOYSA-N
#pubchem_id 39965
#mb_accession SM835601,SM847401

>ms2peaks
55.054400 147885.700000
58.065200 83842.300000
71.060400 13410524.000000
72.044400 424682.100000
83.024000 639613.600000
83.085500 608283.000000
85.076000 8692972.000000
101.034500 1063228.400000
114.066100 955381.000000
128.081800 276555.800000
171.087500 74197560.000000
253.165800 21315524.000000

>ms2peaks
55.054400 604515.000000
71.060400 29710648.000000
72.044400 836326.600000
83.024000 974076.700000
83.085500 1211133.400000
85.076000 19281384.000000
101.034600 1869148.400000
114.066100 1679625.000000
128.082000 563255.900000
171.087600 180969248.000000
253.165900 56957900.000000

