>compound SM64992073
>parentmass 311.0393
>ionization [M+H]+
>formula C14H9ClF2N2O2
>rt 724.440000
>profile orbitrap
#smiles_iso C1=CC(=C(C(=C1)F)C(=O)NC(=O)NC2=CC=C(C=C2)Cl)F
#smiles_can C1=CC(=C(C(=C1)F)C(=O)NC(=O)NC2=CC=C(C=C2)Cl)F
#inchikey QQQYTWIFVNKMRW-UHFFFAOYSA-N
#pubchem_id 37123
#mb_accession SM845803

>ms2
93.057300 32649.500000
113.019800 37221.500000
126.010400 53828.100000
128.026100 198764.400000
140.030600 219804.500000
141.014500 13284306.000000
158.041200 28235388.000000
311.039300 2269448.200000

