>compound SM64336747
>parentmass 321.0192
>ionization [M+H]+
>formula C15H10Cl2N2O2
>rt 624.600000
>profile orbitrap
#smiles_iso C1=CC=C(C(=C1)C2=NC(C(=O)NC3=C2C=C(C=C3)Cl)O)Cl
#smiles_can C1=CC=C(C(=C1)C2=NC(C(=O)NC3=C2C=C(C=C3)Cl)O)Cl
#inchikey DIWRORZWFLOCLC-UHFFFAOYSA-N
#pubchem_id 3958
#mb_accession SM860002

>ms2peaks
93.057300 1074436.200000
128.026200 2185049.800000
130.040000 230003.300000
138.010500 5844770.000000
153.021400 724918.900000
156.021100 294273.000000
163.005700 6730092.500000
166.005300 1043617.900000
177.057800 190161.800000
181.016300 194750.400000
194.083900 1818468.100000
205.076100 764813.700000
214.042100 241790.600000
229.052700 31139828.000000
239.037000 2313120.500000
240.044600 196621.600000
241.029200 442118.600000
248.003000 248309.200000
250.018800 630794.400000
257.047700 544461.800000
263.013600 315213.100000
265.029400 2408221.500000
274.005700 137641.400000
275.013700 106303720.000000
275.998100 517170.200000
291.009000 494715.300000
292.016400 251294.600000
303.008700 33311318.000000
321.019300 69756608.000000

