>compound SM64609084
>parentmass 94.0651
>ionization [M+H]+
>formula C6H7N
>rt 27.660000
>profile orbitrap
#smiles_iso C1=CC=C(C=C1)N
#smiles_can C1=CC=C(C=C1)N
#inchikey PAYRUJLWNCNPSJ-UHFFFAOYSA-N
#pubchem_id 6115
#mb_accession SM806006

>ms2
51.023100 426369.700000
53.038800 3910457.800000
55.018000 192011.800000
67.054300 230614.400000
77.038600 2392186.800000
81.033500 572681.600000
93.057300 655982.700000
94.065100 113483736.000000
105.044700 2787084.000000

