>compound SM65561520
>parentmass 214.0629
>ionization [M+H]+
>formula C10H12ClNO2
>rt 690.360000
>profile orbitrap
#smiles_iso CC(C)OC(=O)NC1=CC(=CC=C1)Cl
#smiles_can CC(C)OC(=O)NC1=CC(=CC=C1)Cl
#inchikey CWJSHJJYOPWUGX-UHFFFAOYSA-N
#pubchem_id 2728
#mb_accession SM845003

>ms2
53.002300 2249.100000
68.024600 13888.000000
69.033600 3511.100000
71.049200 2887.000000
71.060500 33195.400000
72.044500 51831.700000
77.038900 3113.300000
79.054300 4526.500000
81.069900 4377.400000
91.054400 14046.200000
93.057400 4548.300000
94.065200 224170.900000
95.049200 64699.000000
95.085700 4948.800000
96.055700 47692.300000
99.055500 6703.200000
105.044800 3327.900000
106.065200 173403.900000
107.085500 4248.400000
109.064800 5878.700000
109.101400 3601.100000
111.044000 3608.100000
124.087000 120299.800000
126.010600 13715.400000
134.060100 23494.800000
137.095900 3057.800000
154.005500 59416.200000
171.040500 4811.100000

