>compound SM65809454
>parentmass 254.0594
>ionization [M+H]+
>formula C10H11N3O3S
>rt 355.080000
>profile orbitrap
#smiles_iso CC1=CC(=NO1)NS(=O)(=O)C2=CC=C(C=C2)N
#smiles_can CC1=CC(=NO1)NS(=O)(=O)C2=CC=C(C=C2)N
#inchikey JLKIGFTWXXRPMT-UHFFFAOYSA-N
#pubchem_id 5329
#mb_accession SM856302

>ms2peaks
54.034100 61865.000000
55.018000 27570.900000
65.038700 1389862.200000
68.049500 1160704.800000
69.033500 124020.100000
72.044500 146306.600000
78.033800 193812.300000
79.017800 236780.900000
80.049500 444617.500000
92.049400 13215093.000000
93.057300 5276393.500000
94.065100 792903.800000
95.036500 35468.600000
96.044400 174597.900000
97.039700 33880.000000
99.055300 5347773.500000
107.060300 1134192.900000
108.044400 17184886.000000
109.052100 33153.300000
110.060000 1375675.400000
119.060300 77337.800000
120.055500 180552.600000
121.076000 139607.300000
131.060300 199390.200000
132.068100 108077.200000
133.063300 95080.500000
133.076000 78722.500000
143.060300 72498.200000
145.076100 81453.900000
146.071200 1211900.200000
147.079000 4256204.500000
148.086800 916825.100000
156.011300 25397666.000000
160.086900 3602029.800000
161.001400 349788.300000
161.070800 70432.200000
163.086600 40525.400000
172.086800 61743.600000
173.058400 95803.200000
174.022000 204228.900000
174.078700 34366.300000
176.027600 241352.300000
188.081800 3804517.500000
190.097500 1162707.100000
194.038200 890155.600000
254.059300 27393532.000000

