>compound SM66901695
>parentmass 287.0948
>ionization [M+H]+
>formula C13H18O5S
>rt 665.340000
>profile orbitrap
#smiles_iso CCOC1C(C2=C(O1)C=CC(=C2)OS(=O)(=O)C)(C)C
#smiles_can CCOC1C(C2=C(O1)C=CC(=C2)OS(=O)(=O)C)(C)C
#inchikey IRCMYGHHKLLGHV-UHFFFAOYSA-N
#pubchem_id 33360
#mb_accession SM840003

>ms2peaks
55.054400 12086.000000
57.070100 4670.700000
71.049200 14563.500000
77.038700 4157.200000
79.054200 6829.100000
81.069900 16277.300000
82.065200 3449.400000
91.054200 43015.900000
93.069900 53949.200000
95.049100 10882.600000
95.073000 5557.100000
103.054300 33879.400000
103.057300 3922.200000
105.069900 79016.300000
107.049200 14172.500000
109.064700 4610.900000
115.054400 32273.800000
116.061900 3985.200000
117.069800 12222.300000
121.064800 1612615.900000
122.068200 170485.600000
123.044300 3769.900000
123.068500 19507.000000
130.065300 6122.000000
133.064800 117050.300000
134.068300 6740.400000
134.072700 38541.600000
135.071800 3808.800000
135.080500 18639.700000
137.059700 117418.500000
138.063000 11456.000000
139.063800 3901.600000
145.064900 23685.500000
147.043700 10203.200000
147.104400 3222.300000
149.096300 57804.400000
150.010400 5525.800000
153.069800 6766.700000
161.059700 423418.600000
162.063000 17761.400000
162.068200 92800.300000
163.075400 112280.600000
164.026100 55587.200000
164.078900 12970.900000
165.033900 17591.400000
165.046000 3554.100000
165.081600 19722.700000
166.041900 33098.200000
167.085500 3929.200000
168.093400 20208.700000
173.070900 26422.100000
178.041800 49212.400000
179.070200 58952.100000
181.075600 13382.300000
185.119500 5476.100000
241.052500 3595.600000
242.056200 4229.700000
243.058800 32766.600000
261.069500 69606.100000

