>compound SM67799837
>parentmass 175.0502
>ionization [M+H]+
>formula C9H6N2O2
>rt 481.980000
>profile orbitrap
#smiles_iso CC1=C(C=C(C=C1)N=C=O)N=C=O
#smiles_can CC1=C(C=C(C=C1)N=C=O)N=C=O
#inchikey DVKJHBMWWAPEIU-UHFFFAOYSA-N
#pubchem_id 11443
#mb_accession SM832302

>ms2
53.038800 6116.300000
65.038800 4509.500000
77.038700 14877.400000
79.054300 19734.400000
92.049700 29224.000000
95.049200 25359.400000
96.044500 14506.900000
104.049600 199462.000000
105.044700 14209.400000
105.057400 3186.400000
106.028900 57432.500000
107.049200 2949.900000
119.056600 3050.500000
119.060500 54003.500000
120.044500 129796.000000
131.060500 58998.900000
132.044500 284147.600000
133.052300 42242.700000
147.055400 604531.900000
148.039300 15288.800000
158.994800 4091.500000
160.026900 218067.400000
160.050400 19595.200000
161.010100 32936.600000
173.034900 51872.700000
175.050400 1337614.900000

