>compound SM67115840
>parentmass 345.2424
>ionization [M+H]+
>formula C22H32O3
>rt 732.180000
>profile orbitrap
#smiles_iso CC1CC2C(CCC3(C2CCC3(C(=O)C)O)C)C4(C1=CC(=O)CC4)C
#smiles_can CC1CC2C(CCC3(C2CCC3(C(=O)C)O)C)C4(C1=CC(=O)CC4)C
#inchikey FRQMUZJSZHZSGN-UHFFFAOYSA-N
#pubchem_id 541103
#mb_accession SM873901

>ms2peaks
55.018000 285527.400000
55.054400 412595.700000
67.054300 1894711.900000
69.033500 142377.800000
69.070000 880729.600000
77.038700 171688.400000
79.054200 1455671.600000
81.069900 1735839.000000
83.049100 3144332.200000
85.064700 290655.400000
87.044000 424548.800000
91.054200 882107.800000
93.069800 2827761.800000
95.049100 808775.200000
95.085500 3844034.000000
97.064800 48537320.000000
99.080300 365045.500000
105.069800 2476091.500000
107.085500 2378087.000000
109.064700 1337175.800000
109.101100 1119122.200000
111.080500 829248.900000
117.069800 477805.900000
119.085500 2987496.500000
121.064700 544261.900000
121.101200 1852472.000000
123.080400 109552400.000000
125.096200 154274.300000
129.069500 285043.100000
131.085500 1479777.000000
133.101100 2269691.500000
135.080300 1174845.000000
135.116800 861198.200000
137.096000 5774269.500000
143.085400 1178125.200000
145.101100 2918121.800000
147.080300 309562.800000
147.116700 2459613.000000
149.096200 885657.600000
149.132500 542928.200000
151.111700 400014.100000
155.085600 394600.900000
157.101100 1327104.000000
159.116800 1911147.100000
161.096100 770510.800000
161.132400 1743784.000000
163.111700 1610488.200000
163.148100 306965.800000
165.127400 151979.600000
169.101200 744534.700000
171.116700 1840016.800000
173.132400 3378771.500000
175.111800 1243169.000000
175.148100 1898918.800000
177.127300 1647218.000000
183.116800 838298.400000
185.095900 162708.000000
185.132500 1835103.600000
187.111900 728652.600000
187.148000 1665943.200000
189.127300 1509377.800000
189.163700 591506.500000
191.143100 1335402.200000
195.116800 434073.600000
197.132300 1475848.000000
199.148100 1602808.900000
201.163800 433454.000000
203.142800 1057714.600000
203.179500 144110.500000
205.158700 1469308.800000
207.117800 127090.700000
209.132300 421936.100000
211.148200 1127381.100000
213.127100 428225.700000
213.163500 816288.100000
214.135100 995338.800000
215.143100 1804416.200000
217.158900 778209.600000
221.132400 149377.800000
223.147600 364982.500000
225.164000 1081005.200000
227.143100 167002.900000
227.179400 1333656.400000
229.159000 562694.400000
231.174300 517100.700000
235.148400 161301.500000
237.163700 404119.200000
239.142600 821924.000000
239.179400 490865.600000
241.157700 171497.000000
241.195400 128341.900000
243.174300 388554.800000
245.189700 351389.000000
251.179700 1023729.000000
253.158600 286576.200000
255.174100 333989.500000
257.153500 2606349.800000
257.190000 366294.500000
259.205800 302308.500000
265.194900 305468.600000
266.202800 407577.800000
267.174100 284635.300000
267.210600 3423095.000000
269.189700 1021098.200000
271.205600 131349.900000
273.184300 152308.800000
275.164100 1924698.400000
281.227100 162743.200000
283.206100 822620.600000
284.213300 698451.000000
285.221400 2744336.500000
287.200200 248167.700000
291.210900 753098.600000
299.237400 335783.300000
303.231800 354226.400000
309.221300 2805859.000000
327.231900 4376427.500000
345.242400 126418304.000000

