>compound SM68194888
>parentmass 95.0604
>ionization [M+H]+
>formula C5H6N2
>rt 29.280000
>profile orbitrap
#smiles_iso C1=CC=NC(=C1)N
#smiles_can C1=CC=NC(=C1)N
#inchikey ICSNLGPSRYBMBD-UHFFFAOYSA-N
#pubchem_id 10439
#mb_accession SM801201

>ms2
67.054300 367242.800000
78.033800 2376234.000000
95.060300 129766840.000000

