>compound SM69058003
>parentmass 147.0441
>ionization [M+H]+
>formula C9H6O2
>rt 425.700000
>profile orbitrap
#smiles_iso C1=CC=C2C(=C1)C=CC(=O)O2
#smiles_can C1=CC=C2C(=C1)C=CC(=O)O2
#inchikey ZYGHJZDHTFUPRJ-UHFFFAOYSA-N
#pubchem_id 323
#mb_accession SM817901

>ms2peaks
77.038600 114069.800000
91.054200 4807781.000000
95.049100 222711.500000
102.046400 87555.200000
103.054200 15356255.000000
105.044600 65592.400000
119.049200 208139.300000
147.043900 57492340.000000

