>compound SM69171581
>parentmass 496.3997
>ionization [M+H]+
>formula C29H53NO5
>rt 937.620000
>profile orbitrap
#smiles_iso CCCCCCCCCCC[C@@H](C[C@H]1[C@@H](C(=O)O1)CCCCCC)OC(=O)[C@H](CC(C)C)NC=O
#smiles_can CCCCCCCCCCCC(CC1C(C(=O)O1)CCCCCC)OC(=O)C(CC(C)C)NC=O
#inchikey AHLBNYSZXLDEJQ-FWEHEUNISA-N
#pubchem_id 3034010
#mb_accession SM854101

>ms2peaks
55.054500 883554.200000
57.070100 672043.200000
58.028900 68445.200000
67.054300 2258234.500000
69.070000 4354553.500000
71.049300 27346.400000
71.085600 517767.000000
72.044500 88286.200000
79.054300 375177.700000
81.069900 3518488.000000
83.049200 117258.100000
83.085500 1569496.000000
85.064800 37602.500000
85.101200 266120.900000
86.096500 1348530.500000
91.054200 238393.100000
93.069900 483670.900000
95.085500 4225460.500000
97.064900 131858.900000
97.101200 1464032.100000
99.080600 27895.800000
105.069900 312262.200000
107.085600 359816.600000
108.004100 24595.200000
109.064800 649222.200000
109.101200 1988245.000000
111.116900 614564.200000
113.096100 91016.600000
114.091400 4485701.000000
119.085600 220806.500000
121.101300 410245.400000
123.080600 132055.300000
123.116800 931217.200000
125.132300 172161.900000
127.111700 25167.900000
132.101900 860162.300000
133.101200 241115.500000
135.112400 27122.200000
135.116700 223250.500000
137.096000 33283.100000
137.132400 540774.700000
142.086300 1565873.500000
147.117000 52564.200000
149.132400 166021.800000
151.148200 340128.300000
160.096900 4819909.000000
161.132700 107196.300000
163.148200 101961.100000
165.163700 224557.600000
167.143100 180152.000000
175.148400 159592.700000
177.163900 121443.800000
179.143100 731451.300000
179.179500 161174.600000
181.158800 103285.200000
189.164100 217046.000000
191.179400 313678.400000
193.158900 193823.800000
193.195200 1087328.400000
198.209200 21511.800000
203.180000 96311.100000
205.195300 98011.700000
207.174700 89982.000000
207.210900 90013.100000
211.169000 25313.200000
211.205800 154333.200000
217.195000 197558.000000
219.210600 38851.000000
221.190100 111640.200000
223.120600 21988.000000
231.211200 106195.000000
235.205700 109108.500000
238.070400 23448.500000
241.006200 24943.400000
245.226100 26906.900000
246.303700 23889.200000
249.221300 34249.400000
291.304800 889534.900000
295.262600 27557.100000
301.289300 1262735.500000
319.299800 8321038.500000
329.076000 24358.900000
337.310300 2874919.500000
370.295700 40841.800000
409.216000 23284.900000
447.347100 400010.300000
448.350300 137315.600000
468.403700 38733.500000
496.400300 162047.200000

