>compound SM69547427
>parentmass 459.0866
>ionization [M+H]+
>formula C21H16ClFN4O5
>rt 719.880000
>profile orbitrap
#smiles_iso CO/N=C(\C1=CC=CC=C1OC2=C(C(=NC=N2)OC3=CC=CC=C3Cl)F)/C4=NOCCO4
#smiles_can CON=C(C1=CC=CC=C1OC2=C(C(=NC=N2)OC3=CC=CC=C3Cl)F)C4=NOCCO4
#inchikey UFEODZBUAFNAEU-NLRVBDNBSA-N
#pubchem_id 11048796
#mb_accession SM846202

>ms2
63.023100 136105.900000
65.038700 1520976.800000
69.992500 298883.200000
73.019600 114807.400000
73.028500 273522.200000
75.022900 383002.100000
77.038600 408667.500000
78.033800 630851.600000
79.041800 125551.100000
79.054200 90031.500000
80.049500 117443.200000
81.033600 128286.000000
86.023800 308207.100000
86.987700 107371.400000
86.999700 328958.100000
90.033800 2856325.000000
91.019000 69339.000000
91.041800 71459.000000
91.054200 532790.600000
92.025600 118945.200000
92.049600 336645.600000
93.033500 1068290.500000
94.041300 95686.000000
95.049200 846308.300000
96.044300 88058.100000
97.003500 77437.800000
98.999600 458609.900000
102.033700 403592.100000
104.014100 62331.100000
104.049500 1124428.400000
105.033600 345903.000000
105.044800 511906.700000
106.028800 1128166.600000
106.052600 103475.100000
106.065300 63836.800000
107.029200 89095.200000
107.049400 104865.600000
108.044500 224368.900000
110.999800 316676.100000
111.044100 794322.600000
112.007600 131815.000000
113.039800 73906.700000
115.041900 75422.900000
116.037000 95305.500000
117.044800 128717.100000
117.057500 255868.900000
118.028900 102626.000000
118.052500 84306.500000
119.036600 661096.300000
120.044400 4254808.500000
121.039600 115393.600000
122.040100 842558.200000
123.035400 133948.700000
125.015500 68158.500000
125.059800 130769.400000
126.010700 97590.500000
128.002400 376205.400000
129.010000 1774872.900000
129.044800 1550190.200000
130.029000 1423588.400000
130.040000 2062753.200000
130.052400 112031.000000
131.060500 122579.100000
132.024400 78365.500000
132.029100 69839.100000
132.044400 832510.400000
132.055600 224542.000000
133.032400 269955.700000
133.039700 311892.700000
133.052100 68218.500000
134.023900 97477.100000
134.040100 337860.400000
134.047400 97386.400000
134.060100 358892.100000
136.039500 337442.600000
138.010500 9299776.000000
138.994500 662405.100000
139.005700 2784218.000000
140.990200 102272.800000
141.010200 91458.400000
142.040200 264675.000000
143.005900 124013.800000
143.060700 74041.100000
144.031800 575692.800000
144.055700 440050.500000
145.039700 4906326.000000
146.023900 360818.600000
147.035400 210984.600000
147.055300 214044.900000
149.051200 75706.400000
150.035000 4427957.000000
151.005700 400468.500000
154.040100 546512.900000
154.989600 260796.500000
156.001200 108462.400000
157.039800 268241.800000
158.017100 83874.400000
159.035500 337106.300000
160.026900 411067.100000
160.043200 400564.700000
160.050500 289608.200000
161.027700 150029.800000
161.034500 1225984.900000
162.035000 483897.700000
162.042500 637277.800000
162.055100 345307.500000
162.994700 56328.900000
163.005800 704758.400000
163.050100 652861.900000
164.034200 3366507.000000
165.046100 101541.100000
166.005600 333224.400000
167.037400 70911.100000
168.001200 1380878.000000
168.045600 75662.800000
170.035000 999121.300000
173.034500 69702.400000
174.046300 244602.000000
175.030400 1489433.900000
176.038200 1217537.800000
177.022700 71095.500000
177.046000 128047.500000
178.030000 3316814.000000
179.000800 1967780.500000
180.045400 79993.900000
182.035200 60076.300000
182.060800 82371.400000
183.012100 303918.100000
183.996200 1027074.700000
184.050400 78102.300000
185.034300 60651.000000
186.029800 82836.400000
186.046400 225504.100000
187.030500 230107.600000
187.054700 64251.100000
188.038100 26280322.000000
189.045600 374790.600000
190.041200 434842.200000
190.050000 592526.800000
191.025300 596925.300000
195.012200 77688.800000
195.056800 72152.900000
196.050200 75305.900000
198.030300 103340.800000
200.027200 58346.000000
200.038100 64308.400000
201.032800 68360.100000
202.041700 408031.300000
202.052500 58344.000000
203.025400 268432.500000
204.033100 95671.200000
204.056700 103971.900000
204.076800 465381.300000
205.040900 1775172.000000
205.060900 960834.400000
207.125600 54365.400000
211.006900 88411.200000
211.990800 431921.000000
213.033400 108364.000000
214.006800 957181.400000
214.040700 374376.500000
214.061200 402423.600000
215.049400 227424.800000
216.056900 239411.300000
217.040600 71176.600000
218.036200 581754.600000
220.027900 328325.900000
220.052100 91235.700000
221.035700 255406.900000
221.046100 59140.400000
221.999500 54356.200000
223.007100 435779.000000
223.066700 87116.400000
223.991100 381856.100000
225.058500 219261.500000
228.044200 359735.500000
228.055600 70874.800000
229.028000 398693.300000
229.052200 229977.700000
230.036200 2797618.200000
231.020200 1188163.100000
232.052400 379308.000000
232.062500 87748.200000
239.036900 94318.300000
240.043700 280691.000000
241.018200 104844.900000
241.052200 453660.800000
242.060000 500345.300000
243.044200 207238.800000
244.051600 450736.500000
245.022400 66332.100000
245.059700 64098.200000
246.031000 2398507.500000
247.051500 79503.300000
248.061700 65902.200000
250.018400 101052.000000
251.061400 351420.800000
252.068900 247658.900000
255.031700 478885.800000
256.039100 57646.200000
257.046900 443333.600000
260.058400 82546.700000
261.068000 103766.000000
262.054200 123140.100000
264.032300 110643.800000
266.013000 1223945.500000
267.032300 243736.800000
271.062700 66504.600000
272.034600 79763.900000
274.062400 828786.100000
277.064700 333154.200000
278.071700 520232.900000
279.019800 66144.500000
279.057100 300702.500000
280.064600 408107.500000
281.067200 76015.900000
286.061300 70695.400000
290.057800 251394.300000
294.066900 59202.000000
299.057100 123144.400000
300.065600 122266.600000
301.072400 129140.900000
304.052100 297475.300000
304.075400 131784.500000
306.067400 6322662.500000
308.023100 246035.600000
312.034100 68657.800000
313.041600 194757.100000
313.072200 81118.800000
315.033200 1835809.000000
318.067300 564876.200000
320.022500 131400.400000
321.054900 99185.000000
321.077800 67604.300000
327.045300 83343.700000
331.062800 562798.200000
339.044200 262104.600000
340.028800 1686729.500000
340.049200 113087.000000
341.037600 77357.100000
342.044100 905342.400000
343.040000 106982.400000
347.032700 78840.600000
349.049100 60076.600000
355.039300 130351.600000
358.039000 241424.700000
367.039700 2874404.200000
368.024400 83969.900000
369.055500 97480.500000
383.034400 2279758.000000
385.050500 437023.700000
391.083500 95365.500000
397.050700 265385.800000
427.060800 45666784.000000
428.066000 83302.200000
459.086900 37330512.000000

