>compound SM69717016
>parentmass 232.0524
>ionization [M+H]+
>formula C13H10ClNO
>rt 749.940000
>profile orbitrap
#smiles_iso C1=CC=C(C(=C1)C=O)NC2=CC=CC=C2Cl
#smiles_can C1=CC=C(C(=C1)C=O)NC2=CC=CC=C2Cl
#inchikey DAAHPDZFLSFYPJ-UHFFFAOYSA-N
#pubchem_id 53423421
#mb_accession SM856602

>ms2
168.081400 47719.600000
178.065100 351636.700000
179.072800 308190.400000
180.080700 1288020.000000
196.075800 236507.600000
197.084300 153289.600000
213.034800 44048.900000
214.041700 37308196.000000
232.052300 1745882.100000

