>compound SM70181702
>parentmass 399.2506
>ionization [M+H]+
>formula C18H39O7P
>rt 807.480000
>profile orbitrap
#smiles_iso CCCCOCCOP(=O)(OCCOCCCC)OCCOCCCC
#smiles_can CCCCOCCOP(=O)(OCCOCCCC)OCCOCCCC
#inchikey WTLBZVNBAKMVDP-UHFFFAOYSA-N
#pubchem_id 6540
#mb_accession SM824402,SM880602

>ms2
53.038800 354568.800000
55.054500 11794731.000000
57.070100 30200104.000000
59.049300 2459467.500000
83.085600 9696224.000000
89.059700 357851.100000
98.984200 9488702.000000
101.096200 11133567.000000
124.999900 2535423.800000
143.010500 4667996.000000
145.122200 107067.000000
199.073100 40107260.000000
224.989500 84620.600000
225.088900 1399492.900000
243.099600 1095716.600000
255.135600 113477.000000
299.162100 59158556.000000
343.189000 382525.700000
373.209800 84720.800000
399.251100 42828000.000000

>ms2
53.038800 600191.800000
55.054400 18882920.000000
57.070100 49134664.000000
59.049300 3910319.500000
83.085500 12139197.000000
89.059800 450968.700000
98.984200 14932583.000000
101.096100 12755618.000000
124.999800 3528435.200000
143.010400 6689065.500000
145.122800 95874.800000
151.015700 102165.700000
169.026000 124308.800000
199.073000 32104290.000000
225.088600 1057697.100000
243.099300 1032410.700000
255.135800 210336.100000
299.161900 46682764.000000
343.188000 176916.200000
399.250800 35219552.000000

