>compound SM70426779
>parentmass 552.1911
>ionization [M+H]+
>formula C27H29N5O6S
>rt 725.340000
>profile orbitrap
#smiles_iso CC(C)(C)C1=CC=C(C=C1)S(=O)(=O)NC2=C(C(=NC(=N2)C3=NC=CC=N3)OCCO)OC4=CC=CC=C4OC
#smiles_can CC(C)(C)C1=CC=C(C=C1)S(=O)(=O)NC2=C(C(=NC(=N2)C3=NC=CC=N3)OCCO)OC4=CC=CC=C4OC
#inchikey GJPICJJJRGTNOD-UHFFFAOYSA-N
#pubchem_id 104865
#mb_accession SM851503

>ms2peaks
51.023200 78166.900000
52.018400 197292.800000
53.038800 305193.100000
57.070100 474338.700000
65.038700 175882.100000
67.054300 492575.700000
69.044800 268686.000000
77.038600 637359.600000
78.046400 225511.900000
79.029300 195578.100000
79.054300 218863.100000
80.013100 1351404.200000
80.036900 2713577.500000
81.044700 627109.400000
91.054200 2298760.800000
93.069900 353944.800000
94.041200 76870.000000
95.049200 6595855.000000
97.039600 5773802.500000
104.049400 82018.600000
105.044700 524197.600000
105.057200 263206.900000
105.069900 2363605.500000
106.039900 14188219.000000
107.047800 556412.500000
108.057000 2560366.000000
109.052200 961323.800000
109.064700 207929.500000
112.026700 500819.100000
117.057300 255219.200000
118.041400 93879.800000
118.052500 251347.400000
118.077700 97201.200000
119.047800 85596.800000
119.060400 596060.000000
120.044400 1736203.100000
121.028400 186742.900000
121.064800 1304430.900000
122.058700 4748789.500000
123.044000 2770651.200000
123.066500 7595768.500000
124.050500 4496932.000000
125.034700 417295.200000
131.060400 445470.000000
131.085500 323198.500000
132.044400 321977.800000
132.068100 1349639.100000
133.052200 2148654.500000
133.101300 281321.600000
134.035000 87134.400000
134.059800 1264330.500000
135.044000 2736492.200000
135.055300 283337.800000
135.066500 1953564.100000
136.074400 223170.000000
143.036200 99454.200000
144.044300 461677.200000
147.055200 2778796.200000
147.066500 4146313.000000
148.061700 324387.700000
148.074300 307387.000000
149.045800 6310405.500000
149.069700 1207416.200000
150.053600 1811473.600000
150.066200 899593.000000
151.111700 837833.500000
159.080500 110354.600000
160.063200 177812.100000
161.046900 201329.000000
161.069800 430777.500000
161.107300 3522381.800000
162.053600 629780.500000
163.050400 92512.100000
163.061700 109692.500000
164.034200 87621.200000
171.054900 207214.400000
172.039400 95617.000000
174.040800 79414.900000
174.077500 326891.500000
175.061400 7512806.500000
175.085200 976244.600000
176.056700 875344.100000
176.069300 269574.200000
177.040700 765754.800000
177.065600 229802.400000
181.068000 233406.100000
185.045800 240480.700000
187.050200 92611.100000
188.056600 108668.900000
189.064600 925064.500000
190.049500 222627.400000
190.072400 875496.500000
191.056600 327136.000000
197.063200 1397333.500000
197.082200 444513.300000
202.072300 74138408.000000
203.056300 1740699.600000
203.080000 3496128.800000
204.051600 753181.600000
204.064200 254332.600000
204.087500 104616.200000
205.059000 718271.800000
220.074000 286505.800000
221.081800 264237.100000
224.092700 611534.500000
225.076800 231355.300000
232.083000 75762.000000
236.093000 193220.900000
237.077100 76585.100000
237.101100 641577.900000
238.085100 84899.800000
239.092500 85322.100000
241.089100 1358994.100000
248.092900 402384.800000
249.077100 89805.200000
251.093100 190894.300000
252.088000 799334.200000
254.103800 255845.700000
255.111500 1319630.900000
264.088000 1506872.500000
265.095800 248585.100000
268.095800 79319.300000
276.065200 404169.600000
276.088000 1580260.400000
279.075200 1080349.500000
280.082900 35048672.000000
282.098600 278184.700000
283.106500 669586.100000
292.083000 673560.900000
293.090400 599543.600000
294.098500 2293824.000000
306.098600 107477.300000
310.093600 855718.900000
311.101300 8212976.500000
312.109000 949415.900000
324.109200 1119602.100000
338.124800 289113.900000
400.144700 370725.900000
508.165600 2845298.500000
552.191400 63008944.000000

