>compound SM70280578
>parentmass 294.1601
>ionization [M+H]+
>formula C18H19N3O
>rt 376.620000
>profile orbitrap
#smiles_iso CC1=NC=CN1CC2CCC3=C(C2=O)C4=CC=CC=C4N3C
#smiles_can CC1=NC=CN1CC2CCC3=C(C2=O)C4=CC=CC=C4N3C
#inchikey FELGMEQIXOGIFQ-UHFFFAOYSA-N
#pubchem_id 4595
#mb_accession SM852501

>ms2
83.060400 1020073.900000
143.072900 280084.600000
143.085600 508041.200000
154.065000 178942.900000
155.073100 256129.500000
167.073000 1104628.000000
168.080800 453624.600000
169.088600 2962864.000000
170.096400 75139992.000000
171.067600 858284.100000
182.096500 3769175.800000
183.104100 189532.300000
184.112100 51024328.000000
212.106900 21813242.000000
294.160000 137951072.000000

