>compound SM71261038
>parentmass 327.0081
>ionization [M+H]+
>formula C9H18Cl3O4P
>rt 683.520000
>profile orbitrap
#smiles_iso CC(CCl)OP(=O)(OC(C)CCl)OC(C)CCl
#smiles_can CC(CCl)OP(=O)(OC(C)CCl)OC(C)CCl
#inchikey KVMPUXDNESXNOH-UHFFFAOYSA-N
#pubchem_id 26176
#mb_accession SM881002

>ms2
77.015300 451955.700000
80.973500 258462.500000
98.984200 104550232.000000
116.994700 297422.400000
131.010300 446653.600000
139.015500 167971.900000
174.992200 20160226.000000
251.000200 14892229.000000
327.008300 3043875.800000

