>compound SM71767952
>parentmass 334.1049
>ionization [M+H]+
>formula C18H14F3NO2
>rt 674.400000
>profile orbitrap
#smiles_iso CNC1=C(C(=O)C(O1)C2=CC=CC=C2)C3=CC(=CC=C3)C(F)(F)F
#smiles_can CNC1=C(C(=O)C(O1)C2=CC=CC=C2)C3=CC(=CC=C3)C(F)(F)F
#inchikey NYRMIJKDBAQCHC-UHFFFAOYSA-N
#pubchem_id 91755
#mb_accession SM843802

>ms2
53.038800 1020031.400000
58.028900 21215622.000000
77.038500 1677682.100000
91.054200 1033501.100000
95.049200 3819202.500000
103.054200 9101756.000000
105.033500 80836840.000000
118.065100 829313.300000
120.080800 18920904.000000
131.049100 7105258.500000
159.041400 525245.700000
171.041500 6397029.500000
173.020900 901694.000000
178.077700 35624876.000000
188.068300 706241.400000
196.068700 1424594.000000
197.021000 3912868.200000
199.036400 3643446.800000
200.068100 719573.900000
207.060500 7002057.500000
209.076200 4389943.500000
210.052400 896289.300000
214.058400 529966.100000
225.015700 6865008.000000
227.066600 31868426.000000
228.063100 2505318.000000
229.082300 2754569.800000
237.071200 2471255.000000
238.046900 1051062.200000
243.026300 2350306.500000
246.065200 1600522.500000
247.072900 168124464.000000
249.088500 2036399.800000
255.061300 853521.100000
255.081000 629605.800000
256.057800 4198822.500000
257.042700 500400.200000
257.077100 5547316.000000
259.073500 968418.600000
262.059800 716880.800000
269.097900 1009319.500000
275.067800 37922488.000000
275.087400 6561772.000000
277.083500 10431531.000000
278.114900 1150707.400000
279.099900 1282158.100000
283.056000 646916.500000
286.103900 1915219.800000
288.099400 4066244.000000
303.062800 36640364.000000
306.110000 27178558.000000
314.098000 1067635.900000
316.094800 3149966.000000
334.104900 433662720.000000

