>compound SM71501957
>parentmass 414.9933
>ionization [M+H]+
>formula C18H14Cl4N2O
>rt 653.100000
>profile orbitrap
#smiles_iso C1=CC(=C(C=C1Cl)Cl)COC(CN2C=CN=C2)C3=C(C=C(C=C3)Cl)Cl
#smiles_can C1=CC(=C(C=C1Cl)Cl)COC(CN2C=CN=C2)C3=C(C=C(C=C3)Cl)Cl
#inchikey BYBLEWFAAKGYCD-UHFFFAOYSA-N
#pubchem_id 4189
#mb_accession SM860201

>ms2peaks
69.044800 7990168.000000
81.044700 205342.800000
82.052600 282100.800000
89.038600 156654.000000
98.999600 163172.400000
122.999600 960875.600000
124.007400 236430.700000
158.976300 132705616.000000
227.013600 2388990.500000
414.993300 77040112.000000

