>compound SM71462251
>parentmass 120.0808
>ionization [M+H]+
>formula C8H9N
>rt 25.440000
>profile orbitrap
#smiles_iso C1CNC2=CC=CC=C21
#smiles_can C1CNC2=CC=CC=C21
#inchikey LPAGFVYQRIESJQ-UHFFFAOYSA-N
#pubchem_id 10328
#mb_accession SM836003

>ms2peaks
77.038300 298480.900000
79.054200 499165.500000
91.054100 646654.900000
93.057200 537712.000000
93.069800 2029545.000000
94.065000 1120723.900000
103.054100 5116646.500000
118.065000 2406960.200000
119.072900 604306.300000
120.080600 294769408.000000

