>compound SM71774360
>parentmass 284.9612
>ionization [M+H]+
>formula C6H12Cl3O4P
>rt 545.580000
>profile orbitrap
#smiles_iso C(CCl)OP(=O)(OCCCl)OCCCl
#smiles_can C(CCl)OP(=O)(OCCCl)OCCCl
#inchikey HQUQLFOMPYWACS-UHFFFAOYSA-N
#pubchem_id 8295
#mb_accession SM825201,SM879001

>ms2peaks
59.049300 251379.500000
62.999800 59680304.000000
80.973500 67051.000000
98.984200 47445280.000000
116.950400 250180.000000
116.994800 160982.500000
124.999900 22257816.000000
131.010700 69812.700000
160.976600 22968818.000000
186.992300 5152115.500000
222.968900 28532460.000000
248.984700 337906.800000
284.961400 39871880.000000

>ms2peaks
59.049300 96679.700000
62.999700 73760288.000000
80.973700 232579.000000
98.984200 61173524.000000
116.950300 218248.200000
116.994700 180813.000000
124.999800 29336842.000000
131.010500 80906.500000
160.976400 33249798.000000
186.992100 7076618.500000
222.968800 37513632.000000
248.984400 394194.200000
284.961200 57804840.000000

