>compound SM72756664
>parentmass 282.1448
>ionization [M+H]+
>formula C13H19N3O4
>rt 825.660000
>profile orbitrap
#smiles_iso CCC(CC)NC1=C(C=C(C(=C1[N+](=O)[O-])C)C)[N+](=O)[O-]
#smiles_can CCC(CC)NC1=C(C=C(C(=C1[N+](=O)[O-])C)C)[N+](=O)[O-]
#inchikey CHIFOSRWCNZCFN-UHFFFAOYSA-N
#pubchem_id 38479
#mb_accession SM843503

>ms2peaks
57.070100 4578.900000
60.081000 32698.200000
66.034000 3096.400000
67.041800 5304.400000
68.049600 3143.200000
69.070100 3204.300000
71.085700 40116.700000
72.089000 12163.100000
73.064900 30006.400000
78.033900 13745.800000
80.049500 15607.000000
81.053000 7338.400000
81.070000 3744.600000
91.041700 43204.100000
91.054300 4675.700000
92.045100 19169.800000
92.049600 6804.300000
95.085600 3724.400000
96.044500 5545.900000
103.041700 5140.800000
104.045100 3257.400000
105.044900 6902.500000
107.060400 4684.900000
108.080900 4030.600000
109.101600 2926.200000
118.052600 20451.000000
119.056000 12778.100000
119.060500 14445.000000
119.085500 3773.800000
120.063900 11745.300000
120.080900 6544.900000
121.039800 2989.500000
131.048300 3628.600000
131.060300 2855.400000
133.088700 6977.900000
134.096400 52877.700000
135.055100 5590.400000
136.058600 3551.100000
145.089100 4425.300000
146.096600 23317.100000
147.055300 7121.400000
148.063100 15173.600000
148.093500 3545.400000
148.112000 4083.300000
149.058700 13434.600000
149.066700 11489.100000
150.062000 5217.900000
150.068200 2848.200000
151.062800 3497.400000
158.096500 11543.600000
159.104400 5468.100000
160.112000 20867.400000
163.050500 3651.300000
176.143500 324637.300000
177.053200 4582.300000
178.060800 5233.200000
179.065100 3369.900000
181.050600 3115.600000
184.052500 13885.900000
187.045400 3648.200000
194.056200 32710.800000
195.052300 3711.900000
195.059600 36704.700000
196.060800 61854.600000
197.068900 17124.600000
202.122300 3185.500000
212.066700 75745.900000
214.071500 556748.600000
238.048000 3740.000000
242.051000 29735.700000
256.058100 5748.300000
269.074300 5338.300000
284.018900 12255.200000
284.053700 13781.700000
284.098800 30734.800000

