>compound SM74248776
>parentmass 221.0961
>ionization [M+H]+
>formula C16H12O
>rt 725.100000
>profile orbitrap
#smiles_iso CC(=O)C1=CC2=CC=CC=C2C3=CC=CC=C31
#smiles_can CC(=O)C1=CC2=CC=CC=C2C3=CC=CC=C31
#inchikey UIFAWZBYTTXSOG-UHFFFAOYSA-N
#pubchem_id 74868
#mb_accession SM817001

>ms2
81.070000 2807.800000
137.059200 3932.400000
178.077200 3257.400000
179.085600 107648.300000
203.085600 24060.300000
221.096200 1926449.000000

