>compound SM74040549
>parentmass 318.013
>ionization [M+H]+
>formula C10H12N3O3PS2
>rt 646.680000
>profile orbitrap
#smiles_iso COP(=S)(OC)SCN1C(=O)C2=CC=CC=C2N=N1
#smiles_can COP(=S)(OC)SCN1C(=O)C2=CC=CC=C2N=N1
#inchikey CJJOSEISRRTUQB-UHFFFAOYSA-N
#pubchem_id 2268
#mb_accession SM847302

>ms2peaks
51.023300 53545.000000
53.038800 329247.100000
62.018700 103170.800000
62.999600 15660.300000
77.038600 528865.600000
78.034000 15130.500000
78.994400 815532.900000
81.033600 27798.700000
93.010000 137853.300000
94.041400 73102.600000
95.049200 1050749.900000
104.049500 1315424.900000
105.033500 1121831.200000
105.044800 352980.700000
109.065100 15395.200000
120.044600 118024.900000
124.982100 1483448.400000
130.040100 206042.700000
132.044400 4382163.500000
135.044100 111817.900000
137.005600 73569.100000
142.992700 6501150.500000
148.021500 111583.200000
150.055100 462002.600000
151.992700 67565.200000
154.008700 17665.900000
157.008400 576270.100000
160.050700 818318.100000
164.070500 130959.300000
167.016200 1071136.400000
167.969800 60022.200000
170.969800 652905.900000
182.993400 308758.500000
260.980500 1608638.800000

