>compound SM74850648
>parentmass 86.0964
>ionization [M+H]+
>formula C5H11N
>rt 23.220000
>profile orbitrap
#smiles_iso C1CCNCC1
#smiles_can C1CCNCC1
#inchikey NQRYJNQNLNOLGT-UHFFFAOYSA-N
#pubchem_id 8082
#mb_accession SM837103

>ms2
67.054200 154857.700000
69.069800 4799086.000000
86.096200 151825584.000000

