>compound SM74876755
>parentmass 360.1565
>ionization [M+H]+
>formula C15H22FN3O6
>rt 575.280000
>profile orbitrap
#smiles_iso CCCCCOC(=O)NC1=NC(=O)N(C=C1F)[C@H]2[C@@H]([C@@H]([C@H](O2)C)O)O
#smiles_can CCCCCOC(=O)NC1=NC(=O)N(C=C1F)C2C(C(C(O2)C)O)O
#inchikey GAGWJHPBXLXJQN-UORFTKCHSA-N
#pubchem_id 60953
#mb_accession SM834302

>ms2peaks
71.085600 437865.900000
113.014600 60903.600000
130.041200 5200825.000000
156.020100 46587.500000
174.031100 5875939.000000
244.109400 7844867.000000
360.157000 51556.800000
372.013600 31230.000000

