>compound SM75179111
>parentmass 515.2442
>ionization [M+H]+
>formula C33H30N4O2
>rt 626.760000
>profile orbitrap
#smiles_iso CCCC1=NC2=C(N1CC3=CC=C(C=C3)C4=CC=CC=C4C(=O)O)C=C(C=C2C)C5=NC6=CC=CC=C6N5C
#smiles_can CCCC1=NC2=C(N1CC3=CC=C(C=C3)C4=CC=CC=C4C(=O)O)C=C(C=C2C)C5=NC6=CC=CC=C6N5C
#inchikey RMMXLENWKUUMAY-UHFFFAOYSA-N
#pubchem_id 65999
#mb_accession SM819101

>ms2peaks
106.065100 126789.500000
133.028400 119371.200000
152.062300 438802.000000
155.085800 438765.600000
165.070000 870865.400000
166.078100 214749.400000
167.085700 325438.800000
183.080600 570928.900000
193.065100 7670036.000000
211.075500 7879185.500000
260.106300 141673.100000
261.113500 1810656.500000
262.121700 819812.900000
274.121600 464089.200000
275.129300 2600890.500000
276.137300 61392472.000000
287.129200 327061.800000
288.137000 621044.400000
289.145100 12149656.000000
302.152700 522254.700000
303.160800 6339538.000000
305.176400 5734004.000000
317.176500 2332382.200000
453.171400 312342.000000
455.186800 637257.000000
467.187200 2672325.000000
471.183400 125297.700000
485.197500 930834.000000
497.234200 22893862.000000
515.244900 98539488.000000

