>compound SM75156909
>parentmass 277.1282
>ionization [M+H]+
>formula C12H20O7
>rt 554.340000
>profile orbitrap
#smiles_iso CCOC(=O)CC(CC(=O)OCC)(C(=O)OCC)O
#smiles_can CCOC(=O)CC(CC(=O)OCC)(C(=O)OCC)O
#inchikey DOOTYTYQINUNNV-UHFFFAOYSA-N
#pubchem_id 6506
#mb_accession SM878101

>ms2peaks
68.997200 2674777.000000
87.007600 896393.600000
101.023400 466186.800000
105.018200 4557394.000000
111.007700 2206162.800000
115.039000 5845899.500000
119.033900 766775.600000
129.018200 8314084.500000
133.049500 12493409.000000
139.002600 4649735.500000
143.033900 85830.800000
147.064900 199236.600000
157.049600 77183992.000000
167.033900 292551.900000
185.044600 989736.200000
189.075700 476963.800000
203.091400 9309384.000000
213.075700 906492.600000
277.128000 92432.200000

