>compound SM76109866
>parentmass 292.0266
>ionization [M+H]+
>formula C8H10ClN5O3S
>rt 223.740000
>profile orbitrap
#smiles_iso CN\1COCN(/C1=N/[N+](=O)[O-])CC2=CN=C(S2)Cl
#smiles_can CN1COCN(C1=N[N+](=O)[O-])CC2=CN=C(S2)Cl
#inchikey NWWZPOKUUAIXIW-DHZHZOJOSA-N
#pubchem_id 5821911
#mb_accession SM847101

>ms2peaks
57.044900 45782.700000
67.041800 47285.700000
69.044800 1023264.900000
70.052700 12830.600000
70.995100 232958.900000
72.068300 11852.100000
81.044800 14701.800000
87.994900 15209.000000
96.055600 13963.700000
98.005900 35786.700000
99.001200 288375.200000
99.055400 38973.200000
100.063200 33053.900000
108.055600 185154.900000
110.071300 13949.800000
112.021500 74191.600000
113.016800 72794.700000
122.071300 1125417.800000
123.079100 123614.900000
125.016800 281783.000000
126.024600 33659.200000
131.966900 7480088.500000
138.012000 175349.800000
139.032400 145456.400000
140.027700 12168.400000
144.064200 11120.500000
144.974600 25539.500000
145.970000 32670.800000
146.977800 32177.200000
147.066500 48252.700000
151.019900 347973.600000
152.027700 1026732.100000
154.043300 75741.000000
155.051100 39659.900000
160.993400 86917.200000
165.023200 32525.000000
165.077100 32989.900000
172.980900 39862.300000
174.972800 330742.900000
179.038600 52222.400000
180.046400 911073.200000
181.054200 4280246.500000
185.988700 28854.900000
186.996800 30875.900000
199.064900 181625.100000
210.057000 1708893.900000
211.064800 10035472.000000
215.015500 76869.700000
216.023200 16285.600000
245.025900 105992.600000
246.033800 484863.100000
248.025200 106219.300000
262.016600 14761.300000
292.026600 626029.400000

