>compound SM76753930
>parentmass 282.0481
>ionization [M+H]+
>formula C11H17Cl2NOS
>rt 808.500000
>profile orbitrap
#smiles_iso CCCCCCCCN1C(=O)C(=C(S1)Cl)Cl
#smiles_can CCCCCCCCN1C(=O)C(=C(S1)Cl)Cl
#inchikey PORQOHRXAJJKGK-UHFFFAOYSA-N
#pubchem_id 91688
#mb_accession SM883402

>ms2peaks
53.002400 308342.700000
55.054400 215212.700000
57.070100 22402594.000000
69.070000 227991.300000
71.085600 23764184.000000
126.916900 510914.400000
134.954000 703752.100000
151.912300 358097.300000
169.922800 94766344.000000
282.048200 51421056.000000

