>compound SM76913539
>parentmass 195.0804
>ionization [M+H]+
>formula C14H10O
>rt 680.460000
>profile orbitrap
#smiles_iso C1C2=CC=CC=C2C(=O)C3=CC=CC=C31
#smiles_can C1C2=CC=CC=C2C(=O)C3=CC=CC=C31
#inchikey RJGDLRCDCYRQOQ-UHFFFAOYSA-N
#pubchem_id 7018
#mb_accession SM802903

>ms2
55.054400 69531.900000
57.070000 198430.600000
69.069900 497465.700000
71.085600 164784.800000
83.085500 96540.500000
89.059800 15629.600000
133.028300 26717.200000
135.044100 25294.400000
152.061900 86356.600000
165.069600 111554.700000
166.077600 40170.600000
167.085500 218818.600000
176.061900 44895.000000
177.069900 1073472.400000
178.077700 266014.000000
181.064600 323571.200000
194.072700 483693.200000
195.080500 11990888.000000
205.076100 48160.300000

