>compound SM77109970
>parentmass 187.0754
>ionization [M+H]+
>formula C12H10O2
>rt 560.400000
>profile orbitrap
#smiles_iso C1=CC(=CC(=C1)O)C2=CC(=CC=C2)O
#smiles_can C1=CC(=CC(=C1)O)C2=CC(=CC=C2)O
#inchikey VZQSBJKDSWXLKX-UHFFFAOYSA-N
#pubchem_id 69165
#mb_accession SM835001

>ms2
68.997100 724304.200000
85.028400 1847412.600000
91.054200 2098347.500000
103.054200 2099303.500000
105.033500 1831440.400000
129.033500 594420.200000
131.085400 959690.700000
141.069900 756455.800000
144.057000 731389.600000
187.075300 524160224.000000

