>compound SM77641833
>parentmass 138.055
>ionization [M+H]+
>formula C7H7NO2
>rt 150.390000
>profile orbitrap
#smiles_iso C1=CC=C(C(=C1)C(=O)O)N
#smiles_can C1=CC=C(C(=C1)C(=O)O)N
#inchikey RWZYAGGXGHYGMB-UHFFFAOYSA-N
#pubchem_id 227
#mb_accession SM800901,SM884401

>ms2
65.038600 209370.000000
92.049500 2220422.800000
120.044400 36310664.000000
138.055000 592653.200000

>ms2
65.038600 444354.900000
92.049500 4360259.000000
120.044400 67985392.000000
138.054900 958598.100000

