>compound SM78439292
>parentmass 362.1154
>ionization [M+H]+
>formula C19H20ClNO4
>rt 687.300000
>profile orbitrap
#smiles_iso CC(C)(C(=O)O)OC1=CC=C(C=C1)CCNC(=O)C2=CC=C(C=C2)Cl
#smiles_can CC(C)(C(=O)O)OC1=CC=C(C=C1)CCNC(=O)C2=CC=C(C=C2)Cl
#inchikey IIBYAHWJQTYFKB-UHFFFAOYSA-N
#pubchem_id 39042
#mb_accession SM854802

>ms2
59.049300 1768813.100000
69.033500 1020993.600000
75.023100 119585.500000
77.038700 188005.100000
86.999600 224197.900000
87.044000 1965699.900000
91.054100 1020027.100000
93.033400 144951.100000
93.069800 2351575.000000
95.049100 332978.300000
103.054200 1194394.500000
105.044600 115019.700000
105.069800 248894.400000
107.049000 291682.500000
110.999300 335369.800000
119.049100 170932.000000
119.085500 730442.500000
120.056900 669640.700000
121.064700 39269272.000000
129.010100 643324.900000
133.064600 495340.400000
133.101100 181805.800000
138.994400 71861808.000000
143.085500 166502.400000
146.072500 138325.100000
156.021100 226298.700000
161.096000 8455784.000000
171.080200 287140.900000
178.122500 266127.100000
182.036600 280354.300000
189.090900 839554.400000
207.101600 1351518.800000
276.078500 15753066.000000
299.083600 149739.400000
316.109800 27848706.000000
326.094100 214107.900000
344.104700 2485956.500000
362.115200 20178416.000000

