>compound SM78371290
>parentmass 362.2115
>ionization [M+H]+
>formula C24H27NO2
>rt 869.700000
>profile orbitrap
#smiles_iso CCCCC(CC)COC(=O)C(=C(C1=CC=CC=C1)C2=CC=CC=C2)C#N
#smiles_can CCCCC(CC)COC(=O)C(=C(C1=CC=CC=C1)C2=CC=CC=C2)C#N
#inchikey FMJSMJQBSVNSBF-UHFFFAOYSA-N
#pubchem_id 22571
#mb_accession SM814103

>ms2peaks
53.038800 27471.000000
57.070000 566333.100000
68.997200 29500.900000
71.085600 661419.300000
95.049200 69496.900000
104.049400 169804.400000
105.033500 2428747.800000
113.132500 15338.200000
128.049400 27832.600000
129.033500 108794.400000
147.044000 125531.500000
153.069900 32429.100000
154.028400 14415.500000
157.028400 156405.200000
165.069600 25887.500000
167.085500 12310.300000
175.039000 96423.400000
176.061800 101602.900000
177.069800 425089.300000
178.077500 79735.900000
179.085400 60287.900000
181.065300 25789.100000
182.096300 141215.100000
183.080400 45285.400000
195.080800 74651.400000
203.072900 459534.600000
204.080800 2564356.000000
205.076000 126720.300000
206.096500 156119.400000
207.080300 70928.800000
222.091400 123620.500000
232.075700 9349009.000000
236.106900 54310.000000
250.086300 10475952.000000
264.102100 139448.800000
282.112400 74470.800000
362.211200 16032.300000

