>compound SM79209106
>parentmass 494.1511
>ionization [M+H]+
>formula C23H28ClN3O5S
>rt 734.460000
>profile orbitrap
#smiles_iso COC1=C(C=C(C=C1)Cl)C(=O)NCCC2=CC=C(C=C2)S(=O)(=O)NC(=O)NC3CCCCC3
#smiles_can COC1=C(C=C(C=C1)Cl)C(=O)NCCC2=CC=C(C=C2)S(=O)(=O)NC(=O)NC3CCCCC3
#inchikey ZNNLBTZKUZBEKO-UHFFFAOYSA-N
#pubchem_id 3488
#mb_accession SM851101

>ms2
53.038800 38327.400000
55.054400 82024.400000
77.038700 79265.400000
79.054300 29735.800000
83.085600 229041.800000
91.054200 141295.300000
95.049100 115103.500000
100.112100 944146.400000
103.054200 512128.400000
105.069900 449198.800000
107.049100 302940.700000
113.015200 226906.400000
119.049200 397442.100000
120.057100 40454.200000
121.064800 212167.300000
125.986600 206452.100000
129.010100 82817.100000
131.060400 473611.300000
134.036100 129398.800000
134.096400 234689.800000
138.023000 97850.600000
139.005600 155202.500000
139.030900 30897.800000
141.010100 114515.800000
153.981500 32821.600000
154.989700 91595.600000
165.070000 40054.900000
166.026000 34019.700000
166.032300 36489.600000
167.016100 548787.800000
168.021000 207521.200000
169.005100 27879938.000000
171.992100 93613.600000
195.080500 109820.700000
196.088500 36296.600000
198.032000 405757.200000
208.088300 124073.300000
209.096200 88054.600000
210.103800 282312.100000
217.041100 65797.400000
224.082900 66871.200000
244.052600 83806.900000
245.036100 66424.600000
245.073500 93256.800000
245.998700 71274.400000
259.052100 1250251.400000
262.063000 313586.400000
271.052200 28346.200000
288.078600 587376.200000
303.065600 38598.300000
304.073600 2927882.200000
352.041600 137838.300000
369.067300 18364930.000000
370.051100 140984.300000
395.046500 1174510.000000
494.152200 231787.800000

