>compound SM79371503
>parentmass 308.1524
>ionization [M+H]+
>formula C16H22ClN3O
>rt 738.060000
>profile orbitrap
#smiles_iso CC(C)(C)C(CCC1=CC=C(C=C1)Cl)(CN2C=NC=N2)O
#smiles_can CC(C)(C)C(CCC1=CC=C(C=C1)Cl)(CN2C=NC=N2)O
#inchikey PXMNMQRDXWABCY-UHFFFAOYSA-N
#pubchem_id 86102
#mb_accession SM842302

>ms2
57.070100 2443147.200000
59.049300 3479367.500000
67.029200 3335523.500000
69.069800 536689.800000
70.040000 313774240.000000
71.085600 375650.200000
78.994400 343948.200000
83.085500 2163527.000000
95.060400 4271407.000000
108.055600 12635908.000000
109.059000 719267.200000
109.076000 1078200.500000
115.054200 1439384.200000
116.062100 1645913.100000
123.091700 566291.200000
125.015200 17653248.000000
130.077800 690154.700000
136.086900 3574114.200000
139.030800 3016854.500000
151.030900 9403078.000000
164.118200 12385477.000000
165.046600 2408336.200000
165.121500 745699.400000
168.112800 331678.500000
179.061500 411759.400000
196.143900 391068.000000
207.089500 628947.900000
308.152300 202175648.000000

