>compound SM80764354
>parentmass 139.0502
>ionization [M+H]+
>formula C6H6N2O2
>rt 83.340000
>profile orbitrap
#smiles_iso COC(=O)C1=NC=CN=C1
#smiles_can COC(=O)C1=NC=CN=C1
#inchikey TWIIRMSFZNYMQE-UHFFFAOYSA-N
#pubchem_id 72662
#mb_accession SM836401

>ms2
52.018300 123253.200000
67.054200 13800.100000
69.033500 53455.900000
69.044700 12448.500000
79.029000 926396.700000
81.033400 71870.700000
81.044600 137553.500000
83.049100 30883.100000
95.049100 34071.800000
97.039500 9755976.000000
99.043800 20260.200000
107.023900 607503.500000
111.044000 15519.500000
111.055200 58358.800000
121.039700 14461.500000
125.034400 9729142.000000
127.038700 31921.400000
139.050000 2942251.000000

