>compound SM80059074
>parentmass 294.2064
>ionization [M+H]+
>formula C17H27NO3
>rt 709.740000
>profile orbitrap
#smiles_iso CCCCCCCCC(=O)NCC1=CC(=C(C=C1)O)OC
#smiles_can CCCCCCCCC(=O)NCC1=CC(=C(C=C1)O)OC
#inchikey RGOVYLWUIBMPGK-UHFFFAOYSA-N
#pubchem_id 2998
#mb_accession SM833501

>ms2peaks
57.070100 218717.900000
71.085700 314259.400000
81.069900 88727.600000
91.054300 52112.700000
94.041400 230725.100000
122.036300 923676.700000
137.059700 30740426.000000
141.127400 666380.400000
158.154100 342466.500000
170.153900 261876.000000
294.206400 505382.600000

