>compound SM80670327
>parentmass 388.1059
>ionization [M+H]+
>formula C19H18ClN3O4
>rt 766.500000
>profile orbitrap
#smiles_iso COC(=O)N(C1=CC=CC=C1COC2=NN(C=C2)C3=CC=C(C=C3)Cl)OC
#smiles_can COC(=O)N(C1=CC=CC=C1COC2=NN(C=C2)C3=CC=C(C=C3)Cl)OC
#inchikey HZRSNVGNWUDEFX-UHFFFAOYSA-N
#pubchem_id 6422843
#mb_accession SM846802

>ms2
65.038800 117051.800000
75.044100 766257.100000
77.038600 175802.900000
78.033900 120020.800000
78.046500 127745.200000
79.054300 508584.500000
89.038400 126489.800000
91.041700 131571.400000
91.054200 2500636.000000
94.041400 389724.500000
95.049100 156274.000000
98.999600 104718.500000
104.049500 4073915.200000
105.057300 12011035.000000
106.065100 2460791.000000
107.049000 162052.800000
107.073000 933504.200000
108.044300 89259.300000
109.064700 847840.600000
116.049500 897048.900000
117.057400 863144.400000
118.065200 3914451.200000
119.036600 6445874.500000
119.073000 325936.700000
120.044400 5242742.500000
121.064900 1638764.200000
123.067900 1402018.500000
126.010500 510341.200000
128.049500 647432.800000
129.010100 164966.500000
129.057200 166145.100000
130.028700 993940.700000
130.065200 108877.400000
132.044400 12055765.000000
133.052200 28891530.000000
134.023500 625915.400000
134.060100 7764725.000000
135.067900 437980.200000
137.059700 176388.600000
137.083500 94327.700000
138.010500 307955.800000
139.005800 538130.100000
144.044700 122766.100000
144.080900 161777.500000
146.060100 2381122.800000
147.031600 107261.100000
148.039300 800119.400000
149.047200 31990146.000000
151.018400 115287.300000
151.063000 725493.700000
156.044400 313277.400000
159.055400 358475.700000
162.055000 16203627.000000
163.062800 74861488.000000
164.070600 38523148.000000
166.086200 1046461.000000
174.055000 919230.900000
179.000900 95026.300000
179.057700 1031514.400000
180.021000 132596.600000
181.015800 89736.700000
185.071100 98228.300000
188.070700 190838.600000
191.081500 426486.100000
193.016200 323809.100000
194.081300 88546712.000000
196.097300 125267.900000
204.080700 169710.000000
207.031400 89227.200000
216.065200 629254.400000
218.083700 907621.600000
219.091200 143261.300000
232.075500 181059.600000
233.094700 427841.100000
234.079500 153901.800000
241.052600 194416.900000
243.079500 887585.900000
253.052800 1726278.800000
261.089900 1737151.600000
267.056000 169782.400000
268.063700 440838.000000
280.063500 499962.300000
281.048000 563802.400000
288.076800 125308.400000
296.058700 23740262.000000
298.074500 413328.100000
299.057700 93574.300000
300.064500 91096.500000
324.053700 4185817.800000
328.084600 463974.300000
356.079900 4942839.000000
357.087000 523836.500000
388.106100 7729760.500000

