>compound SM83447684
>parentmass 280.1121
>ionization [M+H]+
>formula C21H13N
>rt 778.140000
>profile orbitrap
#smiles_iso C1=CC=C2C(=C1)C=CC3=NC4=C(C=C32)C5=CC=CC=C5C=C4
#smiles_can C1=CC=C2C(=C1)C=CC3=NC4=C(C=C32)C5=CC=CC=C5C=C4
#inchikey ANUCHZVCBDOPOX-UHFFFAOYSA-N
#pubchem_id 9177
#mb_accession SM818002,SM830901

>ms2
278.096100 278398.500000
279.104100 601532.600000
280.112000 135579856.000000

>ms2
278.096200 2396208.800000
279.104300 5975319.500000
280.112300 929732032.000000

