>compound SM83526245
>parentmass 302.1387
>ionization [M+H]+
>formula C17H19NO4
>rt 738.060000
>profile orbitrap
#smiles_iso CCOC(=O)NCCOC1=CC=C(C=C1)OC2=CC=CC=C2
#smiles_can CCOC(=O)NCCOC1=CC=C(C=C1)OC2=CC=CC=C2
#inchikey HJUFTIJOISQSKQ-UHFFFAOYSA-N
#pubchem_id 51605
#mb_accession SM846001

>ms2peaks
66.046500 123799.900000
70.028800 1016973.200000
88.039300 49919984.000000
91.054300 64141.400000
94.041400 422804.300000
107.049200 164125.400000
116.070700 24695512.000000
118.041400 146271.400000
119.049300 111034.000000
120.057000 277533.200000
129.069900 166054.800000
134.036200 104726.200000
141.069800 135717.000000
163.062900 331908.200000
167.085500 109404.700000
169.064800 115087.600000
177.070000 51219.300000
183.080800 277099.400000
185.059800 180230.000000
186.067500 326883.500000
187.075600 136400.000000
195.080500 150288.900000
211.075200 367836.600000
213.054600 491379.600000
213.091000 165627.300000
230.117800 57042.900000
238.086300 113960.000000
256.096900 5717609.000000
302.138900 3690388.000000

