>compound SM84355748
>parentmass 150.0913
>ionization [M+H]+
>formula C9H11NO
>rt 251.220000
>profile orbitrap
#smiles_iso CC1=CC=CC=C1NC(=O)C
#smiles_can CC1=CC=CC=C1NC(=O)C
#inchikey BPEXTIMJLDWDTL-UHFFFAOYSA-N
#pubchem_id 8443
#mb_accession SM801601

>ms2peaks
65.038800 70315.600000
91.054100 647150.400000
93.057300 3851480.800000
106.065100 71457.300000
108.080700 70155752.000000
109.064800 1406040.500000
132.080700 649645.400000
150.091300 53707396.000000

