>compound SM84430714
>parentmass 531.156
>ionization [M+H]+
>formula C26H28Cl2N4O4
>rt 560.880000
>profile orbitrap
#smiles_iso CC(=O)N1CCN(CC1)C2=CC=C(C=C2)OC[C@@H]3CO[C@@](O3)(CN4C=CN=C4)C5=C(C=C(C=C5)Cl)Cl
#smiles_can CC(=O)N1CCN(CC1)C2=CC=C(C=C2)OCC3COC(O3)(CN4C=CN=C4)C5=C(C=C(C=C5)Cl)Cl
#inchikey XMAYWYJOQHXEEK-ZEQKJWHPSA-N
#pubchem_id 47576
#mb_accession SM857403

>ms2
54.034000 293356.200000
56.049600 462419.400000
58.065200 79120.500000
68.037000 320176.800000
69.044800 1505884.500000
70.065200 983092.600000
71.060400 1319481.800000
81.044700 5606036.000000
82.052500 18917372.000000
83.060300 505117.400000
86.060000 1104729.000000
107.049100 222630.200000
107.060400 99666.900000
109.075900 85221.200000
112.075700 6248653.000000
113.070700 77607.300000
118.065100 232838.400000
120.044400 889790.800000
120.080800 290841.500000
122.060000 928926.800000
127.050100 372430.300000
129.069600 90600.300000
130.065200 218695.600000
131.049200 90654.400000
131.072900 104482.700000
132.080700 384131.700000
133.064700 78196.000000
134.060000 758331.400000
135.067800 4207889.500000
136.075600 1605172.500000
144.080800 800137.400000
145.064900 122240.800000
145.088700 427633.100000
146.060100 519771.300000
146.096400 1101350.800000
148.075600 3114845.800000
149.015000 100883.900000
150.022900 240246.500000
156.080700 246483.100000
158.096400 344103.800000
158.976300 1516395.100000
160.075700 351428.200000
161.083200 87513.800000
162.091100 220050.800000
163.030800 290704.200000
163.123000 352904.000000
167.025700 384833.900000
167.081600 2420499.000000
169.968500 1066648.500000
172.075600 593923.200000
172.112000 196399.800000
172.955500 1304343.600000
173.083600 91648.000000
174.091400 3092602.000000
176.094500 122577.000000
177.102200 4164105.000000
178.110200 891160.300000
179.025700 103174.800000
184.992000 1139638.900000
185.963400 2864375.500000
186.971000 223593.300000
188.107100 242181.000000
189.138300 451444.400000
190.086700 80994.500000
192.101700 453307.400000
200.107100 453685.600000
202.966100 316492.500000
203.037100 802913.400000
204.102100 298129.400000
205.097100 188450.400000
205.133900 113778.500000
209.036600 631063.000000
215.118000 278118.000000
216.101900 1392623.500000
216.125600 253222.000000
217.133600 3412748.200000
218.117700 98869.000000
219.112800 3848182.800000
220.120600 2695182.000000
233.047800 102749.000000
233.128700 109662.300000
234.112600 682936.400000
235.144200 1343546.800000
238.005800 1034484.400000
239.013600 211773.100000
244.005300 5630364.500000
247.063300 456061.800000
247.144200 118780.700000
255.008600 5494152.000000
259.144000 521180.300000
267.008700 2367156.800000
268.016300 246214.000000
277.154600 118629.500000
281.024500 401394.200000
282.032300 763920.800000
311.035000 618653.400000
378.065600 371993.700000
420.076500 296021.800000
421.107900 539655.000000
446.103100 522241.000000
489.145700 7537039.000000
531.156300 77386720.000000

