>compound SM85703131
>parentmass 471.1735
>ionization [M+H]+
>formula C20H22N8O6
>rt 442.680000
>profile orbitrap
#smiles_iso CN(CC1=NC2=C(N=C(N=C2NC1=O)N)N)C3=CC=C(C=C3)C(=O)NC(CCC(=O)O)C(=O)O
#smiles_can CN(CC1=NC2=C(N=C(N=C2NC1=O)N)N)C3=CC=C(C=C3)C(=O)NC(CCC(=O)O)C(=O)O
#inchikey HODZDDDNGRLGSI-UHFFFAOYSA-N
#pubchem_id 5385077
#mb_accession SM850501

>ms2
106.040000 126139.900000
118.065100 28713.100000
121.050800 129532.700000
122.046200 10910.200000
134.060000 599815.700000
146.060000 14797.300000
148.061700 1839042.900000
149.045900 45794.200000
158.060000 14150.700000
163.072600 168617.000000
165.052000 13585.200000
174.041000 13227.800000
186.055300 14259.000000
191.067600 10404274.000000
210.077800 11672.400000
254.103600 12694.200000
265.083200 54523.400000
268.130300 16437.300000
279.099000 16306.100000
280.094100 210112.600000
281.102100 71521.100000
282.098400 15074.400000
293.077600 10975.500000
296.125700 59391.300000
298.141300 159704.800000
324.120500 5532983.500000
471.174600 12853.700000

