>compound SM86066390
>parentmass 345.1153
>ionization [M+H]+
>formula C22H17ClN2
>rt 585.900000
>profile orbitrap
#smiles_iso C1=CC=C(C=C1)C(C2=CC=CC=C2)(C3=CC=CC=C3Cl)N4C=CN=C4
#smiles_can C1=CC=C(C=C1)C(C2=CC=CC=C2)(C3=CC=CC=C3Cl)N4C=CN=C4
#inchikey VNFPBHJOKIVQEB-UHFFFAOYSA-N
#pubchem_id 2812
#mb_accession SM854903

>ms2
77.002400 7317.300000
165.070000 257992.100000
199.030900 36301.300000
231.091800 76213.600000
232.099200 61503.700000
233.107400 32354.200000
241.101400 43626.600000
242.109400 56024.200000
277.078200 438524.400000
345.115400 130847.300000

