>compound SM86329235
>parentmass 191.0451
>ionization [M+H]+
>formula C9H6N2O3
>rt 393.300000
>profile orbitrap
#smiles_iso C1=CC=C2C(=C1)C(=CC=[N+]2[O-])[N+](=O)[O-]
#smiles_can C1=CC=C2C(=C1)C(=CC=[N+]2[O-])[N+](=O)[O-]
#inchikey YHQDZJICGQWFHK-UHFFFAOYSA-N
#pubchem_id 5955
#mb_accession SM829401

>ms2
53.038800 73443.100000
66.046500 74963.800000
77.038600 179494.300000
89.038500 100651.700000
90.046400 621124.300000
91.041700 592918.800000
93.057100 79588.200000
94.041300 39218.500000
95.049200 430746.700000
101.038900 53423.700000
104.049500 1224584.800000
105.033600 58852.800000
105.044800 119202.500000
105.057400 167380.000000
109.052400 39626.700000
116.049500 2245603.200000
117.057300 369939.400000
119.036600 36558.900000
120.044500 68990.300000
121.052200 47095.400000
128.049500 3254929.500000
132.044400 1525787.900000
133.052200 302759.200000
134.023800 79487.000000
144.044400 1078801.600000
145.052200 12010581.000000
148.039200 49985.700000
149.047200 1538652.600000
160.039300 330164.500000
161.047100 9279911.000000
162.018600 1224775.400000
176.034300 42839.000000
177.042100 3884253.500000
180.029200 1063695.400000
191.045100 23546920.000000

