>compound SM87967841
>parentmass 85.0509
>ionization [M+H]+
>formula C2H4N4
>rt 24.060000
>profile orbitrap
#smiles_iso C1=NNC(=N1)N
#smiles_can C1=NNC(=N1)N
#inchikey KLSJWNVTNUYHDU-UHFFFAOYSA-N
#pubchem_id 1639
#mb_accession SM810703

>ms2
57.044900 5695655.500000
58.040100 1949813.600000
85.050800 176740944.000000

