>compound SM87454464
>parentmass 489.0435
>ionization [M+H]+
>formula C21H11ClF6N2O3
>rt 849.240000
>profile orbitrap
#smiles_iso C1=CC(=C(C(=C1)F)C(=O)NC(=O)NC2=C(C=C(C=C2)OC3=C(C=C(C=C3)C(F)(F)F)Cl)F)F
#smiles_can C1=CC(=C(C(=C1)F)C(=O)NC(=O)NC2=C(C=C(C=C2)OC3=C(C=C(C=C3)C(F)(F)F)Cl)F)F
#inchikey RYLHNOVXKPXDIP-UHFFFAOYSA-N
#pubchem_id 91766
#mb_accession SM848701

>ms2
63.023200 66345.200000
111.047900 239956.700000
113.019700 65374.100000
140.030600 395527.000000
141.014600 17981164.000000
158.041200 27228146.000000
286.024400 42593.800000
306.030400 695729.400000
489.043900 2545921.500000

