>compound SM87983016
>parentmass 114.0662
>ionization [M+H]+
>formula C4H7N3O
>rt 24.720000
>profile orbitrap
#smiles_iso CN1CC(=O)N=C1N
#smiles_can CN1CC(=O)N=C1N
#inchikey DDRJAANPRJIHGJ-UHFFFAOYSA-N
#pubchem_id 588
#mb_accession SM868004

>ms2
57.057500 160462.500000
58.065300 4760539.500000
70.065300 149661.500000
72.044500 776245.800000
86.071300 4838806.000000
114.066200 67953792.000000

