>compound SM87837182
>parentmass 304.0091
>ionization [M+H]+
>formula C10H16Cl3NOS
>rt 826.440000
>profile orbitrap
#smiles_iso CC(C)N(C(C)C)C(=O)SCC(=C(Cl)Cl)Cl
#smiles_can CC(C)N(C(C)C)C(=O)SCC(=C(Cl)Cl)Cl
#inchikey MWBPRDONLNQCFV-UHFFFAOYSA-N
#pubchem_id 5543
#mb_accession SM848803

>ms2peaks
53.002400 26902.300000
58.065300 104201.100000
78.940400 19371.800000
80.956100 9864.100000
82.945000 645350.800000
86.060000 4217617.000000
96.960700 70253.300000
104.956000 36993.400000
111.116800 25353.000000
118.032000 54537.200000
128.107000 1452791.500000
140.932600 871229.600000
142.921600 6139770.500000
160.079100 58826.000000
176.909300 93565.600000
201.904500 31756.000000
218.956000 21215.800000
219.915300 33392.700000
261.962200 713472.700000
304.009100 9212548.000000

