>compound SM87837459
>parentmass 198.1349
>ionization [M+H]+
>formula C8H15N5O
>rt 128.280000
>profile orbitrap
#smiles_iso CCNC1=NC(=O)NC(=N1)NC(C)C
#smiles_can CCNC1=NC(=O)NC(=N1)NC(C)C
#inchikey NFMIMWNQWAWNDW-UHFFFAOYSA-N
#pubchem_id 135398733
#mb_accession SM844101

>ms2peaks
69.008400 373773.100000
71.060400 247032.400000
85.050800 36583.300000
86.034900 3047277.500000
96.055500 49343.500000
97.039600 654598.300000
113.082100 110697.200000
114.066200 2432441.200000
128.056700 198656.800000
128.081800 418983.600000
156.088000 9160291.000000
198.134900 22602332.000000

