>compound SM87161498
>parentmass 194.0964
>ionization [M+H]+
>formula C14H11N
>rt 677.880000
>profile orbitrap
#smiles_iso C1=CC=C2C(=C1)C=CC3=CC=CC=C3N2
#smiles_can C1=CC=C2C(=C1)C=CC3=CC=CC=C3N2
#inchikey LCGTWRLJTMHIQZ-UHFFFAOYSA-N
#pubchem_id 9212
#mb_accession SM878003

>ms2
107.073000 2185567.200000
116.049400 548494.400000
121.088400 1206659.600000
122.096400 597349.200000
134.060000 8336349.500000
165.070000 699781.500000
167.085500 1556199.200000
177.069700 1012432.600000
179.073000 5563716.000000
192.080600 676425.400000
193.088800 11850956.000000
194.096500 530985216.000000

