>compound SM88158557
>parentmass 271.1077
>ionization [M+H]+
>formula C15H14N2O3
>rt 482.340000
>profile orbitrap
#smiles_iso C1=CC=C2C(=C1)C(C(C3=CC=CC=C3N2C(=O)N)O)O
#smiles_can C1=CC=C2C(=C1)C(C(C3=CC=CC=C3N2C(=O)N)O)O
#inchikey PRGQOPPDPVELEG-UHFFFAOYSA-N
#pubchem_id 83852
#mb_accession SM858102

>ms2peaks
165.069800 104629.200000
167.073000 479334.800000
179.072600 82567.100000
180.080800 27526884.000000
181.088600 783300.100000
182.096500 6583053.000000
192.080800 189835.200000
193.088700 66613.200000
208.075700 1080071.100000
210.091300 14267887.000000
236.070600 1108034.100000
253.097200 5960241.500000
254.081200 12681379.000000
255.087200 83641.800000
271.107800 200555.800000

