>compound SM88651346
>parentmass 166.0863
>ionization [M+H]+
>formula C9H11NO2
>rt 466.080000
>profile orbitrap
#smiles_iso CCOC(=O)C1=CC=C(C=C1)N
#smiles_can CCOC(=O)C1=CC=C(C=C1)N
#inchikey BLFLLBZGZJTVJG-UHFFFAOYSA-N
#pubchem_id 2337
#mb_accession SM827301,SM862301

>ms2peaks
53.038800 275292.800000
65.038800 265793.800000
77.038600 884384.300000
92.049400 888958.300000
93.057200 746446.100000
94.065100 45617136.000000
95.049100 1462698.000000
105.044600 519428.900000
120.044300 46175100.000000
122.096200 290315.300000
138.054800 97499832.000000
166.086200 15881942.000000

>ms2peaks
53.038800 362785.300000
65.038500 408980.000000
67.054200 160027.400000
77.038500 1189630.200000
92.049400 1160516.800000
93.057300 1017148.000000
94.065100 58986472.000000
95.049100 2178620.500000
105.044700 636989.800000
120.044400 58594304.000000
122.096500 275851.900000
138.054900 120243232.000000
166.086300 18732252.000000

