>compound SM88144124
>parentmass 361.1201
>ionization [M+H]+
>formula C20H21ClO4
>rt 819.420000
>profile orbitrap
#smiles_iso CC(C)OC(=O)C(C)(C)OC1=CC=C(C=C1)C(=O)C2=CC=C(C=C2)Cl
#smiles_can CC(C)OC(=O)C(C)(C)OC1=CC=C(C=C1)C(=O)C2=CC=C(C=C2)Cl
#inchikey YMTINGFKWWXKFG-UHFFFAOYSA-N
#pubchem_id 3339
#mb_accession SM860602

>ms2
59.049300 1588407.400000
65.038700 1048295.100000
75.023100 414482.500000
86.999600 1015966.400000
87.044000 1631832.100000
93.033300 736164.300000
110.999300 1376882.900000
111.044100 1781051.500000
121.028400 110236448.000000
129.010200 3113185.200000
138.994500 241362960.000000
233.036400 177678720.000000
273.067600 1239428.900000
319.073000 1253784.500000
361.120100 69980552.000000

