>compound SM88639490
>parentmass 399.0969
>ionization [M+H]+
>formula C15H18N4O7S
>rt 613.200000
>profile orbitrap
#smiles_iso CCCOC1=NN(C(=O)N1C)C(=O)NS(=O)(=O)C2=CC=CC=C2C(=O)OC
#smiles_can CCCOC1=NN(C(=O)N1C)C(=O)NS(=O)(=O)C2=CC=CC=C2C(=O)OC
#inchikey JTHMVYBOQLDDIY-UHFFFAOYSA-N
#pubchem_id 177355
#mb_accession SM838703

>ms2peaks
53.038800 339647.200000
58.028900 771366.600000
59.024100 84705.200000
71.060500 101369.300000
77.038600 602859.600000
78.984800 186983.000000
79.054200 893141.800000
81.033500 130174.400000
84.044500 21732.400000
90.033800 1209749.400000
92.025600 303801.500000
94.041400 89450.600000
95.049100 1448213.200000
97.010500 21681.500000
99.055300 377898.800000
100.075500 23250.200000
104.025700 38359.700000
105.033500 239450.500000
105.044800 495442.800000
107.049200 198350.200000
114.029800 1063578.400000
116.045500 20875896.000000
118.028800 44014.700000
120.020600 422474.500000
120.044300 87029.500000
121.028400 27249.200000
128.045500 142892.700000
130.040000 211324.000000
130.061100 115812.900000
133.039500 37115.500000
135.044000 9780600.000000
138.031100 299776.900000
141.000200 31281.000000
146.023600 1446515.500000
151.992600 28063.800000
156.076800 461291.700000
158.092400 14034470.000000
168.995400 1210003.000000
172.108200 160431.000000
173.066600 37624.200000
174.051500 37888.700000
178.049600 22678.200000
184.006300 33463.100000
199.006000 21405316.000000
209.985600 5695301.000000
215.113900 282349.700000
217.016200 31671.300000
224.996700 171969.200000
227.996200 92916.800000
231.032400 281732.600000
242.011500 80575.500000
268.002300 31308.400000
282.018000 501301.600000
324.064700 71562.600000
325.023800 1694867.400000
367.070900 5948434.000000
399.097000 113190.000000

