>compound SM89814860
>parentmass 198.0913
>ionization [M+H]+
>formula C13H11NO
>rt 560.040000
>profile orbitrap
#smiles_iso C1=CC=C(C=C1)C(=O)NC2=CC=CC=C2
#smiles_can C1=CC=C(C=C1)C(=O)NC2=CC=CC=C2
#inchikey ZVSKZLHKADLHSD-UHFFFAOYSA-N
#pubchem_id 7168
#mb_accession SM808102

>ms2peaks
53.038800 107382.800000
77.038400 1685229.800000
79.054200 492146.500000
81.033500 153310.900000
92.049400 2326750.000000
94.041200 134187.400000
95.049100 2648883.000000
104.049500 209219.700000
105.033400 106383256.000000
120.044300 11802420.000000
180.080500 468792.100000
198.091200 101898600.000000

