>compound SM89539549
>parentmass 377.0908
>ionization [M+H]+
>formula C19H12F4N2O2
>rt 818.820000
>profile orbitrap
#smiles_iso C1=CC(=CC(=C1)OC2=CC=CC(=N2)C(=O)NC3=CC=C(C=C3)F)C(F)(F)F
#smiles_can C1=CC(=CC(=C1)OC2=CC=CC(=N2)C(=O)NC3=CC=C(C=C3)F)C(F)(F)F
#inchikey CWKFPEBMTGKLKX-UHFFFAOYSA-N
#pubchem_id 3294375
#mb_accession SM843903

>ms2
53.002400 150290.600000
73.008400 487157.300000
101.019700 94486.300000
113.039700 259001.800000
123.035300 326112.800000
141.057400 134282.200000
143.030400 93282.700000
145.025900 1874214.100000
163.036500 468677.200000
173.032200 1944591.500000
183.041600 1019281.300000
188.050700 253135.600000
190.046300 2231897.500000
196.038000 68842.300000
210.052500 2576874.200000
218.041200 770890.800000
236.051800 2403338.000000
238.047400 48883908.000000
243.056600 78480.400000
256.058000 68171888.000000
257.064100 238924.600000
270.073600 2070661.800000
284.053000 7184179.500000
289.077000 573487.000000
298.068800 215608.200000
309.083400 697032.800000
329.090000 410671.700000
337.078500 2252558.000000
357.084600 1827780.600000
359.080300 30883734.000000
377.090900 60300776.000000

