>compound SM91529689
>parentmass 372.2322
>ionization [M+H]+
>formula C26H29NO
>rt 661.080000
>profile orbitrap
#smiles_iso CC/C(=C(\C1=CC=CC=C1)/C2=CC=C(C=C2)OCCN(C)C)/C3=CC=CC=C3
#smiles_can CCC(=C(C1=CC=CC=C1)C2=CC=C(C=C2)OCCN(C)C)C3=CC=CC=C3
#inchikey NKANXQFJJICGDU-QPLCGJKRSA-N
#pubchem_id 2733526
#mb_accession SM861203

>ms2peaks
56.049700 3446019.800000
57.057400 3662548.200000
58.065300 6638387.000000
70.065200 21007508.000000
72.080800 363270560.000000
91.054200 8876492.000000
105.069800 2466350.200000
107.049100 1764359.100000
115.054400 517916.900000
128.061800 917225.800000
129.069900 14853025.000000
167.085600 1059520.400000
178.077700 2263505.000000
179.085400 832085.400000
191.085200 910878.900000
192.093700 449753.500000
193.101400 1140439.800000
194.072900 598890.800000
205.101200 621466.800000
206.109000 698236.700000
207.080600 958153.800000
207.116800 1283772.500000
209.096200 1616634.400000
215.085300 569209.900000
221.095800 635760.600000
249.127500 821670.400000
253.101200 796688.800000
254.108900 463353.800000
283.112100 485616.200000
285.127300 1060077.000000
298.135800 496083.300000
300.151100 812248.600000
327.174300 1349548.800000
372.232200 272386784.000000

