>compound SM92388553
>parentmass 382.1681
>ionization [M+H]+
>formula C22H24ClN3O
>rt 537.180000
>profile orbitrap
#smiles_iso CN1CCCC(CC1)N2C(=O)C3=CC=CC=C3C(=N2)CC4=CC=C(C=C4)Cl
#smiles_can CN1CCCC(CC1)N2C(=O)C3=CC=CC=C3C(=N2)CC4=CC=C(C=C4)Cl
#inchikey MBUVEWMHONZEQD-UHFFFAOYSA-N
#pubchem_id 2267
#mb_accession SM850803

>ms2peaks
55.054400 515193.300000
58.065300 39573348.000000
69.070000 1148930.900000
70.065200 2769030.000000
79.054300 3803807.000000
81.069900 11610097.000000
82.065100 466496.100000
84.080800 9662398.000000
110.096400 996106.900000
112.112100 295460352.000000
125.015200 1041209.200000
159.055300 2065560.500000
271.063200 6192715.000000
309.078700 806144.600000
351.126100 3332576.500000
382.168100 274929120.000000

