>compound SM92321385
>parentmass 474.1734
>ionization [M+H]+
>formula C28H27NO4S
>rt 516.660000
>profile orbitrap
#smiles_iso C1CCN(CC1)CCOC2=CC=C(C=C2)C(=O)C3=C(SC4=C3C=CC(=C4)O)C5=CC=C(C=C5)O
#smiles_can C1CCN(CC1)CCOC2=CC=C(C=C2)C(=O)C3=C(SC4=C3C=CC(=C4)O)C5=CC=C(C=C5)O
#inchikey GZUITABIAKMVPG-UHFFFAOYSA-N
#pubchem_id 5035
#mb_accession SM853603

>ms2
55.054400 2323965.800000
56.049700 5034254.500000
58.065300 3781474.500000
67.054300 571771.200000
69.069900 9864321.000000
70.065200 2597144.500000
82.065100 489665.600000
83.072900 235994.000000
83.085500 391927.700000
84.080800 42880396.000000
85.088600 16116133.000000
86.096400 1453194.500000
97.088600 425535.600000
98.096400 925633.900000
103.017900 634829.500000
110.096400 1661376.100000
112.112100 85918888.000000
121.028500 151270.500000
147.044000 3575008.500000
197.059700 1669368.600000
213.036900 918072.500000
241.031500 346276.200000
269.026700 9361827.000000
305.062200 128477.800000
317.062200 140292.400000
333.058000 124326.900000
345.058300 529146.700000
361.053300 496175.700000
362.060800 717725.600000
389.085300 126820.200000
474.173600 124069936.000000

