>compound SM92279747
>parentmass 112.0557
>ionization [M+H]+
>formula C6H6FN
>rt 27.660000
>profile orbitrap
#smiles_iso C1=CC(=CC=C1N)F
#smiles_can C1=CC(=CC=C1N)F
#inchikey KRZCOLNOCZKSDF-UHFFFAOYSA-N
#pubchem_id 9731
#mb_accession SM805401

>ms2peaks
50.015300 889681.800000
51.023100 960660.600000
65.038600 8450188.000000
71.029200 2403710.800000
75.022800 1312231.600000
79.017800 753906.100000
85.044800 3100261.200000
92.049400 94593360.000000
95.029000 1735875.900000
111.047800 6318299.000000
112.055600 652605504.000000
123.035300 12310561.000000

