>compound SM92301733
>parentmass 147.0804
>ionization [M+H]+
>formula C10H10O
>rt 552.180000
>profile orbitrap
#smiles_iso CC(=O)C=CC1=CC=CC=C1
#smiles_can CC(=O)C=CC1=CC=CC=C1
#inchikey BWHOZHOGCMHOBV-UHFFFAOYSA-N
#pubchem_id 15909
#mb_accession SM817401

>ms2peaks
69.033500 104108.000000
79.054200 31333.200000
91.054200 400334.400000
103.054200 167911.400000
105.033400 27963.200000
105.069800 92191.700000
107.049000 66733.400000
115.054100 18475.200000
117.069900 104869.200000
119.049000 30905.800000
119.085500 359699.800000
127.054300 53439.800000
128.062000 1233843.600000
129.069800 14157658.000000
132.057100 42560.700000
145.064700 139028.500000
147.080300 15707467.000000
155.060300 146826.600000

