>compound SM92121933
>parentmass 95.0604
>ionization [M+H]+
>formula C5H6N2
>rt 56.160000
>profile orbitrap
#smiles_iso CC1=NC=NC=C1
#smiles_can CC1=NC=NC=C1
#inchikey LVILGAOSPDLNRM-UHFFFAOYSA-N
#pubchem_id 18922
#mb_accession SM826401

>ms2
67.054300 132783.500000
68.049500 1091548.500000
78.033800 134597.900000
95.060300 35616760.000000

