>compound SM93929768
>parentmass 221.0961
>ionization [M+H]+
>formula C16H12O
>rt 717.780000
>profile orbitrap
#smiles_iso CC(=O)C1=C2C=CC=CC2=CC3=CC=CC=C31
#smiles_can CC(=O)C1=C2C=CC=CC2=CC3=CC=CC=C31
#inchikey NXXNVJDXUHMAHU-UHFFFAOYSA-N
#pubchem_id 69911
#mb_accession SM802503

>ms2
137.059800 28738.200000
162.055000 15639.000000
177.069500 26880.100000
178.077800 2202764.500000
179.085500 6353115.000000
193.101200 1459820.200000
202.077600 94252.000000
203.085500 493737.400000
205.065100 37011.400000
221.096100 13459760.000000

