>compound SM93583087
>parentmass 322.0663
>ionization [M+H]+
>formula C16H16ClNO2S
>rt 663.900000
>profile orbitrap
#smiles_iso COC(=O)C(C1=CC=CC=C1Cl)N2CCC3=C(C2)C=CS3
#smiles_can COC(=O)C(C1=CC=CC=C1Cl)N2CCC3=C(C2)C=CS3
#inchikey GKTWGGQPFAXNFI-UHFFFAOYSA-N
#pubchem_id 2806
#mb_accession SM853101

>ms2peaks
91.054200 1224158.900000
105.033400 742217.000000
111.026200 1660067.800000
123.026200 307239.800000
125.015200 19793064.000000
125.041600 1011235.900000
138.037400 724965.800000
139.045000 922079.500000
148.051900 566866.800000
152.026100 59985092.000000
154.041800 5549820.500000
155.025800 70739920.000000
183.020800 43090784.000000
184.052400 130980240.000000
201.031200 836406.100000
212.047300 140817360.000000
262.045600 958390.500000
322.066400 192698160.000000

