>compound SM94528939
>parentmass 494.2663
>ionization [M+H]+
>formula C29H31N7O
>rt 466.620000
>profile orbitrap
#smiles_iso CC1=C(C=C(C=C1)NC(=O)C2=CC=C(C=C2)CN3CCN(CC3)C)NC4=NC=CC(=N4)C5=CN=CC=C5
#smiles_can CC1=C(C=C(C=C1)NC(=O)C2=CC=C(C=C2)CN3CCN(CC3)C)NC4=NC=CC(=N4)C5=CN=CC=C5
#inchikey KTUFNOKKBVMGRW-UHFFFAOYSA-N
#pubchem_id 5291
#mb_accession SM852103

>ms2
56.049700 540922.400000
58.065300 1124831.200000
70.065200 1538004.200000
72.080800 186801.400000
78.033800 27272.500000
80.049500 31752.100000
82.065100 23969.200000
83.060400 101009.400000
84.068200 260391.700000
90.046400 57149.800000
91.054200 231492.900000
94.065200 21193.600000
95.049200 19642.700000
97.076000 714515.200000
98.083800 1026691.600000
99.091700 2949192.800000
100.099500 262801.800000
101.107300 34235.000000
104.049500 227599.900000
105.033500 203631.400000
105.044700 172039.200000
109.076000 169309.200000
111.091700 783105.700000
112.099600 180442.000000
115.054100 18665.700000
117.057300 18551.000000
118.041300 215762.800000
119.049100 1171808.200000
121.076000 313587.500000
131.049500 126168.900000
131.060400 1108178.900000
132.044400 102199.300000
132.068200 299323.400000
132.080600 58122.400000
135.091600 115308.900000
146.071200 36546.800000
146.096400 27785.200000
158.060200 219387.700000
158.071500 28956.700000
160.075500 117435.700000
162.091100 30264.500000
167.085100 21585.400000
173.082300 130261.000000
174.066200 72642.300000
174.091200 233692.300000
174.114900 20449.300000
179.085500 72914.400000
185.082300 85138.400000
189.138700 765123.100000
194.096500 605958.600000
195.104500 57470.300000
196.099200 24803.200000
204.080900 130085.200000
206.084000 412856.200000
207.067800 89378.400000
210.091500 20150.600000
210.115300 24455.600000
217.133600 2995585.800000
219.091700 165845.400000
220.075500 71060.900000
220.099700 65901.100000
221.107400 697535.100000
222.091300 4207845.000000
223.099100 820831.900000
224.094900 32772.600000
232.063200 28121.900000
237.102200 83933.100000
237.126500 22986.300000
238.110100 698320.100000
239.117700 33933.900000
246.102400 25221.900000
247.086600 2527518.500000
248.094400 67685.800000
249.089600 70679.300000
249.102300 89542.300000
259.098300 126238.000000
260.105400 73924.300000
261.100800 35191.900000
261.113600 86170.000000
262.133800 26623.600000
263.105600 25569.800000
263.117900 269252.200000
264.113200 1842332.900000
265.097200 1256361.000000
272.118300 28531.400000
273.102300 71013.900000
274.097200 238411.100000
275.105200 37283.400000
276.124700 103384.600000
277.107400 22894.000000
288.112300 25452.200000
290.128900 874975.600000
348.136600 19567.200000
349.145200 81262.000000
350.129200 97241.000000
351.126500 254364.200000
351.162000 451540.900000
361.132700 131330.600000
363.124700 35755.800000
364.119800 38344.400000
364.156400 80613.200000
365.163200 31247.200000
366.171300 420694.800000
367.155400 33072.800000
374.140800 27025.600000
375.146700 19512.500000
376.155900 554255.300000
377.139800 730750.300000
378.135000 2587342.200000
379.142800 1602254.400000
393.158500 22788.900000
394.166400 16375561.000000
396.181400 69370.100000
397.188200 28618.900000
476.256700 387313.700000
494.266500 18027274.000000

