>compound SM94979569
>parentmass 312.0665
>ionization [M+H]+
>formula C14H15Cl2N3O
>rt 714.180000
>profile orbitrap
#smiles_iso C1CC1(C(CC2=CC=CC=C2Cl)(CN3C=NC=N3)O)Cl
#smiles_can C1CC1(C(CC2=CC=CC=C2Cl)(CN3C=NC=N3)O)Cl
#inchikey HHUQPWODPBDTLI-UHFFFAOYSA-N
#pubchem_id 119361
#mb_accession SM843701

>ms2peaks
56.049700 431440.600000
57.033700 255139.100000
65.038600 581617.200000
67.054300 444246.600000
70.040100 131259616.000000
74.999700 486675.800000
83.049100 459762.000000
85.088700 290510.400000
89.015300 301590.800000
101.015300 358346.700000
103.054200 854463.500000
113.015200 512313.600000
115.054300 754203.800000
116.062100 693276.600000
125.015300 42052492.000000
128.061800 452154.100000
129.069800 307218.000000
130.077600 290033.000000
137.015300 284470.100000
139.030900 2725389.200000
141.069800 460959.200000
142.077800 1200474.600000
143.085700 250580.200000
144.093500 445646.900000
149.015400 311804.100000
151.030900 2197333.500000
153.070000 1941204.000000
154.077700 2615726.500000
155.025800 285348.500000
158.976400 599063.400000
163.030700 562821.200000
165.046600 312448.200000
177.046500 902149.000000
179.062000 525376.200000
189.046600 2661562.200000
196.992000 249279.400000
225.023600 231008.800000
269.948600 428297.500000
312.066600 141360816.000000

