>compound SM95071651
>parentmass 197.0608
>ionization [M+H]+
>formula C10H9FO3
>rt 461.940000
>profile orbitrap
#smiles_iso C1=CC(=CC=C1C(=O)CCC(=O)O)F
#smiles_can C1=CC(=CC=C1C(=O)CCC(=O)O)F
#inchikey WUYWHIAAQYQKPP-UHFFFAOYSA-N
#pubchem_id 101359
#mb_accession SM854306

>ms2peaks
55.018000 19618.600000
57.070100 5414.700000
67.054300 28370.400000
69.069900 15261.100000
79.054300 17423.800000
81.069900 41805.300000
83.049200 6607.300000
85.028300 7041.500000
85.064800 16656.700000
91.054000 10275.900000
93.069900 25469.300000
95.029300 17577.800000
95.049100 14738.200000
97.064800 35244.200000
99.044100 5380.200000
103.054300 20247.200000
105.069900 22957.400000
109.044800 15527.700000
109.064800 70828.000000
111.044000 17253.000000
113.039800 6993.700000
113.059700 13666.100000
115.054100 25491.600000
121.044900 67978.200000
121.064600 6686.700000
123.024100 2358520.000000
133.044800 277233.300000
135.060500 106094.200000
137.059700 61678.600000
151.055400 1574278.500000
161.039900 6466.800000
179.050300 4657448.000000
197.060300 12795.000000

