>compound SM95188400
>parentmass 122.06
>ionization [M+H]+
>formula C7H7NO
>rt 105.420000
>profile orbitrap
#smiles_iso C1=CC=C(C=C1)C(=O)N
#smiles_can C1=CC=C(C=C1)C(=O)N
#inchikey KXDAEFPNCMNJSK-UHFFFAOYSA-N
#pubchem_id 2331
#mb_accession SM808001

>ms2
51.023100 57996.900000
53.038800 72325.400000
77.038500 357789.300000
79.054200 14270343.000000
81.033500 36873.800000
94.065100 34142.400000
95.049100 677402.800000
104.049500 88426.800000
105.033500 19760712.000000
122.060000 19761862.000000

