>compound SM96162580
>parentmass 413.1197
>ionization [M+H]+
>formula C21H21ClN4OS
>rt 491.640000
>profile orbitrap
#smiles_iso C1CN(CCN1CCC2=C(C=C3C(=C2)CC(=O)N3)Cl)C4=NSC5=CC=CC=C54
#smiles_can C1CN(CCN1CCC2=C(C=C3C(=C2)CC(=O)N3)Cl)C4=NSC5=CC=CC=C54
#inchikey MVWVFYHBGMAFLY-UHFFFAOYSA-N
#pubchem_id 60854
#mb_accession SM852903

>ms2peaks
103.054100 236738.000000
109.010500 101514.700000
130.065100 1262934.200000
131.073000 1574049.600000
136.021500 580372.200000
139.030900 309869.500000
150.037400 278409.700000
151.031300 313326.900000
158.060100 1365240.400000
159.067900 12369083.000000
166.041800 9942154.000000
177.048100 10394158.000000
194.036800 65251332.000000
201.102100 126967.500000
203.063900 451811.400000
205.079500 700959.100000
217.067100 163217.500000
220.090400 2086562.800000
232.090300 418099.100000
237.078900 772085.200000
411.104000 278927.400000
413.119900 55263604.000000

