>compound SM97707772
>parentmass 154.0499
>ionization [M+H]+
>formula C7H7NO3
>rt 25.680000
>profile orbitrap
#smiles_iso C1=CC(=C(C=C1N)C(=O)O)O
#smiles_can C1=CC(=C(C=C1N)C(=O)O)O
#inchikey KBOPZPXVLCULAV-UHFFFAOYSA-N
#pubchem_id 4075
#mb_accession SM862104

>ms2
55.018000 144099.800000
63.023200 34599.800000
67.054300 346512.200000
72.044400 34866.700000
80.049400 804088.600000
81.033400 29853.300000
91.054200 273627.400000
92.049400 213718.700000
108.044300 5633687.500000
136.039200 26173398.000000
154.049800 19279852.000000

