>compound SM98495371
>parentmass 279.1591
>ionization [M+H]+
>formula C16H22O4
>rt 791.640000
>profile orbitrap
#smiles_iso CCCCOC(=O)C1=CC=CC=C1C(=O)OCCCC
#smiles_can CCCCOC(=O)C1=CC=CC=C1C(=O)OCCCC
#inchikey DOIRQSBPFJWKBE-UHFFFAOYSA-N
#pubchem_id 3026
#mb_accession SM822401

>ms2peaks
57.070100 423217.400000
65.038600 42516.700000
93.033600 20765.700000
121.028500 307957.300000
121.039400 30915.200000
149.023400 15447920.000000
163.039100 370617.300000
167.034000 20562.700000
181.049600 393853.800000
205.086100 513754.700000

