>compound SM99848920
>parentmass 358.0841
>ionization [M+H]+
>formula C19H16ClNO4
>rt 740.820000
>profile orbitrap
#smiles_iso CC1=C(C2=C(N1C(=O)C3=CC=C(C=C3)Cl)C=CC(=C2)OC)CC(=O)O
#smiles_can CC1=C(C2=C(N1C(=O)C3=CC=C(C=C3)Cl)C=CC(=C2)OC)CC(=O)O
#inchikey CGIGDMFJXJATDK-UHFFFAOYSA-N
#pubchem_id 3715
#mb_accession SM861101

>ms2peaks
51.023100 387753.500000
75.022800 311514.900000
79.017800 129007.300000
86.999600 880373.600000
93.033500 440674.800000
110.999500 626014.800000
111.044200 180379.500000
128.002100 166961.300000
129.010100 2663542.200000
131.072700 204711.600000
138.994400 114542224.000000
139.005600 6750428.000000
159.067900 323969.700000
174.091400 9205125.000000
202.086500 179489.800000
220.097000 303839.800000
312.078600 506831.500000
358.084100 18462166.000000

