>compound SM99765741
>parentmass 359.1853
>ionization [M+H]+
>formula C21H26O5
>rt 574.980000
>profile orbitrap
#smiles_iso CC12CC(=O)C3C(C1CCC2(C(=O)CO)O)CCC4=CC(=O)C=CC34C
#smiles_can CC12CC(=O)C3C(C1CCC2(C(=O)CO)O)CCC4=CC(=O)C=CC34C
#inchikey XOFYZVNMUHMLCC-UHFFFAOYSA-N
#pubchem_id 4900
#mb_accession SM874401

>ms2peaks
55.054500 321588.100000
57.033700 80917.800000
65.038800 53119.300000
67.054300 828309.400000
69.033600 592084.400000
69.070000 317009.200000
71.049300 344958.000000
73.064800 201354.500000
75.044100 73886.500000
77.038700 93891.700000
79.054200 1295348.200000
81.033500 204255.800000
81.069900 1573176.900000
83.049200 517908.200000
85.028400 74798.400000
85.064800 200928.300000
91.054200 1330666.600000
93.069900 3313211.800000
95.049200 1677588.800000
95.085600 2378895.200000
97.064900 704318.900000
99.044000 384324.200000
99.080600 67091.800000
101.059700 588829.400000
105.069900 1679462.200000
107.049200 234219.800000
107.085500 2420918.200000
109.064800 2179437.000000
109.101200 438767.800000
111.044100 276931.800000
111.080400 875979.400000
113.059600 102486.800000
115.054500 216364.600000
115.075400 59314.600000
116.062100 49647.700000
117.069900 910843.400000
119.085500 1435172.400000
121.064800 4224571.500000
123.044000 70938.400000
123.080400 1151082.200000
125.059700 200200.900000
125.096100 492854.500000
128.061900 92842.100000
129.069900 364976.900000
131.085500 1073082.900000
132.057100 111384.500000
133.064800 623056.900000
133.101200 240555.700000
135.080400 3727188.500000
137.059700 292848.500000
137.096000 838515.600000
139.075400 654782.800000
141.054700 51944.900000
141.069900 376601.200000
143.085400 472732.800000
144.057100 324987.400000
145.064800 1525263.000000
145.101200 210025.900000
146.072600 609660.100000
147.080400 14199451.000000
149.059600 94065.000000
149.096200 203748.300000
151.075400 213631.400000
152.062300 54418.300000
153.069900 319478.200000
153.091100 974157.600000
155.070100 76500.900000
155.085600 326857.700000
157.064800 95540.800000
157.101200 178274.000000
158.072600 917719.400000
159.080500 5360094.000000
160.088500 252099.400000
161.096100 2621710.200000
163.075400 1013742.900000
165.069900 189728.700000
165.091000 268429.300000
167.070600 57145.900000
167.085500 408583.300000
169.064900 339957.400000
169.076800 49662.500000
169.101300 365253.800000
170.072700 207880.900000
171.080400 8976917.000000
172.088100 236298.500000
173.096200 4165211.500000
175.075600 204405.000000
175.111800 86399.100000
177.091100 423770.600000
178.078200 82008.200000
179.085600 1104570.500000
180.093400 88274.700000
181.064600 238796.700000
181.085700 567740.600000
181.101100 354727.600000
182.072700 498039.800000
183.080500 1139584.800000
183.101800 971364.600000
183.116600 65155.600000
184.088300 262189.100000
185.059700 292667.100000
185.096200 1525260.200000
186.104200 255684.800000
187.075300 1836716.200000
187.111800 1606979.500000
189.091200 711477.100000
191.085500 113497.300000
192.093800 61429.500000
192.122500 50112.400000
193.101000 331488.600000
194.072600 256374.400000
194.108700 80825.200000
195.080500 866210.100000
195.101500 85951.900000
195.116900 233454.600000
196.088300 472490.500000
197.096200 4511094.500000
198.104000 207441.300000
199.111700 2092979.200000
201.091000 110915.100000
201.127300 112315.200000
203.106800 197200.800000
204.093100 217415.400000
205.101400 231076.800000
207.080800 234882.200000
207.117000 399049.700000
208.088300 1102604.200000
209.096100 2578992.500000
209.132800 291535.100000
210.103900 883755.300000
211.111700 2025991.800000
212.119500 541645.300000
213.090700 345972.200000
213.127400 2176608.000000
215.106700 752947.900000
217.101300 83816.500000
218.108900 79865.700000
219.080300 195600.800000
219.117000 446871.500000
220.088200 327741.900000
221.096200 2008991.100000
221.132600 220565.400000
222.104000 2717108.200000
223.111800 2546900.800000
224.082600 64002.800000
224.119400 328633.400000
225.091100 283735.300000
225.127500 2026898.900000
227.106400 553397.300000
227.143100 1277184.000000
228.093500 79028.600000
229.101200 67867.100000
230.109200 114411.600000
231.080500 232275.500000
233.096400 544380.400000
233.132200 71065.100000
234.104000 946531.400000
235.111900 2192823.000000
236.119600 390363.000000
237.127400 7365982.500000
238.098400 450515.200000
238.135200 273509.700000
239.106700 1488712.200000
239.143000 1654670.000000
241.121900 372847.800000
243.116700 109932.000000
243.138700 70677.000000
245.096500 319862.100000
245.132600 203964.600000
246.104200 547041.900000
247.111700 850139.600000
247.148100 98233.200000
248.119700 1223348.100000
249.127500 2206321.000000
250.135100 212533.000000
251.106900 83214.000000
251.143200 927419.800000
252.151200 188692.500000
253.122300 2436736.500000
253.158800 848225.000000
255.138000 1889385.800000
257.096000 194684.500000
258.103900 184318.900000
259.111900 230133.400000
259.147700 73415.400000
260.119500 334537.100000
261.127500 1813445.800000
262.135200 864136.700000
263.106800 220061.000000
263.143200 2985904.800000
264.150700 1058124.000000
265.122600 340960.500000
265.158800 5348037.000000
267.138000 4956547.000000
267.174200 697966.600000
269.153300 74736.300000
272.119400 524321.300000
275.143100 776260.100000
276.113600 83367.900000
277.123700 369431.200000
277.158800 3063466.800000
279.137800 535234.800000
280.146000 100981.700000
281.153700 1179741.400000
283.169700 997777.800000
287.143100 1485574.100000
290.130200 240586.000000
292.145700 448634.900000
293.153700 1447691.100000
295.169500 5818388.500000
297.148600 698005.700000
299.163700 57090.500000
305.153800 3725991.800000
311.163800 976796.500000
313.179900 7316755.500000
323.164300 6895562.000000
341.174900 14594914.000000
359.185400 19480090.000000

