>compound SM99891521
>parentmass 230.2478
>ionization [M+H]+
>formula C14H31NO
>rt 650.880000
>profile orbitrap
#smiles_iso CCCCCCCCCCCC[N+](C)(C)[O-]
#smiles_can CCCCCCCCCCCC[N+](C)(C)[O-]
#inchikey SYELZBGXAIXKHU-UHFFFAOYSA-N
#pubchem_id 15433
#mb_accession SM876801

>ms2
57.070100 14233625.000000
58.065300 245292592.000000
62.060200 30907248.000000
69.070000 957172.400000
71.085600 9189711.000000
83.085500 701718.400000
85.101200 3426840.800000
212.237300 18598900.000000
213.244700 911037.900000
230.247900 484792064.000000

