>compound UT00046524
>parentmass 848.58
>ionization [M+CH3COO]-
>formula C46H80NO7P
>rt 1145.400000
>profile orbitrap
#smiles_iso CCCCCCCCCCCCCC/C=C/OCC(COP(=O)([O-])OCC[N+](C)(C)C)OC(=O)CC/C=C\C/C=C\C/C=C\C/C=C\C/C=C\C/C=C\CC
#smiles_can CCCCCCCCCCCCCCC=COCC(COP(=O)([O-])OCC[N+](C)(C)C)OC(=O)CCC=CCC=CCC=CCC=CCC=CCC=CCC
#inchikey QICWUUGBNFIZAZ-OUHBEAGRSA-N
#pubchem_id 134760912
#mb_accession UT001068,UT001805,UT002538

>ms2
255.040000 8.400000
283.360000 6.100000
302.960000 7.200000
421.110000 11.800000
738.220000 9.700000
758.820000 5.200000
766.350000 10.100000
774.120000 1648.100000
790.060000 10.100000

>ms2
303.210000 7.400000
567.890000 6.300000
585.900000 10.300000
591.840000 4.700000
738.160000 5.800000
738.880000 6.300000
754.630000 4.000000
766.260000 3.500000
774.100000 1589.600000
774.780000 9.400000
789.160000 5.200000

>ms2
327.190000 9.600000
432.270000 11.400000
738.290000 34.900000
761.160000 7.400000
765.850000 44.900000
774.150000 1499.200000
789.560000 15.500000
791.490000 9.100000

