>compound UT05256168
>parentmass 890.59
>ionization [M+CH3COO]-
>formula C48H82NO8P
>rt 969.300000
>profile orbitrap
#smiles_iso CCCCCCCCCCCCC/C=C\CCC(=O)OCC(COP(=O)([O-])OCC[N+](C)(C)C)OC(=O)CC/C=C\C/C=C\C/C=C\C/C=C\C/C=C\C/C=C\CC
#smiles_can CCCCCCCCCCCCCC=CCCC(=O)OCC(COP(=O)([O-])OCC[N+](C)(C)C)OC(=O)CCC=CCC=CCC=CCC=CCC=CCC=CCC
#inchikey SXQSZXLPXRGKHG-SUMKQPSKSA-N
#pubchem_id 134768487
#mb_accession UT001051,UT001322,UT001788,UT002063,UT002521,UT002791

>ms2
327.170000 40.700000
511.880000 6.300000
772.080000 9.700000
816.150000 4387.100000
830.890000 55.400000

>ms2
808.010000 10.300000
816.090000 934.900000
816.770000 14.600000

>ms2
283.290000 13.300000
292.980000 11.400000
327.310000 7.900000
744.740000 6.300000
816.160000 3358.600000
830.990000 34.500000

>ms2
283.060000 9.500000
297.040000 7.300000
586.840000 8.700000
815.510000 112.800000
816.180000 738.800000

>ms2
281.460000 4.100000
283.100000 17.600000
326.540000 6.300000
327.530000 10.300000
506.050000 9.200000
745.090000 4.700000
816.110000 4409.600000
816.850000 9.000000
830.880000 29.800000

>ms2
283.280000 8.400000
327.110000 24.700000
505.950000 9.000000
816.050000 952.300000
816.730000 22.400000
890.870000 31.000000

