>compound UT07514481
>parentmass 750.5416666666666
>ionization [M-H]-
>formula C43H78NO7P
>rt 1644.400000
>profile orbitrap
#smiles_iso CCCCCCCCCCCCCC/C=C/OCC(COP(=O)(O)OCCN)OC(=O)CC/C=C\C/C=C\C/C=C\C/C=C\CCCCCCCC
#smiles_can CCCCCCCCCCCCCCC=COCC(COP(=O)(O)OCCN)OC(=O)CCC=CCC=CCC=CCC=CCCCCCCCC
#inchikey RKVZUTPSIGLURV-BLAGHTKOSA-N
#pubchem_id 134764153
#mb_accession UT001163,UT001410,UT001904,UT002150,UT002637,UT002879

>ms2peaks
255.150000 16.800000
258.790000 6.600000
287.170000 48.300000
303.130000 49.700000
304.040000 9.400000
305.270000 8.300000
329.130000 13.900000
331.140000 1561.700000
332.250000 169.500000
375.180000 13.200000
380.690000 6.600000
418.110000 26.000000
419.230000 26.900000
436.050000 535.200000
437.250000 78.700000

>ms2peaks
233.060000 138.900000
239.200000 95.000000
259.410000 13.800000
287.240000 1585.300000
288.120000 139.100000
296.270000 40.900000
305.150000 325.000000
313.190000 162.600000
313.850000 62.000000
315.480000 32.800000
329.120000 152.100000
331.110000 34134.200000
332.180000 2209.600000
375.050000 46.100000
418.110000 1641.300000
419.130000 125.500000
436.070000 9918.000000
437.240000 729.900000
462.040000 189.100000

>ms2peaks
233.090000 8.300000
234.240000 16.300000
239.030000 26.100000
287.290000 59.500000
288.340000 15.200000
303.330000 59.600000
328.900000 10.300000
331.180000 1824.000000
332.140000 383.300000
332.790000 11.900000
375.100000 25.100000
418.220000 92.900000
419.400000 57.600000
436.090000 635.700000
437.030000 55.100000
464.410000 42.400000
573.600000 8.200000
658.860000 8.200000
718.630000 38.500000

>ms2peaks
233.180000 333.600000
234.290000 14.200000
239.200000 39.400000
245.150000 19.000000
247.080000 36.600000
259.200000 28.300000
261.160000 12.900000
274.690000 9.900000
283.380000 23.300000
287.060000 1162.200000
287.720000 47.000000
305.200000 337.500000
306.380000 23.200000
313.470000 43.900000
315.200000 12.200000
329.210000 89.200000
331.090000 29927.700000
332.170000 1755.600000
375.210000 146.100000
417.610000 81.800000
418.210000 943.900000
419.330000 163.200000
436.130000 7480.600000
437.140000 372.100000
443.810000 20.900000
462.220000 70.800000
463.160000 26.600000
463.890000 24.100000
689.800000 8.900000

>ms2peaks
287.030000 48.500000
301.110000 8.700000
302.970000 46.300000
304.910000 15.900000
313.200000 9.100000
331.110000 1931.600000
332.130000 218.100000
332.790000 25.200000
418.180000 70.100000
419.290000 7.400000
436.140000 584.800000
437.250000 41.400000
446.230000 10.200000
464.310000 21.000000

>ms2peaks
233.160000 146.400000
234.930000 16.500000
239.160000 53.100000
240.130000 11.300000
245.110000 8.700000
253.140000 32.100000
283.030000 11.300000
287.220000 1152.400000
303.380000 12.600000
305.240000 470.800000
306.240000 65.900000
313.100000 87.300000
314.480000 19.100000
315.200000 12.600000
329.110000 185.200000
331.150000 27741.300000
332.050000 2641.600000
332.680000 20.400000
375.150000 158.200000
418.160000 958.300000
419.310000 68.400000
436.090000 6714.200000
436.980000 542.000000
437.680000 7.500000
443.870000 20.400000
445.790000 76.000000
462.190000 96.100000
463.140000 49.400000
510.240000 27.500000
645.650000 27.700000

