>compound UT08005498
>parentmass 820.61
>ionization [M+CH3COO]-
>formula C42H84NO8P
>rt 2155.800000
>profile orbitrap
#smiles_iso CCCCCCCCCCCCCCCCCC(=O)OC(COC(=O)CCCCCCCCCCCCCCC)COP(=O)([O-])OCC[N+](C)(C)C
#smiles_can CCCCCCCCCCCCCCCCCC(=O)OC(COC(=O)CCCCCCCCCCCCCCC)COP(=O)([O-])OCC[N+](C)(C)C
#inchikey PZNPLUBHRSSFHT-UHFFFAOYSA-N
#pubchem_id 10147142
#mb_accession UT001290,UT002031,UT002759

>ms2peaks
255.190000 767.000000
283.030000 320.100000
418.830000 123.400000
507.980000 113.500000
675.390000 338.200000
746.150000 210252.500000
746.850000 586.000000
754.410000 57.000000
761.190000 1019.100000

>ms2peaks
254.960000 14.700000
259.240000 8.400000
283.140000 24.200000
285.210000 4.800000
358.220000 12.100000
404.240000 9.000000
405.240000 6.600000
743.900000 11.000000
744.760000 25.700000
746.100000 4382.000000
747.130000 102.800000
759.680000 7.800000
783.540000 5.400000

>ms2peaks
255.260000 895.100000
283.130000 890.900000
508.050000 526.500000
549.980000 104.300000
675.380000 250.700000
746.130000 247460.000000
746.920000 108.800000
761.070000 1230.900000

