>compound UT08313939
>parentmass 804.61
>ionization [M+CH3COO]-
>formula C42H84NO7P
>rt 1866.200000
>profile orbitrap
#smiles_iso CCCCCCCCCCCCCCCCOCC(COP(=O)([O-])OCC[N+](C)(C)C)OC(=O)CC/C=C\CCCCCCCCCCCCC
#smiles_can CCCCCCCCCCCCCCCCOCC(COP(=O)([O-])OCC[N+](C)(C)C)OC(=O)CCC=CCCCCCCCCCCCCC
#inchikey KFLBTRVMABAQOU-YCNYHXFESA-N
#pubchem_id 134743552
#mb_accession UT001334,UT002074,UT002803

>ms2
255.080000 43.300000
281.460000 9.800000
282.940000 21.400000
403.100000 13.400000
548.480000 11.200000
730.210000 9573.400000
730.960000 44.700000
743.360000 12.000000

>ms2
255.000000 27.800000
281.220000 18.600000
297.470000 8.800000
330.110000 36.300000
466.550000 13.900000
494.100000 6.500000
567.140000 2.600000
675.560000 4.800000
685.410000 5.000000
702.780000 5.500000
730.200000 6020.000000
730.960000 24.800000
744.450000 29.100000
745.160000 38.100000
773.320000 22.200000
783.440000 14.000000
803.620000 15.700000

>ms2
281.210000 52.000000
466.160000 5.900000
477.100000 5.900000
490.260000 8.700000
543.820000 9.300000
702.460000 16.100000
730.220000 7221.300000
731.200000 63.600000
744.080000 6.400000
745.120000 22.700000
769.320000 17.100000

