>compound UT10170079
>parentmass 859.69
>ionization [M+CH3COO]-
>formula C46H93N2O6P
>rt 2787.400000
>profile orbitrap
#smiles_iso CCCCCCCCCCCCCCCCCCCCCCC(=O)N[C@H](COP(=O)([O-])OCC[N+](C)(C)C)[C@H](/C=C/CCCCCCCCCCCCC)O
#smiles_can CCCCCCCCCCCCCCCCCCCCCCC(=O)NC(COP(=O)([O-])OCC[N+](C)(C)C)C(C=CCCCCCCCCCCCCC)O
#inchikey SXZWBNWTCVLZJN-ZIHSGIAZSA-N
#pubchem_id 134768520
#mb_accession UT001272,UT002013,UT002743

>ms2peaks
259.850000 10.300000
594.170000 6.000000
740.400000 5.200000
772.990000 8.800000
785.350000 9557.900000
786.260000 3.400000
800.390000 60.000000

>ms2peaks
598.070000 10.000000
740.340000 16.700000
772.380000 15.500000
785.410000 8873.000000
800.190000 46.100000

>ms2peaks
498.060000 20.400000
502.800000 9.100000
761.120000 8.000000
785.330000 8401.200000
786.090000 18.000000
799.930000 11.400000

