>compound UT11148252
>parentmass 857.6733333333333
>ionization [M+CH3COO]-
>formula C46H91N2O6P
>rt 2587.800000
>profile orbitrap
#smiles_iso CCCCCCCCCCCCCCCCCCCCCCC(=O)N[C@H](COP(=O)([O-])OCC[N+](C)(C)C)[C@H](/C=C/CC/C=C/CCCCCCCCC)O
#smiles_can CCCCCCCCCCCCCCCCCCCCCCC(=O)NC(COP(=O)([O-])OCC[N+](C)(C)C)C(C=CCCC=CCCCCCCCCC)O
#inchikey PENYJGUXTJATDH-FKOSZORSSA-N
#pubchem_id 134757653
#mb_accession UT001278,UT002020,UT002748

>ms2peaks
279.960000 4.900000
282.870000 13.900000
284.370000 7.800000
324.130000 19.700000
327.140000 16.200000
419.200000 16.200000
480.030000 10.000000
546.230000 20.600000
548.360000 34.000000
592.360000 3.800000
596.240000 17.700000
652.240000 7.500000
737.370000 14.500000
770.340000 24.700000
772.250000 17.800000
775.460000 36.000000
783.380000 392.200000
793.760000 26.400000
797.610000 20.800000
813.500000 34.300000
840.100000 16.200000
842.060000 28.500000

>ms2peaks
283.120000 9.100000
309.280000 27.800000
743.890000 8.900000
772.920000 7.300000
775.780000 7.300000
783.320000 777.400000
783.930000 5.700000
797.200000 4.500000
825.310000 18.000000

>ms2peaks
283.180000 27.700000
284.080000 37.300000
327.210000 18.700000
419.210000 17.600000
531.310000 5.100000
547.130000 21.000000
568.470000 5.400000
590.940000 13.000000
710.220000 13.000000
772.280000 13.700000
775.180000 35.900000
783.410000 476.000000
796.950000 36.000000
797.660000 44.600000
798.440000 11.900000
800.230000 11.900000
813.170000 6.500000
858.990000 7.000000

