>compound UT13517352
>parentmass 840.5775
>ionization [M+CH3COO]-
>formula C44H80NO8P
>rt 1101.600000
>profile orbitrap
#smiles_iso CCCCCCCCCCCCCCCC(=O)OCC(COP(=O)([O-])OCC[N+](C)(C)C)OC(=O)CC/C=C\C/C=C\C/C=C\C/C=C\CCCCCC
#smiles_can CCCCCCCCCCCCCCCC(=O)OCC(COP(=O)([O-])OCC[N+](C)(C)C)OC(=O)CCC=CCC=CCC=CCC=CCCCCCC
#inchikey YRCYEVIWNSLKRF-RZUUUYDYSA-N
#pubchem_id 134782330
#mb_accession UT001018,UT001295,UT002036,UT002764

>ms2
255.220000 63.800000
285.190000 40.400000
303.080000 2038.900000
438.920000 54.300000
456.910000 174.100000
479.920000 397.300000
695.040000 178.400000
721.370000 250.100000
766.230000 180023.800000
781.120000 1486.600000

>ms2
255.260000 119.300000
303.030000 431.600000
329.170000 19.000000
480.120000 257.400000
510.080000 19.000000
528.220000 36.300000
695.300000 29.300000
721.110000 30.500000
766.080000 64646.400000
766.770000 304.500000
780.510000 122.100000
781.230000 74.100000

>ms2
254.790000 19.200000
303.120000 486.100000
479.700000 36.000000
480.510000 67.100000
530.180000 41.200000
584.130000 55.700000
766.130000 76200.200000
766.840000 120.100000
780.460000 74.500000
781.080000 380.400000

>ms2
255.290000 100.500000
285.260000 20.800000
303.130000 417.500000
391.210000 25.900000
462.280000 26.000000
480.180000 55.400000
695.460000 32.900000
720.820000 35.900000
721.520000 32.900000
766.110000 84949.600000
766.840000 169.600000
781.060000 496.400000
790.320000 38.000000

