>compound UT14683441
>parentmass 500.2799999999999
>ionization [M-H]-
>formula C25H44NO7P
>rt 114.400000
>profile orbitrap
#smiles_iso CCCCCC/C=C\C/C=C\C/C=C\C/C=C\CCC(=O)OC(CO)COP(=O)(O)OCCN
#smiles_can CCCCCCC=CCC=CCC=CCC=CCCC(=O)OC(CO)COP(=O)(O)OCCN
#inchikey SOFGMCJQWLTKCE-ZKWNWVNESA-N
#pubchem_id 134767365
#mb_accession UT001198,UT001459,UT001940,UT002199,UT002672,UT002927

>ms2
177.200000 21.200000
196.010000 15.900000
205.090000 86.100000
213.990000 239.600000
257.390000 10.600000
259.190000 651.900000
267.080000 5.600000
284.820000 3.900000
300.580000 11.800000
303.060000 12423.600000
303.860000 62.700000
321.740000 6.100000
358.930000 37.700000
383.050000 25.200000
384.860000 7.200000
417.880000 16.700000
428.140000 7.800000

>ms2
195.920000 56.200000
205.130000 103.800000
212.950000 4.500000
213.850000 236.600000
259.180000 580.700000
260.360000 22.500000
266.980000 5.700000
285.210000 3.900000
301.090000 10.200000
303.030000 10265.600000
304.180000 161.000000
349.950000 10.800000
359.000000 58.300000
382.460000 16.200000
401.220000 4.500000
402.570000 5.800000
425.200000 6.000000
438.540000 19.300000

>ms2
163.000000 6.800000
195.880000 24.000000
205.100000 196.400000
213.920000 540.800000
224.960000 15.000000
229.840000 4.500000
249.030000 6.400000
258.950000 828.500000
285.240000 15.100000
301.430000 26.100000
303.000000 15245.300000
304.030000 92.800000
357.150000 20.200000
358.790000 73.500000
396.230000 7.400000
401.630000 6.700000

>ms2
162.950000 12.200000
178.940000 8.700000
205.020000 141.600000
214.000000 219.200000
259.140000 871.600000
275.380000 10.100000
285.130000 41.800000
301.140000 6.500000
303.060000 10331.000000
304.120000 65.200000
358.000000 11.500000
358.630000 36.800000
359.300000 13.800000
418.900000 5.500000
438.100000 6.500000
452.860000 4.800000
469.080000 14.200000
473.080000 5.900000
486.120000 18.400000
514.610000 6.500000

>ms2
152.680000 37.500000
168.870000 8.200000
179.020000 19.000000
190.850000 7.100000
195.960000 17.300000
205.140000 125.500000
213.910000 373.200000
225.150000 10.500000
227.910000 7.100000
259.100000 895.900000
260.270000 6.000000
285.310000 13.700000
301.300000 14.500000
303.050000 15226.800000
303.720000 44.100000
321.640000 6.200000
358.860000 17.200000
381.030000 6.500000
401.750000 6.800000
416.370000 16.800000
438.470000 10.500000

>ms2
152.890000 29.000000
173.000000 9.000000
191.130000 5.400000
195.850000 60.600000
204.880000 53.300000
213.860000 303.200000
259.090000 476.200000
285.090000 26.500000
300.820000 31.000000
302.990000 10318.900000
304.050000 79.300000
358.610000 88.300000
379.000000 9.400000
402.970000 16.400000
422.070000 12.600000
426.130000 20.600000
456.360000 4.800000
486.020000 7.100000
501.550000 4.300000

