>compound UT15514615
>parentmass 476.28
>ionization [M-H]-
>formula C23H44NO7P
>rt 119.600000
>profile orbitrap
#smiles_iso CCCCCCCCCC/C=C\C/C=C\CCC(=O)OC(CO)COP(=O)(O)OCCN
#smiles_can CCCCCCCCCCC=CCC=CCCC(=O)OC(CO)COP(=O)(O)OCCN
#inchikey DTTGTTCKWRAIFM-HDXUUTQWSA-N
#pubchem_id 134728005
#mb_accession UT001194,UT001936,UT002668

>ms2
152.880000 16.200000
196.250000 20.500000
213.910000 159.900000
226.940000 7.800000
279.030000 9279.100000
279.670000 13.800000
334.820000 6.600000
393.790000 6.600000

>ms2
152.710000 3.900000
196.110000 19.900000
204.060000 5.000000
213.960000 136.600000
261.320000 5.100000
279.050000 11340.600000
279.820000 43.300000
334.860000 11.400000
402.880000 15.200000

>ms2
139.520000 14.100000
195.850000 6.500000
213.920000 160.500000
279.060000 11135.700000
279.690000 39.700000
303.200000 4.200000
344.250000 6.500000
380.070000 18.400000
387.750000 18.700000
392.590000 12.200000
394.270000 36.000000
415.130000 15.100000
415.750000 4.900000

