>compound UT15244392
>parentmass 862.56
>ionization [M+CH3COO]-
>formula C46H78NO8P
>rt 612.400000
>profile orbitrap
#smiles_iso CCCCCCCCCC/C=C\C/C=C\CCC(=O)OCC(COP(=O)([O-])OCC[N+](C)(C)C)OC(=O)CC/C=C\C/C=C\C/C=C\C/C=C\C/C=C\CCC
#smiles_can CCCCCCCCCCC=CCC=CCCC(=O)OCC(COP(=O)([O-])OCC[N+](C)(C)C)OC(=O)CCC=CCC=CCC=CCC=CCC=CCCC
#inchikey XAYMJCDXSDRVCT-KHVPVUJCSA-N
#pubchem_id 134777845
#mb_accession UT001053,UT001790,UT002523

>ms2peaks
256.720000 9.800000
301.110000 50.600000
327.220000 9.800000
414.900000 13.200000
453.280000 7.000000
504.080000 21.300000
660.870000 7.600000
776.640000 6.400000
788.060000 5082.900000
794.100000 6.900000
803.130000 55.600000
816.580000 8.100000
830.540000 16.000000

>ms2peaks
300.990000 5.500000
303.320000 33.600000
327.370000 9.000000
536.740000 13.000000
788.090000 4898.000000
795.450000 15.200000
802.490000 6.600000
803.120000 11.800000

>ms2peaks
279.250000 6.200000
301.040000 11.600000
327.050000 9.400000
502.430000 17.500000
552.350000 21.300000
742.770000 8.300000
780.110000 21.300000
788.090000 4684.300000
788.760000 27.000000
802.360000 8.900000
803.330000 17.400000
804.310000 15.000000

