>compound UT16946767
>parentmass 540.37
>ionization [M+CH3COO]-
>formula C24H52NO6P
>rt 196.800000
>profile orbitrap
#smiles_iso CCCCCCCCCCCCCCCCOC(CO)COP(=O)([O-])OCC[N+](C)(C)C
#smiles_can CCCCCCCCCCCCCCCCOC(CO)COP(=O)([O-])OCC[N+](C)(C)C
#inchikey RKKJZVVEVRCBJA-UHFFFAOYSA-N
#pubchem_id 24802196
#mb_accession UT001096

>ms2
294.990000 7.700000
308.800000 7.100000
441.920000 8.800000
442.760000 9.400000
457.330000 11.100000
458.880000 6.500000
465.720000 45.300000
466.350000 1390.000000
479.160000 9.900000
480.060000 11.400000
480.800000 14.900000
482.050000 17.900000

