>compound UT18023781
>parentmass 814.5583333333333
>ionization [M+CH3COO]-
>formula C42H78NO8P
>rt 971.800000
>profile orbitrap
#smiles_iso CCCCCCCCCCCCCCCC(=O)OCC(COP(=O)([O-])OCC[N+](C)(C)C)OC(=O)CC/C=C\C/C=C\C/C=C\CCCCCCC
#smiles_can CCCCCCCCCCCCCCCC(=O)OCC(COP(=O)([O-])OCC[N+](C)(C)C)OC(=O)CCC=CCC=CCC=CCCCCCCC
#inchikey LTFQLMSVQQIRBG-YOKRUPNWSA-N
#pubchem_id 134747905
#mb_accession UT001016,UT001293,UT001752,UT002034,UT002488,UT002762

>ms2peaks
255.110000 7.000000
277.250000 92.600000
279.250000 9.300000
331.070000 22.200000
391.110000 7.400000
413.140000 28.900000
480.250000 13.100000
503.950000 9.100000
740.220000 10024.600000
741.340000 23.900000
754.420000 49.300000
755.250000 71.900000

>ms2peaks
356.110000 17.400000
628.610000 12.500000
643.320000 8.100000
669.330000 7.400000
727.400000 5.200000
732.250000 9.400000
740.180000 413.100000
740.930000 20.000000
763.950000 22.500000

>ms2peaks
255.250000 53.100000
277.100000 206.000000
304.110000 21.300000
331.450000 12.000000
391.140000 27.300000
479.970000 38.200000
528.200000 8.800000
669.270000 9.100000
694.960000 20.400000
740.100000 33823.500000
740.770000 172.500000
754.290000 19.500000
754.940000 176.300000

>ms2peaks
249.060000 14.300000
331.430000 7.300000
352.820000 14.600000
487.080000 18.500000
504.390000 14.600000
566.870000 9.700000
710.420000 5.700000
714.220000 15.200000
733.170000 21.900000
740.210000 323.300000
764.070000 7.900000
765.110000 17.700000
795.330000 7.400000

>ms2peaks
255.140000 59.000000
277.160000 127.300000
301.080000 13.300000
668.960000 14.300000
695.120000 38.000000
740.130000 14511.700000
740.770000 75.000000
754.620000 80.100000
755.240000 41.500000

>ms2peaks
259.080000 37.700000
303.030000 113.400000
304.080000 48.300000
307.010000 6.800000
309.380000 7.900000
331.170000 71.400000
332.170000 7.400000
527.930000 50.100000
728.100000 6.200000
739.950000 238.700000
751.110000 9.000000

