>compound UT18103458
>parentmass 576.33
>ionization [M+CH3COO]-
>formula C26H48NO7P
>rt 104.600000
>profile orbitrap
#smiles_iso CCCCCCC/C=C\C/C=C\C/C=C\CCC(=O)OC(CO)COP(=O)([O-])OCC[N+](C)(C)C
#smiles_can CCCCCCCC=CCC=CCC=CCCC(=O)OC(CO)COP(=O)([O-])OCC[N+](C)(C)C
#inchikey JPMIFOSJPGRLCB-IHDWIWDKSA-N
#pubchem_id 134741825
#mb_accession UT001086,UT001825,UT002557

>ms2
187.110000 6.100000
435.140000 15.700000
461.170000 21.100000
489.120000 15.700000
501.520000 48.000000
502.180000 704.300000
532.600000 12.300000
550.450000 11.700000
557.010000 7.200000

>ms2
433.790000 10.800000
434.920000 6.800000
477.620000 8.400000
478.240000 9.600000
493.430000 10.700000
494.150000 14.600000
502.090000 777.400000
515.880000 9.000000
516.790000 12.000000

>ms2
420.390000 9.900000
450.700000 13.400000
454.950000 7.600000
492.580000 17.000000
494.130000 13.500000
502.060000 703.100000
516.150000 7.100000
520.930000 5.400000
533.060000 5.900000
534.620000 7.100000
555.980000 5.400000
576.130000 9.400000
577.030000 19.100000

