>compound UT19398960
>parentmass 870.62
>ionization [M+CH3COO]-
>formula C46H86NO8P
>rt 1761.900000
>profile orbitrap
#smiles_iso CCCCCCCCCCCCCCCCCC(=O)OCC(COP(=O)([O-])OCC[N+](C)(C)C)OC(=O)CC/C=C\C/C=C\C/C=C\CCCCCCCCC
#smiles_can CCCCCCCCCCCCCCCCCC(=O)OCC(COP(=O)([O-])OCC[N+](C)(C)C)OC(=O)CCC=CCC=CCC=CCCCCCCCCC
#inchikey JKGNHUXTJMEAQU-YDXMYUDNSA-N
#pubchem_id 134741245
#mb_accession UT001044,UT001313,UT001781,UT002054,UT002514,UT002782

>ms2peaks
282.940000 32.100000
297.280000 8.400000
419.000000 8.600000
743.260000 6.200000
782.910000 6.700000
796.180000 2451.100000

>ms2peaks
281.090000 9.100000
403.140000 4.700000
530.180000 7.500000
796.130000 463.600000
810.920000 14.400000

>ms2peaks
305.020000 21.200000
436.080000 8.100000
724.630000 4.700000
783.030000 11.500000
795.620000 279.200000
796.250000 2289.800000
811.240000 20.700000

>ms2peaks
282.630000 18.800000
305.370000 7.600000
544.230000 37.900000
589.260000 10.900000
796.160000 262.700000
796.860000 13.600000
804.730000 7.300000

>ms2peaks
287.120000 6.300000
305.000000 25.500000
441.180000 11.900000
788.030000 9.700000
796.260000 3049.400000
811.040000 15.300000
835.220000 5.100000

>ms2peaks
559.770000 13.700000
589.060000 15.200000
726.420000 5.200000
727.330000 15.300000
783.930000 4.600000
796.160000 390.100000
796.930000 9.600000
834.770000 9.700000
853.670000 6.300000

