>compound UT19224527
>parentmass 826.6
>ionization [M+CH3COO]-
>formula C44H82NO7P
>rt 1385.100000
>profile orbitrap
#smiles_iso CCCCCCCCCCCCCCCCOCC(COP(=O)([O-])OCC[N+](C)(C)C)OC(=O)CC/C=C\C/C=C\C/C=C\C/C=C\CCCCCC
#smiles_can CCCCCCCCCCCCCCCCOCC(COP(=O)([O-])OCC[N+](C)(C)C)OC(=O)CCC=CCC=CCC=CCC=CCCCCCC
#inchikey MHOAZZSMGQCHNX-GJWWTBRZSA-N
#pubchem_id 134749483
#mb_accession UT001071,UT001336,UT001809,UT002076,UT002542,UT002805

>ms2
259.120000 7.300000
303.380000 18.000000
516.110000 7.900000
543.690000 8.400000
723.540000 10.700000
752.190000 2443.300000
753.280000 53.100000
767.770000 10.700000

>ms2
418.160000 20.300000
560.120000 7.500000
707.530000 13.500000
750.580000 10.300000
752.100000 1557.500000
753.240000 104.600000
756.320000 9.400000
762.820000 8.000000
766.160000 23.100000
767.370000 27.500000
808.090000 18.400000

>ms2
303.090000 25.600000
357.210000 19.500000
597.860000 9.100000
622.200000 7.500000
653.060000 8.800000
728.210000 35.600000
745.070000 5.700000
747.550000 10.200000
752.150000 2418.500000
753.040000 61.300000
765.830000 16.600000
767.420000 21.100000
768.130000 8.500000
806.280000 13.700000

>ms2
281.060000 21.500000
303.200000 21.700000
418.360000 19.900000
466.180000 20.300000
474.980000 9.000000
563.150000 19.100000
721.770000 21.100000
752.170000 1341.300000
752.930000 34.300000
753.590000 24.800000
762.700000 10.700000
768.240000 11.600000
789.700000 31.800000

>ms2
301.270000 12.600000
303.220000 26.400000
305.370000 10.400000
728.580000 15.200000
743.830000 25.000000
752.190000 2010.600000
753.070000 49.500000
763.050000 6.000000
765.310000 19.100000
767.220000 34.900000

>ms2
528.950000 6.000000
745.060000 5.500000
752.100000 1470.900000
753.120000 63.600000
762.890000 15.700000
782.500000 17.900000
794.820000 4.300000
826.520000 8.500000

