>compound UT19045349
>parentmass 843.66
>ionization [M+CH3COO]-
>formula C45H89N2O6P
>rt 2291.000000
>profile orbitrap
#smiles_iso CCCCCCCCCCCCCCCCCCCCCC(=O)N[C@H](COP(=O)([O-])OCC[N+](C)(C)C)[C@H](/C=C/CC/C=C/CCCCCCCCC)O
#smiles_can CCCCCCCCCCCCCCCCCCCCCC(=O)NC(COP(=O)([O-])OCC[N+](C)(C)C)C(C=CCCC=CCCCCCCCCC)O
#inchikey UCLWWTCDZKLHGY-HHQXBTLRSA-N
#pubchem_id 134769680
#mb_accession UT001277,UT002019,UT002747

>ms2
680.200000 4.000000
761.600000 11.900000
769.340000 2322.400000
770.020000 12.800000
784.020000 33.900000
799.330000 12.200000
825.870000 4.600000

>ms2
381.760000 6.400000
418.720000 7.300000
761.080000 7.500000
769.310000 1930.500000
770.100000 5.300000
785.400000 24.100000

>ms2
724.640000 22.800000
762.090000 12.300000
769.460000 2043.100000

