>compound UT19793247
>parentmass 506.32500000000005
>ionization [M-H]-
>formula C25H50NO7P
>rt 209.600000
>profile orbitrap
#smiles_iso CCCCCCCCCCCCCCC/C=C\CCC(=O)OC(CO)COP(=O)(O)OCCN
#smiles_can CCCCCCCCCCCCCCCC=CCCC(=O)OC(CO)COP(=O)(O)OCCN
#inchikey URXPORXPKXWHEF-MSUUIHNZSA-N
#pubchem_id 134771443
#mb_accession UT001196,UT001458,UT001938,UT002198,UT002670,UT002926

>ms2
195.780000 5.900000
214.040000 7.100000
309.050000 1076.800000
310.080000 222.700000
329.670000 11.200000
355.050000 8.100000
446.760000 31.300000

>ms2
214.130000 8.600000
309.120000 829.500000
310.280000 38.400000
337.860000 14.500000
371.000000 12.200000
391.900000 8.900000

>ms2
214.090000 36.200000
282.780000 6.400000
309.110000 1273.400000
310.130000 127.800000
423.800000 6.200000
424.890000 29.600000
432.730000 8.100000
443.640000 9.000000
445.620000 7.300000
447.140000 5.100000

>ms2
213.830000 43.800000
281.020000 12.600000
309.060000 716.500000
310.320000 23.500000
349.210000 11.000000
392.050000 8.600000
405.150000 18.600000
408.510000 18.400000
444.060000 7.800000

>ms2
195.970000 28.200000
309.210000 1024.500000
310.060000 151.500000
342.610000 7.300000
355.510000 4.500000
407.820000 10.700000
420.940000 6.800000
446.700000 7.300000

>ms2
309.190000 1314.500000
310.080000 72.200000
418.480000 15.100000
424.620000 12.000000
488.650000 16.600000

