>compound UT22647844
>parentmass 830.59
>ionization [M+CH3COO]-
>formula C43H82NO8P
>rt 1420.200000
>profile orbitrap
#smiles_iso CCCCCCCCCCCCCCCCC(=O)OCC(COP(=O)([O-])OCC[N+](C)(C)C)OC(=O)CC/C=C\C/C=C\CCCCCCCCCC
#smiles_can CCCCCCCCCCCCCCCCC(=O)OCC(COP(=O)([O-])OCC[N+](C)(C)C)OC(=O)CCC=CCC=CCCCCCCCCCC
#inchikey OQJXXHSQJJIDBN-QIPJBBGZSA-N
#pubchem_id 134756061
#mb_accession UT001030,UT001767,UT002502

>ms2
269.240000 36.700000
279.100000 111.100000
283.310000 9.000000
448.130000 19.800000
504.080000 15.400000
546.430000 11.500000
681.870000 8.500000
711.360000 7.900000
748.180000 16.100000
754.060000 5.600000
756.090000 16923.900000
756.860000 49.600000
768.120000 43.200000
770.430000 104.400000
771.200000 131.200000

>ms2
269.160000 39.400000
279.130000 143.400000
405.110000 9.600000
494.220000 29.700000
563.100000 12.400000
685.290000 15.900000
699.050000 6.100000
711.220000 8.300000
742.200000 7.700000
754.220000 9.000000
756.140000 20894.000000
756.870000 61.400000
768.540000 4.900000
771.140000 160.800000

>ms2
269.100000 92.100000
279.100000 186.700000
283.440000 17.300000
391.350000 22.400000
404.940000 25.300000
415.390000 5.900000
419.440000 23.500000
494.070000 6.500000
685.170000 25.300000
748.170000 5.400000
756.090000 20698.700000
756.860000 61.400000
768.620000 14.800000
769.390000 14.500000
770.230000 37.900000
771.130000 89.000000
787.300000 15.600000

