>compound UT25911754
>parentmass 728.52
>ionization [M-H]-
>formula C40H76NO8P
>rt 1488.600000
>profile orbitrap
#smiles_iso CCCCCCCCCCCCCCCCC(=O)OCC(COP(=O)(O)OCCN)OC(=O)CC/C=C\C/C=C\CCCCCCCCCC
#smiles_can CCCCCCCCCCCCCCCCC(=O)OCC(COP(=O)(O)OCCN)OC(=O)CCC=CCC=CCCCCCCCCCC
#inchikey FGLSWIGNKJQROW-FTRFHSPVSA-N
#pubchem_id 134729400
#mb_accession UT001115,UT001853,UT002584

>ms2
232.990000 12.300000
260.900000 14.000000
269.160000 856.700000
270.190000 74.100000
279.080000 2890.000000
280.090000 358.000000
281.200000 5.000000
420.140000 10.100000
447.960000 10.100000
449.200000 12.800000
457.660000 17.200000
458.410000 11.300000
466.060000 436.600000
467.230000 76.300000
476.260000 28.800000
639.690000 14.600000

>ms2
258.690000 12.400000
261.040000 11.500000
269.110000 873.300000
270.020000 80.600000
270.680000 3.900000
279.060000 2339.900000
280.100000 326.500000
448.050000 18.500000
466.160000 406.800000
467.040000 66.400000
476.090000 47.500000
644.070000 11.000000
684.200000 6.400000

>ms2
260.610000 9.900000
261.270000 10.900000
269.120000 1157.400000
270.200000 85.700000
279.100000 3667.200000
280.050000 342.500000
281.310000 7.000000
293.210000 5.800000
448.160000 22.300000
449.340000 9.200000
466.120000 524.400000
467.020000 55.800000
475.910000 17.700000

