>compound UT25559637
>parentmass 478.29
>ionization [M-H]-
>formula C23H46NO7P
>rt 148.500000
>profile orbitrap
#smiles_iso CCCCCCCCCCCCC/C=C\CCC(=O)OC(CO)COP(=O)(O)OCCN
#smiles_can CCCCCCCCCCCCCC=CCCC(=O)OC(CO)COP(=O)(O)OCCN
#inchikey FEVAUEZKXSRQPS-PFONDFGASA-N
#pubchem_id 134729210
#mb_accession UT001193,UT001457,UT001935,UT002197,UT002667,UT002925

>ms2peaks
214.020000 109.500000
255.040000 12.800000
259.290000 11.600000
281.220000 1631.300000
282.230000 16.900000
303.030000 84.200000
395.720000 7.100000
408.020000 11.100000
417.200000 6.600000
420.080000 6.600000
421.210000 9.400000
443.060000 9.500000
446.070000 16.100000

>ms2peaks
152.970000 8.500000
195.880000 6.800000
205.000000 19.800000
213.990000 208.400000
214.950000 15.800000
259.120000 26.300000
281.020000 15185.300000
282.020000 46.500000
302.990000 411.300000
303.930000 17.400000
393.200000 4.500000
405.080000 9.200000
418.300000 23.500000
420.100000 5.700000
435.080000 20.500000
445.910000 46.900000

>ms2peaks
195.920000 21.100000
213.910000 19.900000
281.130000 1603.100000
282.160000 59.500000
284.950000 15.800000
303.110000 39.500000
320.730000 7.800000
373.780000 6.700000
392.570000 12.700000
417.730000 9.900000
418.740000 8.200000
419.350000 19.800000
426.720000 15.400000

>ms2peaks
152.860000 25.600000
195.880000 47.700000
213.870000 406.200000
259.170000 32.900000
274.910000 12.600000
281.100000 20361.700000
300.550000 11.100000
303.010000 302.500000
304.370000 13.700000
392.720000 4.300000
406.000000 10.200000
417.260000 17.200000
417.910000 6.700000
419.870000 10.100000
446.060000 32.700000

>ms2peaks
139.730000 18.300000
152.750000 16.000000
163.150000 13.400000
195.920000 352.700000
213.920000 171.500000
221.890000 14.800000
249.080000 6.500000
277.040000 31.300000
281.080000 14538.000000
282.220000 240.400000
303.250000 7.700000
382.380000 12.700000
417.020000 68.400000

>ms2peaks
140.040000 13.700000
146.700000 12.200000
152.760000 25.800000
195.980000 32.400000
213.970000 248.600000
259.030000 8.800000
281.120000 17678.300000
282.100000 29.800000
282.820000 4.900000
302.940000 298.200000
367.230000 19.400000
394.770000 7.700000
418.370000 31.500000
419.840000 32.700000
433.260000 8.900000
435.090000 5.000000
445.910000 15.500000

