>compound UT27817543
>parentmass 810.5300000000001
>ionization [M+CH3COO]-
>formula C42H74NO8P
>rt 565.800000
>profile orbitrap
#smiles_iso CCCCCCCCCCCCCC(=O)OCC(COP(=O)([O-])OCC[N+](C)(C)C)OC(=O)CC/C=C\C/C=C\C/C=C\C/C=C\C/C=C\CCC
#smiles_can CCCCCCCCCCCCCC(=O)OCC(COP(=O)([O-])OCC[N+](C)(C)C)OC(=O)CCC=CCC=CCC=CCC=CCC=CCCC
#inchikey WOZQMKGPSSBBKF-AKCCMISZSA-N
#pubchem_id 134776595
#mb_accession UT001004,UT001739,UT002475

>ms2
450.580000 14.500000
543.050000 6.500000
545.320000 18.300000
633.700000 6.500000
724.130000 40.800000
727.660000 6.500000
736.040000 420.100000
737.650000 12.300000
790.980000 6.500000
791.970000 21.700000

>ms2
419.250000 28.700000
499.090000 10.700000
711.540000 13.800000
722.890000 8.700000
727.040000 7.000000
728.650000 5.300000
736.150000 356.300000
737.000000 5.300000
751.230000 12.600000
790.740000 7.700000
791.630000 16.700000

>ms2
281.090000 6.600000
347.130000 4.900000
419.170000 10.100000
505.900000 16.200000
569.550000 9.900000
731.870000 4.900000
736.070000 346.900000
737.060000 9.900000
743.860000 30.200000
760.560000 4.900000

