>compound UT28520247
>parentmass 580.36
>ionization [M+CH3COO]-
>formula C26H52NO7P
>rt 141.300000
>profile orbitrap
#smiles_iso CCCCCCCCCCCCC/C=C\CCC(=O)OC(CO)COP(=O)([O-])OCC[N+](C)(C)C
#smiles_can CCCCCCCCCCCCCC=CCCC(=O)OC(CO)COP(=O)([O-])OCC[N+](C)(C)C
#inchikey WZSWWJLIQCVBRG-ZCXUNETKSA-N
#pubchem_id 134777714
#mb_accession UT001084,UT001348,UT001823,UT002088,UT002555,UT002817

>ms2peaks
241.970000 11.600000
280.950000 13.800000
506.050000 3854.900000
506.680000 17.500000
518.200000 4.900000
520.090000 5.500000
521.010000 6.600000
529.970000 8.200000
537.260000 11.100000

>ms2peaks
241.600000 7.900000
255.420000 8.500000
480.400000 10.800000
506.000000 5457.100000
506.670000 11.200000
520.930000 32.700000
521.820000 11.900000

>ms2peaks
195.030000 6.300000
281.130000 56.700000
375.290000 9.100000
431.000000 13.700000
435.310000 4.500000
506.120000 9844.000000
521.160000 37.700000

>ms2peaks
279.320000 6.000000
281.160000 72.900000
282.340000 5.400000
375.190000 7.200000
437.060000 11.800000
479.970000 4.900000
505.970000 6709.400000
506.680000 18.500000
521.210000 24.500000
548.110000 42.500000

>ms2peaks
204.130000 3.500000
280.960000 6.900000
480.120000 4.600000
487.130000 6.900000
505.940000 5959.900000
506.610000 38.300000
519.790000 8.600000
530.270000 13.500000

>ms2peaks
240.840000 6.800000
255.020000 7.200000
280.890000 21.800000
323.860000 6.600000
477.680000 7.200000
480.200000 16.900000
506.000000 5882.400000
506.670000 18.000000
521.130000 40.400000
536.460000 10.100000
555.590000 5.600000

