>compound UT29478882
>parentmass 820.61
>ionization [M+CH3COO]-
>formula C42H84NO8P
>rt 2151.800000
>profile orbitrap
#smiles_iso CCCCCCCCCCCCCCCCCC(=O)OCC(COP(=O)([O-])OCC[N+](C)(C)C)OC(=O)CCCCCCCCCCCCCCC
#smiles_can CCCCCCCCCCCCCCCCCC(=O)OCC(COP(=O)([O-])OCC[N+](C)(C)C)OC(=O)CCCCCCCCCCCCCCC
#inchikey BYSIMVBIJVBVPA-UHFFFAOYSA-N
#pubchem_id 10190708
#mb_accession UT001038,UT001775,UT002509

>ms2peaks
255.180000 104.900000
283.210000 57.100000
311.300000 151.300000
312.030000 40.000000
329.200000 142.700000
330.210000 15.900000
355.590000 9.600000
397.160000 7.400000
491.040000 6.100000
508.140000 34.900000
509.420000 50.400000
675.230000 15.100000
698.620000 21.100000
701.400000 39.900000
733.850000 17.600000
746.120000 22149.000000
746.940000 42.500000
760.850000 184.400000
761.530000 11.300000
769.970000 11.300000
806.400000 7.300000

>ms2peaks
254.880000 39.200000
255.510000 29.600000
269.090000 17.800000
283.230000 96.200000
286.370000 11.200000
311.220000 87.300000
329.110000 167.200000
330.110000 15.500000
507.880000 51.200000
602.880000 10.900000
620.220000 16.400000
672.950000 8.100000
675.060000 8.900000
692.840000 24.500000
723.050000 16.000000
742.370000 17.400000
746.170000 17971.200000
746.930000 63.600000
761.110000 150.800000
761.770000 4.700000

>ms2peaks
255.250000 107.800000
283.280000 41.200000
304.030000 9.400000
311.100000 94.700000
329.140000 105.300000
330.180000 37.800000
462.350000 6.600000
508.150000 35.100000
581.850000 13.000000
626.530000 4.400000
656.670000 7.800000
701.360000 17.500000
732.240000 19.000000
733.250000 8.300000
737.870000 19.200000
746.140000 18715.200000
746.920000 15.800000
760.880000 51.900000
761.520000 32.000000
762.490000 5.900000
770.070000 25.200000
774.900000 4.400000

