>compound UT29257495
>parentmass 845.68
>ionization [M+CH3COO]-
>formula C45H91N2O6P
>rt 2669.200000
>profile orbitrap
#smiles_iso CCCCCCCCCCCCCCCCCCCCCC(=O)N[C@H](COP(=O)([O-])OCC[N+](C)(C)C)[C@H](/C=C/CCCCCCCCCCCCC)O
#smiles_can CCCCCCCCCCCCCCCCCCCCCC(=O)NC(COP(=O)([O-])OCC[N+](C)(C)C)C(C=CCCCCCCCCCCCCC)O
#inchikey FJJANLYCZUNFSE-QVMKKYBKSA-N
#pubchem_id 13832233
#mb_accession UT001515,UT002254,UT002979

>ms2peaks
563.660000 14.300000
618.120000 6.500000
644.670000 15.400000
744.530000 7.700000
758.250000 28.100000
759.460000 14.700000
766.200000 17.400000
771.460000 1808.700000
786.220000 9.400000
809.050000 60.500000
814.320000 14.400000
846.920000 17.300000

>ms2peaks
291.250000 6.300000
368.380000 9.000000
404.000000 9.700000
408.480000 18.100000
417.760000 6.300000
480.180000 6.300000
532.470000 5.100000
625.330000 13.200000
726.640000 2.800000
744.390000 3.400000
771.400000 1435.900000
786.440000 9.600000
808.320000 40.500000
809.260000 51.600000
810.310000 31.000000
826.580000 8.300000
827.920000 6.800000
846.160000 19.800000

>ms2peaks
302.630000 5.600000
500.350000 9.000000
522.330000 5.600000
639.500000 6.800000
758.330000 17.900000
759.280000 11.800000
771.380000 1876.900000
785.180000 5.600000
808.680000 18.900000
809.290000 31.400000
826.660000 16.600000

