>compound UT30703305
>parentmass 844.61
>ionization [M+CH3COO]-
>formula C44H84NO8P
>rt 1665.800000
>profile orbitrap
#smiles_iso CCCCCCCCCCCCCCCCCC(=O)OCC(COP(=O)([O-])OCC[N+](C)(C)C)OC(=O)CC/C=C\C/C=C\CCCCCCCCCC
#smiles_can CCCCCCCCCCCCCCCCCC(=O)OCC(COP(=O)([O-])OCC[N+](C)(C)C)OC(=O)CCC=CCC=CCCCCCCCCCC
#inchikey BHAATSGDDOXMJD-FOXSRGEXSA-N
#pubchem_id 134720922
#mb_accession UT001308,UT002049,UT002777

>ms2peaks
279.140000 111.100000
283.280000 65.700000
387.950000 16.900000
415.300000 12.500000
432.550000 6.900000
508.400000 6.900000
687.120000 5.800000
714.740000 5.800000
715.380000 4.700000
716.530000 10.100000
729.210000 14.200000
730.730000 9.600000
761.950000 5.600000
770.110000 21134.500000
771.010000 18.700000
784.700000 123.700000
785.440000 44.000000
794.430000 5.800000
823.490000 19.700000

>ms2peaks
278.990000 77.700000
283.040000 49.400000
309.390000 7.800000
432.010000 11.700000
507.970000 31.400000
645.510000 22.600000
670.440000 43.300000
671.530000 16.600000
699.290000 8.900000
716.120000 15.300000
730.600000 17.700000
762.230000 9.800000
770.160000 16901.700000
770.780000 198.300000
781.130000 35.300000
785.130000 59.600000
794.450000 11.500000
808.240000 16.700000
830.680000 27.700000

>ms2peaks
279.140000 77.800000
283.240000 46.900000
304.320000 18.100000
699.290000 22.200000
770.250000 7789.700000
780.500000 14.100000
785.210000 80.800000

