>compound UT30542695
>parentmass 864.58
>ionization [M+CH3COO]-
>formula C46H80NO8P
>rt 993.000000
>profile orbitrap
#smiles_iso CCCCCCCCCCCCCCCC(=O)OCC(COP(=O)([O-])OCC[N+](C)(C)C)OC(=O)CC/C=C\C/C=C\C/C=C\C/C=C\C/C=C\C/C=C\CC
#smiles_can CCCCCCCCCCCCCCCC(=O)OCC(COP(=O)([O-])OCC[N+](C)(C)C)OC(=O)CCC=CCC=CCC=CCC=CCC=CCC=CCC
#inchikey IESVDEZGAHUQJU-SYGPSSPWSA-N
#pubchem_id 9940652
#mb_accession UT001299,UT002040,UT002493,UT002768

>ms2
255.340000 82.400000
283.190000 109.300000
327.130000 529.100000
391.100000 52.500000
480.370000 84.200000
745.290000 33.000000
790.050000 77827.100000
790.780000 455.500000
805.000000 489.300000

>ms2
255.030000 85.200000
283.030000 99.100000
327.140000 412.500000
391.040000 29.000000
480.150000 22.400000
534.100000 13.300000
719.170000 69.100000
745.110000 29.900000
790.090000 71327.300000
790.840000 75.500000
804.970000 433.300000
805.710000 37.500000
846.680000 33.900000

>ms2
327.310000 600.800000
462.370000 75.500000
480.000000 317.500000
719.100000 144.600000
745.140000 179.300000
790.020000 254765.100000
790.820000 983.500000
805.080000 2040.100000

>ms2
254.560000 12.900000
255.290000 43.100000
327.180000 43.200000
357.250000 6.800000
552.050000 12.300000
553.960000 18.400000
719.290000 6.100000
790.070000 19529.700000
790.780000 111.100000
804.310000 25.300000
805.160000 111.800000

