>compound UT31795003
>parentmass 540.33
>ionization [M+CH3COO]-
>formula C23H48NO7P
>rt 133.400000
>profile orbitrap
#smiles_iso CCCCCCCCCCCCCCC(=O)OC(CO)COP(=O)([O-])OCC[N+](C)(C)C
#smiles_can CCCCCCCCCCCCCCC(=O)OC(CO)COP(=O)([O-])OCC[N+](C)(C)C
#inchikey AGHWJZIEMKQLQP-UHFFFAOYSA-N
#pubchem_id 22472197
#mb_accession UT001079,UT001817,UT002550

>ms2
272.680000 7.800000
372.780000 18.500000
377.290000 10.600000
458.580000 31.200000
466.090000 1205.700000
466.850000 8.200000
481.040000 7.200000
497.140000 6.100000
519.840000 11.200000

>ms2
341.760000 14.700000
342.910000 5.600000
395.230000 9.100000
439.980000 9.400000
442.460000 10.100000
466.130000 1996.100000
478.130000 14.600000
480.130000 40.000000
481.290000 6.200000
482.970000 10.500000
508.960000 6.200000
539.540000 13.200000

>ms2
372.700000 18.300000
386.130000 11.500000
466.130000 1594.500000
466.980000 13.500000
496.040000 8.100000
528.520000 8.200000

