>compound UT32516877
>parentmass 761.58
>ionization [M+CH3COO]-
>formula C39H79N2O6P
>rt 1194.300000
>profile orbitrap
#smiles_iso CCCCCCCCCCCCCCCC(=O)N[C@H](COP(=O)([O-])OCC[N+](C)(C)C)[C@H](/C=C/CCCCCCCCCCCCC)O
#smiles_can CCCCCCCCCCCCCCCC(=O)NC(COP(=O)([O-])OCC[N+](C)(C)C)C(C=CCCCCCCCCCCCCC)O
#inchikey RWKUXQNLWDTSLO-KHDLYOHESA-N
#pubchem_id 12442931
#mb_accession UT001264,UT001512,UT002005,UT002251,UT002736,UT002976

>ms2
255.190000 33.900000
281.220000 13.900000
283.300000 12.700000
327.060000 94.000000
440.430000 8.400000
452.080000 18.800000
687.350000 12859.300000
688.200000 5.900000
702.090000 66.700000
746.570000 22.900000

>ms2
255.330000 21.400000
281.120000 12.600000
283.160000 5.500000
327.050000 4.400000
419.280000 7.800000
452.020000 8.300000
673.430000 7.200000
687.240000 6415.500000
687.870000 165.300000
702.200000 17.700000

>ms2
255.030000 54.300000
262.890000 9.100000
279.110000 4.400000
281.140000 14.800000
282.920000 76.800000
283.560000 10.500000
306.960000 6.700000
327.090000 87.600000
452.280000 37.500000
687.290000 13353.700000
688.170000 7.100000
702.220000 64.800000

>ms2
243.200000 11.600000
255.150000 380.300000
269.240000 31.600000
283.050000 341.300000
301.110000 8.800000
302.940000 25.800000
309.010000 10.800000
315.170000 29.100000
327.100000 555.500000
329.880000 7.100000
436.060000 5.400000
437.160000 17.000000
452.180000 295.300000
523.770000 67.600000
583.540000 12.900000
629.300000 6.000000
676.650000 19.000000
679.650000 4.300000
687.230000 908.500000
688.640000 4.800000
701.530000 4.300000
726.490000 6.700000

>ms2
229.110000 10.200000
255.240000 55.900000
283.060000 51.900000
327.150000 86.800000
354.770000 8.000000
452.200000 22.200000
527.910000 13.000000
673.520000 30.300000
687.310000 14607.500000
688.070000 32.100000
702.210000 108.800000

>ms2
216.860000 8.100000
229.150000 28.200000
249.360000 6.400000
255.160000 437.300000
281.220000 9.200000
283.070000 329.800000
283.690000 8.700000
290.990000 6.600000
299.880000 6.100000
303.240000 12.400000
304.170000 15.600000
309.060000 14.900000
311.180000 13.200000
327.000000 564.400000
327.670000 1.800000
408.710000 4.100000
434.110000 8.200000
452.150000 251.800000
454.920000 16.600000
522.820000 7.900000
523.910000 11.500000
540.220000 3.700000
577.450000 7.800000
675.290000 13.800000
680.320000 13.700000
687.380000 1437.600000
720.600000 4.700000
724.880000 16.000000
730.250000 23.700000
739.870000 10.600000

