>compound UT38381048
>parentmass 778.56
>ionization [M+CH3COO]-
>formula C39H78NO8P
>rt 1369.400000
>profile orbitrap
#smiles_iso CCCCCCCCCCCCCCCC(=O)OC(COC(=O)CCCCCCCCCCCCCC)COP(=O)([O-])OCC[N+](C)(C)C
#smiles_can CCCCCCCCCCCCCCCC(=O)OC(COC(=O)CCCCCCCCCCCCCC)COP(=O)([O-])OCC[N+](C)(C)C
#inchikey LLHISNQVRRYJGL-UHFFFAOYSA-N
#pubchem_id 14818904
#mb_accession UT001005,UT001740,UT002476

>ms2
256.950000 11.200000
283.130000 28.700000
301.000000 14.100000
303.340000 12.900000
513.970000 5.000000
697.120000 10.100000
704.230000 749.100000
705.370000 8.400000

>ms2
240.910000 16.000000
257.120000 13.600000
301.900000 7.900000
303.220000 29.600000
304.200000 9.600000
310.240000 4.000000
330.500000 4.000000
466.010000 17.600000
704.100000 1458.900000
704.750000 68.200000
718.970000 7.400000
728.250000 13.000000
778.370000 20.900000

>ms2
254.910000 9.500000
259.180000 17.700000
301.190000 22.200000
303.470000 6.900000
329.270000 21.100000
405.120000 4.200000
469.060000 7.000000
545.660000 56.800000
695.980000 3.700000
704.130000 1389.600000
705.010000 2.800000
713.600000 5.300000
745.730000 10.800000

