>compound UT40624666
>parentmass 804.61
>ionization [M+CH3COO]-
>formula C42H84NO7P
>rt 1837.400000
>profile orbitrap
#smiles_iso CCCCCCCCCCCCCCCC(=O)OC(COCCC/C=C\CCCCCCCCCCCCC)COP(=O)([O-])OCC[N+](C)(C)C
#smiles_can CCCCCCCCCCCCCCCC(=O)OC(COCCCC=CCCCCCCCCCCCCC)COP(=O)([O-])OCC[N+](C)(C)C
#inchikey ITFYCOXGRQISEW-HYOGKJQXSA-N
#pubchem_id 134739324
#mb_accession UT001078,UT001341,UT001816,UT002081,UT002549,UT002810

>ms2
255.250000 27.600000
283.230000 5.600000
297.140000 10.700000
326.910000 10.200000
329.280000 9.000000
438.870000 13.000000
491.900000 10.100000
540.990000 15.900000
543.690000 8.400000
717.060000 12.400000
722.650000 12.400000
730.170000 2354.900000
730.860000 26.700000
745.640000 11.800000

>ms2
255.100000 116.800000
402.970000 17.700000
430.180000 15.000000
492.300000 9.200000
548.350000 7.600000
717.480000 8.100000
730.190000 10627.400000
730.840000 21.800000
744.910000 97.200000
745.690000 21.200000

>ms2
255.150000 15.600000
329.190000 5.700000
330.070000 15.700000
492.230000 11.300000
656.610000 9.300000
658.780000 13.800000
680.880000 9.100000
722.040000 16.400000
727.850000 21.200000
730.160000 2566.000000
731.500000 11.900000
745.120000 25.100000

>ms2
255.020000 55.800000
282.870000 24.200000
365.220000 25.700000
452.830000 13.200000
465.290000 10.500000
492.060000 5.600000
659.000000 8.300000
730.190000 12710.500000
730.860000 59.100000
731.470000 4.900000
744.120000 14.600000
745.330000 15.900000
756.640000 16.900000
783.200000 6.700000
786.200000 7.700000

>ms2
254.960000 4.200000
303.040000 6.500000
330.120000 5.900000
403.060000 5.900000
410.900000 5.300000
518.410000 9.300000
639.370000 9.900000
655.930000 26.000000
717.320000 5.300000
730.300000 2514.500000
731.120000 7.200000
731.760000 9.800000
785.790000 6.400000

>ms2
253.140000 8.200000
255.030000 45.800000
255.630000 9.200000
394.060000 10.400000
474.190000 5.300000
516.530000 20.700000
537.740000 15.500000
685.290000 11.600000
720.250000 4.800000
722.950000 22.300000
730.150000 11767.500000
731.320000 52.500000
745.130000 41.500000
766.480000 12.200000
785.210000 5.300000
787.530000 4.200000
805.910000 14.700000

