>compound UT40366414
>parentmass 868.61
>ionization [M+CH3COO]-
>formula C46H84NO8P
>rt 1559.550000
>profile orbitrap
#smiles_iso CCCCCCCCCCCCCCCCCC(=O)OCC(COP(=O)([O-])OCC[N+](C)(C)C)OC(=O)CC/C=C\C/C=C\C/C=C\C/C=C\CCCCCC
#smiles_can CCCCCCCCCCCCCCCCCC(=O)OCC(COP(=O)([O-])OCC[N+](C)(C)C)OC(=O)CCC=CCC=CCC=CCC=CCCCCCC
#inchikey FALSXTSFRXGEBP-KKHNUOCRSA-N
#pubchem_id 134728700
#mb_accession UT001314,UT002055,UT002515,UT002783

>ms2peaks
281.920000 12.600000
283.160000 33.000000
303.200000 82.800000
514.340000 10.300000
527.820000 6.900000
794.070000 5415.900000
794.760000 30.600000
807.720000 10.300000
809.260000 56.300000

>ms2peaks
283.140000 11.100000
303.120000 49.800000
508.220000 17.400000
749.590000 23.100000
794.160000 3898.800000
794.850000 12.900000
808.010000 35.800000
808.720000 17.000000

>ms2peaks
303.130000 25.700000
439.030000 16.600000
794.220000 5147.100000
809.030000 29.100000

>ms2peaks
283.210000 15.600000
303.160000 22.900000
508.070000 41.100000
794.190000 7143.200000
808.860000 36.300000
809.570000 5.600000

