>compound UT40285992
>parentmass 552.33
>ionization [M+CH3COO]-
>formula C24H48NO7P
>rt 120.500000
>profile orbitrap
#smiles_iso CCCCCCCCCCC/C=C\CCC(=O)OC(CO)COP(=O)([O-])OCC[N+](C)(C)C
#smiles_can CCCCCCCCCCCC=CCCC(=O)OC(CO)COP(=O)([O-])OCC[N+](C)(C)C
#inchikey GMEZONVWGDDWOJ-NXVVXOECSA-N
#pubchem_id 134732898
#mb_accession UT001081,UT001345,UT001819,UT002085,UT002552,UT002814

>ms2peaks
283.520000 12.300000
328.000000 11.100000
469.630000 8.300000
470.750000 14.000000
476.460000 7.300000
478.070000 2963.200000
478.670000 11.800000
492.180000 7.800000
493.160000 6.600000
509.550000 10.000000
517.130000 8.300000

>ms2peaks
194.850000 9.100000
241.890000 7.300000
270.710000 13.900000
312.890000 9.000000
319.580000 7.200000
350.030000 16.900000
432.860000 5.800000
447.800000 5.600000
449.960000 6.200000
454.190000 14.100000
469.870000 21.400000
470.620000 28.700000
478.030000 1071.800000
478.680000 17.600000
492.980000 7.900000
521.510000 5.700000

>ms2peaks
216.750000 5.200000
283.240000 6.800000
326.930000 22.500000
411.340000 4.500000
426.480000 19.200000
455.180000 13.500000
469.630000 7.400000
475.740000 11.200000
478.120000 3332.000000
491.720000 9.000000
493.550000 9.100000
509.400000 5.100000

>ms2peaks
255.220000 5.900000
313.090000 16.200000
453.730000 9.900000
469.810000 15.800000
470.450000 9.300000
477.990000 869.600000
478.680000 6.700000
484.140000 11.000000
491.840000 18.300000
497.880000 19.600000
528.160000 5.900000
532.620000 7.000000
542.510000 5.900000

>ms2peaks
314.240000 4.800000
356.830000 15.200000
389.370000 22.400000
410.140000 39.000000
426.300000 6.800000
452.190000 12.100000
467.720000 7.700000
470.170000 5.300000
476.000000 15.900000
478.120000 3728.200000
491.680000 14.000000
492.930000 16.300000
508.470000 6.600000
531.120000 21.800000

>ms2peaks
196.000000 4.800000
199.740000 17.600000
261.030000 4.300000
327.210000 11.600000
408.370000 14.000000
411.110000 12.800000
433.690000 11.700000
452.540000 5.400000
461.660000 9.300000
463.320000 12.500000
467.140000 13.600000
469.980000 7.300000
478.120000 872.700000
491.950000 14.000000
492.750000 40.100000
509.330000 5.400000

