>compound UT42533659
>parentmass 862.5599999999998
>ionization [M+CH3COO]-
>formula C46H78NO8P
>rt 653.600000
>profile orbitrap
#smiles_iso CCCCCCCCCCC/C=C\CCC(=O)OCC(COP(=O)([O-])OCC[N+](C)(C)C)OC(=O)CC/C=C\C/C=C\C/C=C\C/C=C\C/C=C\C/C=C\CC
#smiles_can CCCCCCCCCCCC=CCCC(=O)OCC(COP(=O)([O-])OCC[N+](C)(C)C)OC(=O)CCC=CCC=CCC=CCC=CCC=CCC=CCC
#inchikey ALJYHFIRPGURAF-DACYDXBYSA-N
#pubchem_id 134718610
#mb_accession UT001028,UT001303,UT001765,UT002044,UT002500,UT002772

>ms2peaks
283.070000 16.100000
419.010000 17.800000
446.920000 7.800000
763.820000 7.700000
780.250000 15.500000
784.500000 6.500000
788.120000 3735.500000
802.410000 4.800000
803.100000 8.200000

>ms2peaks
487.220000 7.000000
508.420000 5.900000
657.290000 15.000000
779.900000 22.300000
788.090000 429.400000
812.200000 6.400000

>ms2peaks
327.340000 29.100000
504.280000 5.500000
583.040000 5.500000
656.070000 10.000000
778.500000 5.600000
788.100000 2629.700000
802.920000 10.600000

>ms2peaks
438.430000 7.600000
691.990000 10.900000
772.040000 5.800000
779.850000 16.200000
788.150000 909.000000
801.970000 11.500000
803.340000 5.800000
870.330000 7.000000

>ms2peaks
283.160000 5.600000
744.360000 18.500000
788.130000 4685.500000
802.860000 49.600000
803.690000 3.500000
811.960000 18.800000

>ms2peaks
763.950000 13.400000
773.430000 12.800000
788.190000 333.500000
802.260000 16.100000
843.530000 14.600000
848.760000 19.300000

