>compound UT42053778
>parentmass 854.59
>ionization [M+CH3COO]-
>formula C45H82NO8P
>rt 1302.200000
>profile orbitrap
#smiles_iso CCCCCCCCCCCCCCCCC(=O)OCC(COP(=O)([O-])OCC[N+](C)(C)C)OC(=O)CC/C=C\C/C=C\C/C=C\C/C=C\CCCCCC
#smiles_can CCCCCCCCCCCCCCCCC(=O)OCC(COP(=O)([O-])OCC[N+](C)(C)C)OC(=O)CCC=CCC=CCC=CCC=CCCCCCC
#inchikey YGNXCWOMJZJVBI-QEKDUOKRSA-N
#pubchem_id 134781158
#mb_accession UT001032,UT001769,UT002504

>ms2
269.670000 6.100000
303.130000 64.000000
305.190000 6.000000
438.010000 14.500000
715.510000 11.100000
772.430000 15.200000
780.100000 3760.700000
792.070000 5.500000
793.380000 9.900000
794.100000 44.100000
795.060000 7.100000

>ms2
269.490000 5.600000
303.220000 83.800000
770.480000 5.600000
778.750000 35.300000
780.100000 4047.600000
780.760000 40.100000
793.480000 11.800000
794.450000 16.300000
795.200000 18.700000
823.890000 7.900000

>ms2
269.280000 13.000000
303.180000 5.800000
767.130000 11.900000
772.040000 13.600000
778.310000 30.100000
780.160000 3300.700000
793.050000 58.200000
794.010000 20.900000
794.860000 10.200000
829.150000 11.400000

