>compound UT46125029
>parentmass 816.58
>ionization [M+CH3COO]-
>formula C42H80NO8P
>rt 1189.200000
>profile orbitrap
#smiles_iso CCCCCCCCCCCCCCCC(=O)OCC(COP(=O)([O-])OCC[N+](C)(C)C)OC(=O)CC/C=C\C/C=C\CCCCCCCCCC
#smiles_can CCCCCCCCCCCCCCCC(=O)OCC(COP(=O)([O-])OCC[N+](C)(C)C)OC(=O)CCC=CCC=CCCCCCCCCCC
#inchikey PWJTWIQVMHNOLN-WGPKDLKGSA-N
#pubchem_id 134759603
#mb_accession UT001292,UT002033,UT002761

>ms2peaks
254.150000 24.000000
255.130000 265.700000
279.280000 375.300000
281.210000 39.100000
328.550000 56.600000
480.280000 158.700000
486.500000 29.300000
487.910000 31.100000
504.370000 17.000000
549.100000 48.000000
582.720000 38.200000
616.730000 69.800000
671.150000 51.400000
701.590000 48.700000
729.300000 39.800000
742.090000 71934.900000
742.900000 182.400000
751.700000 56.800000
754.810000 30.800000
756.830000 257.700000
757.460000 89.300000
765.930000 13.500000
766.550000 48.800000
780.100000 15.300000
801.370000 42.600000
803.210000 20.500000

>ms2peaks
254.980000 240.200000
279.190000 550.200000
283.050000 29.700000
404.230000 32.400000
480.370000 52.700000
495.320000 29.900000
504.090000 34.000000
534.360000 10.400000
538.640000 29.200000
662.560000 43.800000
671.410000 43.800000
697.170000 47.200000
715.950000 36.400000
730.470000 22.300000
742.120000 67508.500000
742.850000 132.600000
757.070000 635.400000
765.970000 44.700000
766.590000 50.900000
802.070000 15.800000

>ms2peaks
255.120000 324.300000
279.080000 231.500000
281.280000 23.600000
303.180000 38.300000
308.260000 33.700000
355.270000 12.100000
391.180000 23.600000
392.900000 15.000000
465.380000 36.500000
480.240000 9.200000
506.230000 15.400000
650.810000 24.600000
700.270000 28.200000
719.460000 13.500000
740.360000 114.500000
742.070000 59009.600000
742.790000 282.000000
756.080000 75.800000
757.060000 277.600000
757.720000 34.500000
766.490000 29.100000
783.050000 13.600000
827.400000 28.800000

