>compound UT47745865
>parentmass 842.59
>ionization [M+CH3COO]-
>formula C44H82NO8P
>rt 1134.000000
>profile orbitrap
#smiles_iso CCCCCCCCCCCCC/C=C\CCC(=O)OCC(COP(=O)([O-])OCC[N+](C)(C)C)OC(=O)CC/C=C\C/C=C\CCCCCCCCCC
#smiles_can CCCCCCCCCCCCCC=CCCC(=O)OCC(COP(=O)([O-])OCC[N+](C)(C)C)OC(=O)CCC=CCC=CCCCCCCCCCC
#inchikey HZHAEVXGLQPJBM-KJZSVCAKSA-N
#pubchem_id 134737138
#mb_accession UT001049,UT001318,UT001786,UT002059,UT002519,UT002787

>ms2peaks
279.120000 202.300000
281.050000 90.300000
421.800000 5.500000
546.310000 21.700000
765.930000 11.100000
768.220000 27530.100000
782.910000 142.800000
783.660000 6.800000
792.300000 20.900000
804.820000 17.700000
823.710000 20.300000

>ms2peaks
240.820000 11.200000
279.060000 16.200000
281.760000 17.900000
304.040000 7.500000
404.750000 10.500000
756.020000 12.000000
768.110000 6658.000000
768.850000 24.700000
783.050000 31.300000
790.130000 18.400000
792.130000 83.600000
798.830000 15.600000

>ms2peaks
256.120000 7.600000
279.180000 253.200000
281.180000 31.200000
304.470000 31.800000
488.030000 18.100000
504.210000 29.100000
506.160000 53.100000
696.550000 9.900000
697.360000 10.800000
723.460000 8.200000
766.530000 168.000000
768.100000 40702.900000
768.930000 34.300000
783.100000 255.300000
792.050000 402.900000
792.690000 9.100000
802.510000 8.500000

>ms2peaks
279.160000 40.000000
303.100000 9.400000
327.340000 14.200000
504.220000 11.100000
524.700000 14.600000
768.220000 6184.100000
782.880000 21.400000
792.140000 64.100000
823.520000 11.200000

>ms2peaks
279.210000 179.800000
281.120000 269.200000
303.180000 12.000000
304.310000 18.500000
305.230000 9.000000
504.380000 14.200000
506.150000 39.300000
723.020000 26.800000
765.790000 36.400000
767.580000 3523.400000
768.240000 34558.600000
783.040000 368.600000
792.150000 253.300000
828.870000 6.100000

>ms2peaks
279.110000 9.300000
281.140000 34.800000
332.370000 5.200000
472.950000 5.200000
532.040000 13.200000
537.290000 6.300000
765.930000 21.100000
768.170000 6837.200000
774.030000 7.500000
783.110000 41.500000
792.150000 138.800000
796.820000 6.900000
823.530000 27.500000

