>compound UT47372372
>parentmass 858.62
>ionization [M+CH3COO]-
>formula C45H86NO8P
>rt 1919.200000
>profile orbitrap
#smiles_iso CCCCCCCCCCCCCCCCCCC(=O)OCC(COP(=O)([O-])OCC[N+](C)(C)C)OC(=O)CC/C=C\C/C=C\CCCCCCCCCC
#smiles_can CCCCCCCCCCCCCCCCCCC(=O)OCC(COP(=O)([O-])OCC[N+](C)(C)C)OC(=O)CCC=CCC=CCCCCCCCCCC
#inchikey BESSFRQTRGTUBA-XJKRCVSZSA-N
#pubchem_id 134720664
#mb_accession UT001058,UT001794,UT002527

>ms2
279.390000 16.000000
297.160000 14.600000
418.990000 5.800000
546.870000 11.600000
592.440000 9.800000
771.480000 5.400000
772.150000 12.600000
776.420000 16.400000
784.200000 7716.100000
798.370000 47.900000
799.340000 10.400000

>ms2
279.030000 34.100000
297.320000 37.000000
311.310000 4.700000
365.090000 8.100000
521.890000 6.400000
739.150000 10.600000
776.110000 33.400000
784.180000 6587.900000
784.850000 36.500000
799.060000 42.800000

>ms2
279.150000 66.800000
296.980000 17.000000
546.080000 25.900000
548.280000 10.000000
739.230000 19.300000
771.130000 9.000000
776.360000 39.700000
782.960000 12.300000
784.260000 8050.300000
798.190000 5.900000
799.200000 57.100000
806.450000 7.400000
815.020000 8.800000

