>compound UT48345070
>parentmass 846.62
>ionization [M+CH3COO]-
>formula C44H86NO8P
>rt 2030.200000
>profile orbitrap
#smiles_iso CCCCCCCCCCCCCCCCCC(=O)OCC(COP(=O)([O-])OCC[N+](C)(C)C)OC(=O)CC/C=C\CCCCCCCCCCCCC
#smiles_can CCCCCCCCCCCCCCCCCC(=O)OCC(COP(=O)([O-])OCC[N+](C)(C)C)OC(=O)CCC=CCCCCCCCCCCCCC
#inchikey OBRNLVIDOVBLPU-FPODKLOTSA-N
#pubchem_id 134754501
#mb_accession UT001040,UT001307,UT001777,UT002048,UT002511,UT002776

>ms2peaks
281.120000 484.700000
283.140000 128.100000
417.110000 32.100000
506.170000 13.900000
508.350000 109.100000
700.720000 25.800000
727.090000 10.800000
760.020000 31.800000
772.210000 52093.800000
773.100000 15.400000
786.880000 271.100000
787.490000 157.100000
796.520000 25.800000

>ms2peaks
281.030000 1592.200000
283.270000 856.500000
507.990000 265.600000
700.990000 62.300000
772.190000 190639.200000
786.980000 540.600000
787.600000 29.200000
832.570000 57.100000
836.210000 124.700000

>ms2peaks
281.250000 567.300000
283.380000 282.900000
508.400000 78.500000
560.770000 19.200000
701.100000 43.000000
727.120000 49.800000
772.230000 55943.400000
772.940000 124.600000
787.080000 209.700000

>ms2peaks
281.160000 975.000000
283.260000 352.000000
417.210000 43.900000
418.960000 55.300000
508.380000 300.300000
701.330000 25.700000
727.360000 37.100000
772.150000 161852.500000
772.920000 196.700000
787.160000 769.300000

>ms2peaks
281.110000 361.700000
283.270000 77.900000
362.890000 38.400000
506.210000 16.000000
508.150000 39.000000
727.440000 31.400000
764.120000 20.200000
772.120000 40678.100000
772.920000 36.500000
782.900000 17.200000
787.260000 257.900000
796.120000 95.100000

>ms2peaks
281.060000 1105.000000
283.100000 502.600000
283.860000 55.900000
474.790000 49.400000
508.390000 72.500000
582.110000 21.100000
624.930000 60.300000
701.140000 133.700000
771.710000 15140.300000
772.340000 175337.300000
786.190000 204.300000
787.110000 1046.900000

