>compound UT48821939
>parentmass 836.5433333333334
>ionization [M+CH3COO]-
>formula C44H76NO8P
>rt 551.800000
>profile orbitrap
#smiles_iso CCCCCCCCCCC/C=C\CCC(=O)OCC(COP(=O)([O-])OCC[N+](C)(C)C)OC(=O)CC/C=C\C/C=C\C/C=C\C/C=C\C/C=C\CCC
#smiles_can CCCCCCCCCCCC=CCCC(=O)OCC(COP(=O)([O-])OCC[N+](C)(C)C)OC(=O)CCC=CCC=CCC=CCC=CCC=CCCC
#inchikey CRYGVKXXJSFPAW-VDGOIRDXSA-N
#pubchem_id 134725016
#mb_accession UT001027,UT001764,UT002499

>ms2
283.300000 13.900000
479.650000 7.700000
494.320000 34.900000
669.530000 7.700000
749.280000 8.800000
762.080000 357.100000
762.770000 2.900000
776.030000 8.800000
778.440000 28.300000
786.350000 22.900000
810.630000 6.000000

>ms2
283.100000 8.800000
633.720000 13.800000
732.110000 8.100000
749.250000 6.400000
750.200000 11.000000
762.100000 542.000000
804.490000 4.200000
816.430000 7.000000
836.560000 7.500000

>ms2
660.460000 8.300000
689.820000 19.400000
716.940000 12.300000
719.180000 6.100000
749.600000 35.100000
750.450000 7.100000
762.220000 324.300000
775.960000 15.100000
778.020000 16.200000
815.810000 5.600000
838.140000 24.800000

