>compound UT48636172
>parentmass 802.56
>ionization [M+CH3COO]-
>formula C41H78NO8P
>rt 977.000000
>profile orbitrap
#smiles_iso CCCCCCCCCCCCCCC(=O)OCC(COP(=O)([O-])OCC[N+](C)(C)C)OC(=O)CC/C=C\C/C=C\CCCCCCCCCC
#smiles_can CCCCCCCCCCCCCCC(=O)OCC(COP(=O)([O-])OCC[N+](C)(C)C)OC(=O)CCC=CCC=CCCCCCCCCCC
#inchikey OKOJVIBHOSGPIV-JSCMVKKRSA-N
#pubchem_id 134755479
#mb_accession UT001006,UT001742,UT002478

>ms2peaks
278.200000 13.100000
415.230000 11.000000
466.350000 11.500000
657.600000 12.500000
716.210000 4.100000
728.080000 2841.200000
728.700000 47.400000
729.540000 10.900000
740.890000 11.600000
742.110000 47.500000
743.070000 53.700000

>ms2peaks
279.550000 5.700000
478.400000 14.000000
714.930000 4.000000
728.080000 1694.100000
728.780000 52.200000
741.760000 61.000000
742.410000 5.500000
743.050000 3.500000
745.510000 9.100000

>ms2peaks
278.820000 9.300000
309.210000 9.200000
715.040000 13.700000
728.080000 1500.100000
728.870000 15.600000
742.970000 16.200000
770.160000 6.700000

