>compound UT51399345
>parentmass 814.5499999999998
>ionization [M+CH3COO]-
>formula C42H78NO8P
>rt 884.400000
>profile orbitrap
#smiles_iso CCCCCCCCCCCCCC(=O)OCC(COP(=O)([O-])OCC[N+](C)(C)C)OC(=O)CC/C=C\C/C=C\C/C=C\CCCCCCCCC
#smiles_can CCCCCCCCCCCCCC(=O)OCC(COP(=O)([O-])OCC[N+](C)(C)C)OC(=O)CCC=CCC=CCC=CCCCCCCCCC
#inchikey BYFLSLXMNRHKEZ-YVCMCYLKSA-N
#pubchem_id 134722849
#mb_accession UT001002,UT001737,UT002473

>ms2
279.140000 34.900000
282.200000 9.500000
305.130000 20.800000
328.200000 19.600000
388.880000 15.700000
652.700000 31.800000
726.190000 13.500000
733.590000 6.800000
738.160000 19.600000
740.240000 2511.600000
740.960000 10.900000
750.640000 8.600000
755.140000 16.800000
764.170000 1670.600000
765.440000 15.900000
786.590000 8.000000

>ms2
279.170000 53.200000
301.010000 4.000000
740.150000 3044.400000
741.220000 7.100000
764.130000 2648.800000
765.000000 97.500000

>ms2
277.040000 5.400000
279.330000 47.900000
301.370000 28.300000
304.950000 14.300000
459.990000 10.500000
480.170000 18.600000
490.890000 25.700000
580.510000 9.300000
609.460000 8.200000
652.900000 100.600000
733.060000 11.000000
740.160000 2426.800000
741.120000 13.800000
755.360000 37.000000
764.080000 1875.400000
765.200000 100.300000

