>compound UT51769249
>parentmass 892.61
>ionization [M+CH3COO]-
>formula C48H84NO8P
>rt 1451.600000
>profile orbitrap
#smiles_iso CCCCCCCCCCCCCCCCCC(=O)OCC(COP(=O)([O-])OCC[N+](C)(C)C)OC(=O)CC/C=C\C/C=C\C/C=C\C/C=C\C/C=C\C/C=C\CC
#smiles_can CCCCCCCCCCCCCCCCCC(=O)OCC(COP(=O)([O-])OCC[N+](C)(C)C)OC(=O)CCC=CCC=CCC=CCC=CCC=CCC=CCC
#inchikey FAUYAENFVCNTAL-UFTZFNJNSA-N
#pubchem_id 24778877
#mb_accession UT001316,UT002057,UT002785

>ms2peaks
283.070000 8.600000
327.140000 14.300000
446.750000 6.900000
817.550000 562.900000
818.170000 4294.100000
833.300000 39.900000
851.210000 8.700000

>ms2peaks
327.040000 4.300000
418.970000 9.400000
508.370000 26.600000
810.670000 13.900000
818.130000 4202.600000
832.790000 5.400000

>ms2peaks
283.270000 35.200000
326.790000 25.200000
463.130000 21.300000
818.130000 4421.500000
818.860000 25.600000
832.970000 4.900000
852.830000 15.400000
875.220000 17.300000

