>compound UT51924389
>parentmass 480.31
>ionization [M-H]-
>formula C23H48NO7P
>rt 230.500000
>profile orbitrap
#smiles_iso CCCCCCCCCCCCCCCCCC(=O)OC(CO)COP(=O)(O)OCCN
#smiles_can CCCCCCCCCCCCCCCCCC(=O)OC(CO)COP(=O)(O)OCCN
#inchikey KIHAGWUUUHJRMS-UHFFFAOYSA-N
#pubchem_id 45479515
#mb_accession UT001192,UT001456,UT001934,UT002196,UT002666,UT002924

>ms2peaks
206.860000 9.300000
213.780000 348.600000
283.110000 25513.300000
284.240000 72.300000
302.730000 20.300000
371.270000 14.400000
376.320000 7.300000
418.880000 110.800000
420.320000 15.800000
463.000000 17.700000

>ms2peaks
140.220000 5.900000
195.890000 124.400000
196.820000 4.200000
213.820000 116.400000
214.870000 15.800000
255.130000 14.600000
283.130000 10813.300000
284.190000 292.800000
302.800000 10.400000
368.170000 4.200000
373.100000 20.000000
398.150000 5.900000
398.920000 12.100000
419.030000 32.000000

>ms2peaks
139.840000 28.700000
153.140000 5.000000
195.870000 373.700000
214.020000 289.500000
217.070000 7.300000
265.240000 26.600000
283.130000 24345.100000
284.240000 75.800000
298.840000 6.700000
398.580000 5.900000
418.960000 148.000000

>ms2peaks
139.910000 17.800000
152.920000 29.200000
195.980000 265.400000
213.950000 227.200000
230.930000 7.500000
255.230000 12.800000
280.940000 6.500000
283.060000 14385.200000
284.050000 186.700000
302.290000 8.100000
355.240000 8.700000
393.590000 17.700000
415.590000 10.900000
419.080000 38.500000
420.110000 5.800000
460.480000 18.000000

>ms2peaks
139.770000 6.300000
150.630000 4.900000
152.720000 15.500000
195.900000 363.400000
213.870000 184.000000
265.240000 6.500000
283.070000 19162.500000
284.190000 183.200000
406.250000 23.700000
419.310000 68.400000

>ms2peaks
195.900000 289.100000
213.950000 136.400000
255.100000 4.900000
283.060000 13712.400000
284.150000 307.200000
419.130000 53.900000
438.100000 23.300000

