>compound UT51159763
>parentmass 842.59
>ionization [M+CH3COO]-
>formula C44H82NO8P
>rt 1410.000000
>profile orbitrap
#smiles_iso CCCCCCCCCCCCCCCCCC(=O)OCC(COP(=O)([O-])OCC[N+](C)(C)C)OC(=O)CC/C=C\C/C=C\C/C=C\CCCCCCC
#smiles_can CCCCCCCCCCCCCCCCCC(=O)OCC(COP(=O)([O-])OCC[N+](C)(C)C)OC(=O)CCC=CCC=CCC=CCCCCCCC
#inchikey FAUTUPCMPPIYHO-UEZFOCAYSA-N
#pubchem_id 134728742
#mb_accession UT001042,UT001779,UT002513

>ms2peaks
277.160000 32.500000
722.960000 10.700000
768.170000 7937.700000
768.940000 17.800000
782.860000 33.700000

>ms2peaks
479.910000 13.400000
701.060000 4.800000
768.180000 2700.500000
774.340000 28.000000
783.160000 34.000000
798.460000 5.300000

>ms2peaks
277.000000 29.100000
283.120000 30.700000
305.040000 4.200000
327.130000 11.300000
391.110000 17.900000
419.010000 5.900000
532.340000 16.600000
701.060000 23.700000
768.100000 6848.000000
768.840000 22.100000
783.180000 40.300000

