>compound UT53935775
>parentmass 582.38
>ionization [M+CH3COO]-
>formula C26H54NO7P
>rt 233.500000
>profile orbitrap
#smiles_iso CCCCCCCCCCCCCCCCCC(=O)OC(CO)COP(=O)([O-])OCC[N+](C)(C)C
#smiles_can CCCCCCCCCCCCCCCCCC(=O)OC(CO)COP(=O)([O-])OCC[N+](C)(C)C
#inchikey IQGPMZRCLCCXAG-UHFFFAOYSA-N
#pubchem_id 10208382
#mb_accession UT001083,UT001347,UT001822,UT002087,UT002554,UT002816

>ms2peaks
283.160000 80.200000
418.920000 56.900000
437.380000 13.000000
463.220000 17.900000
508.100000 48062.200000
508.760000 107.500000
523.140000 115.200000

>ms2peaks
278.630000 9.300000
283.250000 37.400000
419.150000 9.400000
481.720000 18.800000
508.060000 8687.500000
508.780000 24.000000
523.110000 47.200000

>ms2peaks
223.850000 14.100000
283.290000 17.700000
419.300000 30.200000
508.010000 24192.800000
508.770000 34.700000
522.910000 77.100000
539.040000 19.300000

>ms2peaks
297.740000 6.500000
477.950000 19.500000
480.180000 21.700000
508.100000 6523.000000
508.760000 10.700000
523.160000 39.200000
546.440000 8.700000
563.850000 5.800000

>ms2peaks
283.300000 9.700000
297.930000 5.200000
462.780000 6.300000
508.120000 40567.900000
508.760000 75.300000
523.090000 70.100000
526.150000 7.400000
550.150000 5.200000
561.970000 5.300000

>ms2peaks
283.200000 24.000000
297.720000 9.400000
436.900000 4.900000
481.420000 12.000000
500.470000 9.400000
508.020000 4379.400000
508.700000 14.600000
522.980000 22.100000

