>compound UT55869097
>parentmass 554.35
>ionization [M+CH3COO]-
>formula C24H50NO7P
>rt 142.200000
>profile orbitrap
#smiles_iso CCCCCCCCCCCCCCCC(=O)OC(CO)COP(=O)([O-])OCC[N+](C)(C)C
#smiles_can CCCCCCCCCCCCCCCC(=O)OC(CO)COP(=O)([O-])OCC[N+](C)(C)C
#inchikey NEGQHKSYEYVFTD-UHFFFAOYSA-N
#pubchem_id 9827122
#mb_accession UT001344,UT002084,UT002813

>ms2
245.840000 7.400000
255.170000 31.200000
271.070000 7.300000
320.910000 12.700000
331.360000 7.900000
356.900000 29.300000
391.890000 18.000000
408.810000 4.100000
423.150000 18.200000
451.850000 11.300000
455.960000 11.800000
469.620000 6.800000
470.530000 5.100000
472.650000 23.300000
480.040000 13670.600000
480.670000 38.800000
493.140000 10.700000
495.050000 76.900000
497.400000 11.300000
511.060000 6.800000
518.150000 12.500000

>ms2
195.960000 7.800000
227.920000 7.200000
255.090000 56.200000
275.130000 11.600000
319.990000 5.000000
378.350000 7.700000
451.710000 5.400000
480.030000 13531.700000
480.670000 30.500000
490.500000 9.400000
493.440000 61.800000
494.890000 43.900000
534.700000 19.200000
535.440000 6.600000

>ms2
255.100000 110.500000
277.720000 3.800000
320.600000 6.000000
357.150000 32.900000
379.080000 13.000000
419.460000 11.300000
430.900000 6.100000
435.100000 15.600000
472.190000 16.000000
480.060000 13127.000000
492.790000 11.100000
494.080000 11.500000
494.900000 54.000000

