>compound UT56987393
>parentmass 842.59
>ionization [M+CH3COO]-
>formula C44H82NO8P
>rt 1279.100000
>profile orbitrap
#smiles_iso CCCCCCCCCCCCCCCC(=O)OCC(COP(=O)([O-])OCC[N+](C)(C)C)OC(=O)CC/C=C\C/C=C\C/C=C\CCCCCCCCC
#smiles_can CCCCCCCCCCCCCCCC(=O)OCC(COP(=O)([O-])OCC[N+](C)(C)C)OC(=O)CCC=CCC=CCC=CCCCCCCCCC
#inchikey XWDUIGPTBYOBBP-BQYMPCJESA-N
#pubchem_id 134780092
#mb_accession UT001017,UT001294,UT001753,UT002035,UT002489,UT002763

>ms2peaks
255.170000 79.100000
279.320000 15.300000
305.170000 251.800000
386.430000 10.800000
391.170000 31.700000
462.320000 8.600000
479.950000 54.600000
696.990000 27.400000
715.290000 15.900000
768.130000 41252.200000
783.080000 200.400000
783.690000 4.800000
792.040000 255.000000
792.720000 10.000000

>ms2peaks
254.820000 31.100000
255.460000 9.500000
302.810000 17.000000
305.200000 43.000000
404.740000 14.800000
696.980000 10.900000
705.030000 8.500000
748.480000 4.200000
768.120000 8794.100000
768.860000 12.700000
783.060000 53.100000

>ms2peaks
255.410000 9.600000
305.090000 340.400000
305.710000 14.800000
390.880000 29.000000
480.340000 40.000000
530.060000 19.000000
553.830000 8.100000
697.230000 23.900000
723.230000 17.100000
768.150000 42503.000000
768.790000 267.700000
783.040000 252.700000
792.160000 514.500000
792.790000 15.200000
802.990000 17.100000

>ms2peaks
255.130000 37.300000
305.160000 7.700000
760.850000 13.800000
768.170000 6605.800000
776.120000 11.900000
782.960000 22.500000
824.140000 18.900000
825.880000 16.400000

>ms2peaks
255.160000 81.900000
281.320000 22.000000
305.250000 257.600000
328.860000 10.000000
440.910000 36.000000
480.250000 61.400000
530.140000 30.600000
631.910000 28.700000
697.250000 17.200000
723.380000 12.700000
768.150000 40432.300000
768.870000 172.100000
783.120000 189.300000
792.130000 356.600000

>ms2peaks
255.350000 37.800000
304.930000 89.600000
331.260000 7.500000
359.020000 9.800000
377.370000 22.200000
557.560000 4.700000
742.080000 24.500000
755.030000 5.200000
768.160000 8847.800000
768.940000 17.900000
782.910000 48.000000
798.030000 4.700000
824.210000 11.400000

