>compound UT58032111
>parentmass 602.35
>ionization [M+CH3COO]-
>formula C28H50NO7P
>rt 112.300000
>profile orbitrap
#smiles_iso CCCCCC/C=C\C/C=C\C/C=C\C/C=C\CCC(=O)OC(CO)COP(=O)([O-])OCC[N+](C)(C)C
#smiles_can CCCCCCC=CCC=CCC=CCC=CCCC(=O)OC(CO)COP(=O)([O-])OCC[N+](C)(C)C
#inchikey XHKVQFBZSMLFNL-AILJCPQKSA-N
#pubchem_id 134778482
#mb_accession UT001092,UT001352,UT001831,UT002092,UT002563,UT002821

>ms2
303.040000 49.500000
315.700000 21.300000
460.150000 22.200000
490.780000 14.000000
527.990000 11412.300000
528.680000 22.700000
533.120000 9.400000
542.960000 91.300000
552.050000 207.700000

>ms2
303.240000 7.500000
318.540000 10.700000
422.550000 9.600000
450.660000 7.400000
459.310000 4.600000
528.080000 2782.700000

>ms2
303.140000 93.200000
425.920000 12.400000
457.220000 7.300000
528.010000 14100.700000
528.690000 57.400000
542.970000 85.500000
551.990000 49.300000

>ms2
303.180000 24.400000
504.050000 18.900000
527.470000 142.600000
528.090000 2034.900000
541.630000 19.000000
542.900000 12.000000
551.940000 39.200000
603.190000 8.200000

>ms2
241.980000 9.300000
303.210000 29.600000
460.910000 21.000000
474.010000 8.800000
528.020000 12668.700000
542.990000 71.700000
552.170000 154.000000

>ms2
203.040000 15.700000
297.870000 7.700000
426.220000 6.000000
443.170000 4.900000
528.100000 2248.800000
537.880000 13.300000
542.540000 11.800000
552.000000 117.300000
585.080000 9.400000

