>compound UT60090302
>parentmass 844.61
>ionization [M+CH3COO]-
>formula C44H84NO8P
>rt 1466.800000
>profile orbitrap
#smiles_iso CCCCCCCCCCCCC/C=C\CCC(=O)OCC(COP(=O)([O-])OCC[N+](C)(C)C)OC(=O)CC/C=C\CCCCCCCCCCCCC
#smiles_can CCCCCCCCCCCCCC=CCCC(=O)OCC(COP(=O)([O-])OCC[N+](C)(C)C)OC(=O)CCC=CCCCCCCCCCCCCC
#inchikey CTNCUXPCGXYRIB-UOALMSBLSA-N
#pubchem_id 134725171
#mb_accession UT001317,UT002058,UT002786

>ms2peaks
281.270000 391.900000
502.030000 6.200000
506.140000 29.000000
548.130000 4.400000
548.980000 18.600000
580.120000 21.300000
699.100000 8.700000
725.170000 28.600000
760.290000 9.900000
762.010000 142.800000
770.160000 43258.100000
770.850000 174.000000
784.940000 289.300000
785.680000 8.800000
808.380000 7.400000

>ms2peaks
281.200000 470.500000
306.980000 15.300000
336.070000 11.600000
487.880000 27.300000
506.300000 22.400000
534.720000 10.400000
563.320000 11.800000
742.870000 10.000000
759.840000 32.100000
761.090000 7.500000
762.430000 32.700000
770.110000 40347.900000
770.780000 113.500000
780.850000 13.800000
785.060000 230.200000

>ms2peaks
281.170000 328.100000
327.210000 17.900000
359.170000 22.800000
417.180000 24.800000
488.200000 23.200000
506.250000 47.700000
699.340000 27.000000
757.140000 15.100000
760.350000 70.500000
762.180000 55.800000
770.180000 46119.500000
780.570000 18.100000
784.960000 261.500000
823.450000 30.900000
826.840000 18.500000

