>compound UT61597591
>parentmass 878.6266666666667
>ionization [M+CH3COO]-
>formula C48H86NO7P
>rt 1751.000000
>profile orbitrap
#smiles_iso CCCCCCCCCCCCCCCCCCOCC(COP(=O)([O-])OCC[N+](C)(C)C)OC(=O)CC/C=C\C/C=C\C/C=C\C/C=C\C/C=C\C/C=C\CC
#smiles_can CCCCCCCCCCCCCCCCCCOCC(COP(=O)([O-])OCC[N+](C)(C)C)OC(=O)CCC=CCC=CCC=CCC=CCC=CCC=CCC
#inchikey QBZALASVZLFAHF-RRHSVIFUSA-N
#pubchem_id 24779342
#mb_accession UT001077,UT001815,UT002548

>ms2
517.870000 6.700000
525.050000 12.900000
763.920000 24.300000
764.780000 10.700000
784.210000 6.200000
791.030000 34.900000
795.940000 17.000000
804.290000 137.800000

>ms2
354.770000 20.800000
436.910000 20.600000
501.810000 7.100000
557.220000 15.400000
581.290000 15.400000
764.550000 36.700000
766.210000 6.900000
783.210000 28.600000
784.380000 9.200000
795.900000 5.000000
804.160000 162.200000
820.090000 16.800000

>ms2
290.030000 6.300000
501.840000 4.600000
764.060000 53.200000
766.100000 6.900000
784.130000 67.600000
804.140000 186.400000
820.540000 19.300000

