>compound UT61880015
>parentmass 792.5750000000002
>ionization [M+CH3COO]-
>formula C40H80NO8P
>rt 1621.700000
>profile orbitrap
#smiles_iso CCCCCCCCCCCCCCCC(=O)OCC(COP(=O)([O-])OCC[N+](C)(C)C)OC(=O)CCCCCCCCCCCCCCC
#smiles_can CCCCCCCCCCCCCCCC(=O)OCC(COP(=O)([O-])OCC[N+](C)(C)C)OC(=O)CCCCCCCCCCCCCCC
#inchikey KILNVBDSWZSGLL-UHFFFAOYSA-N
#pubchem_id 6138
#mb_accession UT001011,UT001287,UT001747,UT002028,UT002483,UT002756

>ms2peaks
251.420000 18.100000
255.150000 463.200000
283.080000 462.900000
283.910000 22.000000
285.040000 90.700000
286.420000 19.500000
303.170000 210.600000
309.040000 19.300000
329.130000 515.000000
330.290000 66.800000
391.240000 18.100000
480.220000 106.200000
506.220000 32.000000
647.280000 33.400000
718.160000 61620.400000
718.860000 161.000000
733.190000 148.000000
742.200000 12.200000
775.340000 20.700000

>ms2peaks
255.090000 3420.600000
480.060000 1213.300000
647.150000 406.700000
718.160000 485487.600000
718.850000 1422.200000
733.080000 3003.100000

>ms2peaks
255.100000 349.200000
283.190000 320.300000
284.500000 13.400000
285.200000 37.400000
285.840000 23.300000
303.140000 157.700000
327.530000 9.900000
329.130000 202.500000
330.000000 83.000000
462.400000 52.100000
480.120000 223.500000
508.080000 18.100000
647.290000 20.800000
673.130000 15.300000
718.160000 56168.300000
718.840000 161.800000
733.120000 420.800000

>ms2peaks
255.080000 3518.100000
328.420000 369.700000
329.490000 161.100000
336.940000 168.200000
479.420000 324.300000
480.350000 165.600000
647.020000 190.900000
718.180000 514725.900000
718.930000 903.800000
733.080000 2462.100000

>ms2peaks
255.180000 414.100000
283.140000 213.200000
284.690000 7.000000
303.090000 96.400000
309.070000 35.900000
310.280000 13.900000
311.290000 10.400000
326.660000 27.800000
327.650000 37.100000
329.190000 609.100000
330.220000 15.100000
480.280000 27.800000
481.290000 31.300000
506.300000 37.100000
507.900000 17.400000
647.270000 19.700000
718.140000 49248.800000
718.840000 101.700000
733.140000 341.000000

>ms2peaks
255.060000 4281.700000
255.710000 395.000000
391.200000 123.500000
462.320000 146.600000
464.300000 319.000000
479.900000 487.300000
647.450000 112.000000
673.190000 368.700000
718.150000 508485.700000
718.850000 2161.900000
733.060000 3180.600000

