>compound UT63850902
>parentmass 843.66
>ionization [M+CH3COO]-
>formula C45H89N2O6P
>rt 2043.200000
>profile orbitrap
#smiles_iso CCCCCCCCCCCCCCCCC/C=C\CCC(=O)N[C@H](COP(=O)([O-])OCC[N+](C)(C)C)[C@H](/C=C/CCCCCCCCCCCCC)O
#smiles_can CCCCCCCCCCCCCCCCCC=CCCC(=O)NC(COP(=O)([O-])OCC[N+](C)(C)C)C(C=CCCCCCCCCCCCCC)O
#inchikey OLJJWQULRPCSST-QMQRQSDPSA-N
#pubchem_id 134755548
#mb_accession UT001271,UT002012,UT002742

>ms2peaks
769.410000 1225.700000
784.840000 17.500000

>ms2peaks
337.310000 26.600000
769.300000 1102.700000
769.930000 6.500000
783.350000 24.600000
784.120000 15.000000

>ms2peaks
574.820000 5.800000
724.270000 8.500000
769.380000 1165.300000

