>compound UT66399587
>parentmass 830.62
>ionization [M+CH3COO]-
>formula C44H86NO7P
>rt 2188.400000
>profile orbitrap
#smiles_iso CCCCCCCCCCCCCCC/C=C\CCC(=O)OC(COCCC/C=C\CCCCCCCCCCC)COP(=O)([O-])OCC[N+](C)(C)C
#smiles_can CCCCCCCCCCCCCCCC=CCCC(=O)OC(COCCCC=CCCCCCCCCCCC)COP(=O)([O-])OCC[N+](C)(C)C
#inchikey DFWVDDDXFIDKMC-UOALMSBLSA-N
#pubchem_id 134726519
#mb_accession UT001338,UT002078,UT002807

>ms2
268.770000 8.500000
309.300000 10.200000
375.070000 13.300000
464.130000 15.200000
743.910000 23.700000
755.650000 88.700000
756.320000 829.300000
757.250000 37.900000
771.090000 5.100000
773.770000 5.100000
794.230000 42.800000
797.150000 6.200000

>ms2
280.980000 18.600000
309.900000 12.700000
337.700000 4.800000
570.250000 5.900000
705.870000 5.900000
745.640000 7.000000
753.950000 8.800000
756.200000 800.000000
757.120000 18.100000
771.290000 30.200000
773.640000 17.800000
793.930000 8.100000
795.590000 22.000000
810.840000 8.100000
830.800000 17.500000

>ms2
269.070000 13.000000
300.340000 10.500000
309.250000 7.600000
326.610000 4.800000
351.270000 5.900000
464.330000 16.400000
533.210000 13.500000
754.270000 4.800000
756.080000 861.800000
757.040000 13.500000
770.200000 11.000000
771.460000 10.400000
794.240000 109.400000
795.280000 87.600000

