>compound UT66887136
>parentmass 578.35
>ionization [M+CH3COO]-
>formula C26H50NO7P
>rt 116.600000
>profile orbitrap
#smiles_iso CCCCCCCCCC/C=C\C/C=C\CCC(=O)OC(CO)COP(=O)([O-])OCC[N+](C)(C)C
#smiles_can CCCCCCCCCCC=CCC=CCCC(=O)OC(CO)COP(=O)([O-])OCC[N+](C)(C)C
#inchikey HQNGWMLDFPEZSR-NFYLBXPESA-N
#pubchem_id 134736196
#mb_accession UT001085,UT001349,UT001824,UT002089,UT002556,UT002818

>ms2
167.890000 6.600000
241.930000 17.900000
279.100000 44.600000
503.980000 18961.400000
504.590000 63.400000
519.030000 185.900000
528.170000 228.800000
539.090000 15.700000

>ms2
201.190000 17.000000
281.250000 14.100000
402.580000 12.400000
451.910000 6.800000
478.390000 12.800000
496.580000 14.300000
503.920000 561.800000
504.600000 12.600000
528.180000 44.600000
534.370000 20.700000

>ms2
242.180000 4.000000
279.180000 179.500000
407.960000 18.800000
458.900000 6.200000
503.980000 24170.100000
504.680000 56.300000
519.040000 114.500000
522.620000 5.600000
528.100000 78.300000

>ms2
279.340000 24.900000
281.440000 12.700000
316.260000 8.200000
401.960000 4.800000
439.110000 18.500000
442.410000 16.600000
504.120000 631.300000
519.330000 11.500000
527.900000 62.400000

>ms2
504.090000 7725.000000
519.170000 29.500000
527.490000 38.500000
528.170000 161.000000
578.410000 12.200000

>ms2
338.090000 7.100000
401.700000 7.900000
442.490000 6.800000
503.020000 9.900000
504.050000 698.100000
519.010000 14.400000
528.160000 46.400000

