>compound UT70412476
>parentmass 818.59
>ionization [M+CH3COO]-
>formula C42H82NO8P
>rt 1515.200000
>profile orbitrap
#smiles_iso CCCCCCCCCCCCCCCC(=O)OCC(COP(=O)([O-])OCC[N+](C)(C)C)OC(=O)CC/C=C\CCCCCCCCCCCCC
#smiles_can CCCCCCCCCCCCCCCC(=O)OCC(COP(=O)([O-])OCC[N+](C)(C)C)OC(=O)CCC=CCCCCCCCCCCCCC
#inchikey QPHGOXQEXDWRIB-YCNYHXFESA-N
#pubchem_id 134761736
#mb_accession UT001291,UT002032,UT002760

>ms2
255.130000 1520.500000
281.110000 1628.200000
390.870000 106.200000
480.070000 380.700000
506.120000 125.100000
673.100000 172.300000
744.140000 532810.900000
744.840000 1061.900000
759.110000 3443.000000

>ms2
255.130000 1783.100000
281.220000 4249.500000
391.140000 131.100000
479.950000 230.800000
505.790000 531.100000
673.200000 324.500000
744.180000 531892.700000
744.860000 3052.800000
759.210000 2896.200000

>ms2
255.100000 2639.700000
281.150000 4179.500000
480.030000 622.000000
699.050000 478.200000
744.110000 568841.800000
744.960000 266.800000
758.700000 1442.000000
759.340000 1483.900000
804.260000 237.300000

