>compound UT71847108
>parentmass 626.35
>ionization [M+CH3COO]-
>formula C30H50NO7P
>rt 107.800000
>profile orbitrap
#smiles_iso CC/C=C\C/C=C\C/C=C\C/C=C\C/C=C\C/C=C\CCC(=O)OC(CO)COP(=O)([O-])OCC[N+](C)(C)C
#smiles_can CCC=CCC=CCC=CCC=CCC=CCC=CCCC(=O)OC(CO)COP(=O)([O-])OCC[N+](C)(C)C
#inchikey FTLVGMFFHDRYDI-WSDBEMKQSA-N
#pubchem_id 134730807
#mb_accession UT001095,UT001353,UT001835,UT002093,UT002566,UT002822

>ms2peaks
282.910000 31.300000
327.030000 140.800000
480.930000 16.300000
484.400000 22.300000
552.080000 21922.600000
566.810000 199.800000
567.460000 67.600000
570.870000 9.500000
593.650000 7.200000
596.500000 18.600000

>ms2peaks
217.510000 7.300000
261.900000 17.500000
342.740000 27.500000
402.910000 7.200000
421.720000 3.900000
465.660000 8.900000
483.940000 5.100000
484.770000 48.300000
528.330000 7.400000
529.570000 4.500000
543.860000 18.100000
545.150000 14.600000
551.970000 3779.600000
552.590000 16.200000
567.260000 7.300000
582.410000 4.700000

>ms2peaks
241.910000 26.100000
283.380000 6.700000
327.160000 87.400000
377.220000 4.500000
378.220000 18.700000
484.900000 11.200000
546.370000 11.400000
551.950000 19982.100000
552.670000 20.900000

>ms2peaks
200.980000 13.800000
298.020000 9.800000
327.260000 28.200000
342.420000 24.900000
343.370000 7.000000
385.270000 16.700000
439.030000 8.800000
484.660000 26.000000
494.170000 14.400000
496.230000 7.600000
526.130000 8.900000
551.960000 3500.400000
552.660000 27.400000
566.310000 30.700000
567.070000 20.200000
620.200000 7.700000

>ms2peaks
255.030000 14.000000
283.170000 22.900000
296.790000 6.200000
327.020000 29.700000
481.130000 11.600000
484.700000 4.800000
551.960000 22491.700000
552.610000 134.600000
566.730000 236.000000
567.350000 11.400000
582.100000 11.100000

>ms2peaks
261.510000 7.800000
283.230000 6.600000
342.690000 10.800000
366.580000 14.200000
420.910000 21.200000
422.660000 8.300000
484.850000 37.500000
506.830000 10.200000
543.880000 24.100000
551.980000 3948.400000
552.590000 18.600000
564.070000 15.200000
565.770000 21.800000
566.950000 16.600000
582.940000 24.900000
584.760000 5.400000
590.730000 30.400000

