>compound UT73206711
>parentmass 789.61
>ionization [M+CH3COO]-
>formula C41H83N2O6P
>rt 1686.500000
>profile orbitrap
#smiles_iso CCCCCCCCCCCCCCCCCC(=O)N[C@H](COP(=O)([O-])OCC[N+](C)(C)C)[C@H](/C=C/CCCCCCCCCCCCC)O
#smiles_can CCCCCCCCCCCCCCCCCC(=O)NC(COP(=O)([O-])OCC[N+](C)(C)C)C(C=CCCCCCCCCCCCCC)O
#inchikey LKQLRGMMMAHREN-GDBDMVKWSA-N
#pubchem_id 13832223
#mb_accession UT001266,UT001514,UT002007,UT002252,UT002738,UT002978

>ms2peaks
269.180000 12.900000
283.200000 117.400000
327.230000 71.600000
420.010000 12.900000
480.160000 27.900000
680.600000 6.700000
699.770000 7.900000
700.820000 10.700000
701.700000 9.500000
715.300000 6404.300000
716.090000 18.000000
730.360000 39.700000
731.250000 32.700000
747.170000 9.500000

>ms2peaks
670.600000 560.800000
702.250000 92.300000
715.310000 188804.700000
716.040000 679.400000
730.030000 830.000000
730.760000 48.400000

>ms2peaks
282.990000 87.600000
284.090000 12.300000
327.070000 27.900000
329.240000 19.100000
480.020000 44.700000
556.000000 5.300000
616.390000 20.200000
624.870000 8.600000
697.830000 21.600000
701.520000 21.500000
702.220000 17.400000
715.370000 6208.100000
730.020000 36.800000
730.690000 19.800000
746.610000 12.300000
788.350000 14.300000

>ms2peaks
283.330000 121.100000
644.200000 59.800000
715.340000 196770.100000
716.010000 419.700000
728.720000 106.100000
730.240000 1052.700000
775.920000 244.300000

>ms2peaks
269.150000 11.500000
283.300000 121.300000
309.220000 14.100000
327.150000 43.300000
421.100000 7.300000
480.160000 37.600000
701.970000 62.000000
715.390000 6501.800000
730.280000 28.700000

>ms2peaks
326.640000 127.900000
327.390000 79.900000
420.100000 98.000000
480.470000 75.100000
715.270000 203743.800000
715.950000 879.100000
730.140000 1654.300000

