>compound UT75174624
>parentmass 778.575
>ionization [M-H]-
>formula C45H82NO7P
>rt 1984.800000
>profile orbitrap
#smiles_iso CCCCCCCCCCCCCC/C=C/OCC(COP(=O)(O)OCCN)OC(=O)CC/C=C\C/C=C\C/C=C\C/C=C\CCCCCCCCCC
#smiles_can CCCCCCCCCCCCCCC=COCC(COP(=O)(O)OCCN)OC(=O)CCC=CCC=CCC=CCC=CCCCCCCCCCC
#inchikey CXLQRZCNUQQELB-FGJYPOMBSA-N
#pubchem_id 134725594
#mb_accession UT001412,UT002152

>ms2peaks
230.980000 16.100000
232.080000 13.800000
285.140000 60.400000
286.180000 74.400000
315.250000 18.200000
329.050000 498.200000
330.140000 212.700000
331.070000 28.300000
332.430000 9.900000
341.460000 7.500000
359.090000 3128.600000
360.150000 601.600000
360.760000 9.400000
403.230000 8.700000
418.330000 94.800000
419.110000 9.000000
436.120000 629.000000
437.140000 47.900000
447.210000 41.500000
464.210000 60.400000
465.220000 101.100000
466.190000 263.100000
468.110000 6.500000
548.890000 11.600000
703.600000 108.300000
704.240000 450.100000
714.030000 5.300000
719.010000 17.300000

>ms2peaks
230.110000 15.800000
284.260000 8.300000
289.420000 7.800000
305.230000 58.200000
305.890000 14.500000
307.030000 10.200000
331.320000 24.100000
333.110000 1381.300000
334.240000 189.200000
335.390000 16.800000
358.130000 6.600000
401.080000 6.100000
444.050000 48.100000
445.160000 21.400000
462.160000 207.500000
463.310000 19.600000
465.320000 5.100000
466.580000 15.500000
605.350000 17.000000
628.670000 4.900000
664.280000 9.000000
704.310000 49.800000
718.180000 6.100000

