>compound UT76788515
>parentmass 778.56
>ionization [M+CH3COO]-
>formula C39H78NO8P
>rt 1405.400000
>profile orbitrap
#smiles_iso CCCCCCCCCCCCCCCC(=O)OCC(COP(=O)([O-])OCC[N+](C)(C)C)OC(=O)CCCCCCCCCCCCCC
#smiles_can CCCCCCCCCCCCCCCC(=O)OCC(COP(=O)([O-])OCC[N+](C)(C)C)OC(=O)CCCCCCCCCCCCCC
#inchikey NPGWXTIWUUFYAB-UHFFFAOYSA-N
#pubchem_id 10122972
#mb_accession UT001286,UT002027,UT002755

>ms2
285.260000 16.600000
285.960000 8.100000
304.950000 5.800000
329.280000 20.300000
330.090000 41.300000
437.060000 13.200000
461.800000 13.700000
465.460000 29.100000
466.540000 7.000000
600.960000 12.600000
704.150000 4062.600000
704.790000 22.400000
705.590000 7.000000
726.200000 20.400000
728.380000 9.200000

>ms2
255.370000 7.800000
269.230000 43.000000
270.180000 12.300000
329.260000 39.500000
330.050000 62.700000
404.200000 7.300000
470.860000 6.700000
526.950000 11.900000
659.090000 8.400000
703.510000 184.600000
704.140000 3529.600000
704.880000 26.700000
717.610000 9.100000
718.620000 28.400000
719.590000 18.600000
741.960000 21.400000
758.530000 6.300000

>ms2
241.060000 5.500000
255.210000 6.600000
329.190000 27.700000
330.150000 27.200000
369.870000 30.500000
446.180000 5.500000
465.180000 27.400000
466.200000 12.500000
472.270000 13.600000
687.940000 9.500000
704.060000 3326.100000
704.930000 2.700000
718.510000 26.600000
719.120000 35.800000

