>compound UT77218852
>parentmass 856.61
>ionization [M+CH3COO]-
>formula C45H84NO8P
>rt 1490.200000
>profile orbitrap
#smiles_iso CCCCCCCCCCCCCCCCC(=O)OCC(COP(=O)([O-])OCC[N+](C)(C)C)OC(=O)CC/C=C\C/C=C\C/C=C\CCCCCCCCC
#smiles_can CCCCCCCCCCCCCCCCC(=O)OCC(COP(=O)([O-])OCC[N+](C)(C)C)OC(=O)CCC=CCC=CCC=CCCCCCCCCC
#inchikey WONILIINQKCSNA-XXLZVXFVSA-N
#pubchem_id 134776554
#mb_accession UT001031,UT001768,UT002503

>ms2peaks
269.320000 4.600000
283.150000 12.500000
305.280000 10.100000
418.930000 22.800000
506.400000 11.400000
546.070000 23.400000
767.230000 5.100000
769.680000 30.500000
774.310000 27.100000
781.630000 173.100000
782.270000 1008.900000
791.200000 5.700000
796.240000 8.400000

>ms2peaks
283.150000 7.300000
419.180000 36.000000
507.090000 7.100000
546.080000 4.900000
591.440000 7.300000
769.580000 39.400000
774.120000 7.000000
782.130000 1274.100000
782.860000 14.700000
790.040000 9.800000
796.260000 13.000000
837.980000 9.200000

>ms2peaks
284.210000 6.100000
296.710000 5.800000
419.000000 21.900000
420.070000 28.700000
505.860000 4.700000
546.200000 8.700000
572.920000 14.300000
731.980000 18.200000
769.170000 34.100000
774.090000 18.600000
782.230000 983.900000
790.300000 4.200000
791.560000 7.700000
796.990000 10.000000

