>compound UT77139336
>parentmass 817.64
>ionization [M+CH3COO]-
>formula C43H87N2O6P
>rt 2251.950000
>profile orbitrap
#smiles_iso CCCCCCCCCCCCCCCCCCCC(=O)N[C@H](COP(=O)([O-])OCC[N+](C)(C)C)[C@H](/C=C/CCCCCCCCCCCCC)O
#smiles_can CCCCCCCCCCCCCCCCCCCC(=O)NC(COP(=O)([O-])OCC[N+](C)(C)C)C(C=CCCCCCCCCCCCCC)O
#inchikey AADLTHQNYQJHQV-XACAWUTQSA-N
#pubchem_id 13832229
#mb_accession UT001268,UT002009,UT002253,UT002740

>ms2
286.860000 12.500000
326.970000 11.400000
433.570000 16.400000
672.360000 13.000000
698.370000 13.600000
734.070000 5.200000
743.290000 10434.100000
744.020000 41.900000
758.310000 55.200000

>ms2
403.100000 14.800000
534.270000 10.900000
680.060000 5.800000
729.330000 17.100000
741.990000 6.900000
743.300000 10411.200000
744.010000 14.900000
751.790000 15.400000
756.560000 9.000000
758.030000 54.000000
758.630000 17.700000

>ms2
628.140000 11.000000
683.520000 4.500000
684.630000 10.200000
743.400000 422.900000
744.450000 5.100000
757.530000 15.800000
781.410000 10.700000
786.970000 11.300000

>ms2
508.120000 4.200000
542.160000 8.700000
652.160000 4.200000
690.890000 6.700000
698.550000 13.800000
711.600000 7.000000
719.850000 18.500000
730.150000 8.600000
743.320000 10919.800000
744.000000 15.500000
755.420000 27.300000
757.370000 22.000000
758.250000 79.200000

