>compound UT78297509
>parentmass 894.62
>ionization [M+CH3COO]-
>formula C48H86NO8P
>rt 1576.600000
>profile orbitrap
#smiles_iso CCCCCCCCCCCCCCCCCC(=O)OCC(COP(=O)([O-])OCC[N+](C)(C)C)OC(=O)CC/C=C\C/C=C\C/C=C\C/C=C\C/C=C\CCCCC
#smiles_can CCCCCCCCCCCCCCCCCC(=O)OCC(COP(=O)([O-])OCC[N+](C)(C)C)OC(=O)CCC=CCC=CCC=CCC=CCC=CCCCCC
#inchikey GLPAGCOJQYNMCC-QBFOOBQRSA-N
#pubchem_id 24778872
#mb_accession UT001047,UT001784,UT002517

>ms2peaks
434.270000 3.700000
482.120000 4.900000
794.630000 10.000000
820.230000 822.700000
830.530000 8.800000
834.260000 8.200000

>ms2peaks
329.140000 8.700000
442.940000 5.400000
548.180000 22.900000
569.770000 5.400000
749.110000 7.600000
754.180000 15.500000
806.260000 9.900000
814.780000 9.100000
818.870000 14.700000
819.630000 60.200000
820.260000 859.100000

>ms2peaks
329.120000 9.600000
731.700000 8.500000
818.930000 10.700000
820.190000 1032.500000

