>compound UT81403968
>parentmass 866.59
>ionization [M+CH3COO]-
>formula C46H82NO8P
>rt 1110.000000
>profile orbitrap
#smiles_iso CCCCCCCCCCCCCCCC(=O)OCC(COP(=O)([O-])OCC[N+](C)(C)C)OC(=O)CC/C=C\C/C=C\C/C=C\C/C=C\C/C=C\CCCCC
#smiles_can CCCCCCCCCCCCCCCC(=O)OCC(COP(=O)([O-])OCC[N+](C)(C)C)OC(=O)CCC=CCC=CCC=CCC=CCC=CCCCCC
#inchikey MWXAIAMSOXOQJK-TZCDOOIHSA-N
#pubchem_id 24778736
#mb_accession UT001020,UT001298,UT001756,UT002039,UT002492,UT002767

>ms2
698.310000 6.700000
792.120000 2109.500000
847.890000 7.500000

>ms2
566.000000 11.700000
765.080000 8.400000
778.980000 16.400000
792.100000 341.200000

>ms2
329.100000 6.300000
404.700000 29.200000
543.500000 4.600000
721.400000 11.200000
791.570000 374.100000
792.190000 3210.200000
806.560000 15.700000
848.080000 42.300000

>ms2
522.060000 8.400000
527.990000 24.200000
791.990000 136.500000
792.680000 8.300000

>ms2
255.360000 12.600000
280.960000 7.800000
329.270000 12.200000
562.330000 13.800000
765.160000 4.200000
790.060000 6.000000
791.490000 67.500000
792.230000 2833.900000
807.160000 11.500000
846.350000 11.600000

>ms2
262.110000 14.700000
303.470000 12.200000
419.030000 7.400000
540.700000 4.500000
792.110000 249.800000
848.260000 35.100000

