>compound UT82240042
>parentmass 604.36
>ionization [M+CH3COO]-
>formula C28H52NO7P
>rt 125.400000
>profile orbitrap
#smiles_iso CCCCCCCCC/C=C\C/C=C\C/C=C\CCC(=O)OC(CO)COP(=O)([O-])OCC[N+](C)(C)C
#smiles_can CCCCCCCCCC=CCC=CCC=CCCC(=O)OC(CO)COP(=O)([O-])OCC[N+](C)(C)C
#inchikey BLWVEPQPFFTFIJ-BYBPBHJYSA-N
#pubchem_id 134721451
#mb_accession UT001091,UT001830,UT002562

>ms2
302.760000 7.200000
305.180000 17.400000
369.060000 26.300000
530.040000 3886.900000
530.680000 13.300000
531.290000 13.400000
543.830000 8.900000
545.020000 43.100000
552.250000 17.500000
554.110000 16.200000

>ms2
305.330000 6.200000
319.980000 14.000000
442.930000 20.100000
521.410000 11.600000
530.060000 4741.900000
530.700000 22.300000
543.670000 27.100000
544.810000 34.100000
551.930000 9.000000

>ms2
305.280000 24.700000
424.200000 9.900000
451.240000 19.700000
462.460000 18.900000
504.180000 16.100000
530.000000 4343.500000
530.800000 23.500000
541.220000 8.100000
543.350000 11.000000
544.470000 30.800000
545.070000 7.000000
563.190000 4.700000
574.220000 33.800000
586.030000 8.800000

