>compound UT83488831
>parentmass 866.5899999999999
>ionization [M+CH3COO]-
>formula C46H82NO8P
>rt 1060.440000
>profile orbitrap
#smiles_iso CCCCCCCCCCCCC/C=C\CCC(=O)OCC(COP(=O)([O-])OCC[N+](C)(C)C)OC(=O)CC/C=C\C/C=C\C/C=C\C/C=C\CCCCCC
#smiles_can CCCCCCCCCCCCCC=CCCC(=O)OCC(COP(=O)([O-])OCC[N+](C)(C)C)OC(=O)CCC=CCC=CCC=CCC=CCCCCCC
#inchikey HYDKDXOLAXLJKA-ICTLDNOWSA-N
#pubchem_id 134737026
#mb_accession UT001050,UT001319,UT001787,UT002060,UT002520

>ms2
792.160000 562.300000
815.990000 5.400000
823.460000 6.000000

>ms2
281.160000 21.100000
792.130000 1290.400000
807.100000 13.500000

>ms2
536.500000 6.500000
774.130000 6.000000
778.720000 19.200000
792.130000 439.200000
848.020000 24.700000

>ms2
280.900000 4.100000
791.500000 66.700000
792.130000 1097.000000
804.320000 8.200000
806.890000 5.800000

>ms2
327.220000 13.700000
505.730000 8.400000
792.180000 1670.300000
807.020000 50.700000

