>compound UT84745501
>parentmass 838.56
>ionization [M+CH3COO]-
>formula C44H78NO8P
>rt 670.200000
>profile orbitrap
#smiles_iso CCCCCCCCCC/C=C\C/C=C\CCC(=O)OC(COC(=O)CC/C=C\C/C=C\C/C=C\CCCCCCC)COP(=O)([O-])OCC[N+](C)(C)C
#smiles_can CCCCCCCCCCC=CCC=CCCC(=O)OC(COC(=O)CCC=CCC=CCC=CCCCCCCC)COP(=O)([O-])OCC[N+](C)(C)C
#inchikey JEJPTXPTKMRSCT-VNUOCOMJSA-N
#pubchem_id 134740617
#mb_accession UT001055,UT001792,UT002525

>ms2
279.190000 6.500000
413.050000 17.200000
501.880000 5.400000
552.470000 15.500000
730.870000 5.900000
762.300000 12.300000
764.100000 3087.000000
764.760000 7.200000
771.720000 22.500000
779.050000 16.300000
781.340000 11.500000
788.060000 373.000000
806.040000 39.000000

>ms2
277.220000 24.600000
279.020000 9.300000
282.940000 11.500000
501.960000 24.100000
580.800000 5.600000
730.630000 15.400000
751.430000 8.400000
761.940000 5.100000
763.380000 194.100000
764.140000 3703.200000
779.380000 12.700000
788.020000 348.800000
788.690000 15.100000

>ms2
283.280000 5.500000
328.240000 9.400000
542.390000 15.600000
737.870000 16.700000
756.400000 15.100000
764.170000 4184.700000
779.130000 7.100000
781.000000 15.100000
787.990000 307.800000
788.640000 25.900000

