>compound UT84371689
>parentmass 828.5766666666667
>ionization [M+CH3COO]-
>formula C43H80NO8P
>rt 976.600000
>profile orbitrap
#smiles_iso CCCCCCCCCCCC/C=C\CCC(=O)OCC(COP(=O)([O-])OCC[N+](C)(C)C)OC(=O)CC/C=C\C/C=C\CCCCCCCCCC
#smiles_can CCCCCCCCCCCCC=CCCC(=O)OCC(COP(=O)([O-])OCC[N+](C)(C)C)OC(=O)CCC=CCC=CCCCCCCCCCC
#inchikey FNRBLPPAKRRBCG-QGRKPBPISA-N
#pubchem_id 134730182
#mb_accession UT001036,UT001772,UT002507

>ms2peaks
279.560000 8.100000
391.140000 18.200000
392.340000 15.400000
463.190000 7.400000
517.970000 43.000000
590.280000 12.500000
682.930000 17.000000
741.220000 5.800000
742.160000 20.900000
754.160000 3357.000000
755.010000 70.500000
769.360000 46.400000
778.270000 24.300000

>ms2peaks
278.960000 38.200000
390.980000 9.700000
594.980000 10.100000
740.150000 43.000000
741.210000 34.700000
746.050000 13.200000
754.130000 3676.500000
754.850000 34.100000
755.480000 15.700000
769.040000 14.200000
778.180000 11.400000

>ms2peaks
255.380000 10.300000
261.690000 4.700000
267.140000 5.600000
279.010000 16.100000
281.360000 17.100000
391.390000 11.600000
462.750000 8.700000
517.980000 13.200000
630.990000 14.900000
636.500000 7.500000
740.560000 66.600000
741.220000 32.000000
745.970000 6.300000
754.120000 3513.900000
755.080000 16.800000
769.540000 18.900000
771.100000 4.700000
777.960000 10.600000

