>compound UT85879016
>parentmass 860.64
>ionization [M+CH3COO]-
>formula C45H88NO8P
>rt 2300.600000
>profile orbitrap
#smiles_iso CCCCCCCCCCCCCCCCCCC(=O)OCC(COP(=O)([O-])OCC[N+](C)(C)C)OC(=O)CC/C=C\CCCCCCCCCCCCC
#smiles_can CCCCCCCCCCCCCCCCCCC(=O)OCC(COP(=O)([O-])OCC[N+](C)(C)C)OC(=O)CCC=CCCCCCCCCCCCCC
#inchikey QKEFIMCGHFOKRT-YJKCNMNRSA-N
#pubchem_id 134761165
#mb_accession UT001057,UT001793,UT002526

>ms2
341.290000 7.400000
519.140000 10.900000
546.040000 17.500000
565.950000 10.200000
575.180000 10.200000
645.800000 10.900000
772.640000 9.800000
774.260000 17.000000
774.900000 15.600000
786.210000 432.200000
786.840000 2.400000
808.150000 6.800000
817.920000 23.800000
824.360000 5.200000

>ms2
311.220000 6.300000
419.030000 6.400000
770.640000 6.600000
786.150000 509.400000
798.690000 28.800000
824.040000 16.800000
825.310000 16.900000

>ms2
282.920000 9.100000
438.820000 26.700000
545.910000 8.000000
772.970000 17.900000
786.290000 334.500000
817.010000 6.000000
860.620000 10.500000

