>compound UT85523433
>parentmass 896.64
>ionization [M+CH3COO]-
>formula C48H88NO8P
>rt 1874.400000
>profile orbitrap
#smiles_iso CCCCCCCCCCCCCCCCCC(=O)OCC(COP(=O)([O-])OCC[N+](C)(C)C)OC(=O)CC/C=C\C/C=C\C/C=C\C/C=C\CCCCCCCC
#smiles_can CCCCCCCCCCCCCCCCCC(=O)OCC(COP(=O)([O-])OCC[N+](C)(C)C)OC(=O)CCC=CCC=CCC=CCC=CCCCCCCCC
#inchikey FNYFFQAOWZRPMR-TZYRSRCUSA-N
#pubchem_id 134730217
#mb_accession UT001315,UT002056,UT002784

>ms2peaks
309.450000 7.500000
328.160000 7.500000
558.170000 4.700000
559.430000 4.100000
568.560000 5.300000
586.440000 26.200000
587.130000 15.900000
751.200000 30.600000
761.830000 6.900000
811.230000 36.000000
812.020000 12.000000
821.570000 49.800000
822.310000 407.500000
849.840000 8.100000
896.160000 27.600000

>ms2peaks
574.620000 14.000000
821.610000 40.700000
822.250000 334.000000
848.640000 16.500000
859.640000 9.600000
864.030000 7.100000

>ms2peaks
338.300000 17.800000
503.220000 7.000000
505.250000 17.600000
525.260000 10.400000
541.270000 7.600000
557.940000 51.300000
568.090000 14.500000
586.430000 9.300000
587.220000 8.700000
622.160000 39.800000
777.290000 7.000000
783.140000 12.400000
810.940000 6.500000
822.170000 462.800000
836.420000 22.900000
837.470000 8.700000
878.060000 5.900000
879.150000 26.300000
896.370000 13.200000

