>compound UT86555819
>parentmass 606.38
>ionization [M+CH3COO]-
>formula C28H54NO7P
>rt 149.000000
>profile orbitrap
#smiles_iso CCCCCCCCCCCC/C=C\C/C=C\CCC(=O)OC(CO)COP(=O)([O-])OCC[N+](C)(C)C
#smiles_can CCCCCCCCCCCCC=CCC=CCCC(=O)OC(CO)COP(=O)([O-])OCC[N+](C)(C)C
#inchikey UYFMNJBGVSPBGJ-LTXDKZCQSA-N
#pubchem_id 134772116
#mb_accession UT001090,UT001829,UT002561

>ms2peaks
480.150000 10.700000
532.070000 527.900000
542.390000 7.700000
579.570000 7.700000
587.760000 11.700000

>ms2peaks
410.110000 21.500000
463.260000 27.000000
478.910000 8.300000
493.060000 4.000000
501.710000 17.900000
517.160000 17.900000
518.790000 8.300000
523.970000 22.300000
532.140000 696.800000
533.870000 10.700000
535.260000 10.000000
540.640000 6.600000
545.990000 10.000000

>ms2peaks
464.200000 5.200000
516.220000 14.200000
518.110000 6.300000
523.800000 16.100000
527.480000 13.400000
531.360000 19.000000
532.110000 468.100000
563.370000 19.400000

