>compound UT87436180
>parentmass 452.2799999999999
>ionization [M-H]-
>formula C21H44NO7P
>rt 155.500000
>profile orbitrap
#smiles_iso CCCCCCCCCCCCCCCC(=O)OC(CO)COP(=O)(O)OCCN
#smiles_can CCCCCCCCCCCCCCCC(=O)OC(CO)COP(=O)(O)OCCN
#inchikey CKPBBEOJHAPPBT-UHFFFAOYSA-N
#pubchem_id 45479260
#mb_accession UT001190,UT001455,UT001932,UT002195,UT002664,UT002923

>ms2peaks
139.820000 18.200000
153.000000 31.500000
195.940000 772.000000
213.900000 533.100000
236.980000 3.200000
255.060000 33161.600000
274.620000 8.800000
391.050000 110.300000
391.920000 7.700000
407.590000 4.900000

>ms2peaks
140.060000 6.200000
152.820000 35.700000
195.920000 193.500000
213.920000 141.200000
255.080000 8443.500000
256.340000 13.500000
408.030000 6.200000
409.390000 8.400000
420.150000 27.500000

>ms2peaks
140.000000 40.700000
152.920000 18.100000
195.920000 826.000000
213.940000 471.900000
255.090000 29466.300000
391.060000 62.300000

>ms2peaks
139.920000 11.300000
152.990000 33.200000
195.870000 257.900000
213.900000 155.400000
221.680000 7.700000
245.900000 8.800000
255.010000 12451.100000
255.670000 14.200000
279.170000 9.700000
390.910000 27.000000
409.180000 4.900000
409.990000 14.800000

>ms2peaks
195.760000 6.300000
213.960000 16.100000
255.050000 990.800000
255.710000 15.700000
282.080000 8.000000
288.640000 7.500000
315.700000 11.500000
322.970000 9.700000
373.030000 6.300000
406.300000 17.000000
420.060000 5.400000

>ms2peaks
139.600000 23.100000
152.860000 13.000000
196.010000 168.800000
213.990000 212.700000
255.150000 8660.200000
256.410000 19.600000
274.380000 25.300000
391.140000 27.900000
419.050000 6.500000
434.220000 6.600000

