>compound UT87699326
>parentmass 750.5099999999999
>ionization [M-H]-
>formula C42H74NO8P
>rt 929.200000
>profile orbitrap
#smiles_iso CCCCCCCCCCCC/C=C\CCC(=O)OCC(COP(=O)(O)OCCN)OC(=O)CC/C=C\C/C=C\C/C=C\C/C=C\CCCCCC
#smiles_can CCCCCCCCCCCCC=CCCC(=O)OCC(COP(=O)(O)OCCN)OC(=O)CCC=CCC=CCC=CCC=CCCCCCC
#inchikey BTWJFQUCIMQURY-RQZMTRGUSA-N
#pubchem_id 134722351
#mb_accession UT001372,UT002113,UT002841

>ms2peaks
259.200000 23.000000
260.080000 10.300000
267.170000 82.900000
303.090000 120.100000
438.150000 10.400000
446.250000 10.200000
451.110000 11.900000
464.010000 20.200000
499.760000 13.000000
690.720000 7.500000
700.320000 6.300000
732.300000 21.300000

>ms2peaks
259.310000 20.300000
267.130000 105.000000
303.060000 162.400000
304.170000 15.000000
396.950000 14.200000
494.150000 15.600000
642.980000 8.500000
668.250000 15.700000
690.470000 7.300000
693.120000 12.900000
705.770000 10.700000
751.000000 6.700000

>ms2peaks
267.090000 19.800000
303.100000 131.100000
304.230000 13.100000
464.210000 27.600000
500.210000 21.500000
642.500000 6.800000
693.210000 13.800000
733.280000 10.800000

