>compound UT88241607
>parentmass 826.56
>ionization [M+CH3COO]-
>formula C43H78NO8P
>rt 719.400000
>profile orbitrap
#smiles_iso CCCCCCCCCC/C=C\C/C=C\CCC(=O)OC(COC(=O)CC/C=C\C/C=C\CCCCCCCCC)COP(=O)([O-])OCC[N+](C)(C)C
#smiles_can CCCCCCCCCCC=CCC=CCCC(=O)OC(COC(=O)CCC=CCC=CCCCCCCCCC)COP(=O)([O-])OCC[N+](C)(C)C
#inchikey GTDQVCDADITTFR-IXGWNOPWSA-N
#pubchem_id 134733609
#mb_accession UT001037,UT001774,UT002508

>ms2peaks
278.840000 13.200000
347.060000 19.500000
580.980000 7.000000
744.380000 13.600000
749.710000 7.000000
752.150000 623.800000
753.120000 28.800000
765.830000 28.000000
767.660000 12.600000

>ms2peaks
255.030000 8.000000
347.020000 20.900000
658.830000 14.300000
728.470000 10.000000
751.500000 122.300000
752.220000 534.200000
753.190000 32.000000
775.600000 20.700000
776.360000 9.700000

>ms2peaks
279.120000 7.800000
303.370000 6.100000
347.100000 7.300000
751.570000 20.300000
752.200000 376.800000
753.200000 9.500000
762.470000 7.300000
765.530000 6.700000
766.350000 23.400000
777.170000 20.800000
810.480000 9.500000

