>compound UT93372967
>parentmass 838.56
>ionization [M+CH3COO]-
>formula C44H78NO8P
>rt 869.400000
>profile orbitrap
#smiles_iso CCCCCCCCCCCCCCCC(=O)OCC(COP(=O)([O-])OCC[N+](C)(C)C)OC(=O)CC/C=C\C/C=C\C/C=C\C/C=C\C/C=C\CCC
#smiles_can CCCCCCCCCCCCCCCC(=O)OCC(COP(=O)([O-])OCC[N+](C)(C)C)OC(=O)CCC=CCC=CCC=CCC=CCC=CCCC
#inchikey RKFHFBWDNSYADY-SNIIIARXSA-N
#pubchem_id 134764084
#mb_accession UT001019,UT001755,UT002491

>ms2peaks
255.150000 51.900000
283.320000 22.000000
284.010000 8.500000
301.130000 237.700000
303.200000 16.100000
309.260000 13.400000
327.300000 23.200000
331.320000 7.900000
391.050000 22.800000
409.220000 5.500000
480.020000 31.400000
522.110000 6.700000
523.990000 7.300000
528.200000 27.300000
692.960000 10.300000
719.320000 10.900000
730.760000 13.900000
764.060000 33003.000000
764.840000 42.300000
778.970000 129.400000
779.910000 15.600000

>ms2peaks
254.830000 18.000000
257.070000 29.100000
283.140000 14.200000
301.040000 204.800000
479.990000 49.200000
526.080000 25.100000
694.310000 35.400000
719.120000 18.100000
720.180000 20.800000
764.150000 33973.300000
778.840000 162.400000
779.450000 43.800000

>ms2peaks
255.140000 51.900000
301.050000 218.600000
303.060000 18.000000
331.180000 10.700000
480.260000 86.800000
528.460000 15.100000
719.090000 8.900000
764.080000 37936.800000
764.850000 76.300000
779.060000 304.500000

