>compound UT94743262
>parentmass 782.57
>ionization [M-H]-
>formula C44H82NO8P
>rt 2086.800000
>profile orbitrap
#smiles_iso CCCCCCCCCCCCCCCCCCC(=O)OCC(COP(=O)(O)OCCN)OC(=O)CC/C=C\C/C=C\C/C=C\CCCCCCCCC
#smiles_can CCCCCCCCCCCCCCCCCCC(=O)OCC(COP(=O)(O)OCCN)OC(=O)CCC=CCC=CCC=CCCCCCCCCC
#inchikey WHRINFUMSAOXIM-UEZFOCAYSA-N
#pubchem_id 134775841
#mb_accession UT001886,UT002619

>ms2peaks
297.090000 158.800000
298.350000 23.200000
304.980000 306.400000
306.280000 52.100000
325.130000 10.900000
476.340000 23.800000
494.220000 91.700000
502.070000 13.200000
577.600000 6.900000
606.120000 14.500000
695.060000 9.800000
696.340000 6.400000
699.540000 8.900000
709.610000 12.000000
714.630000 11.100000
723.780000 5.200000
725.720000 15.100000
749.910000 9.800000

>ms2peaks
279.290000 12.000000
297.150000 64.700000
298.270000 23.800000
305.120000 188.900000
306.160000 14.500000
422.890000 12.400000
494.040000 37.300000
502.410000 11.700000
550.320000 15.300000
553.660000 9.600000
577.640000 14.600000
643.060000 8.400000
695.300000 54.700000
696.140000 17.200000
699.570000 5.000000
700.460000 20.700000
709.830000 16.900000
723.120000 44.200000
725.420000 5.600000
752.370000 12.400000

