>compound UT94484546
>parentmass 780.59
>ionization [M-H]-
>formula C45H84NO7P
>rt 2312.600000
>profile orbitrap
#smiles_iso CCCCCCCCCCCCCCCCCCOCC(COP(=O)(O)OCCN)OC(=O)CC/C=C\C/C=C\C/C=C\C/C=C\CCCCCCCC
#smiles_can CCCCCCCCCCCCCCCCCCOCC(COP(=O)(O)OCCN)OC(=O)CCC=CCC=CCC=CCC=CCCCCCCCC
#inchikey ZGPUIIVBMRUOLZ-CXMGKGRNSA-N
#pubchem_id 134784032
#mb_accession UT001451,UT002191,UT002919

>ms2
233.140000 40.700000
233.910000 9.700000
279.150000 16.000000
287.130000 231.800000
288.220000 8.500000
303.080000 8.600000
307.280000 10.300000
314.130000 10.800000
331.090000 3618.300000
332.160000 579.700000
335.060000 25.500000
336.190000 26.600000
338.190000 18.100000
361.270000 26.000000
362.170000 18.700000
405.170000 20.400000
419.070000 8.000000
423.290000 10.200000
448.110000 187.200000
449.380000 45.300000
452.980000 8.100000
462.190000 4.000000
466.130000 1436.200000
467.160000 188.300000
718.930000 37.400000
780.690000 21.600000

>ms2
233.350000 4.600000
279.280000 5.700000
279.980000 12.500000
287.200000 75.700000
288.390000 6.900000
306.690000 21.200000
307.330000 35.200000
308.290000 5.700000
309.320000 19.000000
313.300000 10.200000
331.100000 2192.000000
332.170000 407.400000
334.970000 40.700000
336.220000 64.300000
337.070000 213.300000
338.190000 40.800000
405.000000 32.300000
406.250000 10.300000
442.160000 4.700000
448.260000 99.900000
449.050000 9.700000
459.780000 6.900000
460.960000 7.400000
462.260000 22.100000
466.140000 864.300000
467.250000 110.500000
490.380000 22.100000
491.270000 10.300000
705.390000 11.700000
720.250000 18.400000
720.870000 14.800000
762.150000 16.800000

>ms2
233.290000 16.600000
239.120000 8.900000
281.580000 17.900000
287.230000 193.800000
288.470000 18.700000
306.920000 21.500000
329.400000 8.600000
331.090000 4166.500000
332.150000 648.200000
334.960000 22.600000
361.220000 34.000000
405.320000 26.900000
406.270000 9.900000
436.510000 8.800000
445.660000 14.800000
448.310000 135.100000
449.230000 27.500000
464.280000 16.800000
466.210000 1217.300000
467.220000 200.000000
467.850000 4.500000

