>compound UT95766785
>parentmass 847.69
>ionization [M+CH3COO]-
>formula C45H93N2O6P
>rt 2748.400000
>profile orbitrap
#smiles_iso CCCCCCCCCCCCCCCCCCCCCC(=O)N[C@H](COP(=O)([O-])OCC[N+](C)(C)C)[C@H](CCCCCCCCCCCCCCC)O
#smiles_can CCCCCCCCCCCCCCCCCCCCCC(=O)NC(COP(=O)([O-])OCC[N+](C)(C)C)C(CCCCCCCCCCCCCCC)O
#inchikey FONAXCRWZQFJHY-GWRSVMHXSA-N
#pubchem_id 134730289
#mb_accession UT001261,UT002002,UT002733

>ms2peaks
301.100000 34.300000
475.180000 14.700000
499.040000 10.100000
513.890000 15.200000
633.440000 9.000000
667.130000 25.900000
761.060000 9.600000
765.310000 20.700000
765.940000 15.800000
772.790000 98.800000
773.500000 1095.800000
782.710000 12.400000
787.790000 20.900000
797.460000 15.700000

>ms2peaks
367.030000 8.000000
432.870000 27.900000
647.390000 14.800000
765.270000 21.700000
771.640000 13.300000
773.450000 1124.400000
787.940000 20.200000
788.680000 8.600000

>ms2peaks
301.030000 21.400000
698.960000 6.400000
755.910000 14.800000
771.300000 9.800000
773.440000 1346.700000
788.470000 9.900000
830.260000 17.800000

