>compound UT96867712
>parentmass 502.29
>ionization [M-H]-
>formula C25H46NO7P
>rt 127.800000
>profile orbitrap
#smiles_iso CCCCCCCCC/C=C\C/C=C\C/C=C\CCC(=O)OC(CO)COP(=O)(O)OCCN
#smiles_can CCCCCCCCCC=CCC=CCC=CCCC(=O)OC(CO)COP(=O)(O)OCCN
#inchikey BGJVXSMYONPLDN-NWFXIAEYSA-N
#pubchem_id 134720854
#mb_accession UT001197,UT001939,UT002671

>ms2peaks
152.870000 15.000000
213.880000 7.400000
305.060000 1429.900000
306.110000 133.300000
328.900000 16.800000
352.770000 32.000000
358.570000 22.000000
361.190000 12.300000
420.730000 8.400000
441.290000 11.600000

>ms2peaks
213.820000 14.300000
302.980000 9.600000
305.100000 1306.900000
306.280000 95.400000
321.860000 8.500000
343.790000 9.000000
359.580000 30.100000
382.890000 16.000000
417.330000 18.400000
420.310000 25.000000
429.620000 18.200000
436.660000 16.600000
442.640000 6.600000

>ms2peaks
211.770000 14.300000
213.810000 12.600000
259.060000 26.300000
279.030000 15.200000
303.050000 16.100000
305.060000 1463.700000
306.040000 45.600000
325.090000 11.800000
359.660000 6.400000
411.320000 8.900000
421.000000 11.100000
427.580000 15.300000
444.830000 13.600000

