>compound UT97060298
>parentmass 814.565
>ionization [M+CH3COO]-
>formula C42H78NO8P
>rt 803.500000
>profile orbitrap
#smiles_iso CCCCCCCCCCC/C=C\CCC(=O)OCC(COP(=O)([O-])OCC[N+](C)(C)C)OC(=O)CC/C=C\C/C=C\CCCCCCCCCC
#smiles_can CCCCCCCCCCCC=CCCC(=O)OCC(COP(=O)([O-])OCC[N+](C)(C)C)OC(=O)CCC=CCC=CCCCCCCCCCC
#inchikey XSSJXFBQZLYYFK-TVGXXSNYSA-N
#pubchem_id 134779702
#mb_accession UT001024,UT001301,UT001761,UT002042,UT002496,UT002770

>ms2peaks
253.340000 30.900000
255.180000 22.100000
279.150000 240.800000
283.070000 15.900000
285.290000 6.800000
305.120000 40.900000
306.420000 45.600000
308.200000 11.900000
327.030000 130.200000
327.950000 64.100000
388.930000 9.600000
503.370000 23.400000
505.240000 8.900000
669.310000 9.800000
727.960000 20.200000
740.140000 18513.600000
740.900000 65.900000
754.940000 79.400000
755.630000 8.400000
764.200000 30.800000

>ms2peaks
282.950000 72.500000
284.300000 24.600000
305.100000 65.900000
306.120000 92.900000
327.120000 51.300000
328.130000 38.200000
329.080000 37.900000
415.160000 5.100000
425.640000 10.200000
484.340000 14.000000
502.110000 35.900000
503.120000 8.500000
524.210000 15.600000
532.050000 6.900000
540.410000 14.700000
683.860000 13.000000
723.160000 19.300000
732.160000 16.300000
740.070000 544.300000

>ms2peaks
253.260000 49.300000
255.000000 30.400000
279.140000 202.400000
283.150000 51.800000
283.930000 19.300000
285.080000 10.300000
305.140000 54.400000
305.930000 51.200000
327.380000 44.600000
328.250000 40.700000
487.060000 23.000000
503.320000 11.400000
505.220000 52.000000
558.730000 9.700000
577.170000 30.500000
609.070000 6.700000
653.310000 5.300000
740.100000 19281.400000
740.980000 55.600000
748.020000 6.600000
755.080000 115.100000
764.110000 24.300000
797.010000 25.100000

>ms2peaks
279.310000 11.500000
283.130000 44.900000
284.540000 16.700000
305.090000 40.300000
307.150000 18.600000
327.040000 48.300000
328.080000 42.100000
369.340000 15.500000
470.680000 7.600000
502.310000 22.700000
503.190000 29.100000
532.310000 12.200000
652.970000 20.300000
740.070000 714.900000
740.940000 19.300000
764.210000 8.100000
793.610000 9.300000
796.670000 8.700000

>ms2peaks
253.200000 54.800000
255.230000 22.300000
279.050000 119.700000
282.850000 24.400000
284.170000 10.800000
305.280000 36.300000
306.330000 6.100000
326.970000 62.500000
328.290000 25.700000
460.010000 5.500000
477.910000 11.800000
486.080000 17.000000
502.320000 13.600000
503.020000 25.100000
505.170000 60.300000
525.120000 13.300000
559.080000 19.900000
576.790000 37.000000
577.490000 11.900000
652.740000 12.900000
727.400000 12.500000
740.110000 20240.000000
740.780000 66.200000
753.560000 5.500000
755.060000 92.200000
764.230000 34.600000
796.940000 39.600000

>ms2peaks
283.340000 37.200000
305.090000 60.500000
306.280000 7.100000
307.250000 6.600000
327.280000 56.600000
328.410000 12.600000
498.150000 10.800000
502.160000 27.200000
503.060000 63.100000
524.190000 7.800000
608.240000 10.900000
652.730000 6.400000
670.580000 20.000000
706.080000 9.700000
727.210000 49.100000
740.100000 580.600000
741.020000 6.600000
754.450000 44.900000
757.550000 4.900000

