>compound UT97478029
>parentmass 526.31
>ionization [M+CH3COO]-
>formula C22H46NO7P
>rt 117.000000
>profile orbitrap
#smiles_iso CCCCCCCCCCCCCC(=O)OC(CO)COP(=O)([O-])OCC[N+](C)(C)C
#smiles_can CCCCCCCCCCCCCC(=O)OC(CO)COP(=O)([O-])OCC[N+](C)(C)C
#inchikey IGZPHNNYPPAPLA-UHFFFAOYSA-N
#pubchem_id 22472194
#mb_accession UT001343,UT002083,UT002812

>ms2peaks
196.080000 7.300000
198.060000 13.000000
200.830000 10.800000
213.870000 21.000000
216.880000 5.700000
229.780000 17.500000
283.250000 57.000000
284.160000 74.500000
285.050000 130.300000
300.750000 8.300000
302.930000 40.300000
327.210000 30.500000
328.160000 86.200000
329.130000 360.400000
330.170000 76.000000
343.010000 20.500000
384.710000 6.200000
397.020000 13.600000
428.120000 14.600000
440.320000 5.700000
452.040000 4454.700000
452.670000 18.300000
465.150000 18.700000
466.390000 21.700000
467.340000 32.000000
468.600000 23.600000
469.410000 5.100000
482.070000 7.800000
493.640000 14.700000
525.330000 7.900000

>ms2peaks
177.640000 13.200000
191.170000 40.200000
192.160000 30.700000
195.870000 17.500000
213.700000 5.600000
215.040000 6.700000
229.540000 15.800000
249.960000 19.700000
283.210000 107.300000
284.190000 74.100000
285.100000 154.600000
300.940000 16.700000
302.890000 29.900000
327.090000 97.900000
328.140000 224.300000
329.090000 684.600000
330.260000 77.300000
345.020000 23.500000
428.280000 9.400000
452.040000 3173.000000
452.670000 5.200000
454.430000 6.600000
466.120000 41.300000
467.140000 21.500000
467.980000 8.800000
470.750000 13.200000

>ms2peaks
189.060000 16.700000
200.650000 26.000000
214.060000 17.500000
223.150000 24.500000
229.200000 11.200000
230.310000 9.300000
231.490000 16.500000
279.890000 13.900000
282.900000 9.100000
284.060000 80.900000
285.170000 55.700000
286.020000 24.700000
302.690000 124.700000
327.120000 14.300000
328.200000 69.700000
329.130000 438.600000
330.230000 34.700000
362.990000 27.000000
363.660000 11.200000
397.040000 15.700000
411.280000 11.200000
416.620000 12.900000
421.960000 9.500000
424.640000 10.500000
426.270000 10.500000
428.030000 12.900000
444.460000 18.300000
452.020000 2591.000000
452.670000 14.600000
465.240000 12.700000
467.540000 20.200000
493.550000 20.000000
501.820000 7.700000

