>compound UT99492008
>parentmass 866.59
>ionization [M+CH3COO]-
>formula C46H82NO8P
>rt 1301.600000
>profile orbitrap
#smiles_iso CCCCCCCCCCCCCCCCCC(=O)OCC(COP(=O)([O-])OCC[N+](C)(C)C)OC(=O)CC/C=C\C/C=C\C/C=C\C/C=C\C/C=C\CCC
#smiles_can CCCCCCCCCCCCCCCCCC(=O)OCC(COP(=O)([O-])OCC[N+](C)(C)C)OC(=O)CCC=CCC=CCC=CCC=CCC=CCCC
#inchikey QFBBGGXUDNWUMX-NBFUFYKZSA-N
#pubchem_id 134760549
#mb_accession UT001046,UT001783,UT002516

>ms2peaks
585.950000 11.700000
792.130000 1741.100000
792.790000 32.000000
807.090000 21.700000
818.200000 4.300000
848.070000 12.800000

>ms2peaks
280.620000 3.900000
508.360000 6.200000
584.060000 17.700000
779.120000 13.000000
792.130000 2235.200000
807.200000 26.400000

>ms2peaks
257.010000 11.400000
284.620000 15.900000
301.210000 18.100000
500.270000 4.500000
776.290000 6.800000
792.170000 1971.700000
807.000000 5.700000

