>compound RP01436180
>parentmass 181.0506
>ionization [M-H]-
>formula C9H10O4
>rt 141.240000
>profile qtof
#smiles_iso CC(C1=CC=C(C=C1)O)(C(=O)O)O
#smiles_can CC(C1=CC=C(C=C1)O)(C(=O)O)O
#inchikey HXIPUYVSSGKLFF-UHFFFAOYSA-N
#pubchem_id 22056978
#mb_accession RP029411,RP029412,RP029413

>ms2
72.993800 938.000000
74.003200 32.000000
93.035400 72.000000
100.005700 38.000000
135.046200 192.000000
136.048100 30.000000
137.049100 28.000000
163.040100 4868.000000
164.043600 298.000000
181.050700 25574.000000

>ms2
72.993700 6238.000000
74.001600 168.000000
107.050800 48.000000
119.051400 1142.000000
120.055200 54.000000
134.037100 88.000000
135.044900 1414.000000
136.049000 126.000000
163.039800 2844.000000
164.042700 112.000000
181.050000 848.000000

>ms2
72.993800 890.000000
77.040400 86.000000
93.034600 44.000000
95.050400 32.000000
105.033900 46.000000
106.042900 32.000000
107.050600 198.000000
117.034700 30.000000
123.046100 50.000000
133.036900 34.000000

