>compound RP01427378
>parentmass 243.06229999999996
>ionization [M-H]-
>formula C9H12N2O6
>rt 38.580000
>profile qtof
#smiles_iso C1=C(C(=O)NC(=O)N1)[C@H]2[C@@H]([C@@H]([C@H](O2)CO)O)O
#smiles_can C1=C(C(=O)NC(=O)N1)C2C(C(C(O2)CO)O)O
#inchikey PTJWIQPHWPFNBW-GBNDHIKLSA-N
#pubchem_id 15047
#mb_accession RP031511,RP031512,RP031513

>ms2
110.025000 44.000000
140.034200 28.000000
153.030800 4078.000000
154.034100 134.000000
183.042000 562.000000
195.042300 60.000000
243.062400 20484.000000

>ms2
83.012900 34.000000
89.026300 32.000000
97.029900 64.000000
111.020400 90.000000
140.036600 152.000000
141.044200 40.000000
153.031000 5182.000000
154.034900 108.000000
155.035200 66.000000
183.041500 988.000000
243.063600 388.000000

>ms2
67.019500 50.000000
68.013900 38.000000
78.034600 64.000000
79.019500 74.000000
82.030700 316.000000
83.013900 112.000000
96.045400 50.000000
110.023900 64.000000
153.030300 72.000000

