>compound RP03747113
>parentmass 146.0459
>ionization [M-H]-
>formula C5H9NO4
>rt 36.060000
>profile qtof
#smiles_iso C(CC(=O)O)[C@@H](C(=O)O)N
#smiles_can C(CC(=O)O)C(C(=O)O)N
#inchikey WHUUTDBJXJRKMK-VKHMYHEASA-N
#pubchem_id 33032
#mb_accession RP001411,RP001412

>ms2
85.029900 32.000000
102.056200 626.000000
128.035500 390.000000
146.046200 962.000000

>ms2
100.040900 32.000000
102.056600 674.000000

