>compound RP03695215
>parentmass 482.2032
>ionization [M-H]-
>formula C23H33NO10
>rt 186.240000
>profile qtof
#smiles_iso CC1[C@@H](CC([C@@H](O1)OC(C)CCC(=O)O)O)OC(=O)CCC(=O)NC[C@@H](C2=CC=C(C=C2)O)O
#smiles_can CC1C(CC(C(O1)OC(C)CCC(=O)O)O)OC(=O)CCC(=O)NCC(C2=CC=C(C=C2)O)O
#inchikey YHQWACJRIRKIAL-QYURMBASSA-N
#pubchem_id 134160316
#mb_accession RP009411,RP009412,RP009413

>ms2peaks
234.080500 30.000000
247.123900 268.000000
248.126300 100.000000
257.204200 38.000000
278.066800 28.000000
351.986300 40.000000
369.033400 34.000000
415.211500 38.000000
445.070700 28.000000
464.190900 174.000000
465.196200 68.000000
481.157600 30.000000
483.202200 3700.000000

>ms2peaks
159.149500 30.000000
183.221000 28.000000
200.090000 36.000000
216.071300 296.000000
217.075800 38.000000
234.081700 416.000000
235.086500 66.000000
247.123100 7900.000000
248.127500 576.000000
249.132800 64.000000
318.136500 46.000000
360.183200 40.000000
363.087000 30.000000
389.169300 32.000000
393.951600 40.000000
395.116200 32.000000
461.053700 34.000000
464.189500 864.000000
465.192600 278.000000
482.199100 2100.000000

>ms2peaks
87.024500 38.000000
93.030800 72.000000
98.022800 204.000000
99.008500 108.000000
99.045900 116.000000
111.044800 46.000000
140.035000 32.000000
170.063200 34.000000
172.045600 76.000000
190.090900 58.000000
190.203700 52.000000
198.060600 30.000000
216.071400 1344.000000
217.073400 88.000000
234.082300 136.000000
247.124500 178.000000
248.130400 42.000000
267.114600 32.000000
403.187800 32.000000
432.151300 40.000000

