>compound RP04596226
>parentmass 159.0663
>ionization [M-H]-
>formula C7H12O4
>rt 163.920000
>profile qtof
#smiles_iso CC(CCC(=O)O)CC(=O)O
#smiles_can CC(CCC(=O)O)CC(=O)O
#inchikey SYEOWUNSTUDKGM-UHFFFAOYSA-N
#pubchem_id 12292
#mb_accession RP015811,RP015812,RP015813

>ms2
81.034700 86.000000
95.050900 134.000000
97.066200 10866.000000
98.069500 356.000000
115.077100 3662.000000
159.067200 20076.000000

>ms2
80.026500 134.000000
81.034600 1988.000000
95.050400 2496.000000
96.054400 108.000000
97.066100 12648.000000
98.069300 364.000000
115.076800 3936.000000

>ms2
67.055800 78.000000
80.027300 266.000000
81.034700 472.000000
82.039100 40.000000
95.050600 724.000000
97.066000 150.000000

