>compound RP04229377
>parentmass 413.3061
>ionization [M-H]-
>formula C27H42O3
>rt 403.560000
>profile qtof
#smiles_iso C[C@H](CCCC(C)C(=O)O)[C@H]1CC[C@@H]2[C@@]1(CC[C@H]3[C@H]2CCC4=CC(=O)CC[C@]34C)C
#smiles_can CC(CCCC(C)C(=O)O)C1CCC2C1(CCC3C2CCC4=CC(=O)CCC34C)C
#inchikey PSXQJZDFWDKBIP-NNWQCNCGSA-N
#pubchem_id 22216313
#mb_accession RP010711,RP010712,RP010713

>ms2
117.067000 30.000000
254.262500 28.000000
321.011900 30.000000
413.304900 5948.000000

>ms2
231.245800 52.000000
365.133000 28.000000
369.216200 32.000000
383.257200 28.000000
390.301200 48.000000
413.304500 5360.000000

>ms2
68.001400 34.000000
164.128200 28.000000
208.154900 28.000000
216.271600 32.000000
225.159800 30.000000
413.304800 3496.000000

