>compound RP06256051
>parentmass 179.0561
>ionization [M-H]-
>formula C6H12O6
>rt 34.560000
>profile qtof
#smiles_iso C([C@@H]1[C@@H]([C@@H]([C@H]([C@H](O1)O)O)O)O)O
#smiles_can C(C1C(C(C(C(O1)O)O)O)O)O
#inchikey WQZGKKKJIJFFOK-PHYPRBDBSA-N
#pubchem_id 439357
#mb_accession RP022811,RP022812,RP022813

>ms2peaks
59.014300 172.000000
71.013700 186.000000
89.024800 268.000000
101.025200 56.000000
113.024600 28.000000

>ms2peaks
59.014100 304.000000

>ms2peaks
59.013600 132.000000
72.993600 42.000000

