>compound RP06198317
>parentmass 268.1554
>ionization [M-H]-
>formula C14H23NO4
>rt 275.460000
>profile qtof
#smiles_iso CCCCCCCC(=O)CC(=O)NC1CCOC1=O
#smiles_can CCCCCCCC(=O)CC(=O)NC1CCOC1=O
#inchikey KYGIKEQVUKTKRR-UHFFFAOYSA-N
#pubchem_id 11680589
#mb_accession RP021011,RP021012,RP021013

>ms2peaks
100.041100 266.000000
126.020400 1204.000000
141.128700 184.000000
142.052300 304.000000
143.108700 4384.000000
194.156400 720.000000
206.156500 418.000000
224.167100 150.000000
268.156100 131960.000000

>ms2peaks
52.019300 64.000000
57.034700 1738.000000
69.033400 102.000000
70.029900 1328.000000
72.009500 210.000000
81.034300 56.000000
82.029900 438.000000
84.008900 60.000000
84.045900 96.000000
95.038300 394.000000
112.040600 788.000000
113.097800 60.000000
125.096700 60.000000
126.020500 1816.000000
141.129300 2858.000000
142.051700 708.000000
143.108600 4428.000000
153.129500 94.000000
167.108600 296.000000
168.112800 84.000000
176.145400 136.000000
194.156000 2438.000000
195.159600 168.000000
206.156600 838.000000
207.159100 78.000000
220.135000 872.000000
223.135300 134.000000
224.165500 86.000000
238.145900 156.000000
250.145000 238.000000
255.113500 58.000000
268.156100 55514.000000

>ms2peaks
52.018900 82.000000
57.034600 19752.000000
67.019600 136.000000
68.014300 154.000000
68.050200 120.000000
68.998200 1340.000000
69.034600 1576.000000
70.005900 202.000000
70.029900 506.000000
71.013900 108.000000
71.050800 158.000000
72.008900 848.000000
72.045900 58.000000
79.019300 72.000000
80.025300 52.000000
80.050100 46.000000
81.034900 280.000000
83.012600 48.000000
84.020200 58.000000
84.046000 954.000000
93.033000 38.000000
94.030600 300.000000
96.021200 30.000000
96.045200 76.000000
97.048700 32.000000
98.001200 304.000000
98.025500 74.000000
98.069100 32.000000
106.041900 30.000000
112.041000 584.000000
121.054500 32.000000
123.031100 32.000000
125.096200 86.000000
126.019300 52.000000
139.111700 70.000000
141.128700 662.000000
143.108200 284.000000
150.022800 40.000000
152.034100 32.000000
167.107900 1350.000000
168.111800 46.000000
190.087600 38.000000
192.140500 40.000000
195.140400 72.000000
202.122000 30.000000
220.134800 592.000000
221.140100 42.000000
222.115100 114.000000
223.122200 62.000000
236.079000 32.000000
250.145000 176.000000
268.155200 66.000000

