>compound RP07139039
>parentmass 457.0776
>ionization [M-H]-
>formula C22H18O11
>rt 169.980000
>profile qtof
#smiles_iso C1[C@H]([C@H](OC2=CC(=CC(=C21)O)O)C3=CC(=C(C(=C3)O)O)O)OC(=O)C4=CC(=C(C(=C4)O)O)O
#smiles_can C1C(C(OC2=CC(=CC(=C21)O)O)C3=CC(=C(C(=C3)O)O)O)OC(=O)C4=CC(=C(C(=C4)O)O)O
#inchikey WMBWREPUVVBILR-WIYYLYMNSA-N
#pubchem_id 65064
#mb_accession RP017911,RP017912,RP017913

>ms2
166.998800 34.000000
169.014900 664.000000
170.019000 52.000000
287.056300 62.000000
293.102500 36.000000
305.067600 36.000000
306.073300 30.000000
415.064300 28.000000
453.048100 72.000000
456.061100 76.000000
458.075500 2468.000000

>ms2
161.027000 76.000000
167.000500 100.000000
169.014700 5242.000000
170.018200 124.000000
171.018900 28.000000
179.043900 30.000000
193.015100 40.000000
194.024000 42.000000
204.040900 38.000000
269.048100 66.000000
285.042200 44.000000
287.056300 122.000000
288.059700 28.000000
305.066800 406.000000
306.071500 52.000000
317.034400 36.000000
318.032400 44.000000
319.045000 68.000000
331.045900 236.000000
332.045000 38.000000

>ms2
81.034200 38.000000
125.024900 426.000000
161.025300 96.000000
162.033800 44.000000
164.013500 36.000000
165.020200 52.000000
169.015400 2642.000000
170.018400 114.000000
179.034300 50.000000
193.017800 52.000000
219.065700 82.000000
229.020700 46.000000
261.076900 38.000000
269.047200 48.000000
305.067700 64.000000

