>compound RP08920452
>parentmass 328.0452
>ionization [M-H]-
>formula C10H12N5O6P
>rt 42.600000
>profile qtof
#smiles_iso C1[C@@H]2[C@@H]([C@@H]([C@H](O2)N3C=NC4=C(N=CN=C43)N)O)OP(=O)(O1)O
#smiles_can C1C2C(C(C(O2)N3C=NC4=C(N=CN=C43)N)O)OP(=O)(O1)O
#inchikey IVOMOUWHDPKRLL-ASCDQALMSA-N
#pubchem_id 25322948
#mb_accession RP012711,RP012712,RP012713

>ms2
328.048200 75378.000000

>ms2
134.049400 1510.000000
192.995600 104.000000
328.048400 50718.000000

>ms2
85.026400 30.000000
92.023500 138.000000
93.045700 30.000000
107.036000 606.000000
134.049600 4052.000000
134.987400 58.000000
135.052300 224.000000
170.969800 32.000000
193.000200 46.000000
219.098600 32.000000
249.065200 50.000000
275.959000 28.000000

