>compound RP14548686
>parentmass 440.1324
>ionization [M-H]-
>formula C19H19N7O6
>rt 148.560000
>profile qtof
#smiles_iso C1=CC(=CC=C1C(=O)N[C@@H](CCC(=O)O)C(=O)O)NCC2=CN=C3C(=N2)C(=O)N=C(N3)N
#smiles_can C1=CC(=CC=C1C(=O)NC(CCC(=O)O)C(=O)O)NCC2=CN=C3C(=N2)C(=O)N=C(N3)N
#inchikey OVBPIULPVIDEAO-LBPRGKRZSA-N
#pubchem_id 6037
#mb_accession RP013411,RP013412,RP013413

>ms2
281.008100 42.000000
308.992200 42.000000
378.131000 46.000000
440.130900 41698.000000

>ms2
211.011300 48.000000
241.131800 38.000000
264.026400 36.000000
267.986300 40.000000
268.113000 60.000000
311.094300 2094.000000
312.098900 184.000000
335.130600 38.000000
378.133500 42.000000
396.143700 416.000000
397.124600 54.000000
422.122200 474.000000
423.126900 54.000000
424.124400 58.000000
440.130900 33818.000000

>ms2
90.007600 34.000000
92.048600 124.000000
102.054400 104.000000
119.037600 32.000000
124.040100 44.000000
128.038000 30.000000
148.065100 50.000000
148.087000 30.000000
151.036800 34.000000
160.108200 34.000000
162.047200 102.000000
168.053600 28.000000
174.046900 64.000000
175.054400 2604.000000
176.060800 310.000000
177.106100 168.000000
181.151700 38.000000
198.059000 28.000000
203.086300 138.000000
207.045400 144.000000
220.090100 102.000000
221.098300 662.000000
222.086100 90.000000
222.101300 54.000000
224.096800 76.000000
225.054300 42.000000
225.104200 36.000000
226.066200 28.000000
237.094600 28.000000
250.077100 70.000000
253.113100 32.000000
265.088800 64.000000
266.095600 42.000000
267.104800 222.000000
268.089700 112.000000
268.112400 28.000000
280.114200 30.000000
282.098600 36.000000
284.105200 56.000000
289.098700 36.000000
292.100600 78.000000
293.083300 578.000000
294.095600 32.000000
303.975400 32.000000
308.123600 48.000000
309.107100 28.000000
310.110300 96.000000
310.131600 32.000000
311.093700 3270.000000
312.096600 278.000000
326.129100 130.000000
327.133600 46.000000
334.145000 108.000000
335.130300 358.000000
336.128700 50.000000
337.130200 42.000000
350.017800 30.000000
353.139500 676.000000
354.145200 126.000000
378.133000 862.000000
379.132100 52.000000
386.065600 28.000000
396.142500 1460.000000
422.118600 42.000000
440.132100 96.000000

