>compound RP14482886
>parentmass 296.1867
>ionization [M-H]-
>formula C16H27NO4
>rt 317.520000
>profile qtof
#smiles_iso CCCCCCCCCC(=O)CC(=O)NC1CCOC1=O
#smiles_can CCCCCCCCCC(=O)CC(=O)NC1CCOC1=O
#inchikey PHSRRHGYXQCRPU-UHFFFAOYSA-N
#pubchem_id 127864
#mb_accession RP021111,RP021112,RP021113

>ms2
126.020300 436.000000
169.160900 938.000000
171.140200 18426.000000
222.187900 292.000000
296.186700 115936.000000

>ms2
57.035000 448.000000
70.030200 428.000000
82.030200 196.000000
95.038200 136.000000
96.045600 94.000000
112.040600 452.000000
126.020600 972.000000
142.052300 584.000000
169.160800 7438.000000
171.140200 17764.000000
195.139200 114.000000
222.187400 2022.000000
223.190400 80.000000
234.187300 684.000000
248.165700 398.000000
252.197300 136.000000
278.176300 58.000000
296.187000 52154.000000

>ms2
52.019400 108.000000
55.019000 32.000000
57.034600 11390.000000
67.018900 40.000000
68.013700 60.000000
68.998300 858.000000
69.034900 664.000000
70.005600 86.000000
70.029900 382.000000
71.012900 54.000000
71.034400 54.000000
71.049600 92.000000
72.009300 630.000000
81.034700 88.000000
84.045900 414.000000
88.006600 28.000000
95.038100 154.000000
96.008500 154.000000
96.046000 276.000000
97.030500 62.000000
98.001100 276.000000
98.025300 38.000000
109.017800 32.000000
109.028600 30.000000
112.041200 674.000000
121.123400 36.000000
135.066900 38.000000
142.050700 30.000000
170.166000 50.000000
171.140300 788.000000
172.145500 48.000000
178.159500 28.000000
179.145200 100.000000
181.160900 30.000000
194.156000 36.000000
195.140200 1110.000000
195.176100 82.000000
213.148800 38.000000
223.172600 64.000000
234.187700 88.000000
248.166800 982.000000
249.169300 60.000000
250.145600 102.000000
250.182700 60.000000
251.152100 70.000000
266.177300 66.000000
278.177000 218.000000
279.183400 46.000000
296.187700 286.000000

