>compound RP15704934
>parentmass 173.0819
>ionization [M-H]-
>formula C8H14O4
>rt 185.700000
>profile qtof
#smiles_iso C(CCCC(=O)O)CCC(=O)O
#smiles_can C(CCCC(=O)O)CCC(=O)O
#inchikey TYFQFVWCELRYAO-UHFFFAOYSA-N
#pubchem_id 10457
#mb_accession RP015311,RP015312,RP015313

>ms2
83.050400 156.000000
111.082000 5924.000000
112.086200 210.000000
129.092000 54.000000
173.082800 48310.000000

>ms2
57.034700 2722.000000
59.014200 160.000000
67.055500 68.000000
69.035100 50.000000
81.034600 192.000000
83.050400 9982.000000
84.054000 206.000000
95.049900 46.000000
109.066400 528.000000
110.070600 100.000000
111.082200 12130.000000
112.085400 520.000000
173.082900 1944.000000

>ms2
57.034300 280.000000
67.055900 164.000000
71.014000 30.000000
80.027200 52.000000
81.034700 590.000000
83.050500 540.000000
109.065700 188.000000
111.082100 50.000000

