>compound RP16677347
>parentmass 181.0506
>ionization [M-H]-
>formula C9H10O4
>rt 170.460000
>profile qtof
#smiles_iso COC1=C(C=CC(=C1)CC(=O)O)O
#smiles_can COC1=C(C=CC(=C1)CC(=O)O)O
#inchikey QRMZSPFSDQBLIX-UHFFFAOYSA-N
#pubchem_id 1738
#mb_accession RP018211,RP018212

>ms2peaks
93.034800 68.000000
109.029800 90.000000
121.029000 76.000000
122.037700 232.000000
123.040300 70.000000
125.026000 36.000000
136.016400 82.000000
137.061200 1278.000000
151.040200 142.000000
181.051400 7910.000000

>ms2peaks
77.039100 164.000000
94.042900 124.000000
95.051100 62.000000
108.021900 70.000000
109.030200 28.000000
122.038400 576.000000
123.046100 30.000000
137.061300 678.000000
153.056700 36.000000
181.050900 170.000000

