>compound RP17481707
>parentmass 296.1
>ionization [M-H]-
>formula C11H15N5O5
>rt 54.120000
>profile qtof
#smiles_iso CO[C@@H]1[C@@H]([C@H](O[C@H]1N2C=NC3=C2N=C(NC3=O)N)CO)O
#smiles_can COC1C(C(OC1N2C=NC3=C2N=C(NC3=O)N)CO)O
#inchikey OVYNGSFVYRPRCG-KQYNXXCUSA-N
#pubchem_id 135406950
#mb_accession RP031811,RP031812,RP031813

>ms2
150.040800 32.000000
296.100200 7624.000000

>ms2
150.041700 496.000000
260.080200 28.000000
296.099300 4038.000000

>ms2
59.014100 56.000000
80.025600 40.000000
82.041000 44.000000
107.038000 46.000000
108.020700 32.000000
125.044100 36.000000
133.015800 174.000000
150.043000 326.000000
162.041800 50.000000
174.043500 36.000000

