>compound RP19279681
>parentmass 173.04550000000003
>ionization [M-H]-
>formula C7H10O5
>rt 39.360000
>profile qtof
#smiles_iso C1[C@H]([C@@H]([C@@H](C=C1C(=O)O)O)O)O
#smiles_can C1C(C(C(C=C1C(=O)O)O)O)O
#inchikey JXOHGGNKMLTUBP-HSUXUTPPSA-N
#pubchem_id 8742
#mb_accession RP017511,RP017512,RP017513

>ms2peaks
59.014000 38.000000
65.040300 34.000000
71.013500 74.000000
73.029500 1770.000000
81.034600 40.000000
83.050600 106.000000
85.029700 300.000000
93.034900 2100.000000
99.009700 194.000000
101.024900 40.000000
111.045800 400.000000
129.019300 58.000000
143.035500 80.000000
155.035800 484.000000
156.038700 66.000000
173.045800 4070.000000

>ms2peaks
58.006300 160.000000
59.014400 126.000000
69.034400 276.000000
71.013600 434.000000
71.050400 52.000000
73.029600 3102.000000
81.034000 164.000000
81.055000 48.000000
83.050400 914.000000
84.054800 34.000000
85.028900 148.000000
93.034900 2656.000000
94.038400 152.000000
99.045400 202.000000
111.045600 172.000000

>ms2peaks
61.988700 32.000000
65.039600 764.000000
69.034300 72.000000
71.013600 174.000000
75.023800 40.000000
81.034800 46.000000
93.034900 1066.000000
109.029600 28.000000

