>compound RP21707272
>parentmass 301.2173
>ionization [M-H]-
>formula C20H30O2
>rt 394.800000
>profile qtof
#smiles_iso CC/C=C\C/C=C\C/C=C\C/C=C\C/C=C\CCCC(=O)O
#smiles_can CCC=CCC=CCC=CCC=CCC=CCCCC(=O)O
#inchikey JAZBEHYOTPTENJ-JLNKQSITSA-N
#pubchem_id 446284
#mb_accession RP030511,RP030512

>ms2peaks
127.112800 30.000000
203.177500 46.000000
217.121300 48.000000
257.227100 886.000000
271.207200 42.000000
301.216600 19566.000000

>ms2peaks
47.014000 36.000000
71.014200 64.000000
83.050300 58.000000
191.144200 30.000000
203.179000 108.000000
257.227000 724.000000
283.206500 60.000000
301.215800 2602.000000

