>compound RP21299482
>parentmass 310.1157
>ionization [M-H]-
>formula C12H17N5O5
>rt 95.700000
>profile qtof
#smiles_iso CN(C)C1=NC2=C(C(=O)N1)N=CN2[C@H]3[C@@H]([C@@H]([C@H](O3)CO)O)O
#smiles_can CN(C)C1=NC2=C(C(=O)N1)N=CN2C3C(C(C(O3)CO)O)O
#inchikey RSPURTUNRHNVGF-IOSLPCCCSA-N
#pubchem_id 135501639
#mb_accession RP031111,RP031112,RP031113

>ms2
310.115600 4038.000000

>ms2
178.074100 804.000000
179.076800 54.000000
310.115100 2314.000000

>ms2
133.015100 92.000000
178.072900 628.000000

