>compound RP22914747
>parentmass 257.0779
>ionization [M-H]-
>formula C10H14N2O6
>rt 49.320000
>profile qtof
#smiles_iso CC1=CN(C(=O)NC1=O)[C@H]2[C@@H]([C@@H]([C@H](O2)CO)O)O
#smiles_can CC1=CN(C(=O)NC1=O)C2C(C(C(O2)CO)O)O
#inchikey DWRXFEITVBNRMK-JXOAFFINSA-N
#pubchem_id 445408
#mb_accession RP032011

>ms2
71.014100 28.000000
167.046100 70.000000
214.072700 74.000000
257.078300 2610.000000

