>compound RP24164128
>parentmass 179.035
>ionization [M-H]-
>formula C9H8O4
>rt 161.760000
>profile qtof
#smiles_iso C1=CC(=C(C=C1/C=C/C(=O)O)O)O
#smiles_can C1=CC(=C(C=C1C=CC(=O)O)O)O
#inchikey QAIPRVGONGVQAS-DUXPYHPUSA-N
#pubchem_id 689043
#mb_accession RP016711,RP016712,RP016713

>ms2peaks
77.040000 58.000000
105.035500 98.000000
133.030500 308.000000
135.045700 2470.000000
179.035600 53510.000000

>ms2peaks
65.039100 40.000000
68.997600 34.000000
77.039700 566.000000
79.056000 196.000000
81.033900 46.000000
89.040200 66.000000
91.055800 258.000000
93.034600 92.000000
105.035000 210.000000
106.042000 94.000000
107.049600 462.000000
109.028700 50.000000
117.034300 40.000000
133.030500 78.000000
135.045800 11454.000000
179.036000 1664.000000

>ms2peaks
65.003100 290.000000
65.039800 186.000000
67.019100 52.000000
77.039400 146.000000
79.019400 96.000000
79.055200 338.000000
89.040000 3400.000000
90.043200 182.000000
91.019800 114.000000
91.055700 204.000000
93.034600 148.000000
95.050500 78.000000
106.043200 394.000000
107.050200 276.000000
108.021100 280.000000
109.029800 138.000000
120.021000 30.000000
133.030800 64.000000
134.037700 1402.000000
135.045100 1064.000000

