>compound RP24940489
>parentmass 163.0612
>ionization [M-H]-
>formula C6H12O5
>rt 36.240000
>profile qtof
#smiles_iso C[C@@H]([C@@H]([C@H]([C@H](C=O)O)O)O)O
#smiles_can CC(C(C(C(C=O)O)O)O)O
#inchikey PNNNRSAQSRJVSB-BXKVDMCESA-N
#pubchem_id 19233
#mb_accession RP023411

>ms2
59.013800 134.000000
146.032500 52.000000

