>compound RP25556308
>parentmass 179.035
>ionization [M-H]-
>formula C9H8O4
>rt 504.720000
>profile qtof
#smiles_iso CC(=O)OC1=CC=CC=C1C(=O)O
#smiles_can CC(=O)OC1=CC=CC=C1C(=O)O
#inchikey BSYNRYMUTXBXSQ-UHFFFAOYSA-N
#pubchem_id 2244
#mb_accession RP011211

>ms2
110.024300 32.000000
113.034900 28.000000

