>compound RP27983053
>parentmass 145.0619
>ionization [M-H]-
>formula C5H10N2O3
>rt 38.460000
>profile qtof
#smiles_iso C(CC(=O)N)[C@@H](C(=O)O)N
#smiles_can C(CC(=O)N)C(C(=O)O)N
#inchikey ZDXPYRJPNDTMRX-VKHMYHEASA-N
#pubchem_id 5961
#mb_accession RP001311

>ms2peaks
127.051200 194.000000
128.033500 96.000000

