>compound RP27064617
>parentmass 363.20239999999995
>ionization [M-H]-
>formula C17H32O8
>rt 166.680000
>profile qtof
#smiles_iso CC1[C@@H](CC([C@@H](O1)OC(C)C[C@@H](CCCC[C@H](CC(=O)O)O)O)O)O
#smiles_can CC1C(CC(C(O1)OC(C)CC(CCCCC(CC(=O)O)O)O)O)O
#inchikey KOPWGKUEIMDQOP-YSEGPLCXSA-N
#pubchem_id 137628431
#mb_accession RP009611,RP009612,RP009613

>ms2
363.204600 81024.000000

>ms2
147.069700 70.000000
233.149200 74.000000
303.183300 92.000000
346.199000 68.000000
363.204500 60828.000000

>ms2
83.046200 160.000000
99.020000 30.000000
109.102700 32.000000
111.044400 96.000000
117.979300 30.000000
129.093100 50.000000
142.028000 40.000000
172.071700 44.000000
244.182600 46.000000
363.205300 68.000000

