>compound RP31356245
>parentmass 284.0888
>ionization [M-H]-
>formula C11H15N3O6
>rt 71.160000
>profile qtof
#smiles_iso CC(=O)NC1=NC(=O)N(C=C1)[C@H]2[C@H](C([C@H](O2)CO)O)O
#smiles_can CC(=O)NC1=NC(=O)N(C=C1)C2C(C(C(O2)CO)O)O
#inchikey NIDVTARKFBZMOT-HZRXXTQPSA-N
#pubchem_id 89551892
#mb_accession RP030911,RP030912,RP030913

>ms2
110.038000 34.000000
241.083200 90.000000
284.089200 4684.000000

>ms2
81.046400 46.000000
111.043900 36.000000
151.050000 78.000000
162.065600 42.000000
241.081900 346.000000
284.089400 252.000000

>ms2
67.030800 54.000000
81.046400 200.000000
109.040800 100.000000

