>compound RP33652096
>parentmass 428.317
>ionization [M-H]-
>formula C27H43NO3
>rt 431.040000
>profile qtof
#smiles_iso CCCCCCCC/C=C\CCCCCCCC(=O)N[C@@H](CC1=CC=CC=C1)C(=O)O
#smiles_can CCCCCCCCC=CCCCCCCCC(=O)NC(CC1=CC=CC=C1)C(=O)O
#inchikey UWKNPULCJWBBDD-JRUKXMRZSA-N
#pubchem_id 52922059
#mb_accession RP029911,RP029912,RP029913

>ms2
428.316500 89952.000000

>ms2
91.056200 212.000000
164.071700 2018.000000
165.075300 86.000000
280.264600 240.000000
428.316900 84230.000000

>ms2
91.055900 4766.000000
92.059500 136.000000
147.045600 1466.000000
148.049000 118.000000
149.056900 36.000000
164.072100 7710.000000
165.076200 292.000000
280.264600 1374.000000
281.267600 168.000000
292.263700 318.000000
293.268400 48.000000
367.298700 42.000000
382.313400 50.000000
428.316000 118.000000

