>compound RP33310682
>parentmass 413.3061
>ionization [M-H]-
>formula C27H42O3
>rt 409.440000
>profile qtof
#smiles_iso C[C@H](CCCC(C)C(=O)O)[C@H]1CC[C@@H]2[C@@]1(CC[C@H]3C2=CC[C@@H]4[C@@]3(CCC(=O)C4)C)C
#smiles_can CC(CCCC(C)C(=O)O)C1CCC2C1(CCC3C2=CCC4C3(CCC(=O)C4)C)C
#inchikey SQTAVUCHOVVOFD-GAMFLDECSA-N
#pubchem_id 86289629
#mb_accession RP010811,RP010812,RP010813

>ms2
72.069500 36.000000
163.135800 30.000000
195.151200 30.000000
321.115300 30.000000
361.286500 28.000000
388.191600 50.000000
413.306200 2172.000000

>ms2
97.290600 42.000000
268.021800 30.000000
316.097600 38.000000
320.214500 30.000000
344.014200 34.000000
348.007300 30.000000
413.305700 2672.000000

>ms2
161.189700 42.000000
357.092300 38.000000
413.304900 1482.000000

