>compound RP35149239
>parentmass 88.0404
>ionization [M-H]-
>formula C3H7NO2
>rt 36.060000
>profile qtof
#smiles_iso C[C@@H](C(=O)O)N
#smiles_can CC(C(=O)O)N
#inchikey QNAYBMKLOCPYGJ-REOHCLBHSA-N
#pubchem_id 5950
#mb_accession RP000211

>ms2
88.041100 1094.000000
89.036000 36.000000

