>compound RP35556252
>parentmass 296.1
>ionization [M-H]-
>formula C11H15N5O5
>rt 55.680000
>profile qtof
#smiles_iso CNC1=NC2=C(C(=O)N1)N=CN2[C@H]3[C@@H]([C@@H]([C@H](O3)CO)O)O
#smiles_can CNC1=NC2=C(C(=O)N1)N=CN2C3C(C(C(O3)CO)O)O
#inchikey SLEHROROQDYRAW-KQYNXXCUSA-N
#pubchem_id 135501934
#mb_accession RP031912

>ms2peaks
142.122200 38.000000
164.059600 140.000000
187.011300 28.000000

