>compound RP36668552
>parentmass 326.2337
>ionization [M-H]-
>formula C18H33NO4
>rt 344.400000
>profile qtof
#smiles_iso CCCCCCCCCCCC(CC(=O)NC1CCOC1=O)O
#smiles_can CCCCCCCCCCCC(CC(=O)NC1CCOC1=O)O
#inchikey IKQUESGRCDRZTI-UHFFFAOYSA-N
#pubchem_id 11681427
#mb_accession RP021811,RP021812,RP021813

>ms2peaks
113.044100 40.000000
131.092000 34.000000
142.052200 404.000000
326.233400 5396.000000

>ms2peaks
92.049700 30.000000
112.041100 648.000000
142.051700 836.000000
143.055800 72.000000

>ms2peaks
57.033500 76.000000
69.034600 204.000000
70.030100 44.000000
84.046000 816.000000
112.040800 600.000000

