>compound RP36854599
>parentmass 269.0455
>ionization [M-H]-
>formula C15H10O5
>rt 236.940000
>profile qtof
#smiles_iso C1=CC(=CC=C1C2=CC(=O)C3=C(C=C(C=C3O2)O)O)O
#smiles_can C1=CC(=CC=C1C2=CC(=O)C3=C(C=C(C=C3O2)O)O)O
#inchikey KZNIFHPLKGYRTM-UHFFFAOYSA-N
#pubchem_id 5280443
#mb_accession RP015111,RP015112,RP015113

>ms2
269.046000 76224.000000

>ms2
117.035000 94.000000
149.025100 180.000000
151.003500 122.000000
181.066700 98.000000
201.054000 122.000000
225.056900 390.000000
227.035000 114.000000
269.046100 60148.000000

>ms2
63.023900 2144.000000
63.995200 40.000000
65.003200 9384.000000
67.019100 102.000000
77.039200 96.000000
79.018800 94.000000
81.034200 246.000000
83.014100 1336.000000
89.039700 84.000000
93.034900 176.000000
95.050500 28.000000
105.035000 238.000000
107.013700 800.000000
108.017200 110.000000
117.034900 3632.000000
118.038500 282.000000
121.029600 166.000000
149.025100 488.000000
151.004800 800.000000
155.050200 40.000000
157.065200 36.000000
159.045700 176.000000
161.024100 52.000000
181.064600 90.000000
183.044200 70.000000
186.028400 28.000000
196.052900 42.000000
197.060900 76.000000
201.057000 64.000000
213.053200 36.000000
223.040700 30.000000
224.046800 52.000000
225.056500 204.000000
227.035000 408.000000
269.046100 886.000000

