>compound RP38935655
>parentmass 195.06630000000004
>ionization [M-H]-
>formula C10H12O4
>rt 244.140000
>profile qtof
#smiles_iso CCOC(=O)C1=CC(=C(C=C1)O)OC
#smiles_can CCOC(=O)C1=CC(=C(C=C1)O)OC
#inchikey MWAYRGBWOVHDDZ-UHFFFAOYSA-N
#pubchem_id 12038
#mb_accession RP017711,RP017712,RP017713

>ms2peaks
151.004400 1126.000000
167.034600 148.000000
180.043500 45440.000000
182.047200 150.000000
195.066700 64042.000000

>ms2peaks
65.998300 44.000000
67.019500 58.000000
79.019200 164.000000
81.034900 748.000000
107.014000 2702.000000
108.017500 172.000000
125.025000 170.000000
126.027400 44.000000
151.004200 9028.000000
167.035300 76.000000
180.043400 43164.000000
195.066800 1550.000000

>ms2peaks
51.023800 1142.000000
65.003700 72.000000
67.018900 136.000000
69.034400 1632.000000
79.018800 8484.000000
80.023500 178.000000
81.034600 5198.000000
83.037800 28.000000
95.014200 758.000000
97.029300 190.000000
98.034200 54.000000
107.014000 8900.000000
123.008300 72.000000
125.025000 720.000000
151.004600 540.000000

