>compound RP38437711
>parentmass 179.0561
>ionization [M-H]-
>formula C6H12O6
>rt 36.240000
>profile qtof
#smiles_iso C([C@@H]1[C@H]([C@@H]([C@H](C(O1)O)O)O)O)O
#smiles_can C(C1C(C(C(C(O1)O)O)O)O)O
#inchikey WQZGKKKJIJFFOK-GASJEMHNSA-N
#pubchem_id 5793
#mb_accession RP022611,RP022612,RP022613

>ms2
59.013800 278.000000
71.014000 264.000000
72.992800 30.000000
89.025100 388.000000
101.023400 40.000000

>ms2
59.014300 368.000000
71.014500 138.000000
85.029400 34.000000
89.024600 62.000000

>ms2
59.013500 166.000000

