>compound RP40407019
>parentmass 375.13100000000003
>ionization [M-H]-
>formula C17H20N4O6
>rt 165.480000
>profile qtof
#smiles_iso CC1=CC2=C(C=C1C)N(C3=NC(=O)NC(=O)C3=N2)C[C@@H]([C@@H]([C@@H](CO)O)O)O
#smiles_can CC1=CC2=C(C=C1C)N(C3=NC(=O)NC(=O)C3=N2)CC(C(C(CO)O)O)O
#inchikey AUNGANRZJHBGPY-SCRDCRAPSA-N
#pubchem_id 493570
#mb_accession RP013111,RP013112,RP013113

>ms2
89.107600 28.000000
93.147400 36.000000
152.096300 32.000000
171.092900 42.000000
240.150500 34.000000
255.092700 228.000000
258.109200 40.000000
267.098900 36.000000
299.005900 34.000000
375.132400 1038.000000

>ms2
48.009400 28.000000
132.020600 30.000000
184.097000 30.000000
209.028300 28.000000
239.991700 28.000000
255.093800 880.000000
256.094300 44.000000
288.986200 32.000000
311.113800 28.000000
328.995100 32.000000
354.141500 32.000000
375.132500 112.000000
401.087400 28.000000

>ms2
182.111900 32.000000
198.073800 34.000000
199.981400 38.000000
204.113200 28.000000
212.088800 120.000000
241.077900 66.000000
255.091900 104.000000
269.112700 40.000000
320.090500 34.000000

