>compound RP41736888
>parentmass 405.2646
>ionization [M-H]-
>formula C24H38O5
>rt 278.580000
>profile qtof
#smiles_iso C[C@H](CCC(=O)O)[C@@H]1CC[C@@H]2[C@@]1([C@H](C[C@H]3[C@H]2[C@@H](C[C@H]4[C@@]3(CCC(=O)C4)C)O)O)C
#smiles_can CC(CCC(=O)O)C1CCC2C1(C(CC3C2C(CC4C3(CCC(=O)C4)C)O)O)C
#inchikey OEKUSRBIIZNLHZ-YXRVOZSUSA-N
#pubchem_id 159655
#mb_accession RP030211,RP030212,RP030213

>ms2peaks
387.228700 42.000000
403.144800 42.000000
405.264300 37604.000000

>ms2peaks
289.220200 42.000000
405.264400 39796.000000

>ms2peaks
83.050300 38.000000
215.178300 40.000000
245.192300 38.000000
259.176400 34.000000
261.220900 68.000000
271.206700 120.000000
272.208500 38.000000
273.223000 84.000000
289.217300 2348.000000
290.221100 288.000000
291.232300 200.000000
315.235600 28.000000
325.255000 130.000000
327.232400 28.000000
341.249400 106.000000
343.226900 54.000000
343.264500 694.000000
344.265100 118.000000
359.258900 174.000000
361.274800 2048.000000
363.277500 36.000000
367.227600 38.000000
369.244000 144.000000
387.256300 58.000000
405.264200 15366.000000

