>compound RP41195009
>parentmass 270.1711
>ionization [M-H]-
>formula C14H25NO4
>rt 262.860000
>profile qtof
#smiles_iso CCCCCCCC(CC(=O)NC1CCOC1=O)O
#smiles_can CCCCCCCC(CC(=O)NC1CCOC1=O)O
#inchikey DOICJCCMIBBSOO-UHFFFAOYSA-N
#pubchem_id 11521893
#mb_accession RP021611,RP021612,RP021613

>ms2peaks
112.040900 548.000000
142.051200 3414.000000
143.054700 120.000000
270.171100 16656.000000

>ms2peaks
57.034600 60.000000
68.051000 172.000000
69.034900 70.000000
71.050400 72.000000
84.045800 2138.000000
85.050100 86.000000
98.061700 144.000000
99.065300 30.000000
112.040700 6578.000000
113.044000 290.000000
114.048000 46.000000
124.040200 42.000000
142.051600 2172.000000
143.055200 212.000000
205.124400 38.000000

>ms2peaks
57.034600 810.000000
58.029600 58.000000
59.013400 42.000000
68.014600 404.000000
69.034800 1154.000000
70.004200 68.000000
70.029300 154.000000
71.013900 184.000000
71.050300 72.000000
81.034400 86.000000
84.045700 9106.000000
85.050000 242.000000
97.029700 356.000000
112.040700 2138.000000
113.047900 66.000000
114.020400 46.000000
142.052300 76.000000
195.069600 42.000000

