>compound RP41290836
>parentmass 147.0452
>ionization [M-H]-
>formula C9H8O2
>rt 237.120000
>profile qtof
#smiles_iso C1=CC=C(C=C1)/C=C/C(=O)O
#smiles_can C1=CC=C(C=C1)C=CC(=O)O
#inchikey WBYWAXJHAXSJNI-VOTSOKGWSA-N
#pubchem_id 444539
#mb_accession RP018311,RP018312

>ms2peaks
93.035300 82.000000
103.055500 6924.000000
119.050200 72.000000
147.045700 7136.000000

>ms2peaks
77.039500 642.000000
85.028800 36.000000
103.055800 1092.000000

