>compound RP43349270
>parentmass 243.06229999999996
>ionization [M-H]-
>formula C9H12N2O6
>rt 42.660000
>profile qtof
#smiles_iso C1=CN(C(=O)NC1=O)[C@H]2[C@@H]([C@@H]([C@H](O2)CO)O)O
#smiles_can C1=CN(C(=O)NC1=O)C2C(C(C(O2)CO)O)O
#inchikey DRTQHJPVMGBUCF-XVFCMESISA-N
#pubchem_id 6029
#mb_accession RP031411,RP031412,RP031413

>ms2peaks
110.025400 122.000000
111.020300 114.000000
140.035900 40.000000
153.030900 98.000000
182.047000 128.000000
200.056700 1368.000000
201.059900 48.000000
243.062800 6980.000000

>ms2peaks
94.029000 34.000000
96.045700 32.000000
110.025600 826.000000
111.027500 42.000000
140.035400 60.000000
152.035300 64.000000
200.056600 246.000000
243.060200 108.000000

>ms2peaks
68.014900 202.000000
81.022000 40.000000
82.029800 300.000000
83.013800 44.000000
94.030300 68.000000
110.022100 42.000000

