>compound RP48971542
>parentmass 242.1398
>ionization [M-H]-
>formula C12H21NO4
>rt 215.520000
>profile qtof
#smiles_iso CCCCCC(CC(=O)NC1CCOC1=O)O
#smiles_can CCCCCC(CC(=O)NC1CCOC1=O)O
#inchikey XCZVBYOXRSFQBH-UHFFFAOYSA-N
#pubchem_id 11586792
#mb_accession RP021511,RP021512,RP021513

>ms2peaks
112.040800 884.000000
242.138000 11066.000000

>ms2peaks
68.059300 188.000000
69.042900 192.000000
112.041000 7746.000000
113.044700 234.000000
124.038900 38.000000
143.053500 90.000000

>ms2peaks
68.059500 132.000000
69.043000 1078.000000
80.027400 28.000000
85.052500 90.000000
112.041000 1760.000000
124.039500 142.000000

