>compound RP50138171
>parentmass 195.05640000000002
>ionization [M-H]-
>formula C12H8N2O
>rt 220.740000
>profile qtof
#smiles_iso C1=CC=C2C(=C1)N=C3C=CC(=CC3=N2)O
#smiles_can C1=CC=C2C(=C1)N=C3C=CC(=CC3=N2)O
#inchikey RETSEGNZNUBJRB-UHFFFAOYSA-N
#pubchem_id 135441800
#mb_accession RP018511,RP018512,RP018513

>ms2peaks
167.062500 1388.000000
195.057300 92952.000000

>ms2peaks
167.062300 10950.000000
195.057400 65638.000000

>ms2peaks
63.011600 34.000000
65.014000 30.000000
91.030200 54.000000
165.044800 56.000000
167.062500 13234.000000
195.057400 2056.000000

