>compound RP50361800
>parentmass 253.0506
>ionization [M-H]-
>formula C15H10O4
>rt 215.820000
>profile qtof
#smiles_iso C1=CC(=CC=C1C2=COC3=C(C2=O)C=CC(=C3)O)O
#smiles_can C1=CC(=CC=C1C2=COC3=C(C2=O)C=CC(=C3)O)O
#inchikey ZQSIJRDFPHDXIC-UHFFFAOYSA-N
#pubchem_id 5281708
#mb_accession RP018111,RP018112,RP018113

>ms2peaks
253.051500 90990.000000

>ms2peaks
196.054700 152.000000
208.055000 102.000000
209.061400 146.000000
223.041600 166.000000
253.051500 75228.000000

>ms2peaks
63.023400 58.000000
65.003500 122.000000
79.018300 36.000000
89.040400 184.000000
91.019300 3542.000000
92.021900 188.000000
93.035300 78.000000
95.014200 46.000000
104.026700 100.000000
116.026900 42.000000
120.021600 30.000000
132.021500 162.000000
133.030500 338.000000
135.009800 140.000000
153.021600 32.000000
167.050400 150.000000
168.057500 88.000000
169.066800 240.000000
180.059300 758.000000
181.064400 134.000000
182.038400 44.000000
195.046900 916.000000
196.053700 762.000000
197.061300 336.000000
200.049200 28.000000
206.036700 32.000000
207.042600 28.000000
208.053700 2858.000000
209.061500 910.000000
210.033800 144.000000
211.040800 120.000000
223.041100 2810.000000
224.048700 2310.000000
225.056600 576.000000
251.033800 146.000000
252.043100 350.000000
253.051200 4300.000000

