>compound RP51500843
>parentmass 180.0666
>ionization [M-H]-
>formula C9H11NO3
>rt 43.380000
>profile qtof
#smiles_iso C1=CC(=CC=C1C[C@@H](C(=O)O)N)O
#smiles_can C1=CC(=CC=C1CC(C(=O)O)N)O
#inchikey OUYCCCASQSFEME-QMMMGPOBSA-N
#pubchem_id 6057
#mb_accession RP000311,RP000312

>ms2
72.009800 84.000000
93.034600 96.000000
119.050100 30.000000
163.040400 366.000000
180.066800 3254.000000

>ms2
74.025200 46.000000
93.034100 90.000000
119.051000 178.000000
163.041300 278.000000
180.065900 166.000000

