>compound RP52742722
>parentmass 466.2083
>ionization [M-H]-
>formula C23H33NO9
>rt 204.060000
>profile qtof
#smiles_iso CC1[C@@H](CC([C@@H](O1)OC(C)CCC(=O)O)O)OC(=O)CCC(=O)NCCC2=CC=C(C=C2)O
#smiles_can CC1C(CC(C(O1)OC(C)CCC(=O)O)O)OC(=O)CCC(=O)NCCC2=CC=C(C=C2)O
#inchikey VQYVTRPNVGUOGV-WLAKMJJWSA-N
#pubchem_id 137628558
#mb_accession RP009311,RP009312,RP009313

>ms2
247.123800 522.000000
466.205400 61012.000000

>ms2
98.023800 330.000000
99.044400 104.000000
109.037300 36.000000
214.134800 38.000000
218.087800 776.000000
219.088500 86.000000
223.062600 42.000000
236.098000 44.000000
247.123800 16672.000000
248.127600 1524.000000
249.128100 96.000000
257.141500 44.000000
264.082200 34.000000
343.031300 28.000000
345.990200 38.000000
385.073000 36.000000
404.059800 32.000000
410.160700 32.000000
416.095100 38.000000
466.205300 21788.000000

>ms2
87.044000 32.000000
96.008600 66.000000
99.043200 158.000000
111.045700 106.000000
197.177000 32.000000
218.087800 548.000000
219.089500 42.000000
236.098400 354.000000
247.124800 248.000000
294.022500 38.000000
355.121400 30.000000
473.181200 28.000000

