>compound RP52247452
>parentmass 96.9696
>ionization [M-H]-
>formula H3O4P
>rt 39.360000
>profile qtof
#smiles_iso OP(=O)(O)O
#smiles_can OP(=O)(O)O
#inchikey NBIIXXVUZAFLBC-UHFFFAOYSA-N
#pubchem_id 1004
#mb_accession RP022411,RP022412,RP022413

>ms2
78.959100 9846.000000
96.970200 1248.000000

>ms2
62.964100 68.000000
78.959100 15704.000000

>ms2
62.964100 3602.000000
78.959100 11258.000000

