>compound RP53282930
>parentmass 149.0455
>ionization [M-H]-
>formula C5H10O5
>rt 36.960000
>profile qtof
#smiles_iso C([C@H]([C@H]([C@H](C=O)O)O)O)O
#smiles_can C(C(C(C(C=O)O)O)O)O
#inchikey PYMYPHUHKUWMLA-LMVFSUKVSA-N
#pubchem_id 5311110
#mb_accession RP022711,RP022712

>ms2peaks
59.013500 42.000000
71.013700 46.000000
167.030600 40.000000

>ms2peaks
59.013500 168.000000

