>compound RP54453719
>parentmass 341.1089
>ionization [M-H]-
>formula C12H22O11
>rt 36.240000
>profile qtof
#smiles_iso C([C@@H]1[C@H]([C@@H]([C@H]([C@H](O1)O[C@@H]2[C@@H]([C@H]([C@@H]([C@H](O2)CO)O)O)O)O)O)O)O
#smiles_can C(C1C(C(C(C(O1)OC2C(C(C(C(O2)CO)O)O)O)O)O)O)O
#inchikey HDTRYLNUVZCQOY-LIZSDCNHSA-N
#pubchem_id 7427
#mb_accession RP014911,RP014913

>ms2peaks
321.116400 36.000000
341.108800 260.000000

>ms2peaks
59.013700 110.000000
71.014000 66.000000
89.024300 34.000000
115.055200 48.000000

