>compound RP57172558
>parentmass 324.218
>ionization [M-H]-
>formula C18H31NO4
>rt 354.060000
>profile qtof
#smiles_iso CCCCCCCCCCCC(=O)CC(=O)NC1CCOC1=O
#smiles_can CCCCCCCCCCCC(=O)CC(=O)NC1CCOC1=O
#inchikey YQFJJDSGBAAUPW-UHFFFAOYSA-N
#pubchem_id 11688418
#mb_accession RP021211,RP021212,RP021213

>ms2
126.021800 120.000000
199.171200 3942.000000
200.175100 254.000000
250.218400 98.000000
262.216300 70.000000
324.217600 61950.000000

>ms2
69.993800 56.000000
72.009500 36.000000
95.038500 30.000000
96.045200 36.000000
100.041100 94.000000
113.043100 32.000000
126.020300 248.000000
142.051400 332.000000
143.055100 42.000000
181.159100 44.000000
197.192300 3754.000000
198.113800 34.000000
198.197100 176.000000
199.171300 11588.000000
200.175400 578.000000
223.171500 78.000000
232.205400 42.000000
241.178300 36.000000
250.218700 1004.000000
251.222800 138.000000
262.218700 502.000000
263.222400 66.000000
276.198800 34.000000
280.228900 44.000000
282.205600 52.000000
324.217800 28694.000000

>ms2
57.034600 4526.000000
68.997700 220.000000
69.034200 400.000000
70.029500 182.000000
71.050100 46.000000
72.008900 196.000000
81.022100 34.000000
81.034000 40.000000
83.014300 118.000000
84.045000 204.000000
94.029600 134.000000
112.040700 528.000000
122.022900 52.000000
140.034300 34.000000
142.049800 50.000000
149.047700 36.000000
179.144500 54.000000
181.160600 118.000000
196.064100 32.000000
197.191700 998.000000
198.197100 178.000000
199.171500 916.000000
223.172000 590.000000
223.207100 104.000000
224.175200 46.000000
234.195000 42.000000
249.206200 44.000000
250.218200 78.000000
251.204000 66.000000
276.197500 616.000000
277.202200 36.000000
278.176500 32.000000
279.183800 72.000000
306.206400 288.000000
324.217800 490.000000

