>compound RP58673885
>parentmass 394.3327
>ionization [M-H]-
>formula C24H45NO3
>rt 434.160000
>profile qtof
#smiles_iso CCCCCCCC/C=C\CCCCCCCC(=O)N[C@@H]([C@@H](C)CC)C(=O)O
#smiles_can CCCCCCCCC=CCCCCCCCC(=O)NC(C(C)CC)C(=O)O
#inchikey TYWACVZIFBZIQZ-BSFUXZNJSA-N
#pubchem_id 52922065
#mb_accession RP029811,RP029812,RP029813

>ms2peaks
394.332400 116674.000000

>ms2peaks
130.088100 698.000000
131.091000 110.000000
350.343100 774.000000
394.332700 98132.000000

>ms2peaks
82.066600 164.000000
128.108800 154.000000
130.088100 4550.000000
131.091000 318.000000
263.238600 74.000000
265.253400 124.000000
266.259400 28.000000
280.265600 38.000000
348.325000 60.000000
350.343800 1244.000000
367.309700 38.000000
394.330700 80.000000

