>compound RP58243082
>parentmass 391.2854
>ionization [M-H]-
>formula C24H40O4
>rt 273.720000
>profile qtof
#smiles_iso C[C@H](CCC(=O)O)[C@H]1CC[C@@H]2[C@@]1(CC[C@H]3[C@H]2C[C@H]([C@H]4[C@@]3(CC[C@H](C4)O)C)O)C
#smiles_can CC(CCC(=O)O)C1CCC2C1(CCC3C2CC(C4C3(CCC(C4)O)C)O)C
#inchikey DGABKXLVXPYZII-PLYQRAMGSA-N
#pubchem_id 5283821
#mb_accession RP030011,RP030012,RP030013

>ms2
391.285100 8212.000000

>ms2
356.273500 42.000000
391.284700 8720.000000

>ms2
274.156200 30.000000
373.277300 32.000000
391.285400 4994.000000

