>compound RP58300254
>parentmass 194.0459
>ionization [M-H]-
>formula C9H9NO4
>rt 186.540000
>profile qtof
#smiles_iso C1=CC=C(C=C1)C(=O)NC(C(=O)O)O
#smiles_can C1=CC=C(C=C1)C(=O)NC(C(=O)O)O
#inchikey GCWCVCCEIQXUQU-UHFFFAOYSA-N
#pubchem_id 450272
#mb_accession RP015911,RP015912,RP015913

>ms2peaks
74.025500 46.000000
93.035100 578.000000
137.023800 44.000000
150.056800 12740.000000
176.034200 78.000000
194.046700 42084.000000

>ms2peaks
65.039600 282.000000
74.024800 718.000000
93.034700 39746.000000
94.038500 706.000000
100.004200 194.000000
121.029400 120.000000
123.046400 46.000000
150.056600 7726.000000
194.046800 938.000000

>ms2peaks
65.039700 13338.000000
67.018300 152.000000
74.024800 756.000000
75.023900 356.000000
93.034700 47114.000000
94.038500 1312.000000
100.003900 48.000000

