>compound RP60701951
>parentmass 207.0519
>ionization [M-H]-
>formula C8H16O2S2
>rt 263.700000
>profile qtof
#smiles_iso C(CCC(=O)O)CC(CCS)S
#smiles_can C(CCC(=O)O)CC(CCS)S
#inchikey IZFHEQBZOYJLPK-UHFFFAOYSA-N
#pubchem_id 421
#mb_accession RP016211,RP016212

>ms2
129.074800 94.000000
139.077100 96.000000
173.065200 11768.000000
175.060500 164.000000
207.053000 15446.000000

>ms2
59.013900 142.000000
67.055500 66.000000
95.087200 38.000000
129.074300 388.000000
139.077500 242.000000
173.065600 1570.000000
207.052100 34.000000

