>compound RP62318786
>parentmass 178.051
>ionization [M-H]-
>formula C9H9NO3
>rt 445.500000
>profile qtof
#smiles_iso C1=CC=C(C=C1)C(=O)NCC(=O)O
#smiles_can C1=CC=C(C=C1)C(=O)NCC(=O)O
#inchikey QIAFMBKCNZACKA-UHFFFAOYSA-N
#pubchem_id 464
#mb_accession RP013011

>ms2
147.031100 40.000000
187.999800 36.000000

