>compound RP63457120
>parentmass 407.28030000000007
>ionization [M-H]-
>formula C24H40O5
>rt 255.780000
>profile qtof
#smiles_iso C[C@H](CCC(=O)O)[C@H]1CC[C@@H]2[C@@]1([C@H](C[C@H]3[C@H]2[C@@H](C[C@H]4[C@@]3(CC[C@@H](C4)O)C)O)O)C
#smiles_can CC(CCC(=O)O)C1CCC2C1(C(CC3C2C(CC4C3(CCC(C4)O)C)O)O)C
#inchikey BHQCQFFYRZLCQQ-UXWVVXDJSA-N
#pubchem_id 5283870
#mb_accession RP030111,RP030112,RP030113

>ms2peaks
361.185900 36.000000
407.279800 26526.000000

>ms2peaks
353.254100 34.000000
407.279600 26090.000000

>ms2peaks
69.035100 130.000000
95.050000 120.000000
169.159000 28.000000
205.156800 34.000000
215.145300 32.000000
251.203100 62.000000
252.206300 36.000000
289.217200 224.000000
290.222300 70.000000
322.132200 34.000000
325.253800 52.000000
343.264400 776.000000
344.265500 100.000000
345.281800 62.000000
353.248600 52.000000
363.292000 404.000000
387.268600 28.000000
389.268800 178.000000
390.278700 44.000000
405.268600 40.000000
407.280500 11230.000000

