>compound RP63887908
>parentmass 137.0244
>ionization [M-H]-
>formula C7H6O3
>rt 216.000000
>profile qtof
#smiles_iso C1=CC=C(C(=C1)C(=O)O)O
#smiles_can C1=CC=C(C(=C1)C(=O)O)O
#inchikey YGSDEFSMJLZEOE-UHFFFAOYSA-N
#pubchem_id 338
#mb_accession RP017011,RP017012,RP017013

>ms2
65.039300 262.000000
93.034500 145368.000000
137.025500 28012.000000

>ms2
65.039700 18052.000000
93.034500 392398.000000
137.025100 1074.000000

>ms2
65.039500 77242.000000
67.019300 1136.000000
75.024200 5612.000000
76.027900 100.000000
91.018700 128.000000
93.034700 63004.000000

