>compound RP63200834
>parentmass 212.0928
>ionization [M-H]-
>formula C10H15NO4
>rt 164.760000
>profile qtof
#smiles_iso CCCC(=O)CC(=O)NC1CCOC1=O
#smiles_can CCCC(=O)CC(=O)NC1CCOC1=O
#inchikey YRYOXRMDHALAFL-UHFFFAOYSA-N
#pubchem_id 119133
#mb_accession RP020811,RP020812,RP020813

>ms2peaks
57.034700 118.000000
82.030500 44.000000
85.066000 3494.000000
87.045400 25752.000000
100.040000 138.000000
126.020700 782.000000
127.023800 106.000000
138.093400 130.000000
142.051600 306.000000
150.093800 336.000000
164.073200 76.000000
212.093900 42482.000000

>ms2peaks
52.019300 72.000000
54.034800 46.000000
57.034800 3884.000000
69.034100 42.000000
70.029700 826.000000
71.034500 30.000000
72.009300 134.000000
82.030300 266.000000
85.066100 25848.000000
87.045300 10294.000000
95.038400 254.000000
97.065100 50.000000
98.024700 58.000000
99.045000 54.000000
99.065200 28.000000
100.040000 98.000000
109.066100 28.000000
111.045800 378.000000
112.040700 260.000000
125.096400 28.000000
126.020000 412.000000
128.072000 36.000000
138.093100 204.000000
142.052900 202.000000
164.073300 704.000000
165.076400 66.000000
166.051900 46.000000
167.059100 122.000000
167.071800 106.000000
176.070400 30.000000
185.092900 34.000000
194.083300 138.000000
212.094000 7038.000000

>ms2peaks
55.017400 56.000000
57.034700 8442.000000
66.043200 36.000000
67.018900 56.000000
67.055400 42.000000
68.051000 62.000000
68.998700 444.000000
69.034700 628.000000
70.006700 74.000000
70.030100 172.000000
72.009300 338.000000
78.011300 34.000000
78.035100 56.000000
81.034000 36.000000
83.050300 48.000000
84.008400 36.000000
85.066300 1950.000000
87.045100 258.000000
93.019300 32.000000
93.032400 40.000000
94.029700 138.000000
95.049100 44.000000
96.021800 58.000000
96.044600 44.000000
97.030100 76.000000
97.048800 28.000000
98.000800 176.000000
111.045900 230.000000
112.039700 84.000000
168.077100 34.000000
174.099300 32.000000

