>compound RP64531708
>parentmass 186.07720000000003
>ionization [M-H]-
>formula C8H13NO4
>rt 54.180000
>profile qtof
#smiles_iso CC(CC(=O)NC1CCOC1=O)O
#smiles_can CC(CC(=O)NC1CCOC1=O)O
#inchikey FIXDIFPJOFIIEC-UHFFFAOYSA-N
#pubchem_id 130846
#mb_accession RP021311,RP021312,RP021313

>ms2peaks
98.060900 40.000000
112.041200 96.000000
142.051400 574.000000
186.078900 394.000000

>ms2peaks
68.051100 28.000000
80.050200 44.000000
84.045700 764.000000
112.040800 396.000000
142.051400 134.000000

>ms2peaks
57.034400 80.000000
84.045700 258.000000

