>compound RP65791403
>parentmass 154.0622
>ionization [M-H]-
>formula C6H9N3O2
>rt 34.440000
>profile qtof
#smiles_iso C1=C(NC=N1)C[C@@H](C(=O)O)N
#smiles_can C1=C(NC=N1)CC(C(=O)O)N
#inchikey HNDVDQJCIGZPNO-YFKPBYRVSA-N
#pubchem_id 6274
#mb_accession RP002011,RP002012,RP002013

>ms2
154.062300 2286.000000

>ms2
93.046300 1186.000000
108.056100 30.000000
137.036500 66.000000
154.063100 242.000000

>ms2
66.035600 190.000000
81.046200 110.000000
93.046000 114.000000

