>compound RP66587985
>parentmass 298.2024
>ionization [M-H]-
>formula C16H29NO4
>rt 303.420000
>profile qtof
#smiles_iso CCCCCCCCCC(CC(=O)NC1CCOC1=O)O
#smiles_can CCCCCCCCCC(CC(=O)NC1CCOC1=O)O
#inchikey RGTXFFYJJNWEPV-UHFFFAOYSA-N
#pubchem_id 11507677
#mb_accession RP021711,RP021712,RP021713

>ms2peaks
84.045600 38.000000
98.061100 32.000000
112.040800 340.000000
116.001200 34.000000
142.051400 2242.000000
143.055400 126.000000
227.183600 28.000000
254.164200 30.000000
298.202500 21078.000000

>ms2peaks
68.050300 84.000000
69.034000 58.000000
71.049700 74.000000
84.045900 1364.000000
98.061400 142.000000
112.040800 5216.000000
113.044100 174.000000
142.051200 2536.000000
143.054500 128.000000
298.202300 42.000000

>ms2peaks
57.034700 510.000000
68.014300 124.000000
68.050200 242.000000
69.034400 720.000000
70.029800 90.000000
71.013500 82.000000
71.048900 36.000000
81.034100 28.000000
82.029800 44.000000
84.045700 9162.000000
97.030400 152.000000
98.060600 58.000000
112.041200 2590.000000
113.043900 66.000000
114.018900 72.000000
114.047200 72.000000
142.053700 104.000000
143.059600 32.000000

