>compound RP66417192
>parentmass 184.0615
>ionization [M-H]-
>formula C8H11NO4
>rt 57.240000
>profile qtof
#smiles_iso CC(=O)CC(=O)NC1CCOC1=O
#smiles_can CC(=O)CC(=O)NC1CCOC1=O
#inchikey FIHPLICEAUNEFV-UHFFFAOYSA-N
#pubchem_id 11513882
#mb_accession RP020711,RP020712,RP020713

>ms2
57.034600 322.000000
59.013800 1852.000000
83.014700 34.000000
126.020200 162.000000
142.050400 38.000000
184.062100 3264.000000

>ms2
57.034600 1442.000000
59.013900 490.000000
69.034400 68.000000
72.009500 38.000000
82.029700 52.000000
83.014500 130.000000
96.022100 44.000000
112.040200 78.000000
126.020700 72.000000
184.062600 312.000000

>ms2
57.034100 364.000000
67.018200 50.000000
70.030000 30.000000
83.013900 134.000000

