>compound RP67997463
>parentmass 192.0666
>ionization [M-H]-
>formula C10H11NO3
>rt 573.240000
>profile qtof
#smiles_iso CC1=CC(=CC=C1)C(=O)NCC(=O)O
#smiles_can CC1=CC(=CC=C1)C(=O)NCC(=O)O
#inchikey YKAKNMHEIJUKEX-UHFFFAOYSA-N
#pubchem_id 99223
#mb_accession RP012912

>ms2peaks
87.080600 30.000000
115.003300 40.000000
118.028000 34.000000
207.065500 34.000000

