>compound RP68150165
>parentmass 151.0401
>ionization [M-H]-
>formula C8H8O3
>rt 181.740000
>profile qtof
#smiles_iso C1=CC=C(C(=C1)CC(=O)O)O
#smiles_can C1=CC=C(C(=C1)CC(=O)O)O
#inchikey CCVYRRGZDBSHFU-UHFFFAOYSA-N
#pubchem_id 11970
#mb_accession RP015511,RP015512,RP015513

>ms2
107.050500 42620.000000
151.039900 5444.000000

>ms2
106.043300 446.000000
107.050600 49290.000000

>ms2
64.031700 92.000000
79.056100 204.000000
92.027500 134.000000
106.042500 760.000000
107.050300 2672.000000
121.030200 36.000000

