>compound RP70884736
>parentmass 151.0401
>ionization [M-H]-
>formula C8H8O3
>rt 171.000000
>profile qtof
#smiles_iso C1=CC(=CC(=C1)O)CC(=O)O
#smiles_can C1=CC(=CC(=C1)O)CC(=O)O
#inchikey FVMDYYGIDFPZAX-UHFFFAOYSA-N
#pubchem_id 12122
#mb_accession RP015611,RP015612,RP015613

>ms2
93.034700 550.000000
95.050100 68.000000
107.050600 1374.000000
111.045300 116.000000

>ms2
65.039400 458.000000
93.034200 92.000000
107.050000 374.000000

>ms2
65.039600 468.000000
67.018600 90.000000
107.050500 28.000000

