>compound RP70473473
>parentmass 394.3327
>ionization [M-H]-
>formula C24H45NO3
>rt 435.420000
>profile qtof
#smiles_iso CCCCCCCC/C=C\CCCCCCCC(=O)N[C@@H](CC(C)C)C(=O)O
#smiles_can CCCCCCCCC=CCCCCCCCC(=O)NC(CC(C)C)C(=O)O
#inchikey UMOAAMQGRRCHPA-GJCOWUBNSA-N
#pubchem_id 52922067
#mb_accession RP029711,RP029712,RP029713

>ms2
394.332100 107588.000000

>ms2
130.088100 878.000000
350.342400 170.000000
394.331700 91450.000000

>ms2
58.030200 140.000000
66.034700 142.000000
82.066700 190.000000
84.081800 98.000000
85.066500 30.000000
113.058300 82.000000
128.108300 76.000000
130.087800 5180.000000
131.091000 326.000000
265.254500 76.000000
280.263500 98.000000
294.283000 48.000000
348.335400 40.000000
350.342500 726.000000
394.332500 122.000000

