>compound RP71327305
>parentmass 163.0401
>ionization [M-H]-
>formula C9H8O3
>rt 181.140000
>profile qtof
#smiles_iso C1=CC(=CC=C1/C=C/C(=O)O)O
#smiles_can C1=CC(=CC=C1C=CC(=O)O)O
#inchikey NGSWKAQJJWESNS-ZZXKWVIFSA-N
#pubchem_id 637542
#mb_accession RP016811,RP016812,RP016813

>ms2peaks
93.034500 44.000000
101.024500 28.000000
119.050900 11056.000000
163.040900 22732.000000

>ms2peaks
65.039600 62.000000
91.055500 136.000000
92.026900 40.000000
93.034900 754.000000
119.050800 26756.000000

>ms2peaks
65.039600 4236.000000
66.043300 128.000000
89.040000 252.000000
91.055400 1720.000000
92.027300 172.000000
93.034700 13036.000000
94.038100 524.000000
104.027000 170.000000
117.035300 576.000000
119.050800 3742.000000

