>compound RP72884075
>parentmass 173.0932
>ionization [M-H]-
>formula C7H14N2O3
>rt 36.240000
>profile qtof
#smiles_iso CC(=O)N[C@@H](CCCN)C(=O)O
#smiles_can CC(=O)NC(CCCN)C(=O)O
#inchikey JRLGPAXAGHMNOL-LURJTMIESA-N
#pubchem_id 439232
#mb_accession RP016011,RP016012,RP016013

>ms2peaks
58.029600 88.000000
85.076700 34.000000
112.077600 48.000000
129.104300 28.000000
131.083500 866.000000
132.085700 38.000000
173.094200 6930.000000

>ms2peaks
58.030100 1268.000000
83.061800 286.000000
85.077500 100.000000
112.076300 180.000000
129.104100 42.000000
131.083000 1288.000000
132.086600 58.000000

>ms2peaks
54.035100 40.000000
58.030300 112.000000
83.062300 84.000000

