>compound RP72811718
>parentmass 463.0882
>ionization [M-H]-
>formula C21H20O12
>rt 187.320000
>profile qtof
#smiles_iso C1=CC(=C(C=C1C2=C(C(=O)C3=C(C=C(C=C3O2)O)O)O[C@H]4[C@@H]([C@H]([C@@H]([C@H](O4)CO)O)O)O)O)O
#smiles_can C1=CC(=C(C=C1C2=C(C(=O)C3=C(C=C(C=C3O2)O)O)OC4C(C(C(C(O4)CO)O)O)O)O)O
#inchikey OVSQVDMCBVZWGM-QSOFNFLRSA-N
#pubchem_id 5280804
#mb_accession RP017111,RP017112,RP017113

>ms2
463.085000 732.000000
463.950900 28.000000
464.087600 174.000000

>ms2
300.028400 52.000000
463.085400 538.000000
464.086800 130.000000

>ms2
271.026300 48.000000
272.030600 46.000000
274.019000 36.000000
274.046400 34.000000
300.028200 622.000000
301.035300 152.000000

