>compound RP76216892
>parentmass 109.0295
>ionization [M-H]-
>formula C6H6O2
>rt 155.940000
>profile qtof
#smiles_iso C1=CC=C(C(=C1)O)O
#smiles_can C1=CC=C(C(=C1)O)O
#inchikey YCIMNLLNPGFGHC-UHFFFAOYSA-N
#pubchem_id 289
#mb_accession RP012011,RP012012,RP012013

>ms2
81.030500 380.000000
108.021100 492.000000
109.029100 25332.000000

>ms2
80.022400 120.000000
81.030500 1558.000000
108.021100 4174.000000
109.029000 8454.000000
138.020300 44.000000

>ms2
80.022800 58.000000
108.020900 358.000000
109.029400 50.000000

