>compound RP78002336
>parentmass 327.233
>ionization [M-H]-
>formula C22H32O2
>rt 405.840000
>profile qtof
#smiles_iso CC/C=C\C/C=C\C/C=C\C/C=C\C/C=C\C/C=C\CCC(=O)O
#smiles_can CCC=CCC=CCC=CCC=CCC=CCC=CCCC(=O)O
#inchikey MBMBGCFOFBJSGT-KUBAVDMBSA-N
#pubchem_id 445580
#mb_accession RP029611,RP029612

>ms2
67.054700 36.000000
131.086500 32.000000
227.202300 30.000000
229.195800 52.000000
230.198900 28.000000
249.186900 30.000000
283.243200 1638.000000
298.226500 28.000000
327.232100 12950.000000

>ms2
67.055800 128.000000
83.046800 32.000000
119.087500 30.000000
138.137800 30.000000
175.148700 42.000000
177.166300 58.000000
218.200700 28.000000
229.198000 102.000000
283.243400 786.000000
310.227800 34.000000
325.134300 28.000000
327.233600 1016.000000

