>compound RP78948378
>parentmass 271.1704
>ionization [M-H]-
>formula C18H24O2
>rt 268.860000
>profile qtof
#smiles_iso C[C@]12CC[C@H]3[C@H]([C@@H]1CC[C@@H]2O)CCC4=C3C=CC(=C4)O
#smiles_can CC12CCC3C(C1CCC2O)CCC4=C3C=CC(=C4)O
#inchikey VOXZDWNPVJITMN-ZBRFXRBCSA-N
#pubchem_id 5757
#mb_accession RP030311,RP030312,RP030313

>ms2peaks
271.170700 12530.000000

>ms2peaks
166.005000 34.000000
269.153100 34.000000
271.170400 10978.000000

>ms2peaks
145.065600 44.000000
158.072600 42.000000
183.082300 68.000000
206.075400 36.000000
216.114000 28.000000
239.142400 66.000000
253.159100 46.000000
269.155100 88.000000
271.170200 3474.000000

