>compound RP79070199
>parentmass 131.0462
>ionization [M-H]-
>formula C4H8N2O3
>rt 34.380000
>profile qtof
#smiles_iso C([C@@H](C(=O)O)N)C(=O)N
#smiles_can C(C(C(=O)O)N)C(=O)N
#inchikey DCXYFEDJOCDNAF-REOHCLBHSA-N
#pubchem_id 6267
#mb_accession RP001511,RP001512

>ms2peaks
113.036600 494.000000
114.020100 426.000000
131.046600 480.000000

>ms2peaks
58.042200 104.000000
113.035400 98.000000
114.019900 134.000000

