>compound RP79964174
>parentmass 269.0455
>ionization [M-H]-
>formula C15H10O5
>rt 237.720000
>profile qtof
#smiles_iso C1=CC(=CC=C1C2=COC3=CC(=CC(=C3C2=O)O)O)O
#smiles_can C1=CC(=CC=C1C2=COC3=CC(=CC(=C3C2=O)O)O)O
#inchikey TZBJGXHYKVUXJN-UHFFFAOYSA-N
#pubchem_id 5280961
#mb_accession RP017611,RP017612,RP017613

>ms2
269.045600 219986.000000

>ms2
181.066100 282.000000
201.056300 356.000000
224.049700 230.000000
225.057100 392.000000
269.045700 193194.000000

>ms2
63.024000 40980.000000
63.995600 130.000000
65.003300 29084.000000
67.018700 322.000000
68.998100 468.000000
75.023900 142.000000
77.040200 418.000000
81.034800 58.000000
83.013800 1262.000000
89.003600 706.000000
89.039700 390.000000
91.018900 5000.000000
93.035300 164.000000
95.013400 68.000000
95.050500 74.000000
104.026900 90.000000
105.034500 236.000000
107.014300 3252.000000
108.018400 72.000000
109.030100 82.000000
119.050900 116.000000
123.009700 44.000000
123.046000 306.000000
130.043200 70.000000
131.049400 76.000000
132.022000 404.000000
133.029900 2400.000000
135.010000 114.000000
135.045400 566.000000
136.053100 58.000000
143.051300 74.000000
148.017300 80.000000
151.004500 196.000000
154.042100 48.000000
155.050800 474.000000
156.057900 146.000000
157.030000 624.000000
157.066400 88.000000
158.036500 158.000000
159.045300 1724.000000
160.050500 96.000000
161.024200 94.000000
167.050900 246.000000
168.058500 50.000000
169.066800 420.000000
171.046200 256.000000
173.061100 154.000000
176.014500 118.000000
179.050900 42.000000
180.059100 1494.000000
181.067100 726.000000
182.037600 518.000000
183.046100 1256.000000
184.052100 134.000000
185.060700 50.000000
195.045400 378.000000
196.053500 640.000000
197.061400 430.000000
198.031500 96.000000
199.041100 462.000000
200.051000 66.000000
201.056700 922.000000
208.053300 76.000000
211.040900 132.000000
212.047900 146.000000
213.057200 328.000000
223.041300 802.000000
224.048300 1628.000000
225.055500 564.000000
226.027400 68.000000
227.035900 262.000000
239.035000 428.000000
240.043400 498.000000
241.051700 228.000000
267.030200 50.000000
268.040100 80.000000
269.045800 10624.000000

