>compound RP80034797
>parentmass 243.0809
>ionization [M-H]-
>formula C10H16N2O3S
>rt 167.760000
>profile qtof
#smiles_iso C1[C@H]2[C@@H]([C@@H](S1)CCCCC(=O)O)NC(=O)N2
#smiles_can C1C2C(C(S1)CCCCC(=O)O)NC(=O)N2
#inchikey YBJHBAHKTGYVGT-ZKWXMUAHSA-N
#pubchem_id 171548
#mb_accession RP021911,RP021912,RP021913

>ms2
156.089900 40.000000
166.090200 94.000000
199.091900 172.000000
209.094100 130.000000
210.096000 48.000000
243.081500 34628.000000

>ms2
68.050400 96.000000
74.007100 246.000000
94.066200 36.000000
95.025500 60.000000
112.061100 34.000000
123.102500 52.000000
155.094500 30.000000
156.086100 158.000000
165.103900 148.000000
166.088600 974.000000
167.091000 90.000000
167.115500 38.000000
197.092800 76.000000
199.091700 286.000000
200.075500 2298.000000
201.079500 98.000000
202.079200 46.000000
209.094300 166.000000
243.081100 4562.000000

>ms2
59.025600 68.000000
68.014400 70.000000
68.050600 132.000000
71.992000 94.000000
74.006900 166.000000
82.016800 48.000000
92.051500 28.000000
95.026000 56.000000
97.040700 50.000000
103.057800 30.000000
215.000300 30.000000

