>compound RP80557066
>parentmass 329.197
>ionization [M-H]-
>formula C17H30O6
>rt 237.360000
>profile qtof
#smiles_iso CC1C(CC(C(O1)OC(C)CCCCCC/C=C/C(=O)O)O)O
#smiles_can CC1C(CC(C(O1)OC(C)CCCCCCC=CC(=O)O)O)O
#inchikey NEVPBIQTDNVVMK-CSKARUKUSA-N
#pubchem_id 86289688
#mb_accession RP010211,RP010212,RP010213

>ms2peaks
329.199400 231578.000000

>ms2peaks
81.030300 660.000000
83.046300 5176.000000
111.045200 11260.000000
112.048800 502.000000
129.058300 652.000000
199.137700 338.000000
329.199700 119090.000000

>ms2peaks
80.022500 50.000000
81.030600 2292.000000
83.046400 15198.000000
87.033300 34.000000
97.024800 56.000000
109.030600 68.000000
111.045100 1002.000000
112.048900 128.000000
126.034700 60.000000
128.051500 30.000000
140.116100 48.000000
147.965500 36.000000
199.107100 28.000000
199.138400 316.000000
292.191000 28.000000

