>compound RP82627186
>parentmass 235.1088
>ionization [M-H]-
>formula C12H16N2O3
>rt 145.620000
>profile qtof
#smiles_iso C[C@@H](C(=O)N[C@@H](CC1=CC=CC=C1)C(=O)O)N
#smiles_can CC(C(=O)NC(CC1=CC=CC=C1)C(=O)O)N
#inchikey OMNVYXHOSHNURL-WPRPVWTQSA-N
#pubchem_id 96814
#mb_accession RP016511,RP016512,RP016513

>ms2peaks
87.056500 1030.000000
147.046500 92.000000
164.072400 180.000000
191.120300 78.000000
235.109700 45140.000000

>ms2peaks
70.029600 170.000000
72.008700 46.000000
87.056600 18066.000000
89.060800 54.000000
91.055500 990.000000
92.059400 124.000000
99.056200 44.000000
103.056200 182.000000
147.045300 724.000000
164.072100 498.000000
167.070900 30.000000
191.120400 334.000000
235.108900 4066.000000

>ms2peaks
70.029700 418.000000
72.009000 142.000000
77.039200 38.000000
87.056500 2088.000000
91.055800 272.000000
103.056100 80.000000

