>compound RP82428775
>parentmass 256.0939
>ionization [M-H]-
>formula C10H15N3O5
>rt 39.360000
>profile qtof
#smiles_iso CC1=CN(C(=O)N=C1N)[C@H]2[C@@H]([C@@H]([C@H](O2)CO)O)O
#smiles_can CC1=CN(C(=O)N=C1N)C2C(C(C(O2)CO)O)O
#inchikey ZAYHVCMSTBRABG-JXOAFFINSA-N
#pubchem_id 92918
#mb_accession RP032211,RP032212,RP032213

>ms2peaks
123.056700 34.000000
124.049700 30.000000
166.062300 48.000000
256.094600 4928.000000

>ms2peaks
81.046400 36.000000
123.057100 70.000000
124.052000 46.000000
166.064300 94.000000
196.072900 32.000000
256.095400 176.000000

>ms2peaks
95.061800 36.000000

