>compound RP82949070
>parentmass 334.1521
>ionization [M-H]-
>formula C15H21N5O4
>rt 189.180000
>profile qtof
#smiles_iso CC(=CCNC1=C2C(=NC=N1)N(C=N2)[C@H]3[C@@H]([C@@H]([C@H](O3)CO)O)O)C
#smiles_can CC(=CCNC1=C2C(=NC=N1)N(C=N2)C3C(C(C(O3)CO)O)O)C
#inchikey USVMJSALORZVDV-SDBHATRESA-N
#pubchem_id 24405
#mb_accession RP030611,RP030612

>ms2peaks
202.108200 146.000000
334.148800 172.000000

>ms2peaks
202.110600 314.000000
334.152900 46.000000

