>compound RP90676001
>parentmass 132.0302
>ionization [M-H]-
>formula C4H7NO4
>rt 37.620000
>profile qtof
#smiles_iso C([C@@H](C(=O)O)N)C(=O)O
#smiles_can C(C(C(=O)O)N)C(=O)O
#inchikey CKLJMWTZIZZHCS-REOHCLBHSA-N
#pubchem_id 5960
#mb_accession RP001611

>ms2
115.004800 116.000000
132.029200 196.000000

