>compound RP90464213
>parentmass 220.08270000000002
>ionization [M-H]-
>formula C8H15NO6
>rt 37.020000
>profile qtof
#smiles_iso CC(=O)N[C@@H](C=O)[C@@H]([C@H]([C@H](CO)O)O)O
#smiles_can CC(=O)NC(C=O)C(C(C(CO)O)O)O
#inchikey MBLBDJOUHNCFQT-XAMCCFCMSA-N
#pubchem_id 22952041
#mb_accession RP014511,RP014512,RP014513

>ms2peaks
89.023700 102.000000
91.027200 34.000000
101.023800 58.000000
119.035400 88.000000
167.071400 36.000000

>ms2peaks
59.014000 288.000000
100.040800 76.000000
101.023300 30.000000

>ms2peaks
59.014000 184.000000

