>compound RP90532521
>parentmass 214.10849999999996
>ionization [M-H]-
>formula C10H17NO4
>rt 158.400000
>profile qtof
#smiles_iso CCCC(CC(=O)NC1CCOC1=O)O
#smiles_can CCCC(CC(=O)NC1CCOC1=O)O
#inchikey CRCIHGGZGGATGM-UHFFFAOYSA-N
#pubchem_id 11579405
#mb_accession RP021411,RP021412,RP021413

>ms2
112.040600 326.000000
142.051500 1880.000000
143.055300 58.000000
214.109100 2248.000000

>ms2
57.034800 58.000000
68.050200 98.000000
69.033800 64.000000
84.045800 1462.000000
97.029900 78.000000
112.041000 1978.000000
113.043300 120.000000
140.036100 52.000000
142.050600 446.000000
143.055700 30.000000

>ms2
57.034300 316.000000
69.035100 188.000000
71.013500 52.000000
82.029900 28.000000
84.045700 1428.000000
94.030400 42.000000
97.030000 168.000000
98.025600 30.000000
112.041300 66.000000

