>compound RP91584813
>parentmass 203.08260000000004
>ionization [M-H]-
>formula C11H12N2O2
>rt 143.940000
>profile qtof
#smiles_iso C1=CC=C2C(=C1)C(=CN2)C[C@@H](C(=O)O)N
#smiles_can C1=CC=C2C(=C1)C(=CN2)CC(C(=O)O)N
#inchikey QIVBCDIJIAJPQS-VIFPVBQESA-N
#pubchem_id 6305
#mb_accession RP000511,RP000512,RP000513

>ms2peaks
72.009500 150.000000
116.051700 200.000000
117.055400 32.000000
159.093500 232.000000
186.055800 80.000000
203.082600 12162.000000

>ms2peaks
72.009400 460.000000
74.025300 3630.000000
116.051100 658.000000
117.053900 74.000000
130.063300 28.000000
142.066600 190.000000
157.077500 44.000000
159.093100 142.000000
162.030700 50.000000
186.054800 52.000000
203.081800 634.000000

>ms2peaks
74.025300 282.000000
116.050800 424.000000

