>compound RP92581688
>parentmass 164.0717
>ionization [M-H]-
>formula C9H11NO2
>rt 83.880000
>profile qtof
#smiles_iso C1=CC=C(C=C1)C[C@@H](C(=O)O)N
#smiles_can C1=CC=C(C=C1)CC(C(=O)O)N
#inchikey COLNVLDHVKWLRT-QMMMGPOBSA-N
#pubchem_id 6140
#mb_accession RP000411,RP000412

>ms2
72.009700 962.000000
147.045200 1064.000000
164.072000 5100.000000

>ms2
103.055800 468.000000
104.058500 54.000000
147.044700 416.000000
148.052100 28.000000
164.072700 142.000000

