>compound RP94454909
>parentmass 267.0411
>ionization [M-H]-
>formula C14H8N2O4
>rt 241.980000
>profile qtof
#smiles_iso C1=CC(=C2C(=C1)N=C3C(=N2)C=CC=C3C(=O)O)C(=O)O
#smiles_can C1=CC(=C2C(=C1)N=C3C(=N2)C=CC=C3C(=O)O)C(=O)O
#inchikey MJALVONLCNWZHK-UHFFFAOYSA-N
#pubchem_id 193025
#mb_accession RP018711,RP018712

>ms2
102.033000 32.000000
154.005100 32.000000
160.020300 28.000000
195.054700 38.000000
223.051900 2768.000000
267.041500 452.000000
280.011500 30.000000

>ms2
223.052000 1382.000000

