>compound RP94300942
>parentmass 282.0844
>ionization [M-H]-
>formula C10H13N5O5
>rt 42.840000
>profile qtof
#smiles_iso C1=NC2=C(N1[C@H]3[C@@H]([C@@H]([C@H](O3)CO)O)O)N=C(NC2=O)N
#smiles_can C1=NC2=C(N1C3C(C(C(O3)CO)O)O)N=C(NC2=O)N
#inchikey NYHBQMYGNKIUIF-UUOKFMHZSA-N
#pubchem_id 135398635
#mb_accession RP031711,RP031712,RP031713

>ms2peaks
150.042500 650.000000
282.084000 17692.000000
293.048600 32.000000

>ms2peaks
150.042100 3700.000000
151.046400 128.000000
282.084400 2152.000000

>ms2peaks
66.011300 98.000000
78.010200 196.000000
80.026600 132.000000
82.042700 84.000000
105.022200 84.000000
107.036100 64.000000
108.021200 548.000000
126.031100 62.000000
133.015900 540.000000
134.021500 28.000000
150.042300 878.000000

