>compound RP94057493
>parentmass 244.1303
>ionization [M-H]-
>formula C10H19N3O4
>rt 46.740000
>profile qtof
#smiles_iso CC(C)C[C@@H](C(=O)NCC(=O)NCC(=O)O)N
#smiles_can CC(C)CC(C(=O)NCC(=O)NCC(=O)O)N
#inchikey VWHGTYCRDRBSFI-ZETCQYMHSA-N
#pubchem_id 70910
#mb_accession RP016411,RP016412,RP016413

>ms2peaks
74.025000 184.000000
87.055800 28.000000
200.140100 170.000000
244.131900 4232.000000

>ms2peaks
74.025000 592.000000
87.056600 280.000000
169.099200 248.000000
200.142000 734.000000
244.132100 286.000000

>ms2peaks
58.028900 64.000000
74.024700 136.000000
87.056400 352.000000

