>compound RP94402780
>parentmass 223.0612
>ionization [M-H]-
>formula C11H12O5
>rt 188.940000
>profile qtof
#smiles_iso COC1=CC(=CC(=C1O)OC)/C=C/C(=O)O
#smiles_can COC1=CC(=CC(=C1O)OC)C=CC(=O)O
#inchikey PCMORTLOPMLEFB-ONEGZZNKSA-N
#pubchem_id 637775
#mb_accession RP017411,RP017412,RP017413

>ms2
149.025200 656.000000
163.041100 314.000000
164.048800 7122.000000
165.052200 254.000000
179.072100 3198.000000
193.015200 1786.000000
208.038700 35326.000000
223.061900 101236.000000

>ms2
93.034900 214.000000
109.030200 180.000000
122.992900 46.000000
135.046200 254.000000
136.015600 32.000000
136.052800 42.000000
137.025400 38.000000
139.005600 34.000000
148.017300 80.000000
149.025200 7568.000000
150.028400 322.000000
151.031200 44.000000
152.013300 294.000000
163.041000 2880.000000
164.048800 17228.000000
165.019900 496.000000
165.052800 888.000000
166.023000 40.000000
166.053300 66.000000
167.026100 36.000000
167.038300 32.000000
169.051000 184.000000
179.072100 752.000000
193.015300 23016.000000
195.021700 106.000000
196.024900 34.000000
207.030000 148.000000
208.038700 25570.000000
223.062600 2196.000000

>ms2
65.003300 3118.000000
67.018800 370.000000
77.039300 942.000000
79.019400 66.000000
92.027200 66.000000
93.034700 55702.000000
94.038400 1480.000000
105.035000 114.000000
107.014700 66.000000
107.049200 66.000000
121.030000 5594.000000
122.034200 308.000000
135.045000 544.000000
148.017500 482.000000
149.024800 1568.000000
150.028200 114.000000
163.040900 354.000000
165.019800 1466.000000
193.014900 3252.000000

