>compound RP95626651
>parentmass 301.0354
>ionization [M-H]-
>formula C15H10O7
>rt 229.200000
>profile qtof
#smiles_iso C1=CC(=C(C=C1C2=C(C(=O)C3=C(C=C(C=C3O2)O)O)O)O)O
#smiles_can C1=CC(=C(C=C1C2=C(C(=O)C3=C(C=C(C=C3O2)O)O)O)O)O
#inchikey REFJWTPEDVJJIY-UHFFFAOYSA-N
#pubchem_id 5280343
#mb_accession RP012411,RP012412,RP012413

>ms2peaks
161.045900 34.000000
194.005800 34.000000
248.012000 40.000000
299.033500 32.000000

>ms2peaks
151.007300 46.000000
179.002000 76.000000
179.036300 30.000000
192.058000 40.000000
209.010400 32.000000

>ms2peaks
120.020700 28.000000
123.992100 34.000000
175.065400 32.000000
184.020400 34.000000

