>compound RP98646131
>parentmass 289.0718
>ionization [M-H]-
>formula C15H14O6
>rt 153.300000
>profile qtof
#smiles_iso C1[C@@H]([C@H](OC2=CC(=CC(=C21)O)O)C3=CC(=C(C=C3)O)O)O
#smiles_can C1C(C(OC2=CC(=CC(=C21)O)O)C3=CC(=C(C=C3)O)O)O
#inchikey PFTAWBLQPZVEMU-DZGCQCFKSA-N
#pubchem_id 9064
#mb_accession RP017811,RP017812,RP017813

>ms2peaks
179.039100 98.000000
203.072600 66.000000
205.049400 62.000000
219.069100 56.000000
231.030900 48.000000
245.082500 926.000000
259.060000 88.000000
287.056200 230.000000
289.072000 29116.000000

>ms2peaks
95.050300 58.000000
97.029300 82.000000
109.030400 140.000000
149.023900 68.000000
151.039800 238.000000
152.045000 48.000000
159.044100 62.000000
161.024000 40.000000
161.060500 52.000000
162.033800 42.000000
165.019700 258.000000
167.033900 98.000000
175.039600 74.000000
177.059600 42.000000
179.036000 192.000000
180.044900 38.000000
187.039800 172.000000
188.049400 78.000000
200.051800 34.000000
201.056800 36.000000
202.065900 46.000000
203.071900 752.000000
205.050900 814.000000
213.053000 34.000000
217.054100 38.000000
221.083300 98.000000
227.072100 138.000000
245.082100 2520.000000
247.060400 42.000000
247.085400 34.000000
249.062200 28.000000
259.058500 28.000000
271.059400 42.000000
289.071500 4362.000000

>ms2peaks
57.034600 252.000000
69.034200 78.000000
77.040000 40.000000
79.019200 56.000000
80.027400 64.000000
81.034300 240.000000
83.014300 240.000000
95.014700 54.000000
95.050000 134.000000
97.029500 248.000000
108.022700 60.000000
109.030500 408.000000
110.036500 66.000000
121.029800 78.000000
122.038500 92.000000
123.046200 176.000000
125.025600 62.000000
145.037600 28.000000
149.026500 32.000000
150.034700 60.000000
151.040600 28.000000
158.036300 28.000000
159.045800 158.000000
164.013000 90.000000
173.061400 46.000000
175.077800 48.000000
179.038700 28.000000
187.038500 40.000000
188.048200 52.000000
189.017900 30.000000
202.064900 80.000000
203.072900 78.000000
205.051500 82.000000
221.084000 40.000000
232.036200 34.000000

