>compound RP99415776
>parentmass 259.0224
>ionization [M-H]-
>formula C6H13O9P
>rt 39.600000
>profile qtof
#smiles_iso C([C@@H]1[C@H]([C@@H]([C@H](C(O1)O)O)O)O)OP(=O)(O)O
#smiles_can C(C1C(C(C(C(O1)O)O)O)O)OP(=O)(O)O
#inchikey NBSCHQHZLSJFNQ-GASJEMHNSA-N
#pubchem_id 5958
#mb_accession RP023711,RP023712,RP023713

>ms2peaks
96.972200 236.000000
168.988800 28.000000
199.002200 104.000000
259.023100 1652.000000

>ms2peaks
71.014100 30.000000
73.029800 38.000000
78.958800 248.000000
96.969500 638.000000
168.987100 44.000000

>ms2peaks
78.959600 2068.000000
96.970300 384.000000

