>compound RP99560735
>parentmass 181.07180000000002
>ionization [M-H]-
>formula C6H14O6
>rt 36.180000
>profile qtof
#smiles_iso C([C@H]([C@@H]([C@H](C(CO)O)O)O)O)O
#smiles_can C(C(C(C(C(CO)O)O)O)O)O
#inchikey FBPFZTCFMRRESA-NQAPHZHOSA-N
#pubchem_id 71308275
#mb_accession RP022911,RP022912,RP022913

>ms2peaks
58.006300 34.000000
59.014100 270.000000
71.014400 516.000000
73.030000 286.000000
89.024800 660.000000
101.024400 154.000000
115.040200 58.000000
180.063700 34.000000
181.072700 14110.000000

>ms2peaks
55.019100 62.000000
57.034400 120.000000
59.014000 3982.000000
69.034900 144.000000
71.014000 5016.000000
73.029600 1720.000000
81.035000 40.000000
83.013900 150.000000
85.029800 336.000000
89.024800 1560.000000
101.024700 628.000000
113.024800 68.000000
151.035800 28.000000
181.073100 608.000000

>ms2peaks
59.014000 924.000000
71.014100 1424.000000
89.024300 34.000000

