>compound RP99727261
>parentmass 240.1241
>ionization [M-H]-
>formula C12H19NO4
>rt 227.160000
>profile qtof
#smiles_iso CCCCCC(=O)CC(=O)NC1CCOC1=O
#smiles_can CCCCCC(=O)CC(=O)NC1CCOC1=O
#inchikey FXCMGCFNLNFLSH-UHFFFAOYSA-N
#pubchem_id 4476497
#mb_accession RP020911,RP020912,RP020913

>ms2
70.030100 90.000000
100.040800 108.000000
113.098000 758.000000
115.077200 9690.000000
126.020400 928.000000
142.051500 222.000000
166.124500 778.000000
178.124800 212.000000
192.102600 130.000000
196.133100 90.000000
240.124800 88048.000000

>ms2
52.019400 84.000000
57.034600 2380.000000
69.035000 84.000000
70.029900 1274.000000
72.009700 264.000000
81.035000 40.000000
82.029900 278.000000
84.009300 46.000000
85.066000 90.000000
94.030700 68.000000
95.038200 278.000000
96.021200 36.000000
96.046200 48.000000
98.001800 96.000000
98.025000 160.000000
100.040800 306.000000
101.048300 34.000000
110.025800 52.000000
112.041300 588.000000
113.097800 8520.000000
115.077100 5988.000000
124.041200 54.000000
126.020500 660.000000
142.051600 452.000000
148.112100 62.000000
166.124600 1070.000000
167.128400 58.000000
178.124900 308.000000
179.128200 70.000000
181.087900 32.000000
192.103500 930.000000
193.107300 74.000000
195.101700 168.000000
196.135700 86.000000
198.114300 88.000000
208.097900 38.000000
210.114100 218.000000
222.114700 286.000000
238.109100 102.000000
240.124900 28208.000000

>ms2
57.034600 13262.000000
66.035200 64.000000
67.019600 44.000000
68.051100 80.000000
68.998100 980.000000
69.034600 854.000000
70.029800 360.000000
71.050400 180.000000
72.009100 1140.000000
78.010400 44.000000
80.026100 44.000000
83.049900 56.000000
84.046300 400.000000
85.065600 534.000000
94.029600 132.000000
95.014000 44.000000
95.050500 134.000000
95.087200 98.000000
96.008500 68.000000
96.045000 38.000000
97.014000 36.000000
97.030000 152.000000
98.000900 254.000000
98.024600 64.000000
109.027400 32.000000
112.040300 222.000000
113.035600 36.000000
113.098100 594.000000
115.077100 124.000000
124.040000 28.000000
139.077400 322.000000
139.111600 46.000000
152.037000 42.000000
192.103200 346.000000
193.108600 32.000000
195.091300 52.000000
196.060100 34.000000
233.116400 28.000000

