>compound RP00143428
>parentmass 281.2475
>ionization [M+H]+
>formula C18H32O2
>rt 417.480000
>profile qtof
#smiles_iso CCCCC/C=C\C/C=C\CCCCCCCC(=O)O
#smiles_can CCCCCC=CCC=CCCCCCCCC(=O)O
#inchikey OYHQOLUKZRVURQ-HZJYTTRNSA-N
#pubchem_id 5280450
#mb_accession RP029501,RP029502,RP029503

>ms2peaks
56.155800 68.000000
56.176500 90.000000
64.062800 62.000000
67.086200 46.000000
83.084900 866.000000
85.100600 56.000000
89.247600 48.000000
93.028900 36.000000
94.016000 66.000000
95.084700 188.000000
97.065400 74.000000
97.100900 1150.000000
99.081000 170.000000
103.170200 76.000000
109.101600 100.000000
111.117100 416.000000
117.113800 40.000000
123.030600 66.000000
123.080200 48.000000
123.116100 84.000000
124.112100 38.000000
125.096100 44.000000
125.132700 242.000000
126.078500 36.000000
127.040200 58.000000
132.991400 38.000000
139.148900 120.000000
147.115900 94.000000
149.022900 128.000000
149.132400 134.000000
151.113100 162.000000
151.147400 70.000000
153.102000 62.000000
153.126900 80.000000
153.163300 98.000000
155.106000 102.000000
157.122900 126.000000
160.123800 68.000000
161.070800 36.000000
161.133200 168.000000
162.140400 80.000000
163.055700 54.000000
163.088100 64.000000
163.147700 268.000000
165.009400 44.000000
165.162900 126.000000
167.144400 324.000000
167.179500 38.000000
168.064600 42.000000
169.121900 194.000000
169.154300 52.000000
170.093200 72.000000
171.138700 448.000000
171.211200 42.000000
175.147300 240.000000
179.023900 42.000000
179.107300 86.000000
179.178700 196.000000
181.158100 114.000000
181.170500 46.000000
182.022500 48.000000
183.137100 294.000000
183.174500 48.000000
185.155300 244.000000
185.176300 44.000000
187.107900 44.000000
188.047600 40.000000
189.163900 166.000000
190.028500 40.000000
193.159200 382.000000
194.082700 36.000000
194.161100 48.000000
195.161800 48.000000
197.154200 418.000000
199.167900 260.000000
200.175200 42.000000
203.179800 72.000000
205.084700 188.000000
205.170200 36.000000
207.173200 294.000000
208.179000 48.000000
211.167300 352.000000
213.158400 44.000000
214.122300 42.000000
217.252600 36.000000
218.212700 56.000000
219.207700 60.000000
221.092600 38.000000
221.225200 230.000000
225.184400 404.000000
227.200300 48.000000
228.160100 58.000000
229.265300 88.000000
230.141800 62.000000
232.179300 56.000000
236.106700 36.000000
237.208800 48.000000
239.201800 74.000000
240.053800 50.000000
242.130000 48.000000
243.089100 58.000000
243.193300 44.000000
245.226400 2538.000000
246.007600 38.000000
246.022000 98.000000
246.229500 360.000000
247.226200 72.000000
247.239200 244.000000
256.061900 58.000000
256.238900 76.000000
260.044600 42.000000
263.237000 8480.000000
264.240200 1058.000000
277.201800 40.000000
277.246600 102.000000
278.163100 58.000000
279.232200 356.000000
280.132800 66.000000
281.247300 5176.000000
283.248200 106.000000

>ms2peaks
71.036100 50.000000
71.085000 518.000000
73.006800 42.000000
83.084900 2014.000000
85.064400 126.000000
89.060100 86.000000
93.068900 200.000000
95.084800 586.000000
97.064700 182.000000
97.100500 1082.000000
99.079500 50.000000
100.018100 36.000000
100.027600 66.000000
105.070900 46.000000
107.085800 210.000000
111.080900 48.000000
111.117000 302.000000
119.085600 66.000000
123.080900 110.000000
123.116400 42.000000
133.100500 208.000000
135.081300 38.000000
135.116800 60.000000
143.107200 56.000000
147.116800 176.000000
148.120400 64.000000
149.023100 346.000000
149.131600 326.000000
151.086800 68.000000
151.110800 222.000000
153.165000 40.000000
161.131100 378.000000
162.135600 96.000000
163.146800 152.000000
165.127500 102.000000
167.142300 102.000000
168.152100 48.000000
175.147100 496.000000
177.164500 56.000000
179.178000 118.000000
181.156300 134.000000
189.165600 258.000000
190.165700 56.000000
191.140100 46.000000
193.063800 38.000000
193.158800 142.000000
203.178200 110.000000
205.193000 44.000000
207.175900 64.000000
208.180800 94.000000
209.154300 38.000000
217.196700 46.000000
219.210000 198.000000
221.189600 130.000000
221.226800 176.000000
243.211900 42.000000
245.225900 1032.000000
246.236000 74.000000
262.224800 48.000000
263.237800 414.000000
264.234100 46.000000
265.252200 86.000000
279.088900 44.000000
283.228800 44.000000

>ms2peaks
55.017400 40.000000
57.069800 108.000000
59.048600 88.000000
68.057600 70.000000
72.043900 48.000000
72.080200 56.000000
77.038000 94.000000
81.069400 1444.000000
83.049000 142.000000
83.085400 660.000000
84.092600 68.000000
87.043700 38.000000
88.074800 44.000000
92.057500 98.000000
93.069700 394.000000
95.085100 770.000000
97.100700 164.000000
108.089900 44.000000
123.118000 86.000000
149.023300 108.000000
151.146900 40.000000
160.076200 42.000000

