>compound RP00709351
>parentmass 268.104
>ionization [M+H]+
>formula C10H13N5O4
>rt 43.440000
>profile qtof
#smiles_iso C1=NC(=C2C(=N1)N(C=N2)[C@H]3[C@@H]([C@@H]([C@H](O3)CO)O)O)N
#smiles_can C1=NC(=C2C(=N1)N(C=N2)C3C(C(C(O3)CO)O)O)N
#inchikey OIRDTQYFTABQOQ-KQYNXXCUSA-N
#pubchem_id 60961
#mb_accession RP010901,RP010902,RP010903

>ms2
136.061600 53436.000000
137.064500 2694.000000
268.103900 385974.000000
270.109000 4020.000000

>ms2
57.033000 860.000000
61.028000 236.000000
69.033000 650.000000
71.012200 392.000000
73.027500 1296.000000
77.023000 130.000000
85.027900 1436.000000
87.043300 218.000000
94.040600 96.000000
97.028200 578.000000
103.038500 316.000000
115.039300 670.000000
119.036100 216.000000
133.049200 454.000000
134.053900 138.000000
136.061800 93618.000000
137.064600 5942.000000
188.071000 100.000000
268.104100 19826.000000
270.106500 172.000000

>ms2
48.081100 74.000000
55.017400 996.000000
55.054500 80.000000
58.041200 112.000000
59.048200 516.000000
61.027900 1076.000000
67.028800 722.000000
68.118000 62.000000
69.032800 3660.000000
71.012500 3770.000000
73.028000 2702.000000
85.028500 2386.000000
87.044100 110.000000
92.024000 386.000000
94.039700 8208.000000
97.028900 792.000000
98.995600 60.000000
109.051100 708.000000
115.039200 108.000000
119.035300 6336.000000
120.040800 170.000000
133.047700 122.000000
136.061800 58302.000000
137.045300 1412.000000
138.065500 108.000000

