>compound RP00762229
>parentmass 284.0989
>ionization [M+H]+
>formula C10H13N5O5
>rt 42.720000
>profile qtof
#smiles_iso C1=NC2=C(N1[C@H]3[C@@H]([C@@H]([C@H](O3)CO)O)O)N=C(NC2=O)N
#smiles_can C1=NC2=C(N1C3C(C(C(O3)CO)O)O)N=C(NC2=O)N
#inchikey NYHBQMYGNKIUIF-UUOKFMHZSA-N
#pubchem_id 135398635
#mb_accession RP031701,RP031702,RP031703

>ms2
94.110700 186.000000
152.056300 171048.000000
153.059100 7524.000000
154.061600 442.000000
284.099500 56182.000000
286.102600 524.000000

>ms2
61.027500 154.000000
69.032200 180.000000
73.026900 284.000000
85.027400 572.000000
115.038900 196.000000
135.028900 408.000000
152.056200 147662.000000
154.059800 194.000000
284.098900 242.000000

>ms2
54.115300 62.000000
55.017000 342.000000
57.032100 898.000000
59.047300 90.000000
61.027300 478.000000
65.013300 66.000000
68.013400 66.000000
69.032600 1192.000000
71.012400 1092.000000
73.027700 804.000000
74.104700 96.000000
77.095600 86.000000
80.024300 144.000000
82.040000 362.000000
82.063100 62.000000
82.997200 64.000000
84.052500 86.000000
85.027700 790.000000
86.035400 56.000000
93.008800 100.000000
95.035700 66.000000
97.026900 148.000000
97.049500 64.000000
101.013700 58.000000
107.035500 214.000000
109.050200 792.000000
110.034700 6194.000000
112.084600 60.000000
117.086400 60.000000
119.080000 82.000000
120.061700 56.000000
122.114000 66.000000
126.074800 68.000000
127.010100 78.000000
128.045400 414.000000
128.093000 96.000000
134.045300 294.000000
135.030100 4868.000000
136.014800 108.000000
136.033500 438.000000
139.107000 80.000000
140.012600 96.000000
140.030600 88.000000
146.069000 58.000000
149.021700 66.000000
152.056200 55502.000000
153.040100 7286.000000
154.025000 100.000000
154.058600 110.000000
155.037200 56.000000
171.054000 76.000000

