>compound RP01264756
>parentmass 243.2319
>ionization [M+H]+
>formula C15H30O2
>rt 419.160000
>profile qtof
#smiles_iso CC(C)CCCCCCCCCCCC(=O)O
#smiles_can CC(C)CCCCCCCCCCCC(=O)O
#inchikey ZOCYQVNGROEVLU-UHFFFAOYSA-N
#pubchem_id 151014
#mb_accession RP024601,RP024602,RP024603

>ms2
57.044700 84.000000
79.075100 36.000000
87.011000 40.000000
88.124500 68.000000
95.085000 84.000000
97.101600 40.000000
100.218800 38.000000
104.106100 40.000000
118.999400 36.000000
121.101900 56.000000
133.075700 46.000000
139.111500 50.000000
154.999800 66.000000
157.086500 48.000000
157.123600 126.000000
174.128400 104.000000
179.141700 52.000000
183.100500 56.000000
185.117200 60.000000
189.114700 100.000000
205.196400 60.000000
212.152400 60.000000
213.055900 50.000000
213.184800 70.000000
218.084700 98.000000
225.223100 42.000000
228.066700 46.000000
236.153000 74.000000
240.159000 46.000000
241.188800 82.000000
243.232000 5664.000000

>ms2
69.069600 492.000000
73.065400 48.000000
75.043900 76.000000
79.054900 36.000000
85.100900 230.000000
89.058900 290.000000
95.085100 194.000000
97.065600 106.000000
103.075200 76.000000
109.101900 86.000000
133.159800 42.000000
146.095500 48.000000
182.081700 48.000000
200.014000 74.000000
200.118400 70.000000
239.083200 78.000000
243.233000 66.000000
252.145400 106.000000

>ms2
67.054100 170.000000
69.069300 144.000000
71.048500 54.000000
74.095800 42.000000
102.091800 56.000000
117.057200 74.000000
143.071000 52.000000
172.074800 64.000000
185.116900 50.000000
198.124700 42.000000
214.120500 50.000000

