>compound RP01583602
>parentmass 196.0604
>ionization [M+H]+
>formula C9H9NO4
>rt 186.120000
>profile qtof
#smiles_iso C1=CC=C(C=C1)C(=O)NC(C(=O)O)O
#smiles_can C1=CC=C(C=C1)C(=O)NC(C(=O)O)O
#inchikey GCWCVCCEIQXUQU-UHFFFAOYSA-N
#pubchem_id 450272
#mb_accession RP015901,RP015902,RP015903

>ms2
51.023100 52.000000
72.065700 80.000000
76.005800 104.000000
83.060600 66.000000
85.062600 60.000000
93.990100 54.000000
108.018300 58.000000
113.997900 58.000000
114.047200 84.000000
119.032300 66.000000
121.028400 50422.000000
122.031300 3394.000000
123.032000 138.000000
142.005700 54.000000
150.055100 168.000000
151.002500 52.000000
165.049000 52.000000
178.049500 1118.000000
179.054200 118.000000
189.990000 64.000000
196.060000 40126.000000

>ms2
65.038000 2650.000000
66.042200 124.000000
93.033300 636.000000
94.039100 74.000000
98.036000 88.000000
100.075900 74.000000
111.044700 112.000000
121.028400 51652.000000
123.032500 274.000000
139.037400 160.000000
178.049300 70.000000
196.059900 64.000000

>ms2
55.016400 110.000000
68.997400 120.000000
71.013400 58.000000
80.025200 380.000000
83.012600 84.000000
83.049300 100.000000
92.024700 84.000000
93.033100 6552.000000
98.035100 152.000000
111.043800 2594.000000
112.047200 126.000000
121.028300 13528.000000
122.032500 954.000000
123.031200 50.000000
139.038000 50.000000

