>compound RP01640027
>parentmass 319.1904
>ionization [M+H]+
>formula C19H26O4
>rt 384.540000
>profile qtof
#smiles_iso CC1=C(C(=O)C(=C(C1=O)OC)OC)C/C=C(\C)/CCC=C(C)C
#smiles_can CC1=C(C(=O)C(=C(C1=O)OC)OC)CC=C(C)CCC=C(C)C
#inchikey SQQWBSBBCSFQGC-JLHYYAGUSA-N
#pubchem_id 5280346
#mb_accession RP014801,RP014802,RP014803

>ms2peaks
111.115700 256.000000
117.019200 92.000000
121.012400 94.000000
123.117000 120.000000
133.014100 86.000000
135.056400 140.000000
135.118000 126.000000
139.038700 88.000000
141.062900 92.000000
143.011500 112.000000
163.026400 98.000000
168.031200 90.000000
169.064000 100.000000
177.090300 82.000000
178.985500 98.000000
179.175600 98.000000
180.999200 88.000000
181.064700 102.000000
181.085200 258.000000
184.049500 84.000000
185.002700 110.000000
186.121100 116.000000
188.127300 86.000000
189.018500 118.000000
191.071500 94.000000
192.137000 90.000000
193.085300 82.000000
194.060300 84.000000
195.100500 208.000000
197.080600 9650.000000
202.030100 98.000000
205.086900 178.000000
206.090100 184.000000
207.101000 82.000000
208.004600 90.000000
209.081300 446.000000
213.150000 92.000000
216.078800 94.000000
216.162000 88.000000
217.084800 296.000000
219.100400 920.000000
219.139900 116.000000
219.162100 84.000000
220.103600 130.000000
220.116200 92.000000
221.080300 190.000000
221.116200 192.000000
223.097700 322.000000
227.141100 100.000000
231.100500 520.000000
232.106000 118.000000
233.116000 294.000000
235.095900 666.000000
235.131800 222.000000
237.063800 108.000000
237.110400 420.000000
238.077600 100.000000
245.117000 506.000000
247.130900 88.000000
248.120900 98.000000
248.139000 128.000000
249.113800 138.000000
250.048600 86.000000
250.118900 124.000000
251.127600 1456.000000
255.138700 352.000000
258.161400 86.000000
259.168000 218.000000
263.035900 84.000000
263.128000 534.000000
265.994500 82.000000
268.139600 88.000000
269.154200 362.000000
270.157000 100.000000
273.184100 166.000000
274.186900 200.000000
275.198700 86.000000
277.187600 106.000000
281.160000 90.000000
287.164400 2694.000000
288.167800 356.000000
291.158600 84.000000
291.194900 680.000000
296.069500 94.000000
301.179800 3392.000000
302.183500 696.000000
303.123200 96.000000
319.190200 80820.000000
321.196600 1382.000000

>ms2peaks
47.106700 50.000000
55.053900 40.000000
55.989500 86.000000
59.200600 82.000000
64.039200 66.000000
65.026000 36.000000
67.005800 52.000000
67.054300 126.000000
73.064300 50.000000
74.108500 44.000000
75.067500 44.000000
77.095800 86.000000
78.124400 116.000000
79.054000 168.000000
79.169100 42.000000
81.069100 480.000000
83.085000 206.000000
83.984100 58.000000
84.021300 64.000000
87.117200 40.000000
87.979100 58.000000
89.116800 42.000000
89.981600 64.000000
91.005000 58.000000
91.051100 46.000000
92.103400 112.000000
93.033500 78.000000
93.069800 204.000000
94.041600 66.000000
94.073000 40.000000
95.085100 468.000000
96.115200 56.000000
97.101600 242.000000
99.045000 46.000000
99.079600 102.000000
103.042400 40.000000
103.133000 36.000000
105.102300 54.000000
105.148800 114.000000
106.000900 98.000000
106.099700 38.000000
107.070200 36.000000
108.015700 42.000000
109.065800 44.000000
109.101600 308.000000
110.094400 56.000000
111.103500 38.000000
111.979500 58.000000
111.991400 40.000000
112.063000 50.000000
116.058700 50.000000
120.115400 108.000000
121.102100 50.000000
123.044400 48.000000
123.080000 58.000000
123.116300 284.000000
123.993400 68.000000
124.089400 52.000000
125.982700 36.000000
128.048200 56.000000
129.030000 68.000000
129.990600 40.000000
130.003800 38.000000
130.026300 60.000000
130.157000 78.000000
131.045800 68.000000
131.153400 68.000000
133.025600 40.000000
133.142800 58.000000
134.142500 38.000000
135.008800 46.000000
135.029800 50.000000
135.080000 128.000000
136.023900 54.000000
136.988200 90.000000
137.024600 56.000000
137.188700 40.000000
138.091400 38.000000
139.988400 36.000000
140.035800 42.000000
140.058000 58.000000
142.122500 66.000000
143.008900 42.000000
143.023700 58.000000
143.081500 96.000000
144.115700 54.000000
145.065400 56.000000
145.101600 88.000000
147.023900 40.000000
147.102500 60.000000
148.001500 40.000000
148.074200 42.000000
148.120800 48.000000
149.012700 90.000000
149.059800 48.000000
150.006900 42.000000
150.062100 54.000000
151.074800 170.000000
151.111500 88.000000
152.045800 56.000000
153.053400 68.000000
153.085600 64.000000
153.114200 46.000000
153.164900 46.000000
154.065600 142.000000
156.017500 82.000000
156.988400 50.000000
157.087200 52.000000
157.098500 68.000000
158.001300 46.000000
158.095500 50.000000
159.077200 92.000000
160.146500 54.000000
161.026800 58.000000
161.057100 54.000000
161.094800 90.000000
161.154700 66.000000
162.181600 62.000000
163.034100 78.000000
163.076200 46.000000
163.216000 56.000000
164.041300 96.000000
164.157400 64.000000
164.982100 58.000000
165.018000 60.000000
165.053800 42.000000
165.070100 74.000000
165.092000 66.000000
165.976200 44.000000
165.990300 74.000000
166.172700 114.000000
167.071600 76.000000
167.108300 54.000000
167.998400 36.000000
168.086900 46.000000
169.085700 268.000000
169.196700 38.000000
170.126600 58.000000
171.066200 44.000000
171.080200 86.000000
171.124800 52.000000
173.093600 68.000000
173.108800 80.000000
174.027700 68.000000
174.038800 58.000000
175.074600 300.000000
175.096600 40.000000
175.113100 96.000000
176.081500 60.000000
176.116900 122.000000
176.155900 38.000000
176.983200 56.000000
176.998600 60.000000
177.071300 44.000000
177.092100 214.000000
178.039600 52.000000
178.056700 54.000000
179.022700 40.000000
179.071500 86.000000
179.982700 42.000000
181.049700 110.000000
181.086200 1028.000000
181.182000 62.000000
182.088500 38.000000
182.117700 44.000000
182.131300 36.000000
182.191700 36.000000
183.016800 38.000000
183.159300 40.000000
184.998700 48.000000
185.058800 72.000000
185.095700 98.000000
185.202400 48.000000
186.005100 52.000000
186.134900 76.000000
186.199200 48.000000
187.054500 100.000000
187.074900 250.000000
187.111700 90.000000
187.180200 40.000000
187.997400 38.000000
188.080400 66.000000
189.059000 62.000000
189.091600 296.000000
189.123800 58.000000
190.037700 86.000000
190.054200 40.000000
190.096900 98.000000
190.170200 38.000000
191.068500 334.000000
191.105400 236.000000
191.117800 48.000000
191.179200 48.000000
192.082200 100.000000
193.083700 278.000000
194.058100 112.000000
194.186200 78.000000
195.101200 496.000000
196.010100 52.000000
196.103900 72.000000
196.123000 44.000000
196.193300 64.000000
197.080100 15538.000000
198.104000 70.000000
199.038700 62.000000
199.052600 74.000000
199.075700 188.000000
199.085600 302.000000
199.146200 108.000000
200.035900 42.000000
200.079900 126.000000
201.091200 140.000000
202.063600 44.000000
202.095500 48.000000
203.071200 162.000000
203.107300 228.000000
204.064700 54.000000
204.078400 78.000000
204.102400 50.000000
204.113000 108.000000
204.137700 62.000000
205.084800 1082.000000
206.090600 162.000000
207.057200 42.000000
207.076400 56.000000
207.100500 360.000000
208.048700 66.000000
208.074300 68.000000
208.111300 48.000000
209.002900 36.000000
209.081400 350.000000
209.118500 98.000000
209.132200 58.000000
209.148300 62.000000
210.078600 58.000000
210.147000 38.000000
210.162200 86.000000
211.096800 146.000000
211.124400 44.000000
211.146000 56.000000
213.040300 42.000000
213.089600 130.000000
213.129400 52.000000
213.163900 80.000000
214.014800 44.000000
215.070600 68.000000
215.090400 72.000000
215.102900 172.000000
216.076100 44.000000
217.085500 784.000000
217.122000 232.000000
218.090300 272.000000
218.126000 158.000000
219.100600 2590.000000
220.049100 64.000000
220.106700 280.000000
221.012000 80.000000
221.079700 914.000000
221.115700 386.000000
221.165200 84.000000
222.092400 114.000000
222.121400 50.000000
223.095600 1044.000000
224.044400 36.000000
224.147600 76.000000
224.982500 42.000000
225.031000 48.000000
227.106100 100.000000
227.144600 276.000000
228.135100 38.000000
228.146700 60.000000
228.197700 78.000000
229.116400 44.000000
230.090000 78.000000
230.125300 42.000000
231.101300 3184.000000
231.138200 166.000000
232.035700 36.000000
232.104800 358.000000
233.060600 54.000000
233.116800 1032.000000
233.997300 72.000000
234.009100 48.000000
234.120200 198.000000
235.095200 2658.000000
235.132600 428.000000
236.080000 56.000000
236.139500 114.000000
237.110900 890.000000
238.053700 48.000000
238.117800 214.000000
238.136800 68.000000
238.180000 46.000000
239.105500 36.000000
239.139600 48.000000
240.115500 76.000000
240.176600 70.000000
241.060700 48.000000
241.122900 74.000000
241.159000 268.000000
242.129000 76.000000
243.104500 76.000000
244.147700 40.000000
245.115900 1104.000000
245.155700 88.000000
246.105200 68.000000
246.121000 282.000000
247.132000 254.000000
247.157300 54.000000
248.010000 82.000000
248.135500 86.000000
248.189500 104.000000
249.112100 398.000000
249.151300 130.000000
251.127000 636.000000
252.018600 38.000000
252.099200 84.000000
252.110800 66.000000
252.133600 140.000000
254.129400 134.000000
255.080200 62.000000
255.138000 882.000000
256.059400 36.000000
256.142700 178.000000
257.009000 78.000000
259.130000 236.000000
259.168600 658.000000
259.972700 68.000000
260.174600 100.000000
261.030600 38.000000
261.148400 108.000000
261.211000 36.000000
262.098200 36.000000
262.151600 62.000000
263.128800 570.000000
264.136600 82.000000
265.134800 48.000000
265.168200 36.000000
266.140300 48.000000
268.145500 38.000000
269.055100 96.000000
269.151700 768.000000
270.158300 284.000000
271.165000 60.000000
272.142300 218.000000
273.184200 1622.000000
274.186400 154.000000
275.138600 38.000000
277.176300 42.000000
279.050300 56.000000
281.053500 66.000000
281.175400 36.000000
283.167800 50.000000
285.123300 78.000000
286.153300 54.000000
287.163800 2918.000000
288.017400 36.000000
288.169500 484.000000
289.177400 134.000000
291.197200 230.000000
292.071000 48.000000
293.150800 38.000000
299.129800 68.000000
300.098500 52.000000
300.160500 40.000000
301.178700 3576.000000
302.183300 674.000000
303.185600 90.000000
304.165500 114.000000
309.180500 68.000000
314.137800 36.000000
315.123400 306.000000
316.175800 44.000000
317.164500 64.000000
319.189800 10656.000000
321.196600 146.000000
324.072400 38.000000

>ms2peaks
45.127200 42.000000
46.028400 66.000000
49.195500 36.000000
51.010400 44.000000
53.038800 44.000000
58.171900 112.000000
59.984200 42.000000
60.044500 64.000000
67.005900 86.000000
67.017200 154.000000
67.168800 38.000000
69.993000 48.000000
71.012200 42.000000
79.053600 726.000000
81.033000 58.000000
81.069200 1078.000000
82.073200 48.000000
83.013100 126.000000
83.050000 176.000000
83.084900 308.000000
83.164700 46.000000
84.007700 60.000000
85.028800 46.000000
89.083600 40.000000
89.117600 38.000000
90.020800 42.000000
91.014500 42.000000
93.028900 58.000000
93.069600 462.000000
95.045900 98.000000
95.085700 372.000000
97.065100 38.000000
97.101400 74.000000
98.045600 118.000000
99.043300 76.000000
101.096900 66.000000
103.053600 46.000000
105.069500 366.000000
105.999900 112.000000
106.017200 44.000000
106.040500 50.000000
107.085800 318.000000
108.016700 38.000000
108.102500 54.000000
108.113900 58.000000
108.987100 48.000000
109.065400 128.000000
109.101800 130.000000
109.180600 62.000000
109.986600 70.000000
111.079400 46.000000
111.117500 46.000000
113.058900 36.000000
115.985200 36.000000
121.064300 172.000000
123.116300 80.000000
123.158900 82.000000
123.993300 36.000000
128.155200 48.000000
129.092200 40.000000
130.059200 60.000000
131.980200 96.000000
132.021500 56.000000
133.007600 48.000000
134.048100 106.000000
135.055200 50.000000
135.080000 56.000000
136.051400 138.000000
137.059000 82.000000
137.983400 36.000000
138.020200 52.000000
141.070200 168.000000
142.078600 68.000000
143.084900 170.000000
144.055600 44.000000
145.052800 36.000000
145.064600 240.000000
146.071300 48.000000
146.082000 50.000000
147.079500 120.000000
148.052500 198.000000
150.030800 86.000000
150.053700 44.000000
150.066800 44.000000
150.100300 62.000000
151.074800 542.000000
151.181100 38.000000
153.050600 80.000000
153.067100 42.000000
154.061500 1374.000000
155.020800 96.000000
155.064800 144.000000
156.073200 122.000000
157.061700 176.000000
158.068100 140.000000
158.073700 182.000000
159.032500 84.000000
159.043900 74.000000
159.079500 174.000000
159.104800 44.000000
159.117200 50.000000
160.010200 56.000000
160.050300 418.000000
160.085000 48.000000
161.059600 148.000000
161.165500 82.000000
162.066100 226.000000
162.148700 76.000000
163.075500 50.000000
163.134100 52.000000
164.047400 106.000000
165.051100 54.000000
165.062100 60.000000
165.086600 98.000000
165.114600 36.000000
166.042900 74.000000
166.062800 70.000000
166.074100 68.000000
166.124200 56.000000
166.193700 52.000000
167.033400 190.000000
167.049200 36.000000
167.067300 156.000000
167.105700 56.000000
168.055400 70.000000
168.075000 72.000000
168.088400 86.000000
169.048300 78.000000
169.084500 450.000000
170.089600 84.000000
171.043800 58.000000
171.112500 112.000000
172.087000 160.000000
173.033700 36.000000
173.094900 254.000000
173.107200 58.000000
173.982600 114.000000
174.066500 1260.000000
174.099900 68.000000
175.017900 46.000000
175.036400 42.000000
175.073800 786.000000
175.112300 190.000000
176.048200 136.000000
176.079800 102.000000
177.054500 188.000000
177.070200 42.000000
177.089600 272.000000
178.058800 150.000000
178.099300 46.000000
178.179000 86.000000
179.032900 158.000000
179.070100 62.000000
179.084000 88.000000
179.105100 70.000000
179.115300 100.000000
180.135000 50.000000
181.050400 154.000000
181.084900 444.000000
181.100200 162.000000
181.196000 146.000000
182.003700 44.000000
182.033000 76.000000
182.044800 82.000000
182.056700 640.000000
183.111700 114.000000
183.172900 36.000000
184.111300 42.000000
185.061500 172.000000
185.094700 182.000000
186.066500 134.000000
187.075600 300.000000
187.108700 88.000000
188.046300 50.000000
188.081800 262.000000
189.054400 222.000000
189.090100 426.000000
190.061600 254.000000
191.023000 42.000000
191.036600 56.000000
191.070000 638.000000
191.105900 104.000000
193.061100 52.000000
193.073100 56.000000
193.087400 128.000000
194.056300 150.000000
195.068600 48.000000
195.101100 64.000000
196.071300 38.000000
197.080400 1794.000000
198.066100 88.000000
198.080500 218.000000
198.125900 42.000000
198.172500 84.000000
199.111900 92.000000
199.158400 42.000000
201.058700 104.000000
201.125700 66.000000
201.978900 36.000000
202.000800 38.000000
202.062100 258.000000
202.096900 110.000000
203.069500 210.000000
203.106200 322.000000
204.076700 150.000000
204.125200 38.000000
205.049900 244.000000
205.084700 440.000000
205.119700 50.000000
206.006700 58.000000
206.057500 208.000000
206.090900 140.000000
207.068200 94.000000
207.088500 54.000000
208.072900 76.000000
209.132100 62.000000
211.111600 214.000000
212.119600 48.000000
214.094700 48.000000
215.103000 114.000000
215.982900 66.000000
216.075200 204.000000
217.085100 242.000000
218.090600 190.000000
219.065200 140.000000
219.099500 372.000000
219.171200 40.000000
220.072900 306.000000
220.103400 188.000000
220.121000 42.000000
221.079500 880.000000
221.113700 126.000000
223.145100 36.000000
225.092200 96.000000
225.210200 54.000000
226.097600 46.000000
226.133100 58.000000
227.143200 118.000000
229.085700 170.000000
229.119500 48.000000
230.092600 84.000000
231.100200 210.000000
232.147000 42.000000
233.047200 46.000000
233.080300 348.000000
233.117100 40.000000
233.150500 50.000000
234.080200 70.000000
234.089600 94.000000
234.105400 36.000000
235.096300 1254.000000
239.107900 234.000000
240.116200 166.000000
242.129500 40.000000
243.103100 62.000000
243.136300 66.000000
244.117000 36.000000
245.116700 114.000000
246.119800 38.000000
248.103700 40.000000
249.110500 150.000000
253.995600 42.000000
254.129900 44.000000
255.138400 38.000000
257.119700 56.000000
258.114000 72.000000
258.128400 94.000000
258.159500 80.000000
261.139900 42.000000
261.990700 48.000000
263.128700 58.000000
271.134300 156.000000
273.192700 44.000000
274.125300 36.000000

