>compound RP04984529
>parentmass 329.2475
>ionization [M+H]+
>formula C22H32O2
>rt 406.800000
>profile qtof
#smiles_iso CC/C=C\C/C=C\C/C=C\C/C=C\C/C=C\C/C=C\CCC(=O)O
#smiles_can CCC=CCC=CCC=CCC=CCC=CCC=CCCC(=O)O
#inchikey MBMBGCFOFBJSGT-KUBAVDMBSA-N
#pubchem_id 445580
#mb_accession RP029601,RP029602,RP029603

>ms2peaks
48.044700 48.000000
91.053800 42.000000
93.056600 80.000000
94.049100 40.000000
105.033300 40.000000
106.098800 84.000000
110.060100 36.000000
112.112500 58.000000
118.147400 42.000000
124.112800 58.000000
131.106700 90.000000
132.207500 38.000000
143.141600 40.000000
144.089700 64.000000
146.140100 36.000000
147.113500 112.000000
148.110400 54.000000
149.131100 194.000000
151.134800 40.000000
153.055500 54.000000
157.159800 46.000000
161.131700 156.000000
162.055500 46.000000
162.137700 42.000000
165.126100 44.000000
167.238000 56.000000
169.098800 122.000000
170.092900 52.000000
170.189700 56.000000
171.117500 76.000000
172.112000 38.000000
173.091900 54.000000
175.148000 158.000000
176.152800 146.000000
177.115900 48.000000
177.126200 64.000000
180.163300 60.000000
182.223100 46.000000
185.096600 44.000000
187.110600 84.000000
188.056800 36.000000
189.164100 112.000000
190.215000 64.000000
191.105000 74.000000
195.995500 78.000000
201.126500 92.000000
201.163300 144.000000
202.171300 36.000000
203.186400 72.000000
204.147200 44.000000
205.027800 40.000000
205.121500 92.000000
207.080000 36.000000
207.230200 38.000000
209.119700 44.000000
209.154100 40.000000
213.163100 46.000000
215.138300 54.000000
215.180400 130.000000
216.090800 48.000000
216.184700 86.000000
219.136200 62.000000
219.197400 42.000000
220.213800 56.000000
222.079100 70.000000
223.145000 62.000000
225.055000 52.000000
226.048800 40.000000
228.070200 64.000000
233.154900 300.000000
235.052400 64.000000
235.132000 50.000000
237.163100 72.000000
239.057600 48.000000
240.158500 48.000000
241.077900 52.000000
241.155400 102.000000
241.216500 80.000000
242.097100 84.000000
245.126100 50.000000
245.153500 190.000000
246.043600 40.000000
246.129100 38.000000
246.185600 40.000000
248.155600 46.000000
249.044700 64.000000
249.183700 50.000000
250.072700 40.000000
251.050000 44.000000
251.179900 44.000000
251.247000 38.000000
254.198400 70.000000
255.173800 130.000000
256.176500 48.000000
257.109100 60.000000
259.111600 50.000000
259.168900 278.000000
261.170800 40.000000
261.240700 112.000000
262.195000 40.000000
263.199300 44.000000
264.087100 76.000000
265.190600 54.000000
266.187400 42.000000
266.198300 60.000000
267.254200 38.000000
268.089300 50.000000
269.189900 42.000000
269.226600 158.000000
270.228300 60.000000
273.182900 100.000000
274.192200 68.000000
276.030900 44.000000
278.152500 58.000000
278.166200 86.000000
281.089400 68.000000
283.099600 50.000000
283.206000 194.000000
283.236700 40.000000
286.037600 52.000000
287.198400 126.000000
289.059800 38.000000
289.179300 36.000000
293.154700 66.000000
293.226100 318.000000
293.999300 38.000000
294.227700 68.000000
295.099800 58.000000
298.146300 64.000000
300.158500 48.000000
301.203000 56.000000
303.005200 40.000000
305.033100 36.000000
309.220800 36.000000
311.236300 1262.000000
311.260000 64.000000
312.237600 170.000000
313.246000 124.000000
321.243300 80.000000
324.211400 72.000000
326.159900 122.000000
327.075100 72.000000
327.148900 64.000000
327.179800 76.000000
327.231200 60.000000
328.213800 44.000000
329.247000 24600.000000
331.105400 42.000000
332.058300 40.000000

>ms2peaks
67.169400 106.000000
69.991900 42.000000
75.031300 38.000000
82.074000 54.000000
83.085400 56.000000
85.028300 36.000000
88.052400 104.000000
93.070200 164.000000
94.073900 70.000000
95.085100 170.000000
97.101900 38.000000
107.085100 188.000000
109.007500 38.000000
109.102200 124.000000
110.105800 72.000000
117.020300 46.000000
118.109300 80.000000
119.081500 40.000000
121.102300 66.000000
123.117800 80.000000
127.123600 96.000000
131.084500 42.000000
134.092500 50.000000
135.079700 54.000000
138.042600 44.000000
147.117500 266.000000
148.119200 60.000000
149.133100 56.000000
151.074700 38.000000
153.089800 64.000000
160.121800 38.000000
161.097000 56.000000
161.132900 154.000000
162.160700 46.000000
163.110800 42.000000
163.146800 390.000000
164.037500 40.000000
167.106900 94.000000
171.112700 56.000000
172.124100 52.000000
173.072000 60.000000
173.093000 64.000000
173.131800 244.000000
175.030400 36.000000
175.110400 40.000000
175.147200 216.000000
176.151200 44.000000
177.028600 100.000000
177.115600 38.000000
179.105500 38.000000
181.100400 116.000000
183.118000 70.000000
185.096900 54.000000
186.139800 54.000000
187.110600 66.000000
187.145900 286.000000
189.163400 242.000000
191.143800 40.000000
191.180100 40.000000
193.121800 96.000000
193.147700 40.000000
194.130300 56.000000
195.091000 50.000000
195.104000 42.000000
196.040000 36.000000
196.121600 36.000000
199.112600 84.000000
199.146300 38.000000
200.154400 44.000000
201.163300 228.000000
203.106300 96.000000
203.143100 74.000000
203.179800 70.000000
204.196200 46.000000
205.120700 122.000000
207.137400 274.000000
207.172200 40.000000
208.239000 42.000000
209.130200 60.000000
209.154300 40.000000
215.178000 178.000000
216.188300 132.000000
219.137700 58.000000
221.152800 102.000000
223.137000 36.000000
223.149100 82.000000
224.046900 48.000000
225.158400 50.000000
227.142600 176.000000
229.001000 134.000000
229.155800 160.000000
229.194200 100.000000
234.159200 38.000000
234.236000 42.000000
235.167400 80.000000
237.163800 108.000000
239.136900 48.000000
241.157500 154.000000
243.169300 38.000000
244.171200 54.000000
245.154200 128.000000
247.170600 82.000000
254.096000 50.000000
255.175300 64.000000
258.029100 36.000000
259.168500 154.000000
261.114100 48.000000
261.182900 64.000000
264.991400 96.000000
265.193300 54.000000
265.205000 36.000000
265.230100 80.000000
267.206800 74.000000
269.163700 40.000000
269.187300 44.000000
269.226900 320.000000
270.232600 130.000000
271.203200 42.000000
283.202800 128.000000
288.208100 64.000000
289.071900 52.000000
289.201900 36.000000
293.228300 260.000000
294.229600 42.000000
299.202100 42.000000
301.216000 60.000000
304.213100 68.000000
310.155600 36.000000
311.201800 70.000000
311.237100 496.000000
320.199000 42.000000
327.245000 48.000000
329.247100 4704.000000
331.156400 52.000000
331.181800 36.000000
331.204500 52.000000
331.252800 92.000000

>ms2peaks
66.042700 44.000000
67.053600 1198.000000
79.063400 38.000000
81.069600 840.000000
85.028700 48.000000
86.096400 36.000000
91.053700 856.000000
92.058200 50.000000
93.069600 560.000000
95.085600 278.000000
105.042000 48.000000
105.070100 138.000000
107.086000 284.000000
109.064400 132.000000
111.080800 48.000000
113.059200 40.000000
117.066200 120.000000
119.155200 130.000000
121.100300 238.000000
129.069800 82.000000
135.076700 44.000000
138.113300 48.000000
141.068800 58.000000
145.102500 168.000000
147.115900 188.000000
151.143600 92.000000
157.101800 104.000000
158.106000 40.000000
161.131400 144.000000
167.085600 44.000000
171.115300 62.000000
173.142100 64.000000
175.149300 36.000000
181.102100 36.000000
185.134000 40.000000
187.147900 102.000000
188.150800 36.000000
189.161500 42.000000
199.148500 56.000000
200.047100 46.000000
200.150800 38.000000
201.162800 56.000000
209.024800 40.000000
212.152700 70.000000
223.149300 78.000000
225.126000 46.000000
227.177300 52.000000
229.159800 44.000000
245.002700 36.000000

