>compound RP05081663
>parentmass 298.2013
>ionization [M+H]+
>formula C16H27NO4
>rt 316.620000
>profile qtof
#smiles_iso CCCCCCCCCC(=O)CC(=O)NC1CCOC1=O
#smiles_can CCCCCCCCCC(=O)CC(=O)NC1CCOC1=O
#inchikey PHSRRHGYXQCRPU-UHFFFAOYSA-N
#pubchem_id 127864
#mb_accession RP021101,RP021102,RP021103

>ms2peaks
71.085200 316.000000
84.044000 1288.000000
95.085300 356.000000
98.059400 5122.000000
102.054400 144796.000000
104.058800 384.000000
155.142800 1130.000000
197.153200 77040.000000
198.156800 8502.000000
240.195500 7688.000000
241.198500 826.000000
252.196300 2880.000000
253.200500 664.000000
256.190500 5328.000000
257.195800 756.000000
270.206200 20490.000000
280.190700 4142.000000
281.192600 798.000000
298.200900 310972.000000
300.207300 5078.000000

>ms2peaks
68.049200 160.000000
68.058300 186.000000
71.011500 2610.000000
73.063100 244.000000
81.069200 14914.000000
84.043900 6388.000000
85.027600 1070.000000
85.100700 12168.000000
87.080200 180.000000
95.085000 10532.000000
97.100500 528.000000
98.059600 16576.000000
99.042900 310.000000
102.054600 155720.000000
104.058700 338.000000
113.058500 392.000000
126.054100 508.000000
137.132700 736.000000
155.142300 10968.000000
197.153100 123004.000000
198.156500 16644.000000
199.158500 580.000000
228.197000 332.000000
238.179200 2110.000000
239.182400 392.000000
240.195200 10406.000000
241.198900 1592.000000
252.195200 3900.000000
253.198100 576.000000
256.190300 1982.000000
257.193800 344.000000
257.209000 176.000000
270.206100 2214.000000
280.190200 2230.000000
281.194500 410.000000
298.201100 4732.000000

>ms2peaks
46.028900 38.000000
51.198100 36.000000
55.016800 188.000000
59.047500 94.000000
64.050900 48.000000
66.127400 38.000000
67.988800 36.000000
71.011700 20238.000000
73.027800 368.000000
73.064400 134.000000
75.019000 102.000000
79.988900 50.000000
80.000400 74.000000
81.032800 1012.000000
81.069100 16152.000000
83.033800 74.000000
83.048200 516.000000
83.084800 1030.000000
84.043800 12088.000000
85.027700 2816.000000
85.100600 11944.000000
87.023000 62.000000
87.042000 124.000000
87.079300 58.000000
91.054000 282.000000
93.069400 674.000000
95.085000 10276.000000
96.052300 66.000000
97.064300 294.000000
97.100300 252.000000
98.060000 1382.000000
99.043800 1100.000000
99.055500 60.000000
102.054500 17186.000000
104.057400 58.000000
105.069200 166.000000
105.163400 74.000000
107.084900 98.000000
109.064900 80.000000
109.100900 196.000000
110.104400 100.000000
111.042700 82.000000
111.081400 78.000000
111.117200 56.000000
113.058700 1184.000000
114.066300 48.000000
117.055000 64.000000
119.084800 120.000000
121.100900 70.000000
127.074600 196.000000
137.093400 68.000000
140.035500 44.000000
141.091000 76.000000
152.082500 42.000000
155.060700 56.000000
155.105800 38.000000
155.141700 260.000000
161.131700 78.000000
165.031700 80.000000
169.083600 36.000000
182.202100 48.000000
184.010200 38.000000
191.088400 36.000000
197.153400 6494.000000
198.156400 748.000000
198.174000 80.000000
206.036900 48.000000
206.204800 48.000000
241.022400 64.000000
252.027200 38.000000

