>compound RP05005132
>parentmass 415.3207
>ionization [M+H]+
>formula C27H42O3
>rt 406.440000
>profile qtof
#smiles_iso C[C@H](CCCC(C)C(=O)O)[C@H]1CC[C@@H]2[C@@]1(CC[C@H]3C2=CC[C@@H]4[C@@]3(CCC(=O)C4)C)C
#smiles_can CC(CCCC(C)C(=O)O)C1CCC2C1(CCC3C2=CCC4C3(CCC(=O)C4)C)C
#inchikey SQTAVUCHOVVOFD-GAMFLDECSA-N
#pubchem_id 86289629
#mb_accession RP010801,RP010802,RP010803

>ms2
83.045900 40.000000
95.085200 38.000000
112.239000 40.000000
113.056300 42.000000
155.137500 38.000000
182.108100 44.000000
189.158600 42.000000
206.995600 54.000000
218.083000 36.000000
220.140900 46.000000
224.270700 66.000000
228.090100 48.000000
228.186300 44.000000
230.167900 42.000000
236.997400 36.000000
239.094300 50.000000
244.007700 36.000000
244.181200 40.000000
252.080200 50.000000
269.095200 58.000000
271.205400 50.000000
276.078100 38.000000
277.273000 84.000000
302.000100 38.000000
303.267700 44.000000
311.246700 40.000000
315.266800 36.000000
318.167400 40.000000
320.171900 40.000000
325.037400 46.000000
346.092400 40.000000
351.301600 52.000000
358.258100 50.000000
369.321300 172.000000
370.321800 48.000000
372.122500 60.000000
395.293300 76.000000
397.310000 1290.000000
398.033000 48.000000
398.162200 72.000000
398.316300 240.000000
399.324100 112.000000
400.319200 50.000000
407.313200 60.000000
413.302400 50.000000
413.318800 184.000000
414.308800 112.000000
415.320800 15846.000000
417.231300 42.000000
417.300700 66.000000
417.327400 526.000000

>ms2
69.069900 42.000000
95.086200 60.000000
99.080300 80.000000
123.116300 40.000000
135.116000 50.000000
139.017000 74.000000
147.117700 54.000000
149.132800 52.000000
150.041100 120.000000
159.116200 158.000000
161.129500 124.000000
164.155000 36.000000
171.112700 40.000000
177.126200 42.000000
179.144100 50.000000
183.115500 92.000000
185.133100 92.000000
190.173300 66.000000
191.142000 68.000000
198.021900 50.000000
199.147900 38.000000
201.053500 38.000000
202.165700 38.000000
203.140900 100.000000
205.130800 40.000000
213.162100 196.000000
219.173200 126.000000
220.121000 40.000000
223.168500 72.000000
227.179500 144.000000
229.146400 58.000000
229.155200 60.000000
229.195600 48.000000
231.174200 98.000000
235.168300 98.000000
235.207500 36.000000
237.158800 70.000000
237.184600 142.000000
241.193800 74.000000
247.125000 68.000000
248.069200 36.000000
249.185200 82.000000
253.194000 56.000000
255.209500 78.000000
256.217000 50.000000
262.286300 58.000000
271.204200 90.000000
272.208100 38.000000
274.189200 40.000000
275.199700 72.000000
277.216600 80.000000
280.212100 46.000000
283.182400 48.000000
283.200500 40.000000
287.238000 42.000000
288.214400 42.000000
289.218500 94.000000
295.017000 48.000000
296.093700 38.000000
298.225500 50.000000
303.238500 96.000000
311.274500 54.000000
313.151700 40.000000
314.996500 42.000000
315.188100 50.000000
315.228800 162.000000
315.265700 64.000000
317.245500 56.000000
329.237800 54.000000
331.270000 46.000000
332.270900 48.000000
333.191000 48.000000
335.020400 42.000000
337.255000 38.000000
341.060900 38.000000
345.274100 66.000000
351.302800 104.000000
354.040300 40.000000
355.218700 54.000000
355.989100 76.000000
357.276600 56.000000
358.296400 102.000000
361.287400 74.000000
362.297900 44.000000
363.291500 54.000000
366.265200 38.000000
369.312500 304.000000
379.141400 40.000000
379.298300 194.000000
380.312200 96.000000
381.307500 42.000000
385.152300 38.000000
394.258200 40.000000
397.309700 3236.000000
398.314900 788.000000
400.293600 58.000000
413.280300 94.000000
414.059700 76.000000
414.286700 42.000000
414.320100 40.000000
415.320700 3814.000000
417.326500 90.000000

>ms2
57.069800 36.000000
71.085900 50.000000
83.049100 50.000000
91.053800 42.000000
94.061700 44.000000
95.085400 260.000000
97.064100 138.000000
97.100600 46.000000
99.081400 36.000000
105.069800 40.000000
107.084800 170.000000
109.100800 180.000000
111.115700 44.000000
119.084600 42.000000
133.100700 82.000000
147.117200 140.000000
149.133400 52.000000
155.082900 40.000000
157.100900 170.000000
158.107400 54.000000
159.116800 394.000000
163.147700 88.000000
167.107700 44.000000
171.114000 60.000000
172.118900 92.000000
173.131300 200.000000
174.136000 48.000000
175.148600 52.000000
177.128400 62.000000
185.130900 46.000000
197.131800 62.000000
199.148300 152.000000
201.165500 122.000000
203.144700 36.000000
204.151700 70.000000
211.147300 42.000000
213.164200 174.000000
219.175100 58.000000
220.178100 78.000000
226.170300 52.000000
237.186400 56.000000
247.238100 36.000000
251.202400 36.000000
254.162400 42.000000
255.211300 42.000000
257.187600 46.000000
313.063000 40.000000
358.285200 40.000000
368.182200 40.000000
380.301700 40.000000
397.314700 42.000000
413.318900 108.000000

