>compound RP05012194
>parentmass 282.1197
>ionization [M+H]+
>formula C11H15N5O4
>rt 37.740000
>profile qtof
#smiles_iso CN1C=NC2=C(C1=N)N=CN2[C@H]3[C@@H]([C@@H]([C@H](O3)CO)O)O
#smiles_can CN1C=NC2=C(C1=N)N=CN2C3C(C(C(O3)CO)O)O
#inchikey GFYLSDSUCHVORB-IOSLPCCCSA-N
#pubchem_id 27476
#mb_accession RP031301,RP031302,RP031303

>ms2
150.076900 61436.000000
151.080400 2922.000000
282.119300 269388.000000
284.125300 2384.000000

>ms2
69.033700 244.000000
73.027500 288.000000
85.027400 380.000000
148.061500 260.000000
150.076700 175512.000000
151.079900 11198.000000
282.119200 15948.000000

>ms2
55.017000 524.000000
57.033100 628.000000
61.028100 318.000000
67.099300 108.000000
69.033200 1122.000000
69.045200 156.000000
71.012100 808.000000
73.027600 534.000000
76.015700 96.000000
79.026900 262.000000
81.044400 214.000000
85.028000 652.000000
89.010800 124.000000
92.024700 232.000000
94.039700 1674.000000
96.055200 138.000000
97.029200 214.000000
106.040200 202.000000
108.055200 326.000000
109.050600 2642.000000
112.034500 120.000000
112.052500 118.000000
119.034200 362.000000
123.065300 386.000000
133.050800 1172.000000
134.053900 100.000000
135.051200 212.000000
141.121100 100.000000
144.073500 102.000000
148.060300 108.000000
150.076900 94238.000000
151.079800 5958.000000
152.083000 158.000000

