>compound RP05459321
>parentmass 245.0954
>ionization [M+H]+
>formula C10H16N2O3S
>rt 168.660000
>profile qtof
#smiles_iso C1[C@H]2[C@@H]([C@@H](S1)CCCCC(=O)O)NC(=O)N2
#smiles_can C1C2C(C(S1)CCCCC(=O)O)NC(=O)N2
#inchikey YBJHBAHKTGYVGT-ZKWXMUAHSA-N
#pubchem_id 171548
#mb_accession RP021901,RP021902,RP021903

>ms2
95.130500 124.000000
113.103100 150.000000
121.043300 148.000000
162.062300 122.000000
166.083500 182.000000
167.051000 168.000000
170.009200 128.000000
199.091300 190.000000
227.084500 67940.000000
228.087300 6158.000000
230.086500 278.000000
245.095000 118224.000000

>ms2
61.015800 134.000000
76.968500 162.000000
81.127400 148.000000
97.010100 278.000000
97.039200 1712.000000
100.021700 178.000000
105.045300 150.000000
105.070100 192.000000
109.062500 138.000000
111.026200 212.000000
115.056900 150.000000
123.026600 436.000000
125.041000 168.000000
132.105000 154.000000
149.043000 256.000000
151.086800 248.000000
165.988300 162.000000
166.068500 1652.000000
167.051400 1414.000000
167.068300 240.000000
168.058400 158.000000
175.084300 174.000000
182.061900 246.000000
184.078600 1482.000000
185.080500 200.000000
192.046000 578.000000
193.099900 238.000000
194.086900 138.000000
199.089700 2386.000000
200.092400 222.000000
209.074400 3336.000000
210.057000 200.000000
211.067200 162.000000
227.084400 131928.000000
228.087600 14642.000000
230.085100 442.000000
245.094500 4484.000000

>ms2
56.013500 76.000000
59.047800 176.000000
67.041100 486.000000
69.032500 152.000000
69.044200 470.000000
69.139300 84.000000
70.027200 636.000000
71.023700 40.000000
71.048200 296.000000
72.043000 88.000000
73.010100 880.000000
73.064000 152.000000
75.112400 62.000000
76.021000 1282.000000
77.038100 596.000000
78.017800 40.000000
79.053600 5948.000000
80.015800 56.000000
80.029000 100.000000
80.048900 712.000000
81.054800 226.000000
81.069300 2340.000000
82.027900 1846.000000
83.048400 516.000000
85.010100 1506.000000
85.039100 490.000000
85.063000 82.000000
86.005900 236.000000
86.040300 50.000000
86.058600 62.000000
87.025700 600.000000
88.020700 60.000000
88.038300 70.000000
89.060200 36.000000
89.975300 52.000000
91.053700 1468.000000
93.032500 58.000000
93.056900 102.000000
93.069300 670.000000
94.065200 348.000000
94.072900 128.000000
95.048700 338.000000
95.072000 102.000000
96.044100 78.000000
96.080300 202.000000
97.010100 4428.000000
97.039300 7766.000000
97.970000 68.000000
98.013600 232.000000
98.036000 78.000000
98.043900 250.000000
98.059200 38.000000
98.096200 120.000000
99.006400 240.000000
99.025600 326.000000
99.091500 48.000000
100.006900 100.000000
100.021600 852.000000
100.076200 174.000000
100.969200 54.000000
101.022900 78.000000
101.042000 278.000000
102.000400 116.000000
102.019200 60.000000
102.045300 40.000000
103.024700 40.000000
105.057500 144.000000
105.070000 2552.000000
105.973800 50.000000
106.027700 60.000000
106.073600 364.000000
107.050900 46.000000
107.074200 170.000000
107.084600 278.000000
108.044200 166.000000
108.080300 384.000000
109.010200 86.000000
109.063700 210.000000
109.083600 46.000000
110.988000 44.000000
111.026000 786.000000
111.052200 108.000000
111.058000 126.000000
112.020800 390.000000
113.016600 60.000000
113.041200 204.000000
114.018100 76.000000
114.037500 118.000000
114.091300 92.000000
115.039400 94.000000
115.053900 122.000000
116.052500 52.000000
116.063100 158.000000
118.063800 138.000000
119.061400 46.000000
120.021400 50.000000
120.044400 54.000000
120.080700 70.000000
121.066300 218.000000
122.060800 88.000000
122.096500 208.000000
123.026500 1586.000000
123.089700 100.000000
124.076900 52.000000
125.027900 278.000000
125.040900 364.000000
126.045800 52.000000
126.997200 40.000000
130.062700 58.000000
131.026600 90.000000
131.073000 88.000000
132.081500 138.000000
133.089300 144.000000
134.011100 42.000000
134.069300 52.000000
136.022000 50.000000
136.077100 54.000000
138.000500 182.000000
138.035700 44.000000
138.095200 84.000000
139.041900 64.000000
140.109900 44.000000
141.053900 58.000000
142.031200 44.000000
143.027500 54.000000
143.074000 40.000000
143.989800 36.000000
148.074600 148.000000
149.041800 316.000000
149.071000 48.000000
149.111200 48.000000
150.043000 92.000000
150.090200 54.000000
151.039700 82.000000
151.086100 284.000000
152.032100 46.000000
152.092600 196.000000
153.104500 306.000000
154.001700 42.000000
154.064800 74.000000
155.027300 36.000000
156.047800 104.000000
156.083600 286.000000
157.087200 56.000000
158.030800 48.000000
158.046400 60.000000
158.063100 48.000000
158.994000 52.000000
162.011400 52.000000
163.086700 194.000000
163.102800 64.000000
164.016400 74.000000
164.051900 74.000000
165.038200 106.000000
165.053000 64.000000
165.089500 78.000000
165.103200 240.000000
166.010900 68.000000
166.068500 1136.000000
167.051800 362.000000
167.073600 178.000000
168.053400 144.000000
168.102800 46.000000
169.965900 48.000000
174.039600 46.000000
176.092600 46.000000
182.062700 100.000000
183.063500 36.000000
184.059300 48.000000
184.079100 858.000000
185.072100 186.000000
192.048500 292.000000
194.041500 52.000000
199.090800 502.000000
200.093100 80.000000
204.040700 38.000000
209.074500 294.000000
210.073000 70.000000
227.085300 876.000000
228.086000 82.000000
231.070500 38.000000

