>compound RP05231501
>parentmass 148.0604
>ionization [M+H]+
>formula C5H9NO4
>rt 35.400000
>profile qtof
#smiles_iso C(CC(=O)O)[C@@H](C(=O)O)N
#smiles_can C(CC(=O)O)C(C(=O)O)N
#inchikey WHUUTDBJXJRKMK-VKHMYHEASA-N
#pubchem_id 33032
#mb_accession RP001401,RP001402,RP001403

>ms2peaks
60.080200 42.000000
77.997900 58.000000
84.044200 20740.000000
85.027900 214.000000
86.047900 54.000000
99.042900 48.000000
102.054900 7830.000000
127.973400 54.000000
130.049600 3586.000000
131.032800 78.000000
131.053100 364.000000
134.033400 44.000000
136.070900 42.000000
148.059600 10794.000000

>ms2peaks
56.049100 2578.000000
69.032700 74.000000
84.044100 60020.000000
85.028000 1276.000000
85.039100 156.000000
86.048100 110.000000
102.054900 2858.000000
130.050600 404.000000
148.060900 152.000000

>ms2peaks
56.049100 5142.000000
57.033300 60.000000
71.011700 184.000000
74.024100 62.000000
84.043900 6042.000000
85.027000 72.000000
85.048800 106.000000

