>compound RP06514855
>parentmass 175.119
>ionization [M+H]+
>formula C6H14N4O2
>rt 32.820000
>profile qtof
#smiles_iso C(C[C@@H](C(=O)O)N)CN=C(N)N
#smiles_can C(CC(C(=O)O)N)CN=C(N)N
#inchikey ODKSFYDXXFIFQN-BYPYZUCNSA-N
#pubchem_id 6322
#mb_accession RP001201,RP001202,RP001203

>ms2
46.098500 70.000000
61.050800 120.000000
74.047400 118.000000
114.101500 86.000000
115.087700 78.000000
116.070600 1176.000000
130.096400 506.000000
132.050400 76.000000
157.107500 698.000000
158.091500 2808.000000
175.118500 67812.000000

>ms2
61.051800 156.000000
71.048700 562.000000
72.080400 1848.000000
87.032100 42.000000
97.076300 96.000000
98.059900 80.000000
103.013100 64.000000
112.087100 264.000000
113.091000 82.000000
115.085200 44.000000
116.070300 2292.000000
130.097200 734.000000
131.006100 80.000000
158.091900 1264.000000
175.118300 2600.000000

>ms2
68.049200 594.000000
70.064500 58084.000000
71.048400 1046.000000
97.076200 74.000000
98.060500 86.000000

