>compound RP06831284
>parentmass 139.039
>ionization [M+H]+
>formula C7H6O3
>rt 216.720000
>profile qtof
#smiles_iso C1=CC=C(C(=C1)C(=O)O)O
#smiles_can C1=CC=C(C(=C1)C(=O)O)O
#inchikey YGSDEFSMJLZEOE-UHFFFAOYSA-N
#pubchem_id 338
#mb_accession RP017001,RP017002,RP017003

>ms2peaks
65.047000 42.000000
95.049000 52.000000
120.021200 40.000000
121.028200 15080.000000
122.031800 782.000000
123.032600 122.000000
124.038700 88.000000
138.030300 64.000000
139.038100 6920.000000

>ms2peaks
63.022300 176.000000
91.018700 56.000000
92.025800 454.000000
93.033500 2280.000000
95.035900 56.000000
98.035400 44.000000
100.039500 66.000000
121.028200 15772.000000
122.031600 1546.000000
123.032200 74.000000
139.038600 110.000000

>ms2peaks
63.022300 580.000000
75.023300 78.000000
93.034000 270.000000
111.044000 178.000000
121.029300 226.000000
121.038700 284.000000

