>compound RP07200681
>parentmass 273.1849
>ionization [M+H]+
>formula C18H24O2
>rt 268.980000
>profile qtof
#smiles_iso C[C@]12CC[C@H]3[C@H]([C@@H]1CC[C@@H]2O)CCC4=C3C=CC(=C4)O
#smiles_can CC12CCC3C(C1CCC2O)CCC4=C3C=CC(=C4)O
#inchikey VOXZDWNPVJITMN-ZBRFXRBCSA-N
#pubchem_id 5757
#mb_accession RP030301,RP030302,RP030303

>ms2
69.069200 78.000000
80.057700 82.000000
81.069400 160.000000
95.085000 378.000000
100.017600 80.000000
107.048500 866.000000
109.051400 70.000000
113.083400 90.000000
121.102000 94.000000
133.063800 76.000000
135.116100 664.000000
136.121800 120.000000
145.063800 180.000000
149.131100 214.000000
149.997000 78.000000
153.127800 76.000000
159.079900 1564.000000
160.083200 178.000000
161.093600 78.000000
162.009600 112.000000
162.125700 76.000000
164.013300 80.000000
170.036500 84.000000
173.094900 604.000000
174.098700 98.000000
179.143600 120.000000
185.096600 312.000000
186.098900 216.000000
196.050300 70.000000
199.107300 80.000000
210.031300 74.000000
213.125800 116.000000
215.073700 78.000000
217.171700 92.000000
222.077700 76.000000
222.115900 76.000000
226.131800 88.000000
227.132700 106.000000
231.030200 70.000000
236.107300 70.000000
237.064900 82.000000
242.104600 74.000000
242.175500 86.000000
244.155900 72.000000
248.127400 100.000000
253.158600 682.000000
255.174000 8966.000000
256.177700 1412.000000
258.183900 74.000000
263.150600 86.000000
266.175100 116.000000
268.037600 88.000000
270.161800 172.000000
271.168900 3936.000000
272.176200 7522.000000
273.184300 68812.000000

>ms2
56.013200 56.000000
57.020600 44.000000
82.073400 138.000000
85.064100 178.000000
86.109600 76.000000
87.103800 44.000000
91.053500 182.000000
93.069000 452.000000
95.084800 668.000000
97.065700 122.000000
100.074700 48.000000
103.005700 40.000000
107.048900 5688.000000
108.052400 418.000000
109.051900 80.000000
109.100200 626.000000
111.080200 60.000000
119.085500 56.000000
121.064600 296.000000
122.105400 110.000000
123.090000 58.000000
123.104800 54.000000
125.060900 72.000000
130.004200 46.000000
133.015500 58.000000
133.052900 52.000000
133.063600 428.000000
135.116300 1718.000000
136.004000 62.000000
136.121500 244.000000
137.093000 62.000000
141.070400 140.000000
145.063800 478.000000
146.071800 240.000000
146.110300 80.000000
147.079500 350.000000
147.092500 70.000000
147.115800 346.000000
148.124000 38.000000
149.132200 448.000000
150.136500 120.000000
153.126700 52.000000
155.143900 48.000000
157.064800 442.000000
157.109400 84.000000
158.176500 62.000000
159.079900 5842.000000
160.084000 418.000000
161.095700 94.000000
161.132900 208.000000
161.201600 50.000000
162.017200 36.000000
167.085800 104.000000
169.102400 36.000000
170.129000 46.000000
172.087900 400.000000
173.096000 1432.000000
174.100400 152.000000
175.073800 180.000000
175.180700 74.000000
177.089600 46.000000
177.127800 38.000000
178.145000 42.000000
179.142900 270.000000
180.148100 88.000000
182.009800 70.000000
185.095600 1654.000000
186.042200 52.000000
186.102700 544.000000
187.075000 42.000000
187.112600 100.000000
188.048100 54.000000
188.082900 266.000000
189.173900 78.000000
191.105700 154.000000
192.151300 36.000000
197.093700 94.000000
198.103400 58.000000
199.054200 36.000000
199.110900 518.000000
199.142900 36.000000
200.116400 68.000000
201.091900 104.000000
201.127800 304.000000
202.132000 52.000000
211.113300 162.000000
213.127700 494.000000
214.131100 138.000000
215.140300 86.000000
225.128800 120.000000
226.043400 58.000000
226.134800 192.000000
227.140900 134.000000
228.150900 176.000000
229.156800 112.000000
229.167700 40.000000
234.007500 106.000000
236.178300 38.000000
239.141400 46.000000
239.993200 38.000000
243.176300 46.000000
244.146700 158.000000
252.068900 44.000000
253.158100 1044.000000
254.167500 148.000000
255.174200 3908.000000
256.178300 770.000000
257.092700 52.000000
264.076400 56.000000
270.160200 48.000000
271.146700 54.000000
272.177300 828.000000
273.184200 2324.000000

>ms2
57.033700 70.000000
66.046500 36.000000
71.048800 90.000000
74.060700 48.000000
81.032700 132.000000
81.069200 1762.000000
83.049100 128.000000
91.053600 984.000000
92.057900 152.000000
92.082600 54.000000
93.069200 2316.000000
94.073300 120.000000
94.085600 44.000000
95.048300 430.000000
95.084600 686.000000
99.989400 60.000000
103.053900 116.000000
105.044900 158.000000
105.069100 816.000000
106.074400 76.000000
107.048800 7754.000000
107.085200 618.000000
108.007900 88.000000
108.052600 410.000000
109.100700 230.000000
119.060800 90.000000
119.086100 78.000000
121.064500 250.000000
123.043900 70.000000
124.019300 36.000000
131.050000 64.000000
131.085200 154.000000
133.064300 316.000000
134.068300 68.000000
135.118200 168.000000
141.069800 140.000000
142.074200 40.000000
144.057100 380.000000
145.064700 646.000000
146.103700 80.000000
147.079300 136.000000
148.084100 84.000000
155.057300 36.000000
157.064900 876.000000
157.101900 50.000000
158.074000 126.000000
159.079200 1154.000000
160.087200 196.000000
161.093500 86.000000
165.069000 80.000000
169.076300 138.000000
171.077400 142.000000
173.096100 168.000000
175.039500 100.000000
175.076800 142.000000
178.073800 56.000000
185.094600 186.000000
187.106600 58.000000
194.093000 38.000000
195.090000 64.000000
195.116600 52.000000
197.097700 44.000000
198.103800 126.000000
199.110000 66.000000
201.126200 42.000000
213.127600 254.000000
214.124100 42.000000
253.152900 44.000000

