>compound RP07482106
>parentmass 180.06550000000001
>ionization [M+H]+
>formula C9H9NO3
>rt 165.720000
>profile qtof
#smiles_iso C1=CC=C(C=C1)C(=O)NCC(=O)O
#smiles_can C1=CC=C(C=C1)C(=O)NCC(=O)O
#inchikey QIAFMBKCNZACKA-UHFFFAOYSA-N
#pubchem_id 464
#mb_accession RP013001,RP013002,RP013003

>ms2peaks
77.038100 1016.000000
95.048500 562.000000
105.033400 122062.000000
106.036600 6476.000000
134.060000 354.000000
152.070400 214.000000
162.054400 1538.000000
180.064800 22444.000000
182.068500 248.000000

>ms2peaks
53.038300 700.000000
55.017000 142.000000
77.038200 18838.000000
95.048900 6476.000000
96.052500 390.000000
105.033400 128310.000000
106.036900 7958.000000

>ms2peaks
49.007300 138.000000
67.054100 206.000000
68.997100 148.000000
77.038100 115182.000000
78.041700 5718.000000
81.033300 1078.000000
95.048900 44464.000000
96.052300 2158.000000
104.049200 122.000000
105.033400 17532.000000
105.044100 15256.000000
106.037400 930.000000

