>compound RP08761077
>parentmass 434.32649999999995
>ionization [M+H]+
>formula C26H43NO4
>rt 327.300000
>profile qtof
#smiles_iso CC(CCC(=O)NCC(=O)O)C1CCC2C1(CCC3C2CCC4C3(CCC(C4)O)C)C
#smiles_can CC(CCC(=O)NCC(=O)O)C1CCC2C1(CCC3C2CCC4C3(CCC(C4)O)C)C
#inchikey XBSQTYHEGZTYJE-UHFFFAOYSA-N
#pubchem_id 4067466
#mb_accession RP007301,RP007302,RP007303

>ms2peaks
76.039100 1248.000000
226.143100 346.000000
323.273500 1094.000000
341.283800 3774.000000
342.286100 526.000000
416.315800 330734.000000
417.319600 110084.000000
418.322900 12706.000000
419.325800 534.000000
434.326500 131872.000000
436.332400 4734.000000

>ms2peaks
76.038800 51080.000000
81.069400 782.000000
85.064800 2098.000000
95.085800 562.000000
135.117300 382.000000
149.132500 498.000000
151.111800 286.000000
158.080800 618.000000
159.116300 376.000000
163.147900 514.000000
172.095200 338.000000
175.145600 274.000000
177.126500 784.000000
177.164300 402.000000
187.147500 558.000000
189.162800 478.000000
191.143700 344.000000
201.162000 276.000000
203.179100 402.000000
205.158000 286.000000
212.127400 446.000000
213.164000 780.000000
215.179100 536.000000
217.195200 600.000000
219.174000 300.000000
226.143900 1630.000000
227.179300 740.000000
229.193400 536.000000
231.174400 264.000000
231.212300 260.000000
238.143100 372.000000
240.158800 1244.000000
241.163200 288.000000
241.194300 414.000000
252.159100 2222.000000
254.174200 812.000000
266.175900 916.000000
268.188200 674.000000
280.190800 1132.000000
294.205900 936.000000
306.206900 872.000000
308.220000 502.000000
320.222300 1098.000000
321.222600 276.000000
323.273100 28416.000000
324.276700 6424.000000
325.278900 516.000000
334.236000 1042.000000
341.283500 50742.000000
342.287000 11592.000000
360.253500 338.000000
398.308100 724.000000
399.307900 292.000000
416.315800 255408.000000
417.319400 101410.000000
418.322100 12332.000000
419.325400 496.000000
434.327800 1038.000000

>ms2peaks
57.069400 272.000000
60.008200 124.000000
64.218800 98.000000
65.010400 70.000000
67.053900 8374.000000
69.069500 2412.000000
71.048500 230.000000
71.085500 176.000000
71.201000 76.000000
76.038800 66200.000000
77.105300 96.000000
78.042500 208.000000
79.054000 2380.000000
81.069400 18068.000000
82.072900 1072.000000
83.049600 364.000000
83.085300 3394.000000
85.064500 12474.000000
86.154400 72.000000
91.053700 1312.000000
92.057900 194.000000
93.069300 5158.000000
94.072900 290.000000
95.085300 10798.000000
96.089500 762.000000
97.064300 396.000000
97.100800 888.000000
99.079700 498.000000
101.095100 88.000000
105.069800 2840.000000
106.072700 118.000000
107.085200 6170.000000
108.088700 520.000000
109.064400 264.000000
109.101100 4414.000000
110.104300 698.000000
111.080600 596.000000
111.117200 178.000000
112.076500 126.000000
112.083800 124.000000
112.205800 88.000000
113.056100 80.000000
113.095800 224.000000
114.054200 148.000000
114.183300 90.000000
117.070400 290.000000
118.076800 78.000000
119.084600 1888.000000
120.089000 162.000000
121.101300 2780.000000
123.117100 1026.000000
125.095100 268.000000
127.084900 92.000000
129.075000 82.000000
129.989100 68.000000
130.050000 90.000000
131.084600 568.000000
131.330800 76.000000
132.137500 80.000000
132.207300 110.000000
133.101500 1228.000000
134.177500 86.000000
134.305000 136.000000
135.081500 184.000000
135.116200 1826.000000
136.121600 490.000000
137.054600 118.000000
137.081200 76.000000
137.095900 108.000000
137.132500 176.000000
138.234700 80.000000
139.109600 92.000000
142.071000 92.000000
143.085100 234.000000
145.101300 1160.000000
146.103500 216.000000
147.116500 2536.000000
148.119200 202.000000
148.263500 68.000000
149.094300 314.000000
149.132100 1806.000000
150.137100 188.000000
151.112700 474.000000
151.241400 78.000000
152.025000 70.000000
152.107400 136.000000
152.295300 78.000000
155.056700 100.000000
155.085600 128.000000
157.074700 86.000000
157.100500 776.000000
158.080500 844.000000
158.104300 168.000000
159.116000 3464.000000
160.121000 482.000000
161.131700 4002.000000
162.134900 362.000000
163.111200 804.000000
163.147800 1672.000000
164.117300 226.000000
164.151700 252.000000
165.128200 444.000000
166.227500 86.000000
169.154600 68.000000
171.116700 890.000000
172.119100 110.000000
173.132200 2612.000000
173.980600 68.000000
174.135800 250.000000
175.110200 148.000000
175.147900 2268.000000
176.041600 96.000000
176.116900 78.000000
176.151200 162.000000
176.163300 102.000000
177.126700 2272.000000
177.163500 828.000000
178.131800 174.000000
179.142200 358.000000
180.080600 98.000000
180.137600 70.000000
180.266100 68.000000
181.024700 72.000000
182.090500 78.000000
182.246400 96.000000
183.023300 72.000000
185.068100 92.000000
185.099200 108.000000
185.132200 1518.000000
186.110600 76.000000
186.134500 112.000000
187.147600 3032.000000
188.150700 658.000000
189.126200 144.000000
189.163200 2592.000000
190.167000 378.000000
191.142300 916.000000
191.181000 252.000000
193.158200 68.000000
197.048400 68.000000
197.132400 214.000000
198.087600 82.000000
198.110900 120.000000
199.147700 2020.000000
199.218200 126.000000
200.136000 116.000000
200.151200 402.000000
201.163300 3426.000000
202.167300 876.000000
203.143100 212.000000
203.178600 2008.000000
204.184600 228.000000
205.157700 572.000000
205.194200 108.000000
206.163200 138.000000
207.996300 102.000000
210.111600 78.000000
211.144600 78.000000
211.155500 68.000000
212.127900 128.000000
213.163500 6310.000000
214.166000 1160.000000
214.295500 70.000000
215.179000 4530.000000
216.181600 488.000000
216.206000 108.000000
217.158500 274.000000
217.194400 1764.000000
218.162900 118.000000
218.197900 360.000000
219.173200 650.000000
219.210600 70.000000
220.178900 100.000000
221.189100 138.000000
221.235500 92.000000
222.204900 92.000000
224.126000 70.000000
225.164100 196.000000
226.141800 110.000000
227.178600 4576.000000
228.181900 882.000000
229.194200 2810.000000
230.197400 568.000000
231.173200 982.000000
231.210200 406.000000
232.177300 244.000000
233.082000 86.000000
233.191300 288.000000
233.266900 72.000000
236.127200 144.000000
237.133500 76.000000
238.141900 102.000000
239.179800 502.000000
239.231100 72.000000
240.160700 102.000000
240.183400 74.000000
241.195300 4902.000000
242.091100 72.000000
242.197300 866.000000
243.098100 70.000000
243.210900 1246.000000
244.180800 88.000000
244.215400 182.000000
245.188800 896.000000
245.225500 142.000000
246.192900 232.000000
247.204500 466.000000
248.215000 70.000000
250.138400 156.000000
252.157500 238.000000
253.193900 1234.000000
254.176300 148.000000
254.199600 164.000000
254.230700 86.000000
255.210100 1326.000000
256.215300 330.000000
257.188400 106.000000
257.226600 588.000000
259.205400 648.000000
259.226100 84.000000
261.209500 104.000000
266.172600 82.000000
267.103300 108.000000
267.210200 1598.000000
268.214400 262.000000
269.226700 436.000000
270.231000 80.000000
271.207200 214.000000
271.244200 92.000000
273.218700 112.000000
274.229100 68.000000
277.161000 76.000000
277.239200 82.000000
280.190800 118.000000
281.225700 538.000000
282.227600 128.000000
283.240400 324.000000
285.221800 486.000000
285.255300 110.000000
286.228200 92.000000
295.245300 252.000000
297.258800 390.000000
299.234600 140.000000
299.272500 380.000000
299.290800 76.000000
300.238400 178.000000
300.276200 296.000000
306.209600 88.000000
307.205700 78.000000
308.223900 94.000000
308.249700 102.000000
313.251400 136.000000
313.290100 100.000000
322.233200 68.000000
323.272800 18348.000000
324.275800 4404.000000
334.246200 116.000000
335.161000 70.000000
341.283900 8200.000000
342.286700 2358.000000
343.289200 144.000000
360.251200 68.000000
370.312900 140.000000
371.315400 110.000000
398.304200 100.000000
416.315900 812.000000
417.320000 222.000000

