>compound RP08567326
>parentmass 450.3214
>ionization [M+H]+
>formula C26H43NO5
>rt 289.140000
>profile qtof
#smiles_iso C[C@H](CCC(=O)NCC(=O)O)[C@H]1CC[C@@H]2[C@@]1([C@H](C[C@H]3[C@H]2CCC4[C@@]3(CC[C@H](C4)O)C)O)C
#smiles_can CC(CCC(=O)NCC(=O)O)C1CCC2C1(C(CC3C2CCC4C3(CCC(C4)O)C)O)C
#inchikey WVULKSPCQVQLCU-XMPMLJJQSA-N
#pubchem_id 18602029
#mb_accession RP005401,RP005402,RP005403

>ms2peaks
76.039600 304.000000
321.258700 284.000000
339.267000 1358.000000
414.300000 165710.000000
415.303200 44768.000000
416.305400 4866.000000
432.310500 148796.000000
433.314000 46096.000000
434.317600 4922.000000
450.321000 272126.000000
452.327500 13330.000000

>ms2peaks
81.069200 434.000000
85.064300 506.000000
107.085100 852.000000
121.101900 490.000000
135.116800 1156.000000
147.116700 596.000000
158.080900 1414.000000
161.132500 796.000000
172.097900 504.000000
175.147500 830.000000
189.162400 534.000000
201.163400 748.000000
203.179000 568.000000
211.147100 910.000000
212.127800 432.000000
215.178900 3266.000000
216.182900 424.000000
224.127200 450.000000
225.164400 500.000000
229.157600 1146.000000
229.194900 1026.000000
238.142600 592.000000
241.195200 562.000000
243.210300 826.000000
250.142700 454.000000
252.159800 1186.000000
257.188200 520.000000
264.160600 444.000000
266.175400 772.000000
278.174500 2238.000000
279.176000 458.000000
280.191000 1232.000000
292.191500 914.000000
304.191300 2774.000000
305.192900 394.000000
306.206800 1024.000000
318.206900 1058.000000
320.223800 586.000000
321.257800 10482.000000
322.260100 1748.000000
332.223000 1640.000000
339.268300 35640.000000
340.271700 7484.000000
341.274500 760.000000
357.277800 516.000000
396.291200 1018.000000
414.300200 381432.000000
415.303900 139006.000000
416.307100 18724.000000
417.308800 626.000000
432.310700 37672.000000
433.314400 12336.000000
434.317400 1324.000000
450.322300 4278.000000

>ms2peaks
50.002500 96.000000
56.013000 180.000000
57.032000 108.000000
59.048100 86.000000
60.044000 60.000000
64.111800 72.000000
66.033300 68.000000
68.048900 104.000000
68.177100 78.000000
68.213600 76.000000
69.069400 4010.000000
70.065800 76.000000
70.310300 78.000000
70.347100 74.000000
71.047700 384.000000
75.198300 60.000000
76.038600 58190.000000
77.022500 68.000000
77.104200 70.000000
77.177700 66.000000
79.053600 4146.000000
80.294900 86.000000
81.069300 17860.000000
82.134200 94.000000
83.048900 786.000000
83.084900 5310.000000
84.008300 76.000000
84.057100 196.000000
84.064900 60.000000
85.064200 4296.000000
86.021300 66.000000
86.109400 64.000000
88.099800 60.000000
88.191300 114.000000
89.002400 110.000000
90.054400 78.000000
91.053800 2048.000000
92.058200 226.000000
92.130600 96.000000
93.069500 7856.000000
94.159200 110.000000
94.214400 70.000000
95.085000 12240.000000
96.043800 60.000000
96.175400 60.000000
96.303000 100.000000
97.007700 68.000000
97.064400 678.000000
97.100600 790.000000
98.032000 76.000000
99.039700 64.000000
99.080200 386.000000
100.298900 112.000000
101.214100 80.000000
102.033700 124.000000
102.075400 64.000000
103.074600 66.000000
103.324300 72.000000
104.036600 66.000000
105.069400 5382.000000
106.074200 496.000000
107.085100 9308.000000
108.088600 456.000000
108.187700 80.000000
108.208000 96.000000
108.231400 62.000000
108.289600 132.000000
109.065300 476.000000
109.101000 6314.000000
110.015600 76.000000
110.060800 72.000000
110.104000 492.000000
110.224100 80.000000
111.039600 66.000000
111.056300 110.000000
111.080000 608.000000
111.116000 220.000000
111.161900 60.000000
112.039100 134.000000
112.075500 664.000000
113.079500 130.000000
114.046200 72.000000
114.055900 222.000000
114.090700 108.000000
116.120600 72.000000
117.017800 82.000000
117.266500 64.000000
117.989600 68.000000
118.050600 62.000000
118.143800 132.000000
119.085300 3042.000000
120.089400 270.000000
121.100900 3864.000000
121.972800 100.000000
122.103800 538.000000
123.080700 922.000000
123.277600 82.000000
123.312700 78.000000
124.083700 100.000000
124.119000 134.000000
124.275600 84.000000
125.045200 68.000000
125.060700 66.000000
125.095000 724.000000
125.126500 70.000000
125.219400 148.000000
125.995800 116.000000
126.092300 62.000000
126.313300 112.000000
127.155900 84.000000
127.249600 104.000000
127.285200 74.000000
129.068800 224.000000
129.137100 128.000000
130.051400 60.000000
130.078800 76.000000
130.097800 86.000000
130.147600 72.000000
130.258700 80.000000
130.985900 96.000000
131.994200 66.000000
133.101000 1926.000000
134.102000 194.000000
135.080600 206.000000
135.116600 2450.000000
136.083600 140.000000
136.119000 260.000000
136.284800 64.000000
137.003300 88.000000
137.096400 476.000000
137.133800 80.000000
138.091200 126.000000
138.243900 64.000000
139.111400 180.000000
139.215100 70.000000
139.319800 68.000000
140.067900 74.000000
140.256200 86.000000
141.004700 66.000000
141.049400 60.000000
141.086400 60.000000
141.150000 70.000000
141.298600 64.000000
142.029900 80.000000
142.042600 68.000000
142.049700 130.000000
142.076700 110.000000
142.271900 84.000000
142.331900 88.000000
143.074100 70.000000
143.085300 586.000000
143.224800 64.000000
144.043000 60.000000
144.089600 110.000000
145.101300 2072.000000
146.103900 270.000000
146.267900 114.000000
147.077800 162.000000
147.116600 2278.000000
148.036600 90.000000
148.087200 154.000000
148.109200 62.000000
148.120600 410.000000
149.095500 1246.000000
149.132300 2416.000000
150.098800 110.000000
150.135200 286.000000
151.073800 64.000000
151.111300 278.000000
151.144000 86.000000
151.153900 64.000000
151.180400 88.000000
152.022600 64.000000
152.105700 166.000000
152.115400 114.000000
152.315300 134.000000
153.031000 64.000000
153.057500 68.000000
153.098600 100.000000
153.127800 100.000000
153.147700 78.000000
153.315200 62.000000
154.012300 76.000000
154.040300 96.000000
154.071900 64.000000
155.085400 552.000000
155.114500 72.000000
156.021500 76.000000
156.064900 604.000000
156.092300 100.000000
156.115000 76.000000
157.069800 136.000000
157.100300 1340.000000
157.134100 78.000000
158.080400 2886.000000
158.102600 198.000000
159.085700 362.000000
159.116400 5100.000000
160.022600 60.000000
160.119700 494.000000
160.132700 122.000000
160.206900 60.000000
161.132200 4448.000000
162.135400 534.000000
162.327500 86.000000
163.046800 130.000000
163.111500 908.000000
163.147300 1548.000000
163.181600 84.000000
164.035200 66.000000
164.151800 170.000000
165.044600 72.000000
165.127100 94.000000
166.081300 64.000000
166.122000 64.000000
166.130100 94.000000
166.176200 126.000000
166.216000 68.000000
167.043500 82.000000
168.050700 68.000000
168.100800 146.000000
168.122400 100.000000
168.135800 114.000000
168.162000 60.000000
168.254600 66.000000
168.338800 66.000000
168.989200 86.000000
169.100500 1710.000000
170.000400 114.000000
170.080600 76.000000
170.106400 78.000000
171.040600 88.000000
171.117100 1422.000000
171.163300 108.000000
172.062200 82.000000
172.095500 206.000000
172.130200 174.000000
173.095800 488.000000
173.132200 2494.000000
173.270100 130.000000
174.099800 64.000000
174.134500 358.000000
174.171100 112.000000
175.110900 1104.000000
175.147900 2846.000000
176.086300 62.000000
176.103000 78.000000
176.116100 100.000000
176.129200 100.000000
176.152400 408.000000
177.126700 2800.000000
177.163800 516.000000
178.130500 408.000000
178.167300 146.000000
178.250300 74.000000
179.036400 74.000000
179.979000 60.000000
180.136700 60.000000
181.098600 186.000000
181.987200 66.000000
182.059400 68.000000
182.069400 78.000000
182.261100 60.000000
183.116800 1466.000000
183.974100 66.000000
184.030700 60.000000
184.096500 318.000000
184.120300 270.000000
184.183300 70.000000
185.132400 3168.000000
186.073000 74.000000
186.111500 282.000000
186.134400 340.000000
186.170400 96.000000
187.111400 774.000000
187.147500 4276.000000
187.984600 66.000000
188.057700 60.000000
188.116200 156.000000
188.151100 526.000000
188.225700 80.000000
189.127400 1428.000000
189.163700 2084.000000
189.990800 108.000000
190.093200 100.000000
190.131200 258.000000
190.167200 406.000000
191.095100 142.000000
191.104900 82.000000
191.143300 1402.000000
191.167600 96.000000
192.145900 78.000000
192.216100 64.000000
193.119700 80.000000
194.114400 72.000000
195.002800 60.000000
195.116500 234.000000
195.975100 114.000000
196.046400 80.000000
196.072500 64.000000
196.096100 168.000000
196.123900 226.000000
196.143900 92.000000
196.306300 76.000000
197.132400 1462.000000
197.172100 96.000000
197.234100 106.000000
198.048000 66.000000
198.112800 294.000000
198.137100 128.000000
199.147900 3316.000000
200.126700 174.000000
200.150400 630.000000
200.269200 60.000000
201.163700 5574.000000
202.167900 824.000000
203.142500 2666.000000
203.179100 1820.000000
204.053000 64.000000
204.081300 80.000000
204.145000 478.000000
204.182200 532.000000
205.034600 72.000000
205.157300 546.000000
207.038800 92.000000
207.117900 64.000000
207.162800 104.000000
207.299000 64.000000
207.992600 64.000000
208.002200 84.000000
208.131500 72.000000
208.142900 72.000000
208.176500 66.000000
208.295400 60.000000
209.133000 338.000000
209.175600 60.000000
209.308600 114.000000
210.026800 66.000000
210.037900 72.000000
210.099200 66.000000
210.112300 658.000000
210.140000 164.000000
211.147500 8484.000000
212.129200 540.000000
212.152100 1022.000000
212.215600 94.000000
212.257500 82.000000
213.163700 4228.000000
214.166300 898.000000
215.142600 588.000000
215.179300 10014.000000
216.148000 278.000000
216.182600 1332.000000
217.158600 1866.000000
217.194100 988.000000
217.987400 66.000000
218.161100 208.000000
218.198100 216.000000
219.174400 214.000000
219.206300 120.000000
221.142300 70.000000
221.190300 62.000000
222.288600 68.000000
223.149800 356.000000
224.128000 432.000000
224.280500 74.000000
225.163800 4908.000000
226.144500 252.000000
226.167000 1206.000000
226.252400 70.000000
227.179400 4174.000000
227.992300 62.000000
228.118200 70.000000
228.182100 700.000000
229.158300 7458.000000
229.195300 3578.000000
230.163200 904.000000
230.198100 540.000000
231.174400 2530.000000
232.176900 328.000000
233.048400 60.000000
233.188400 218.000000
233.218400 108.000000
234.149300 156.000000
235.152700 60.000000
235.165500 90.000000
235.276600 78.000000
236.129100 160.000000
236.158500 78.000000
236.207800 62.000000
237.162100 398.000000
238.143100 518.000000
238.162700 70.000000
239.179500 3028.000000
240.158300 98.000000
240.182800 722.000000
241.155100 112.000000
241.194500 1806.000000
242.198200 408.000000
243.174100 3408.000000
243.210900 1956.000000
243.990200 64.000000
244.177500 588.000000
244.212500 612.000000
245.189500 1890.000000
245.209400 168.000000
245.992400 74.000000
246.192400 128.000000
246.257100 82.000000
247.177200 66.000000
248.201700 60.000000
250.129100 62.000000
250.143200 336.000000
250.167200 68.000000
251.179300 794.000000
251.281000 70.000000
252.157900 906.000000
252.182900 226.000000
253.061800 78.000000
253.158000 80.000000
253.166600 84.000000
253.194000 634.000000
254.198000 142.000000
254.305700 68.000000
255.172900 104.000000
255.211700 600.000000
256.144300 70.000000
256.177300 72.000000
256.211700 120.000000
257.189300 2514.000000
257.225100 130.000000
258.029000 92.000000
258.194500 366.000000
259.203200 304.000000
259.228000 68.000000
260.166600 90.000000
261.164200 62.000000
262.223000 64.000000
263.249600 62.000000
264.157700 344.000000
265.195800 1814.000000
266.079900 66.000000
266.174600 596.000000
266.201400 190.000000
266.246800 62.000000
267.178000 132.000000
267.208900 404.000000
268.022900 66.000000
268.189500 64.000000
269.190700 318.000000
270.018800 74.000000
270.113500 76.000000
270.226700 150.000000
270.254900 86.000000
270.328900 70.000000
271.009500 96.000000
271.204100 170.000000
272.207800 74.000000
273.224300 64.000000
274.180400 60.000000
277.045900 62.000000
278.175800 930.000000
278.250100 64.000000
279.178000 134.000000
279.210400 994.000000
280.005000 60.000000
280.191300 208.000000
280.214700 258.000000
281.027400 76.000000
281.194900 72.000000
281.225400 678.000000
282.200800 104.000000
282.231100 190.000000
282.252600 66.000000
283.204200 796.000000
283.238000 70.000000
284.119400 76.000000
284.208800 94.000000
285.219700 228.000000
286.222400 156.000000
287.133000 66.000000
288.078600 68.000000
288.194100 116.000000
289.182300 64.000000
290.171500 132.000000
290.211600 62.000000
291.049900 80.000000
291.067200 104.000000
292.193100 522.000000
292.213300 102.000000
292.285900 74.000000
293.198400 84.000000
293.226100 430.000000
294.205500 122.000000
294.229500 288.000000
295.241700 1798.000000
296.245200 302.000000
296.998200 138.000000
297.221500 2416.000000
297.257200 2500.000000
298.225700 466.000000
298.261400 660.000000
299.269300 72.000000
299.295600 92.000000
301.215400 68.000000
302.208500 90.000000
303.172400 98.000000
304.190500 1104.000000
305.155100 76.000000
305.196300 286.000000
306.206900 838.000000
307.209000 174.000000
308.226800 106.000000
311.236900 294.000000
311.273000 778.000000
312.277400 212.000000
313.111700 104.000000
314.120100 74.000000
314.197300 76.000000
317.314700 76.000000
318.206900 572.000000
319.209600 132.000000
320.221200 322.000000
320.249700 102.000000
321.257800 22858.000000
322.261100 5246.000000
323.265300 704.000000
327.052000 114.000000
330.051800 88.000000
332.170700 76.000000
332.221800 524.000000
333.225200 86.000000
334.230400 82.000000
334.986300 60.000000
335.151800 60.000000
339.268600 19648.000000
340.271600 5038.000000
343.057400 106.000000
344.222300 122.000000
345.329200 74.000000
346.242000 60.000000
357.165300 92.000000
357.278500 238.000000
358.239400 154.000000
360.326500 64.000000
368.294900 130.000000
369.302600 180.000000
371.167000 72.000000
386.137000 66.000000
396.287400 456.000000
397.293900 114.000000
413.337500 60.000000
414.300200 4484.000000
415.303000 1678.000000
416.015400 76.000000
416.292900 66.000000
416.306500 152.000000
433.295700 86.000000
460.242700 60.000000

