>compound RP09578360
>parentmass 303.2319
>ionization [M+H]+
>formula C20H30O2
>rt 395.400000
>profile qtof
#smiles_iso CC/C=C\C/C=C\C/C=C\C/C=C\C/C=C\CCCC(=O)O
#smiles_can CCC=CCC=CCC=CCC=CCC=CCCCC(=O)O
#inchikey JAZBEHYOTPTENJ-JLNKQSITSA-N
#pubchem_id 446284
#mb_accession RP030501,RP030502,RP030503

>ms2peaks
45.057200 52.000000
63.174900 36.000000
83.012800 36.000000
87.117100 44.000000
91.054600 94.000000
91.112000 42.000000
94.073900 42.000000
95.085100 80.000000
103.100100 80.000000
109.052000 62.000000
114.030800 64.000000
126.041900 68.000000
129.041200 90.000000
135.019100 56.000000
137.069700 88.000000
137.103700 46.000000
139.243400 82.000000
143.999000 36.000000
145.097600 64.000000
147.080200 62.000000
147.230400 60.000000
148.169500 70.000000
149.096500 36.000000
149.103900 52.000000
149.133200 86.000000
150.090300 50.000000
151.147100 42.000000
154.078600 40.000000
158.129700 48.000000
161.133900 88.000000
162.079500 36.000000
163.028900 50.000000
163.110500 72.000000
164.084200 52.000000
164.120400 46.000000
165.128100 86.000000
167.059400 70.000000
167.107900 240.000000
168.126400 38.000000
168.160800 94.000000
173.133600 192.000000
175.123500 50.000000
175.149300 344.000000
175.179200 54.000000
177.163200 72.000000
178.041900 62.000000
179.107600 114.000000
180.030400 84.000000
181.122000 180.000000
183.117600 46.000000
187.110900 58.000000
189.163300 230.000000
189.991700 52.000000
190.169300 68.000000
191.200100 52.000000
193.089800 70.000000
193.122400 154.000000
194.129700 54.000000
194.201700 44.000000
195.113300 54.000000
195.137700 78.000000
197.131700 44.000000
198.139000 66.000000
198.222700 44.000000
199.013000 56.000000
199.137300 58.000000
200.236800 44.000000
201.163100 102.000000
201.991200 78.000000
203.179200 236.000000
207.024600 46.000000
207.118400 58.000000
207.137700 246.000000
212.154600 48.000000
214.017300 56.000000
215.143200 88.000000
216.000700 42.000000
216.152700 38.000000
219.031100 52.000000
219.162700 74.000000
221.153600 200.000000
222.125500 44.000000
226.015000 74.000000
229.158700 146.000000
231.183700 68.000000
232.073800 36.000000
233.028200 40.000000
233.153300 226.000000
235.132500 74.000000
236.000800 48.000000
236.138400 40.000000
241.109200 50.000000
243.029300 40.000000
243.209700 84.000000
243.219200 84.000000
244.213400 38.000000
245.996100 48.000000
248.145700 38.000000
257.190400 86.000000
258.125100 46.000000
259.036500 48.000000
261.186300 222.000000
264.138300 82.000000
265.051500 78.000000
267.044100 38.000000
267.210400 598.000000
268.217200 84.000000
269.203300 74.000000
270.146800 64.000000
274.239000 46.000000
276.124400 48.000000
279.009000 44.000000
282.113900 46.000000
284.047400 136.000000
285.196100 160.000000
285.221200 2036.000000
286.108200 42.000000
286.223900 238.000000
289.193300 36.000000
293.187200 74.000000
299.166200 194.000000
299.185600 244.000000
300.185600 38.000000
301.165800 52.000000
303.231900 33160.000000
306.194600 40.000000

>ms2peaks
48.057300 46.000000
51.080500 42.000000
57.069800 42.000000
69.069500 82.000000
71.049100 66.000000
82.073400 88.000000
86.994500 36.000000
91.039100 40.000000
91.054100 248.000000
92.058300 50.000000
93.069000 292.000000
95.085200 196.000000
96.031200 44.000000
97.100500 116.000000
103.018700 36.000000
104.130300 56.000000
105.069100 110.000000
109.016500 48.000000
119.086000 110.000000
121.101700 242.000000
131.086500 54.000000
133.101000 110.000000
135.079600 72.000000
143.060800 36.000000
145.100500 82.000000
147.115500 144.000000
148.119600 36.000000
149.095800 60.000000
149.132300 260.000000
153.115400 40.000000
155.082600 48.000000
157.100900 104.000000
159.115300 64.000000
161.096600 152.000000
161.131800 278.000000
162.135200 72.000000
163.112300 108.000000
164.115100 38.000000
165.123700 76.000000
167.106300 128.000000
169.102200 36.000000
169.987300 52.000000
171.116200 180.000000
171.139100 38.000000
172.124000 50.000000
173.058300 38.000000
173.133200 128.000000
175.111400 204.000000
175.149100 444.000000
176.153600 100.000000
177.029200 58.000000
177.126500 70.000000
177.160800 40.000000
179.107200 84.000000
180.068600 38.000000
180.160400 80.000000
181.122400 166.000000
182.129400 106.000000
183.053600 36.000000
183.116000 128.000000
184.118900 64.000000
185.134100 106.000000
187.113200 124.000000
187.146300 112.000000
188.151200 38.000000
189.127300 84.000000
189.162000 286.000000
190.130400 102.000000
190.166800 60.000000
191.107900 116.000000
191.139600 98.000000
193.121200 290.000000
194.160900 52.000000
194.178600 36.000000
195.138100 74.000000
197.132800 226.000000
200.224900 40.000000
201.052700 36.000000
201.128600 162.000000
201.162500 66.000000
202.169000 84.000000
203.143700 44.000000
203.176300 98.000000
203.249300 62.000000
207.139300 144.000000
208.096000 48.000000
209.026100 44.000000
211.147400 234.000000
213.069200 40.000000
214.167600 36.000000
215.143800 80.000000
219.137300 200.000000
220.146700 46.000000
220.207600 82.000000
221.154400 368.000000
225.161900 62.000000
228.043200 42.000000
230.162600 48.000000
231.092100 94.000000
233.153800 206.000000
234.160200 68.000000
235.167500 70.000000
235.205500 46.000000
236.186100 66.000000
237.185000 68.000000
239.179000 64.000000
241.191500 148.000000
243.173300 96.000000
243.209700 160.000000
244.178400 68.000000
246.206200 62.000000
247.170100 194.000000
249.185500 64.000000
255.115700 48.000000
257.189900 182.000000
258.198800 50.000000
258.209800 58.000000
261.185000 228.000000
265.194200 46.000000
267.020700 48.000000
267.209800 240.000000
268.213300 206.000000
269.106400 50.000000
271.087700 42.000000
274.084600 88.000000
279.183800 48.000000
285.221700 428.000000
286.230800 66.000000
301.191100 110.000000
303.232100 4422.000000

>ms2peaks
68.057400 188.000000
69.033100 94.000000
77.038100 74.000000
80.058500 86.000000
81.069200 838.000000
83.049700 58.000000
91.026200 54.000000
91.053400 886.000000
93.069800 794.000000
94.085700 100.000000
95.049200 98.000000
95.085800 246.000000
105.070300 416.000000
106.072700 52.000000
107.085000 230.000000
117.056300 60.000000
117.070400 50.000000
119.085700 260.000000
120.089900 64.000000
131.085400 132.000000
145.100000 92.000000
154.077300 44.000000
155.086500 94.000000
159.077100 58.000000
159.115400 134.000000
160.119200 36.000000
161.131600 82.000000
162.102500 102.000000
163.111800 36.000000
170.103400 70.000000
171.117300 102.000000
174.136100 56.000000
183.117600 120.000000
187.107400 50.000000
189.135200 38.000000
195.112700 68.000000
197.128700 36.000000
201.170900 38.000000
207.137400 50.000000
213.165900 56.000000
234.160300 46.000000
247.168000 48.000000

