>compound RP09892717
>parentmass 409.29490000000004
>ionization [M+H]+
>formula C24H40O5
>rt 270.720000
>profile qtof
#smiles_iso C[C@H](CCC(=O)O)[C@H]1CC[C@@H]2[C@@]1(CC[C@H]3[C@H]2[C@@H]([C@@H]([C@H]4[C@@]3(CC[C@H](C4)O)C)O)O)C
#smiles_can CC(CCC(=O)O)C1CCC2C1(CCC3C2C(C(C4C3(CCC(C4)O)C)O)O)C
#inchikey DKPMWHFRUGMUKF-KWXDGCAGSA-N
#pubchem_id 92805
#mb_accession RP026701,RP026702,RP026703

>ms2peaks
159.114300 306.000000
309.259800 208.000000
319.243200 528.000000
337.252000 4042.000000
338.257400 508.000000
343.261900 202.000000
345.281300 220.000000
355.263200 75454.000000
356.266500 15134.000000
373.274100 196020.000000
374.277100 64648.000000
375.280500 5396.000000
376.283000 276.000000
391.284200 30522.000000
392.287700 6672.000000
393.289700 640.000000
409.294500 37178.000000

>ms2peaks
81.069500 1178.000000
83.085400 212.000000
93.069300 244.000000
95.085000 714.000000
99.043600 294.000000
101.059900 744.000000
105.069900 586.000000
107.085000 376.000000
109.101000 616.000000
110.105300 168.000000
119.086000 218.000000
121.101200 378.000000
133.100800 222.000000
135.118000 638.000000
145.100600 326.000000
146.106200 178.000000
147.116900 968.000000
149.132100 478.000000
159.116700 4660.000000
160.120500 376.000000
161.132600 1890.000000
162.137600 394.000000
163.148000 280.000000
165.128300 354.000000
167.105300 230.000000
171.117400 174.000000
173.132000 824.000000
174.137900 188.000000
175.148300 438.000000
177.129000 310.000000
181.121800 688.000000
185.132500 432.000000
187.113000 212.000000
187.147500 360.000000
191.142800 196.000000
193.122100 746.000000
194.125800 172.000000
195.138700 584.000000
199.147400 896.000000
201.163600 176.000000
203.140700 170.000000
205.122900 416.000000
207.138200 868.000000
208.141500 174.000000
209.133300 186.000000
209.152800 322.000000
211.147900 214.000000
213.162900 740.000000
215.180500 342.000000
219.139800 338.000000
221.152900 746.000000
223.147400 358.000000
225.165800 170.000000
227.143700 450.000000
227.178900 434.000000
228.149300 230.000000
233.153700 310.000000
235.169700 554.000000
237.163500 284.000000
241.195200 814.000000
245.153500 906.000000
247.171300 546.000000
249.184000 288.000000
254.203500 322.000000
255.209800 746.000000
259.169000 222.000000
261.183700 208.000000
273.185100 804.000000
275.200500 194.000000
295.241900 750.000000
296.244900 274.000000
299.199000 186.000000
309.221500 276.000000
309.258900 916.000000
310.261500 198.000000
312.028200 172.000000
313.217000 184.000000
319.242400 3940.000000
320.245500 650.000000
325.254000 264.000000
327.268100 576.000000
337.253000 22144.000000
338.256300 4150.000000
339.259100 328.000000
343.263100 1682.000000
344.268300 290.000000
345.280300 830.000000
346.280000 174.000000
355.263800 162352.000000
356.267200 49004.000000
358.273400 346.000000
373.274100 71300.000000
374.277400 20162.000000
375.280400 1418.000000
391.285100 2878.000000
392.288600 726.000000

>ms2peaks
53.133000 90.000000
55.005200 44.000000
55.169200 44.000000
62.015000 48.000000
62.096300 42.000000
63.044300 62.000000
69.034000 124.000000
70.172200 40.000000
71.085400 118.000000
72.244400 52.000000
72.302400 50.000000
74.024000 90.000000
74.035600 42.000000
74.056800 36.000000
75.023000 38.000000
75.079800 48.000000
75.267700 52.000000
76.112200 46.000000
77.038300 270.000000
78.042200 90.000000
78.255600 74.000000
79.053600 3170.000000
80.104700 52.000000
81.069200 10244.000000
83.048400 1972.000000
83.084900 2334.000000
84.006000 48.000000
85.064700 1272.000000
86.015200 40.000000
87.091200 50.000000
87.268600 48.000000
88.202400 94.000000
88.296700 50.000000
90.052300 46.000000
91.053600 1914.000000
92.058000 186.000000
93.069200 5342.000000
94.037000 40.000000
94.073000 644.000000
95.085100 5928.000000
96.053200 92.000000
96.089000 432.000000
97.064600 646.000000
97.100200 446.000000
99.043400 1478.000000
99.080000 142.000000
100.260000 124.000000
101.059200 1428.000000
101.096500 72.000000
101.283100 112.000000
102.034200 36.000000
105.069800 3234.000000
106.136000 44.000000
107.084900 3296.000000
108.088700 270.000000
109.065200 420.000000
109.100900 3528.000000
110.104000 508.000000
110.244600 64.000000
111.080200 142.000000
111.123200 68.000000
112.014900 44.000000
112.085200 114.000000
113.996700 54.000000
115.054300 56.000000
116.057600 66.000000
117.069800 360.000000
118.049600 42.000000
119.085600 2254.000000
119.993200 56.000000
120.004100 36.000000
120.053400 44.000000
120.302500 60.000000
121.065700 112.000000
121.100800 1702.000000
122.105400 84.000000
123.009600 48.000000
123.080200 300.000000
123.117600 264.000000
124.018800 56.000000
124.119700 102.000000
124.984100 48.000000
125.034300 70.000000
125.068800 36.000000
125.095400 92.000000
126.010900 96.000000
126.139200 56.000000
127.029700 40.000000
127.060100 36.000000
127.075400 132.000000
127.110700 40.000000
128.006700 44.000000
128.094300 52.000000
129.056900 46.000000
129.068700 106.000000
129.114600 40.000000
130.064700 58.000000
130.111300 104.000000
130.134400 50.000000
131.036300 102.000000
131.069800 42.000000
131.086600 600.000000
131.257300 36.000000
131.999900 46.000000
132.150100 36.000000
133.004500 88.000000
133.101200 1458.000000
134.083900 52.000000
134.095700 38.000000
134.105400 236.000000
135.115900 970.000000
136.120300 204.000000
137.094900 176.000000
138.089300 76.000000
139.298300 62.000000
140.141500 36.000000
140.269800 96.000000
141.044100 58.000000
141.070500 140.000000
141.258000 84.000000
142.077000 46.000000
142.087600 66.000000
142.984600 98.000000
143.085100 550.000000
143.293200 38.000000
143.967500 38.000000
144.066700 50.000000
144.077600 58.000000
145.100900 1778.000000
146.131400 56.000000
147.116000 2682.000000
148.120600 318.000000
148.986400 62.000000
149.095500 194.000000
149.103400 84.000000
149.120200 112.000000
149.132200 936.000000
150.099000 104.000000
150.124700 44.000000
150.137200 84.000000
151.059100 120.000000
151.112200 220.000000
153.066600 106.000000
153.077200 92.000000
154.158200 68.000000
155.058000 72.000000
155.085800 180.000000
155.106300 76.000000
155.200100 50.000000
156.017800 84.000000
156.093900 46.000000
157.100300 1244.000000
157.309900 74.000000
158.104800 190.000000
158.209800 40.000000
159.116200 9478.000000
160.072900 46.000000
160.120900 706.000000
161.131700 4746.000000
162.039600 40.000000
162.137000 384.000000
163.111400 674.000000
163.147100 400.000000
164.010000 44.000000
164.031600 80.000000
164.116400 42.000000
164.151500 80.000000
165.069300 62.000000
165.086500 66.000000
165.128700 296.000000
166.073400 54.000000
166.143700 100.000000
167.083100 36.000000
167.107500 148.000000
167.143800 90.000000
169.101500 364.000000
170.119200 38.000000
171.015000 92.000000
171.117100 1376.000000
171.977400 36.000000
172.108300 98.000000
172.119800 280.000000
172.217700 46.000000
173.132100 3078.000000
174.082900 36.000000
174.135400 486.000000
174.255700 62.000000
175.111400 722.000000
175.147800 1110.000000
176.115800 198.000000
177.126800 1322.000000
177.263700 96.000000
178.084300 54.000000
178.130800 150.000000
179.020400 40.000000
179.107000 110.000000
179.128200 66.000000
179.143100 144.000000
179.275000 46.000000
180.182000 42.000000
181.022800 38.000000
181.100100 288.000000
181.122000 544.000000
182.021700 38.000000
182.096700 74.000000
182.105100 92.000000
182.127200 40.000000
182.161100 68.000000
183.116500 452.000000
184.122400 68.000000
185.132500 2638.000000
186.110700 36.000000
186.135500 464.000000
187.112800 186.000000
187.146700 1214.000000
188.151600 154.000000
188.178400 66.000000
189.092400 68.000000
189.126600 378.000000
189.163500 538.000000
190.134000 64.000000
190.168600 60.000000
191.067500 46.000000
191.105700 82.000000
191.143200 480.000000
191.167400 60.000000
192.145400 106.000000
192.989000 78.000000
193.123400 592.000000
194.081100 44.000000
194.108700 74.000000
194.126800 172.000000
194.992900 38.000000
195.115900 232.000000
195.138100 730.000000
196.121800 98.000000
196.143100 140.000000
197.131800 890.000000
198.121200 56.000000
198.136600 222.000000
199.147700 4544.000000
200.121200 58.000000
200.154900 870.000000
201.005900 62.000000
201.127500 112.000000
201.163900 684.000000
202.110300 54.000000
202.168000 152.000000
203.143100 288.000000
203.181000 94.000000
203.969100 56.000000
204.102100 50.000000
204.188800 52.000000
205.123300 328.000000
205.157500 54.000000
205.972300 62.000000
206.166500 36.000000
207.059800 42.000000
207.139300 672.000000
208.017900 36.000000
208.113900 80.000000
208.141500 106.000000
208.217400 68.000000
209.133300 666.000000
209.151500 138.000000
210.031300 44.000000
210.135300 196.000000
210.988700 50.000000
211.131700 46.000000
211.146300 364.000000
211.206900 82.000000
212.153300 310.000000
212.255200 38.000000
213.128100 224.000000
213.163400 3536.000000
214.060700 50.000000
214.132200 54.000000
214.168300 582.000000
215.141700 516.000000
215.178600 958.000000
216.183600 238.000000
217.061800 50.000000
217.158500 232.000000
217.195800 114.000000
218.198500 52.000000
219.016900 46.000000
219.118300 48.000000
219.137300 370.000000
219.173300 78.000000
219.210300 68.000000
220.144700 46.000000
221.143000 64.000000
221.154500 224.000000
222.133100 44.000000
222.145600 68.000000
223.011300 52.000000
223.092600 36.000000
223.146700 486.000000
224.153700 108.000000
224.996200 84.000000
225.164000 726.000000
226.130900 48.000000
226.166300 184.000000
226.250400 94.000000
227.142300 634.000000
227.163000 84.000000
227.179700 1516.000000
227.997800 38.000000
228.145700 162.000000
228.183300 442.000000
228.230300 36.000000
229.008200 50.000000
229.070700 38.000000
229.157800 342.000000
229.194100 198.000000
230.089300 38.000000
230.163900 62.000000
231.139000 172.000000
231.175000 346.000000
233.153400 352.000000
233.305500 38.000000
234.015900 64.000000
234.159500 36.000000
235.143900 48.000000
235.168800 400.000000
235.245600 90.000000
236.000100 54.000000
236.137200 38.000000
237.164200 456.000000
238.128700 36.000000
238.150400 40.000000
238.168200 144.000000
238.204700 72.000000
239.008300 58.000000
239.179000 1006.000000
240.172400 72.000000
240.183900 268.000000
240.287400 36.000000
241.160600 322.000000
241.194700 880.000000
242.161000 150.000000
243.158900 56.000000
243.175800 240.000000
243.205000 64.000000
244.119200 42.000000
244.177000 54.000000
244.313400 36.000000
245.153200 476.000000
245.191200 110.000000
246.033300 48.000000
246.160100 116.000000
247.167800 360.000000
248.151800 54.000000
248.172000 74.000000
249.110500 74.000000
249.139900 90.000000
249.162500 152.000000
249.185200 68.000000
251.180400 176.000000
252.042100 40.000000
252.300600 46.000000
253.195400 276.000000
254.202500 1820.000000
255.175000 394.000000
255.209900 1262.000000
256.058700 86.000000
256.175700 50.000000
256.216000 242.000000
257.150100 116.000000
257.169100 46.000000
257.186900 170.000000
259.167600 362.000000
259.203500 150.000000
261.184300 192.000000
261.241400 78.000000
262.079100 38.000000
263.178600 162.000000
264.182000 104.000000
265.194000 116.000000
266.196100 62.000000
267.209100 196.000000
268.178500 52.000000
269.004200 54.000000
269.190200 92.000000
270.192900 40.000000
271.168400 108.000000
271.202900 82.000000
272.171500 42.000000
273.150800 62.000000
273.185400 618.000000
274.189400 158.000000
275.269200 54.000000
276.180900 54.000000
277.193200 120.000000
277.998400 44.000000
278.200900 42.000000
279.212100 58.000000
280.216900 86.000000
281.190100 158.000000
281.227900 70.000000
282.031200 36.000000
282.192600 48.000000
282.239100 72.000000
283.207800 98.000000
285.186100 104.000000
286.209000 44.000000
287.148600 58.000000
287.195800 170.000000
288.205300 104.000000
289.211200 64.000000
290.208900 66.000000
291.015100 72.000000
291.213500 192.000000
292.185700 38.000000
293.225000 184.000000
294.091300 38.000000
294.230500 114.000000
295.199600 56.000000
295.241200 510.000000
296.210400 66.000000
296.250500 188.000000
297.221500 36.000000
299.198200 232.000000
299.244300 76.000000
300.045500 54.000000
300.145700 36.000000
300.207100 66.000000
300.240000 48.000000
301.052600 58.000000
301.218700 80.000000
304.221500 72.000000
305.016400 40.000000
305.215100 56.000000
306.277500 48.000000
307.245200 40.000000
309.215500 48.000000
309.257800 372.000000
310.256500 132.000000
311.195400 48.000000
311.267000 38.000000
313.215300 260.000000
313.258200 38.000000
314.221600 66.000000
315.227900 72.000000
316.275300 48.000000
317.013200 72.000000
319.241700 1382.000000
320.020700 58.000000
320.165800 42.000000
320.244600 328.000000
321.237400 58.000000
321.249000 108.000000
321.265500 36.000000
322.231200 58.000000
323.188000 42.000000
325.213700 60.000000
326.226100 44.000000
326.297700 36.000000
327.263600 78.000000
329.310000 64.000000
334.016000 54.000000
335.002000 38.000000
337.252200 1716.000000
338.255200 568.000000
338.285100 74.000000
339.013700 58.000000
339.262900 48.000000
339.302600 38.000000
340.238700 212.000000
343.269200 140.000000
347.052100 36.000000
348.055500 82.000000
351.156100 42.000000
355.263000 7440.000000
356.266200 1556.000000
357.156800 46.000000
357.265000 146.000000
358.277200 56.000000
363.316200 38.000000
373.271700 520.000000
374.277800 134.000000

