>compound RP09597865
>parentmass 391.2843
>ionization [M+H]+
>formula C24H38O4
>rt 458.280000
>profile qtof
#smiles_iso CCCCCCCCOC(=O)C1=CC=CC=C1C(=O)OCCCCCCCC
#smiles_can CCCCCCCCOC(=O)C1=CC=CC=C1C(=O)OCCCCCCCC
#inchikey MQIUGAXCHLFZKX-UHFFFAOYSA-N
#pubchem_id 8346
#mb_accession RP019801,RP019802,RP019803

>ms2
45.091200 40.000000
45.163800 56.000000
50.072300 62.000000
59.060600 40.000000
65.132500 42.000000
66.042000 44.000000
69.126800 40.000000
72.113900 66.000000
72.151200 40.000000
74.186900 42.000000
74.202400 48.000000
75.175100 92.000000
82.250100 62.000000
90.127400 40.000000
92.197900 120.000000
93.054400 38.000000
95.059500 58.000000
97.037400 54.000000
99.173400 38.000000
102.091700 92.000000
104.103700 58.000000
106.120800 52.000000
109.027400 44.000000
110.068700 54.000000
111.052800 64.000000
111.111700 142.000000
113.132300 482.000000
113.983100 62.000000
115.989400 38.000000
119.221700 40.000000
120.064800 42.000000
123.081200 64.000000
124.039600 40.000000
126.056100 58.000000
129.988900 76.000000
130.215000 44.000000
134.031800 48.000000
134.080300 64.000000
134.203200 60.000000
136.026300 42.000000
139.033800 38.000000
139.122800 40.000000
140.157200 48.000000
141.090600 44.000000
141.184800 40.000000
144.065100 52.000000
147.113800 62.000000
149.023200 26170.000000
150.026000 1870.000000
150.055700 104.000000
151.017000 40.000000
151.204500 38.000000
156.228400 44.000000
161.165800 38.000000
167.034300 374.000000
167.165500 68.000000
170.203500 50.000000
171.149900 100.000000
172.166800 64.000000
173.083000 40.000000
173.210600 80.000000
174.062700 40.000000
179.993400 52.000000
182.103700 52.000000
182.296500 138.000000
183.169700 48.000000
186.115000 64.000000
187.037200 94.000000
189.092500 92.000000
190.061200 46.000000
191.071800 138.000000
191.273000 70.000000
192.019900 62.000000
194.022900 94.000000
196.018800 40.000000
196.040900 48.000000
196.124900 54.000000
204.987300 40.000000
205.083100 58.000000
205.215500 94.000000
206.084000 38.000000
210.011100 48.000000
211.194500 66.000000
216.074300 44.000000
216.140400 38.000000
218.128300 52.000000
220.082800 58.000000
224.079600 50.000000
224.270200 44.000000
225.218700 74.000000
226.036100 46.000000
226.216600 76.000000
229.241000 58.000000
232.203000 82.000000
233.994300 46.000000
234.101900 56.000000
239.069600 46.000000
239.150900 64.000000
240.001000 38.000000
242.020700 64.000000
243.149100 50.000000
244.301400 38.000000
247.312700 92.000000
249.046400 40.000000
252.159400 64.000000
253.108600 48.000000
254.155900 56.000000
254.233400 38.000000
254.249600 46.000000
256.139800 56.000000
259.049300 46.000000
260.251100 38.000000
261.148500 35986.000000
262.152300 5380.000000
263.120300 62.000000
263.156100 386.000000
263.207000 48.000000
264.158600 88.000000
264.202800 52.000000
271.157100 38.000000
273.259800 80.000000
279.159300 404.000000
283.300200 60.000000
286.142100 38.000000
291.091600 42.000000
295.012800 62.000000
296.991100 38.000000
297.060200 76.000000
298.042400 38.000000
298.118100 66.000000
302.074100 42.000000
310.178300 44.000000
319.100800 66.000000
320.142800 70.000000
330.217800 52.000000
331.232700 48.000000
332.008100 56.000000
333.235700 58.000000
334.227000 72.000000
339.253000 44.000000
339.278000 40.000000
343.005000 44.000000
345.166800 42.000000
350.176800 50.000000
359.193300 38.000000
373.079400 48.000000
380.041600 94.000000
381.048000 44.000000
385.994100 66.000000
391.284300 24972.000000
393.218500 70.000000
393.289300 612.000000
398.103800 42.000000
406.278600 50.000000

>ms2
60.080400 64.000000
62.129700 100.000000
65.046500 70.000000
67.075500 52.000000
71.085000 3014.000000
73.194900 84.000000
77.106800 80.000000
83.294600 62.000000
96.265100 74.000000
105.044500 94.000000
110.022800 38.000000
111.039400 40.000000
113.133300 42.000000
117.056600 40.000000
120.139000 42.000000
125.994000 66.000000
126.114100 68.000000
128.213600 74.000000
133.039000 38.000000
149.023000 25378.000000
150.026500 2204.000000
151.013400 108.000000
151.027000 50.000000
167.034000 516.000000
190.053100 88.000000
191.070800 38.000000
199.004700 38.000000
209.080900 66.000000
236.166500 36.000000
261.032800 36.000000
261.150100 154.000000

>ms2
58.005000 42.000000
71.085100 1200.000000
80.058400 68.000000
84.266400 42.000000
93.033700 64.000000
99.080600 44.000000
107.163900 36.000000
116.082800 56.000000
118.110800 38.000000
121.025400 42.000000
149.022900 7050.000000
150.026300 504.000000
151.027400 62.000000
167.033200 132.000000
167.090000 52.000000
191.069000 72.000000
209.079000 96.000000

