>compound RP10715161
>parentmass 169.0356
>ionization [M+H]+
>formula C5H4N4O3
>rt 40.980000
>profile qtof
#smiles_iso C12=C(NC(=O)N1)NC(=O)NC2=O
#smiles_can C12=C(NC(=O)N1)NC(=O)NC2=O
#inchikey LEHOTFFKMJEONL-UHFFFAOYSA-N
#pubchem_id 1175
#mb_accession RP013601,RP013602

>ms2
169.035500 658.000000

>ms2
96.019700 36.000000
152.008200 150.000000
169.034600 154.000000

