>compound RP11707100
>parentmass 159.138
>ionization [M+H]+
>formula C9H18O2
>rt 311.100000
>profile qtof
#smiles_iso CCCCCCCCC(=O)O
#smiles_can CCCCCCCCC(=O)O
#inchikey FBUKVWPVBMHYJY-UHFFFAOYSA-N
#pubchem_id 8158
#mb_accession RP023901,RP023902,RP023903

>ms2peaks
47.085500 58.000000
57.069300 1310.000000
59.049000 316.000000
67.054000 946.000000
69.069300 2724.000000
71.048600 604.000000
71.085000 5768.000000
73.028800 52.000000
73.064900 446.000000
75.043600 2122.000000
79.054800 42.000000
81.069600 1762.000000
83.049200 2192.000000
83.085000 924.000000
85.064600 262.000000
85.100400 318.000000
87.044000 1026.000000
89.059400 20718.000000
89.997500 46.000000
93.069200 100.000000
95.086200 90.000000
97.064300 760.000000
97.101300 420.000000
98.068600 158.000000
99.081200 46.000000
101.059600 900.000000
103.074900 6290.000000
107.069400 130.000000
111.081300 110.000000
111.117700 100.000000
114.020300 68.000000
115.018800 36.000000
117.090700 650.000000
121.086000 70.000000
136.112500 52.000000
139.112100 84.000000
148.051500 96.000000
149.118500 44.000000
154.129800 54.000000
159.137200 18928.000000
161.141100 182.000000
172.003000 40.000000
175.012400 46.000000

>ms2peaks
59.048800 500.000000
65.038100 50.000000
67.054000 840.000000
69.069500 3596.000000
71.048900 1182.000000
71.085300 932.000000
73.029000 242.000000
75.043900 1950.000000
81.069600 1482.000000
83.048600 546.000000
87.043900 138.000000
88.076400 38.000000
89.059400 3978.000000
93.069400 278.000000
95.085500 266.000000
97.100200 112.000000
103.074400 624.000000
159.139400 44.000000

>ms2peaks
55.004800 48.000000
55.054000 540.000000
57.070100 264.000000
59.049200 166.000000
65.038100 96.000000
69.033000 36.000000
71.049200 188.000000
73.065100 44.000000
74.035900 46.000000
75.044100 148.000000
77.038000 76.000000

