>compound RP11730098
>parentmass 251.1278
>ionization [M+H]+
>formula C14H18O4
>rt 332.100000
>profile qtof
#smiles_iso CCCOC(=O)C1=CC=CC=C1C(=O)OCCC
#smiles_can CCCOC(=O)C1=CC=CC=C1C(=O)OCCC
#inchikey MQHNKCZKNAJROC-UHFFFAOYSA-N
#pubchem_id 8559
#mb_accession RP019701,RP019702,RP019703

>ms2
149.024200 2942974.000000
150.026800 378510.000000
151.028400 26862.000000
167.034000 5596.000000
191.070000 1433634.000000
192.073500 177502.000000
193.075900 13578.000000
251.128000 126120.000000

>ms2
93.033300 3104.000000
121.028500 16660.000000
149.024200 2942974.000000
150.026900 487188.000000
151.028700 36372.000000
167.033900 7714.000000
191.070300 13366.000000

>ms2
80.025000 20020.000000
93.032700 476990.000000
98.036000 2212.000000
111.043900 85364.000000
112.047200 3650.000000
121.028400 1066772.000000
121.038600 360114.000000
122.032100 68998.000000
149.023600 1751372.000000
150.027000 148326.000000
151.028600 11878.000000
167.033700 2868.000000

