>compound RP11574190
>parentmass 165.0546
>ionization [M+H]+
>formula C9H8O3
>rt 181.920000
>profile qtof
#smiles_iso C1=CC(=CC=C1/C=C/C(=O)O)O
#smiles_can C1=CC(=CC=C1C=CC(=O)O)O
#inchikey NGSWKAQJJWESNS-ZZXKWVIFSA-N
#pubchem_id 637542
#mb_accession RP016801,RP016802,RP016803

>ms2peaks
49.028800 50.000000
59.049000 52.000000
65.038400 64.000000
76.018900 48.000000
80.047000 124.000000
90.006400 60.000000
91.053400 328.000000
100.017700 48.000000
104.036800 60.000000
106.999400 78.000000
107.023800 68.000000
108.019800 62.000000
119.048100 404.000000
120.054000 136.000000
123.044300 66.000000
126.020900 48.000000
127.985700 50.000000
128.049800 94.000000
130.066100 66.000000
139.001400 60.000000
143.060800 60.000000
147.043500 46848.000000
148.047100 3112.000000
164.047100 128.000000
165.054100 10468.000000

>ms2peaks
59.049400 64.000000
67.053800 54.000000
78.042400 44.000000
82.005100 68.000000
91.053800 9522.000000
95.048500 610.000000
101.025200 90.000000
103.053800 38.000000
105.045600 58.000000
106.049700 66.000000
112.987000 54.000000
119.049000 9182.000000
120.052100 674.000000
133.038100 64.000000
136.016300 58.000000
147.043300 16852.000000
148.046500 1154.000000
149.034800 40.000000
149.048300 204.000000

>ms2peaks
51.022700 66.000000
61.006900 70.000000
63.010400 76.000000
67.054200 72.000000
68.996800 130.000000
73.064900 40.000000
75.022200 1010.000000
77.037900 1176.000000
79.017100 68.000000
91.053800 23780.000000
92.057100 1468.000000
94.040700 90.000000
95.048800 820.000000
96.053000 68.000000
101.038300 92.000000
102.047000 174.000000
103.054200 56.000000
105.044400 126.000000
107.050000 54.000000
119.050200 546.000000
119.061400 54.000000
129.045100 72.000000

