>compound RP11784935
>parentmass 134.0448
>ionization [M+H]+
>formula C4H7NO4
>rt 35.340000
>profile qtof
#smiles_iso C([C@@H](C(=O)O)N)C(=O)O
#smiles_can C(C(C(=O)O)N)C(=O)O
#inchikey CKLJMWTZIZZHCS-REOHCLBHSA-N
#pubchem_id 5960
#mb_accession RP001601,RP001602

>ms2peaks
70.028200 398.000000
71.011800 80.000000
88.038700 4954.000000
115.985500 50.000000
116.033600 712.000000
117.030300 38.000000
134.045500 562.000000

>ms2peaks
69.034000 74.000000
75.042900 46.000000
76.026900 62.000000
88.038900 1550.000000
96.007600 76.000000

