>compound RP12329721
>parentmass 181.072
>ionization [M+H]+
>formula C7H8N4O2
>rt 93.000000
>profile qtof
#smiles_iso CN1C=NC2=C1C(=O)NC(=O)N2C
#smiles_can CN1C=NC2=C1C(=O)NC(=O)N2C
#inchikey YAPQBXQYLJRXSA-UHFFFAOYSA-N
#pubchem_id 5429
#mb_accession RP012201,RP012202,RP012203

>ms2
57.992300 100.000000
108.006000 80.000000
110.072200 112.000000
134.011900 88.000000
138.065600 542.000000
163.000700 138.000000
163.060900 430.000000
177.002700 80.000000
180.026700 98.000000
181.071500 79912.000000
183.076200 560.000000

>ms2
68.034100 40.000000
72.044300 102.000000
79.029400 78.000000
82.050200 44.000000
83.024400 94.000000
83.059900 682.000000
85.038900 56.000000
86.047800 40.000000
96.055200 160.000000
108.054800 546.000000
109.039000 96.000000
110.070900 1808.000000
111.075400 122.000000
113.034500 152.000000
113.993700 38.000000
115.050900 44.000000
120.045600 60.000000
121.046400 106.000000
122.056800 172.000000
123.041400 66.000000
125.079000 50.000000
129.043300 76.000000
132.002400 54.000000
135.065500 270.000000
136.070300 82.000000
137.081400 582.000000
138.065500 3580.000000
139.060700 68.000000
139.069500 150.000000
156.075800 96.000000
163.061400 1706.000000
164.021300 40.000000
164.064100 168.000000
166.047700 42.000000
172.069100 76.000000
174.051100 46.000000
181.071600 27700.000000
183.076300 186.000000

>ms2
54.021400 56.000000
70.028600 110.000000
79.028700 222.000000
80.013300 70.000000
81.044400 278.000000
82.029100 70.000000
82.051800 178.000000
83.060000 2000.000000
85.038900 492.000000
93.032400 158.000000
94.038000 130.000000
95.023700 114.000000
95.048300 194.000000
96.055100 62.000000
108.055900 310.000000
110.070600 408.000000
122.058800 372.000000
123.042300 320.000000
124.045700 44.000000
138.064600 222.000000
148.038300 114.000000
154.061900 58.000000
163.062200 172.000000
167.056800 50.000000

