>compound RP13367129
>parentmass 377.1456
>ionization [M+H]+
>formula C17H20N4O6
>rt 165.060000
>profile qtof
#smiles_iso CC1=CC2=C(C=C1C)N(C3=NC(=O)NC(=O)C3=N2)C[C@@H]([C@@H]([C@@H](CO)O)O)O
#smiles_can CC1=CC2=C(C=C1C)N(C3=NC(=O)NC(=O)C3=N2)CC(C(C(CO)O)O)O
#inchikey AUNGANRZJHBGPY-SCRDCRAPSA-N
#pubchem_id 493570
#mb_accession RP013101,RP013102,RP013103

>ms2peaks
243.089500 478.000000
375.132100 218.000000
377.145600 189334.000000
379.150800 4818.000000

>ms2peaks
57.032700 214.000000
69.032900 1020.000000
71.011800 342.000000
71.048400 406.000000
73.028300 220.000000
75.044200 348.000000
81.033100 568.000000
99.044100 770.000000
117.054400 204.000000
172.085600 182.000000
243.087500 25304.000000
244.090600 2038.000000
359.135300 2658.000000
360.135600 210.000000
377.145700 143718.000000
379.151400 3250.000000

>ms2peaks
45.031800 48.000000
48.056000 42.000000
49.146300 90.000000
52.112200 64.000000
54.102900 56.000000
59.048100 338.000000
59.069800 96.000000
61.027500 1314.000000
69.032900 8038.000000
70.002900 46.000000
71.012300 1098.000000
71.048600 1588.000000
73.028100 712.000000
75.043200 540.000000
75.161800 74.000000
77.025800 42.000000
78.078500 46.000000
79.156300 36.000000
81.033000 1272.000000
82.036900 100.000000
82.144100 82.000000
85.131500 96.000000
87.044800 146.000000
87.160700 80.000000
89.060300 72.000000
90.102600 68.000000
91.038000 146.000000
91.062800 36.000000
98.002400 104.000000
98.091900 40.000000
99.043300 1018.000000
100.052200 60.000000
100.060800 54.000000
106.013600 36.000000
107.060600 78.000000
108.066000 54.000000
109.037700 60.000000
109.986600 48.000000
115.143300 58.000000
117.052900 172.000000
119.127800 36.000000
123.103200 38.000000
126.144700 42.000000
127.023100 36.000000
127.063700 48.000000
128.059200 48.000000
132.988400 46.000000
135.149500 58.000000
136.040500 50.000000
140.008800 66.000000
140.082700 64.000000
141.049600 52.000000
144.036500 42.000000
144.056200 50.000000
145.076400 402.000000
145.167100 50.000000
145.993400 68.000000
146.013800 64.000000
146.081700 76.000000
147.053200 76.000000
147.092200 44.000000
148.038900 48.000000
149.010300 46.000000
149.976900 50.000000
151.002400 66.000000
152.130400 42.000000
153.182700 50.000000
156.024600 114.000000
156.058700 50.000000
156.168900 76.000000
157.062000 180.000000
157.087800 48.000000
157.170100 36.000000
158.057300 52.000000
158.065700 76.000000
159.092500 132.000000
159.143800 70.000000
159.173300 44.000000
160.064000 76.000000
160.120300 40.000000
161.983000 42.000000
162.126700 84.000000
162.975800 40.000000
163.143800 48.000000
165.996000 52.000000
169.012900 76.000000
170.070200 166.000000
171.003300 52.000000
171.086000 76.000000
171.148900 112.000000
171.170100 74.000000
172.086700 11492.000000
172.993000 40.000000
173.090600 772.000000
173.107600 128.000000
174.053900 58.000000
174.091900 70.000000
174.100900 162.000000
175.086900 50.000000
176.094700 54.000000
178.040800 64.000000
179.980800 64.000000
180.040700 54.000000
180.156700 42.000000
182.068700 152.000000
183.028000 66.000000
183.081100 52.000000
184.087700 146.000000
184.100500 56.000000
184.158600 36.000000
185.106500 76.000000
185.177400 62.000000
186.100900 194.000000
187.006300 84.000000
187.085700 44.000000
188.132500 66.000000
189.091700 52.000000
189.131100 58.000000
189.165500 62.000000
190.099100 530.000000
191.080500 68.000000
191.104000 62.000000
191.125200 44.000000
193.073900 36.000000
193.112600 48.000000
194.150800 36.000000
195.129300 62.000000
196.094800 84.000000
196.110900 42.000000
197.079700 88.000000
197.095300 364.000000
198.065800 4002.000000
199.039400 40.000000
199.068300 448.000000
199.094900 66.000000
199.108300 40.000000
199.126100 50.000000
200.082100 3266.000000
200.997700 54.000000
201.007300 40.000000
201.079000 74.000000
201.088800 98.000000
201.099600 92.000000
201.158700 42.000000
201.982700 42.000000
202.091300 50.000000
202.154700 62.000000
203.103500 50.000000
205.083100 44.000000
206.060100 68.000000
209.093200 84.000000
210.110100 86.000000
210.991700 58.000000
211.107200 36.000000
212.053300 44.000000
212.076500 42.000000
213.093200 36.000000
213.113800 62.000000
213.976000 104.000000
214.096400 350.000000
215.080400 94.000000
215.102500 48.000000
216.076800 6518.000000
217.009800 152.000000
217.025000 48.000000
217.079200 766.000000
218.093500 330.000000
219.089200 100.000000
219.116600 38.000000
221.088400 50.000000
223.108000 58.000000
224.119600 126.000000
225.078000 116.000000
225.104300 98.000000
226.060000 176.000000
226.081500 72.000000
226.099800 82.000000
227.061200 80.000000
228.063800 40.000000
228.092100 58.000000
228.113300 112.000000
229.088000 80.000000
229.117600 66.000000
230.129000 44.000000
235.169100 36.000000
235.999100 40.000000
238.047000 96.000000
240.119700 42.000000
241.012900 80.000000
241.116500 50.000000
242.065300 50.000000
243.087700 30556.000000
244.071600 318.000000
244.091500 3402.000000
245.062300 76.000000
245.093500 276.000000
248.152100 44.000000
249.015200 36.000000
249.991900 54.000000
251.986500 40.000000
252.113200 68.000000
254.089300 92.000000
256.096400 52.000000
257.101200 44.000000
257.116100 36.000000
258.123000 54.000000
261.106600 46.000000
263.138200 48.000000
270.050000 38.000000
270.119700 66.000000
271.119700 42.000000
274.115600 72.000000
280.099300 64.000000
285.069300 66.000000
285.098200 74.000000
286.102400 78.000000
297.099100 44.000000
300.109700 40.000000
315.104800 62.000000
316.130800 186.000000
316.161400 36.000000
318.027600 36.000000
318.133400 60.000000
323.109000 68.000000
341.127100 94.000000
342.129800 88.000000
359.019000 36.000000
359.133700 130.000000
360.136400 134.000000
377.145800 166.000000
379.043600 80.000000
380.084500 38.000000
386.985400 40.000000

