>compound RP13180041
>parentmass 377.305
>ionization [M+H]+
>formula C24H40O3
>rt 348.540000
>profile qtof
#smiles_iso C[C@H](CCC(=O)O)[C@H]1CC[C@@H]2[C@@]1(CC[C@H]3[C@H]2CC[C@H]4[C@@]3(CC[C@@H](C4)O)C)C
#smiles_can CC(CCC(=O)O)C1CCC2C1(CCC3C2CCC4C3(CCC(C4)O)C)C
#inchikey SMEROWZSTRWXGI-WFVDQZAMSA-N
#pubchem_id 164853
#mb_accession RP007201,RP007202,RP007203

>ms2
149.131400 46.000000
163.147600 62.000000
173.133000 66.000000
176.200600 68.000000
180.022300 36.000000
183.138500 40.000000
195.136900 38.000000
218.201600 50.000000
221.163600 36.000000
227.176900 46.000000
229.061000 88.000000
235.165000 50.000000
237.185800 40.000000
245.222600 56.000000
254.081700 40.000000
261.182800 50.000000
263.201400 52.000000
277.218000 60.000000
318.313300 54.000000
323.272100 176.000000
341.283700 296.000000
353.293600 50.000000
355.260200 88.000000
357.274500 50.000000
357.286300 44.000000
359.294500 862.000000
360.299200 296.000000
375.279900 64.000000
376.293900 40.000000

>ms2
79.054700 64.000000
108.053300 74.000000
161.129000 56.000000
163.147100 62.000000
181.088500 38.000000
215.178000 54.000000
219.171800 42.000000
223.168700 38.000000
228.181200 46.000000
245.223400 60.000000
246.139000 46.000000
257.188900 48.000000
263.201200 50.000000
277.217500 40.000000
289.213800 54.000000
303.232900 74.000000
323.274100 140.000000
324.276900 104.000000
339.271000 50.000000
341.286800 138.000000
343.262100 68.000000
357.279200 72.000000
359.294200 46.000000
361.275500 62.000000
373.212200 88.000000
373.283700 52.000000
375.208500 38.000000

>ms2
81.069100 162.000000
83.086100 84.000000
93.070500 152.000000
95.084700 120.000000
135.117500 36.000000
147.116100 56.000000
157.048700 62.000000
158.097900 50.000000
161.132400 68.000000
189.122100 50.000000
199.146400 36.000000
289.249300 70.000000

