>compound RP13419156
>parentmass 147.1128
>ionization [M+H]+
>formula C6H14N2O2
>rt 33.780000
>profile qtof
#smiles_iso C(CCN)C[C@@H](C(=O)O)N
#smiles_can C(CCN)CC(C(=O)O)N
#inchikey KDXKERNSBIXSRK-YFKPBYRVSA-N
#pubchem_id 5962
#mb_accession RP001101,RP001102,RP001103

>ms2peaks
56.049000 62.000000
84.080200 23884.000000
85.060500 76.000000
85.084000 1362.000000
85.999900 42.000000
92.057800 40.000000
96.052200 68.000000
101.106400 306.000000
102.090900 152.000000
103.024900 106.000000
112.075100 46.000000
117.042500 48.000000
130.085900 5988.000000
147.112200 9182.000000

>ms2peaks
67.053600 1470.000000
71.049100 164.000000
74.022800 306.000000
84.080300 74826.000000
85.064900 440.000000
102.090700 142.000000
112.075100 156.000000
130.086100 768.000000

>ms2peaks
54.033400 132.000000
67.041500 168.000000
67.053900 3034.000000
68.049000 430.000000
69.056800 1298.000000
74.023500 94.000000
84.080500 13378.000000

