>compound RP13601769
>parentmass 133.0608
>ionization [M+H]+
>formula C4H8N2O3
>rt 34.560000
>profile qtof
#smiles_iso C([C@@H](C(=O)O)N)C(=O)N
#smiles_can C(C(C(=O)O)N)C(=O)N
#inchikey DCXYFEDJOCDNAF-REOHCLBHSA-N
#pubchem_id 6267
#mb_accession RP001501,RP001502,RP001503

>ms2
60.043400 82.000000
70.028300 476.000000
70.064400 60.000000
73.039700 68.000000
74.022800 13184.000000
76.027000 42.000000
87.054600 16700.000000
88.038600 3340.000000
88.051400 174.000000
96.006300 56.000000
98.022500 192.000000
99.006500 62.000000
116.033400 806.000000
133.060000 2952.000000

>ms2
69.041400 42.000000
70.027800 2484.000000
71.012200 54.000000
74.022700 30188.000000
76.026800 88.000000
83.047600 50.000000
87.054700 1834.000000
88.002800 50.000000
88.038200 676.000000
98.024500 44.000000
99.006400 138.000000
116.033200 300.000000
133.060800 40.000000

>ms2
60.043100 82.000000
70.027700 512.000000
74.022900 1594.000000
76.027100 42.000000
87.055800 50.000000

