>compound RP15041027
>parentmass 175.1077
>ionization [M+H]+
>formula C7H14N2O3
>rt 36.120000
>profile qtof
#smiles_iso CC(=O)N[C@@H](CCCN)C(=O)O
#smiles_can CC(=O)NC(CCCN)C(=O)O
#inchikey JRLGPAXAGHMNOL-LURJTMIESA-N
#pubchem_id 439232
#mb_accession RP016001,RP016002,RP016003

>ms2
48.057300 84.000000
60.043300 882.000000
62.094100 104.000000
68.023900 126.000000
71.048300 2364.000000
74.022900 572.000000
83.107000 88.000000
86.060500 216.000000
87.990100 110.000000
88.038100 194.000000
88.075600 558.000000
97.075300 688.000000
98.059500 106.000000
98.084100 94.000000
102.103700 154.000000
107.036900 118.000000
111.092600 658.000000
112.075700 3338.000000
115.086600 76668.000000
116.070900 6342.000000
116.090000 3104.000000
117.053600 84.000000
117.074300 292.000000
130.086300 120.000000
133.097900 1132.000000
134.094500 100.000000
139.086100 2320.000000
140.021300 138.000000
140.089200 336.000000
145.107400 118.000000
151.038000 90.000000
155.022500 100.000000
156.063300 128.000000
157.096700 41714.000000
158.080900 32128.000000
159.101300 274.000000
160.082800 134.000000
175.107500 83756.000000

>ms2
45.044400 52.000000
53.023600 56.000000
54.021600 68.000000
54.033500 94.000000
55.017900 56.000000
56.083100 44.000000
60.043100 6032.000000
65.002300 96.000000
66.046300 42.000000
67.005800 84.000000
67.026600 48.000000
67.042000 44.000000
67.110200 56.000000
68.082900 62.000000
68.105300 64.000000
69.070300 86.000000
71.048200 33798.000000
72.081000 58.000000
74.022800 21382.000000
81.034300 210.000000
86.059000 1046.000000
87.090900 2390.000000
88.038600 1782.000000
88.075000 9758.000000
96.089600 42.000000
97.075600 3360.000000
98.059500 2208.000000
98.079000 162.000000
99.043800 1226.000000
99.063800 200.000000
99.124400 84.000000
100.047500 130.000000
102.067400 66.000000
107.104900 68.000000
108.032800 70.000000
111.091100 964.000000
112.075600 8026.000000
113.078500 598.000000
114.078100 70.000000
115.086600 40974.000000
116.070500 20832.000000
116.089700 2678.000000
117.054100 118.000000
117.074000 1034.000000
118.074700 132.000000
130.086900 158.000000
133.011200 48.000000
133.096800 440.000000
134.995100 78.000000
139.086600 420.000000
140.070600 168.000000
149.044700 50.000000
157.047900 56.000000
157.096700 636.000000
158.080500 13296.000000
175.107200 516.000000

>ms2
57.992800 74.000000
60.043100 852.000000
60.055500 50.000000
64.015200 104.000000
65.997000 44.000000
66.031600 38.000000
69.033600 316.000000
69.069700 36.000000
71.048100 14144.000000
73.086300 42.000000
74.022900 5530.000000
75.019500 82.000000
76.026100 74.000000
80.049700 230.000000
81.033500 272.000000
82.065600 38.000000
86.058200 62.000000
87.091900 166.000000
88.075000 796.000000
97.075700 1168.000000
98.060000 1232.000000
99.044900 198.000000
115.086400 314.000000
116.070900 278.000000

