>compound RP15720611
>parentmass 415.3207
>ionization [M+H]+
>formula C27H42O3
>rt 399.720000
>profile qtof
#smiles_iso C[C@H](CCCC(C)C(=O)O)[C@H]1CC[C@@H]2[C@@]1(CC[C@H]3[C@H]2CCC4=CC(=O)CC[C@]34C)C
#smiles_can CC(CCCC(C)C(=O)O)C1CCC2C1(CCC3C2CCC4=CC(=O)CCC34C)C
#inchikey PSXQJZDFWDKBIP-NNWQCNCGSA-N
#pubchem_id 22216313
#mb_accession RP010701,RP010702,RP010703

>ms2
97.064300 950.000000
109.064300 754.000000
369.314600 594.000000
379.295900 484.000000
397.309600 3352.000000
415.320500 395448.000000
417.327400 17684.000000

>ms2
81.069700 1920.000000
83.048800 2786.000000
95.085700 742.000000
97.064600 33520.000000
98.067900 1476.000000
105.070500 390.000000
107.084800 266.000000
109.064600 17594.000000
110.068100 1308.000000
121.101600 238.000000
123.080700 360.000000
123.116400 410.000000
149.133100 300.000000
159.116700 258.000000
161.133000 410.000000
163.148500 416.000000
171.117100 298.000000
175.147600 344.000000
177.127900 404.000000
177.163900 334.000000
187.148400 382.000000
189.125500 282.000000
189.163100 460.000000
193.158200 446.000000
199.147600 324.000000
201.164400 456.000000
203.143100 514.000000
215.143000 274.000000
215.179100 462.000000
217.158600 648.000000
219.174100 358.000000
223.167100 308.000000
227.179400 270.000000
229.159600 252.000000
231.175100 464.000000
233.188200 230.000000
241.194600 570.000000
243.176100 648.000000
253.195000 652.000000
255.210300 486.000000
256.215300 300.000000
257.188100 736.000000
267.209500 240.000000
269.189600 594.000000
271.205700 3154.000000
271.241000 372.000000
272.209700 548.000000
273.221000 394.000000
281.228100 504.000000
285.219000 300.000000
287.237100 240.000000
289.252900 1794.000000
290.256000 312.000000
295.242900 244.000000
297.222000 364.000000
299.236700 1404.000000
300.239800 520.000000
301.252300 712.000000
313.251200 240.000000
315.268100 464.000000
339.269500 272.000000
351.304700 2996.000000
352.308900 894.000000
361.287200 680.000000
369.315000 22392.000000
370.317700 5656.000000
371.321200 612.000000
379.299000 9690.000000
380.301700 2614.000000
397.310200 52548.000000
398.313500 14412.000000
399.316900 1684.000000
415.320600 229090.000000
417.326800 9334.000000

>ms2
59.048800 88.000000
65.038200 288.000000
67.053700 5052.000000
69.032800 634.000000
69.069300 7438.000000
71.048700 346.000000
73.065500 86.000000
77.038300 592.000000
79.053800 9460.000000
80.057600 492.000000
81.069400 18898.000000
82.041200 148.000000
82.052500 72.000000
82.073300 1198.000000
83.048800 7792.000000
83.085100 2104.000000
84.052500 334.000000
85.064600 502.000000
87.080000 122.000000
91.053800 1768.000000
92.057900 188.000000
93.069700 3470.000000
95.085200 9802.000000
96.088500 754.000000
97.064600 71828.000000
98.067900 4440.000000
99.043900 270.000000
101.060500 178.000000
105.070200 1710.000000
106.072800 212.000000
107.049000 360.000000
107.085700 3632.000000
108.088500 358.000000
109.064500 53944.000000
110.068100 3926.000000
110.104000 214.000000
111.080000 188.000000
111.115900 230.000000
113.058700 162.000000
117.070000 184.000000
120.068900 80.000000
120.088200 126.000000
121.064600 278.000000
121.101000 1422.000000
122.105500 312.000000
123.080100 3158.000000
123.116800 1444.000000
124.084900 94.000000
124.120400 160.000000
125.097300 242.000000
131.085100 508.000000
133.100400 692.000000
134.104800 106.000000
135.080600 176.000000
135.117800 470.000000
137.095500 86.000000
137.132600 254.000000
141.090000 82.000000
143.085400 310.000000
144.088700 80.000000
145.099800 916.000000
145.194800 112.000000
146.317100 94.000000
147.081000 92.000000
147.102700 74.000000
147.116100 1180.000000
148.119300 214.000000
149.095700 402.000000
149.131900 894.000000
153.242000 82.000000
156.088100 72.000000
157.101100 944.000000
158.108600 102.000000
159.116500 1852.000000
160.120800 256.000000
161.094900 392.000000
161.132400 1494.000000
163.111300 1120.000000
163.148000 708.000000
164.114100 118.000000
165.124900 120.000000
169.101100 364.000000
170.107300 88.000000
171.116600 904.000000
172.120200 154.000000
173.093700 88.000000
173.132000 1676.000000
175.111100 334.000000
175.147700 1300.000000
177.078900 82.000000
177.127100 1486.000000
177.162500 496.000000
178.131100 208.000000
179.083000 90.000000
179.143800 76.000000
181.100900 88.000000
183.117100 576.000000
184.121100 104.000000
185.132100 1718.000000
186.135600 266.000000
187.112900 182.000000
187.147400 1458.000000
188.152300 194.000000
189.127300 222.000000
189.163500 806.000000
190.165800 190.000000
191.142000 514.000000
191.180600 238.000000
193.159200 120.000000
193.193200 196.000000
195.116600 226.000000
195.139300 116.000000
197.132400 378.000000
197.214100 94.000000
199.148000 1286.000000
200.150800 298.000000
201.126000 286.000000
201.163100 758.000000
203.142500 632.000000
203.179000 312.000000
204.146700 166.000000
205.158900 170.000000
205.193600 192.000000
207.174100 98.000000
209.132400 140.000000
211.147700 862.000000
212.154000 224.000000
213.164100 1410.000000
214.167400 294.000000
215.102300 94.000000
215.144800 204.000000
215.179400 970.000000
216.182500 94.000000
217.158000 518.000000
219.173900 302.000000
219.211600 194.000000
221.185800 76.000000
223.168700 96.000000
225.162500 590.000000
227.139900 74.000000
227.179600 754.000000
228.183900 236.000000
229.158100 574.000000
229.193100 264.000000
230.164400 176.000000
231.174200 256.000000
232.177700 74.000000
233.191500 86.000000
237.186800 182.000000
239.179500 606.000000
240.185100 162.000000
241.195400 648.000000
243.174300 154.000000
243.212200 200.000000
245.189600 148.000000
245.225500 106.000000
247.244300 120.000000
249.179000 96.000000
251.178200 242.000000
253.194900 1664.000000
254.198700 372.000000
255.169000 78.000000
255.209900 482.000000
257.190100 518.000000
265.157600 114.000000
265.190400 94.000000
267.206700 236.000000
269.187500 160.000000
269.228800 102.000000
270.233200 76.000000
271.205400 870.000000
272.210400 338.000000
273.220600 72.000000
273.256800 266.000000
280.216900 76.000000
281.226900 364.000000
282.234300 98.000000
295.240000 360.000000
296.219400 82.000000
297.223700 220.000000
299.235300 264.000000
299.273900 74.000000
300.243400 108.000000
301.255000 78.000000
309.264000 76.000000
310.266100 76.000000
311.274900 428.000000
312.274900 96.000000
331.076600 72.000000
339.271200 86.000000
341.240300 114.000000
345.210500 82.000000
345.276300 100.000000
351.267900 104.000000
351.305000 706.000000
352.309900 252.000000
361.279000 76.000000
369.315700 682.000000
370.320100 340.000000
379.299500 530.000000
380.307300 122.000000
397.312500 782.000000
398.314100 342.000000

