>compound RP16597337
>parentmass 222.09720000000002
>ionization [M+H]+
>formula C8H15NO6
>rt 36.060000
>profile qtof
#smiles_iso CC(=O)N[C@@H](C=O)[C@@H]([C@H]([C@H](CO)O)O)O
#smiles_can CC(=O)NC(C=O)C(C(C(CO)O)O)O
#inchikey MBLBDJOUHNCFQT-XAMCCFCMSA-N
#pubchem_id 22952041
#mb_accession RP014501,RP014502,RP014503

>ms2
45.091300 40.000000
54.102800 70.000000
57.044600 84.000000
60.044300 70.000000
61.026900 82.000000
65.059300 84.000000
71.085400 66.000000
72.021300 42.000000
76.031100 36.000000
81.056900 70.000000
84.042100 422.000000
84.094100 50.000000
85.038900 90.000000
86.044000 80.000000
86.084700 64.000000
88.014700 78.000000
92.981500 48.000000
98.059700 108.000000
102.051800 60.000000
103.029100 36.000000
103.042700 40.000000
118.087400 50.000000
126.054400 1918.000000
129.098800 54.000000
132.100700 44.000000
134.019500 90.000000
137.982900 52.000000
138.055400 640.000000
139.059500 100.000000
141.061900 44.000000
142.025500 48.000000
143.055300 42.000000
144.065700 516.000000
145.996600 36.000000
150.064700 36.000000
152.041800 56.000000
155.095000 64.000000
157.012400 48.000000
160.000900 66.000000
160.122100 42.000000
168.065200 3520.000000
169.068900 240.000000
170.016000 142.000000
170.066500 60.000000
171.013000 66.000000
177.978000 38.000000
178.084100 98.000000
178.985700 36.000000
182.002600 64.000000
186.075600 7634.000000
187.068200 128.000000
187.079000 538.000000
188.079400 92.000000
191.993700 48.000000
197.027400 38.000000
204.086200 15542.000000
205.090000 1130.000000
222.097800 1112.000000

>ms2
61.026800 124.000000
66.031300 46.000000
69.031700 84.000000
73.027900 50.000000
75.042400 38.000000
81.032900 226.000000
82.028500 40.000000
82.036800 88.000000
84.043800 6074.000000
85.084700 76.000000
90.112000 36.000000
96.032400 42.000000
96.044200 314.000000
97.028700 154.000000
98.060300 224.000000
99.044700 74.000000
101.022200 54.000000
103.039400 40.000000
109.028600 196.000000
118.122400 50.000000
126.054300 1704.000000
127.057900 166.000000
138.054700 2566.000000
139.058100 384.000000
142.050800 40.000000
143.102900 44.000000
144.065500 1214.000000
144.078500 196.000000
145.072300 92.000000
156.062700 44.000000
168.065900 808.000000
169.082200 48.000000
173.055000 56.000000
186.076100 418.000000
204.086900 350.000000

>ms2
55.016500 208.000000
55.039500 48.000000
61.027400 252.000000
69.032700 756.000000
71.011300 86.000000
71.049500 84.000000
72.043800 248.000000
73.027800 144.000000
79.053600 60.000000
81.032200 934.000000
82.064800 192.000000
83.012800 382.000000
83.037000 94.000000
83.048700 194.000000
84.043800 5262.000000
86.056800 54.000000
91.055000 66.000000
96.044100 2642.000000
97.028100 330.000000
97.049100 186.000000
98.059300 372.000000
99.044900 116.000000
100.039400 126.000000
109.028600 186.000000
110.102700 54.000000
126.055000 148.000000
138.031200 54.000000
138.055200 300.000000
144.064100 192.000000

