>compound RP17579698
>parentmass 365.2169999999999
>ionization [M+H]+
>formula C17H32O8
>rt 166.800000
>profile qtof
#smiles_iso CC1[C@@H](CC([C@@H](O1)OC(C)C[C@@H](CCCC[C@H](CC(=O)O)O)O)O)O
#smiles_can CC1C(CC(C(O1)OC(C)CC(CCCCC(CC(=O)O)O)O)O)O
#inchikey KOPWGKUEIMDQOP-YSEGPLCXSA-N
#pubchem_id 137628431
#mb_accession RP009601,RP009602,RP009603

>ms2
63.174500 108.000000
129.137800 114.000000
157.121000 108.000000
159.973500 90.000000
167.049700 118.000000
172.202800 90.000000
177.075700 92.000000
181.122000 1828.000000
196.219400 98.000000
199.132400 8088.000000
200.135200 886.000000
201.139500 252.000000
207.170800 106.000000
217.143000 4596.000000
221.038400 112.000000
234.233100 90.000000
235.153700 89108.000000
237.158700 1096.000000
238.158900 92.000000
347.205900 196.000000
365.218700 516.000000

>ms2
55.053900 84.000000
61.039100 64.000000
65.132100 36.000000
66.104500 48.000000
66.140600 86.000000
69.069900 128.000000
71.049100 166.000000
74.995500 110.000000
78.235000 72.000000
81.069300 334.000000
82.073000 42.000000
83.048500 72.000000
85.064200 300.000000
92.037600 40.000000
93.069900 60.000000
94.157100 42.000000
99.991000 48.000000
100.023700 46.000000
100.182000 80.000000
101.997200 68.000000
107.070300 98.000000
109.016800 50.000000
111.045100 58.000000
112.112200 54.000000
112.145900 58.000000
113.096500 112.000000
117.102200 42.000000
119.993200 52.000000
120.245200 40.000000
121.100800 278.000000
125.107000 46.000000
126.047600 72.000000
126.062500 44.000000
127.080100 52.000000
128.061800 44.000000
128.120600 36.000000
128.992100 64.000000
129.054700 156.000000
129.078500 40.000000
133.995400 50.000000
135.075500 40.000000
138.999600 56.000000
139.111000 930.000000
139.999000 38.000000
140.115400 246.000000
141.090200 46.000000
143.069900 402.000000
143.093100 44.000000
144.193500 90.000000
145.098200 72.000000
146.072800 42.000000
148.031700 54.000000
150.199000 36.000000
151.060500 60.000000
151.997300 70.000000
152.153100 36.000000
153.127800 102.000000
153.168600 78.000000
153.190700 56.000000
154.002100 56.000000
154.022300 42.000000
155.008800 50.000000
156.962500 36.000000
157.057500 68.000000
157.085700 396.000000
157.123200 362.000000
157.170700 102.000000
158.088500 128.000000
159.210500 38.000000
159.963400 62.000000
159.983900 44.000000
161.014700 70.000000
162.025300 64.000000
163.111000 970.000000
164.234900 60.000000
165.090000 128.000000
166.094100 68.000000
167.999900 46.000000
173.116800 160.000000
173.200100 38.000000
173.981900 40.000000
175.170700 76.000000
175.213000 54.000000
178.036800 46.000000
178.079200 38.000000
181.121600 17302.000000
182.089100 78.000000
182.125900 1156.000000
183.111100 56.000000
183.127100 92.000000
183.230800 50.000000
185.066100 44.000000
187.032100 56.000000
189.073100 48.000000
189.095400 56.000000
190.123500 50.000000
190.163100 66.000000
192.013700 48.000000
192.045200 82.000000
195.997000 50.000000
197.009000 48.000000
198.162400 46.000000
199.132400 31972.000000
200.135900 3732.000000
201.136600 244.000000
202.134200 62.000000
204.973200 50.000000
205.131300 60.000000
212.059200 40.000000
214.090500 50.000000
215.967600 42.000000
217.143000 5812.000000
218.080800 42.000000
218.129800 46.000000
219.142900 86.000000
222.228700 44.000000
231.203400 42.000000
233.076900 64.000000
235.153300 13974.000000
237.157800 322.000000
237.169600 54.000000
252.180200 38.000000
286.177100 42.000000
311.180400 36.000000
311.193200 64.000000
369.166100 36.000000

>ms2
55.017400 152.000000
57.091000 38.000000
61.028600 164.000000
67.053900 1120.000000
68.058000 40.000000
69.032800 474.000000
71.048800 2408.000000
73.065300 164.000000
78.046000 48.000000
79.053700 3198.000000
81.069600 3130.000000
83.048600 1354.000000
84.052200 44.000000
85.064800 1252.000000
85.076600 64.000000
87.007500 36.000000
88.124700 48.000000
91.053900 308.000000
93.069600 2716.000000
95.085600 1630.000000
96.053900 146.000000
97.029000 52.000000
97.065200 726.000000
97.101300 276.000000
99.079500 192.000000
100.024100 40.000000
101.059100 42.000000
105.044400 72.000000
105.069900 114.000000
109.065500 78.000000
111.044700 214.000000
111.116300 144.000000
113.056300 46.000000
113.097100 220.000000
114.005100 62.000000
115.075900 38.000000
121.100500 2100.000000
122.104100 284.000000
125.060200 116.000000
125.979700 44.000000
135.116000 400.000000
137.095200 84.000000
139.074600 306.000000
139.111700 2296.000000
140.114700 184.000000
143.069000 130.000000
145.101200 314.000000
147.049900 64.000000
153.127500 108.000000
157.121700 502.000000
163.111800 1002.000000
173.117700 62.000000
174.009800 62.000000
180.156800 70.000000
181.122400 2476.000000
182.090300 50.000000
199.132100 2910.000000
200.136300 196.000000
201.075100 50.000000
217.144100 452.000000
235.154900 1118.000000

