>compound RP18396806
>parentmass 149.0597
>ionization [M+H]+
>formula C9H8O2
>rt 237.000000
>profile qtof
#smiles_iso C1=CC=C(C=C1)/C=C/C(=O)O
#smiles_can C1=CC=C(C=C1)C=CC(=O)O
#inchikey WBYWAXJHAXSJNI-VOTSOKGWSA-N
#pubchem_id 444539
#mb_accession RP018301,RP018302,RP018303

>ms2peaks
77.038300 1000.000000
103.054000 20568.000000
104.057300 1666.000000
105.070000 158.000000
107.049100 426.000000
131.049200 136544.000000
132.052300 12340.000000
149.059100 16376.000000

>ms2peaks
79.053500 10846.000000
95.048600 5844.000000
102.045900 854.000000
103.053800 336398.000000
104.057200 24982.000000
105.044000 2044.000000
107.048600 1274.000000
131.049000 49288.000000
132.052700 4256.000000

>ms2peaks
46.052700 108.000000
65.002200 118.000000
65.038100 314.000000
73.007400 112.000000
74.014500 300.000000
76.030100 384.000000
79.053400 8256.000000
80.025000 104.000000
81.032700 1432.000000
91.054300 82.000000
95.048600 76772.000000
102.046000 6596.000000
103.053800 62482.000000
104.057400 4978.000000
105.044500 28998.000000
118.064000 230.000000
121.065200 122.000000
129.043600 258.000000
131.048900 320.000000

