>compound RP18589010
>parentmass 398.3993
>ionization [M+H]+
>formula C25H51NO2
>rt 525.060000
>profile qtof
#smiles_iso CCCCCCCCCCCCCCCCCCCCCCC(=O)NCCO
#smiles_can CCCCCCCCCCCCCCCCCCCCCCC(=O)NCCO
#inchikey WFRQXTUCHBFZII-UHFFFAOYSA-N
#pubchem_id 14455160
#mb_accession RP003801,RP003802,RP003803

>ms2
62.060200 116.000000
149.105000 42.000000
167.061800 72.000000
173.048100 60.000000
201.257500 46.000000
213.034800 38.000000
236.293500 40.000000
251.108500 40.000000
253.049200 38.000000
260.187000 66.000000
272.226100 38.000000
279.164000 36.000000
284.363000 50.000000
285.184500 40.000000
290.127500 36.000000
297.116300 36.000000
306.406800 36.000000
316.084600 52.000000
327.987500 38.000000
353.179200 54.000000
358.049200 36.000000
376.198300 36.000000
379.334400 42.000000
381.371300 50.000000
396.324900 70.000000
397.238800 38.000000
397.260400 50.000000
398.399200 11016.000000
400.310900 168.000000
400.378900 38.000000
401.276800 86.000000
401.307400 52.000000

>ms2
89.059900 82.000000
151.147500 42.000000
185.069500 36.000000
208.082200 38.000000
211.148700 38.000000
225.195300 36.000000
250.095400 46.000000
251.103500 42.000000
261.316000 60.000000
278.223500 52.000000
283.333700 40.000000
305.187800 54.000000
309.121400 44.000000
321.351000 82.000000
330.279200 38.000000
331.165200 54.000000
331.215500 56.000000
345.350800 40.000000
355.287800 40.000000
366.293000 78.000000
374.083200 62.000000
380.383600 82.000000
381.371400 358.000000
382.380400 66.000000
383.376900 96.000000
388.342500 42.000000
389.080500 50.000000
393.388700 46.000000
397.275600 76.000000
397.330400 74.000000
398.398800 3192.000000
400.310000 284.000000

>ms2
62.059500 1282.000000
67.026300 50.000000
67.054500 48.000000
81.070500 184.000000
89.057500 98.000000
95.047400 64.000000
133.084300 58.000000
269.192300 40.000000
270.196600 44.000000
302.176100 70.000000
302.214200 40.000000
308.389300 44.000000
309.219300 72.000000
363.278200 36.000000
380.391100 66.000000
381.391200 40.000000

