>compound RP21038080
>parentmass 175.0965
>ionization [M+H]+
>formula C8H14O4
>rt 185.220000
>profile qtof
#smiles_iso C(CCCC(=O)O)CCC(=O)O
#smiles_can C(CCCC(=O)O)CCC(=O)O
#inchikey TYFQFVWCELRYAO-UHFFFAOYSA-N
#pubchem_id 10457
#mb_accession RP015301,RP015302,RP015303

>ms2peaks
48.991800 38.000000
55.018000 56.000000
61.002800 78.000000
62.060000 38.000000
63.031400 56.000000
64.005100 58.000000
69.018100 66.000000
72.020400 44.000000
73.076700 74.000000
79.053700 62.000000
80.021200 50.000000
83.085000 6710.000000
84.080600 70.000000
87.055500 120.000000
87.081300 100.000000
93.069300 36.000000
95.045700 84.000000
95.084700 64.000000
97.064000 136.000000
101.059500 36.000000
105.042700 120.000000
111.079900 2668.000000
112.052900 44.000000
112.084100 140.000000
113.056300 52.000000
119.992000 50.000000
120.078800 58.000000
121.027800 60.000000
126.042200 60.000000
127.005100 42.000000
129.102700 60.000000
136.075700 98.000000
139.075000 256.000000
146.022600 70.000000
155.118100 68.000000
157.085000 15104.000000
158.088700 1070.000000
170.069100 44.000000
172.997000 90.000000
175.095400 17210.000000
177.098900 222.000000

>ms2peaks
67.053700 970.000000
68.058000 38.000000
79.054100 250.000000
83.084900 30844.000000
87.080300 790.000000
89.080500 46.000000
95.049200 96.000000
95.085100 154.000000
97.065000 98.000000
107.048300 50.000000
111.079700 1362.000000
121.064500 52.000000
129.090300 78.000000
139.076500 76.000000
157.085900 168.000000
175.096500 406.000000

>ms2peaks
53.038100 106.000000
65.038300 74.000000
67.053700 244.000000
69.069500 2654.000000
73.028000 72.000000
77.037900 122.000000
79.053500 78.000000
83.085800 426.000000
87.055600 82.000000
87.080300 144.000000
88.075100 124.000000
91.054300 164.000000

