>compound RP22884876
>parentmass 156.0768
>ionization [M+H]+
>formula C6H9N3O2
>rt 32.940000
>profile qtof
#smiles_iso C1=C(NC=N1)C[C@@H](C(=O)O)N
#smiles_can C1=C(NC=N1)CC(C(=O)O)N
#inchikey HNDVDQJCIGZPNO-YFKPBYRVSA-N
#pubchem_id 6274
#mb_accession RP002001,RP002002,RP002003

>ms2peaks
82.052800 290.000000
83.060200 1666.000000
93.044600 578.000000
95.060200 3736.000000
101.048000 88.000000
110.071100 51370.000000
111.074400 2030.000000
112.087200 240.000000
138.065700 80.000000
156.076500 76560.000000
158.081200 426.000000

>ms2peaks
67.041100 100.000000
68.049000 2148.000000
69.044500 138.000000
74.022600 220.000000
81.044300 2568.000000
82.052100 8064.000000
83.059900 30922.000000
84.043500 84.000000
93.044500 13302.000000
94.040200 192.000000
94.048100 770.000000
95.060200 11982.000000
96.063500 700.000000
110.071100 78886.000000
111.055100 718.000000
156.076300 2282.000000

>ms2peaks
55.041300 624.000000
68.048900 5252.000000
69.044100 1778.000000
74.023100 214.000000
78.033100 50.000000
81.044300 21616.000000
82.052000 25400.000000
83.059900 45876.000000
84.042900 96.000000
93.044400 14672.000000
94.047700 662.000000
95.059700 1512.000000
96.042600 52.000000
97.039800 98.000000
99.055000 46.000000
110.071300 1984.000000
111.053000 112.000000
111.074700 192.000000

