>compound RP22266504
>parentmass 500.3039999999999
>ionization [M+H]+
>formula C26H45NO6S
>rt 264.060000
>profile qtof
#smiles_iso C[C@H](CCC(=O)NCCS(=O)(=O)O)[C@H]1CC[C@@H]2[C@@]1([C@H](C[C@H]3[C@H]2CC[C@H]4[C@@]3(CC[C@H](C4)O)C)O)C
#smiles_can CC(CCC(=O)NCCS(=O)(=O)O)C1CCC2C1(C(CC3C2CCC4C3(CCC(C4)O)C)O)C
#inchikey AWDRATDZQPNJFN-VAYUFCLWSA-N
#pubchem_id 2733768
#mb_accession RP006001,RP006002,RP006003

>ms2peaks
328.059100 164.000000
329.141500 162.000000
416.191000 150.000000
420.152100 178.000000
464.282800 45594.000000
465.287000 9118.000000
466.284200 1588.000000
467.286400 326.000000
482.293900 45634.000000
483.297000 12814.000000
484.295900 2448.000000
485.291900 340.000000
499.215800 182.000000
499.273900 282.000000
500.304100 143702.000000
502.307600 10732.000000
503.302800 1216.000000
504.306500 216.000000

>ms2peaks
126.022300 310.000000
161.132700 300.000000
208.063400 238.000000
215.180300 294.000000
229.196700 196.000000
297.222600 232.000000
302.139500 412.000000
321.257000 518.000000
328.157700 494.000000
330.178700 204.000000
339.268200 4420.000000
340.272100 816.000000
342.177700 214.000000
354.174800 626.000000
356.189000 216.000000
368.189000 388.000000
382.204900 514.000000
463.323500 202.000000
463.338600 278.000000
464.283000 182060.000000
465.286900 63042.000000
466.286300 12480.000000
467.285900 1408.000000
482.294000 18286.000000
483.297000 5514.000000
484.298500 1234.000000
500.303600 4008.000000
502.305600 396.000000

>ms2peaks
45.008600 40.000000
46.029000 92.000000
53.013600 38.000000
55.041100 38.000000
58.077800 40.000000
59.330500 42.000000
60.191200 74.000000
62.035900 40.000000
62.284600 48.000000
66.049300 42.000000
67.053600 986.000000
67.263200 54.000000
68.107100 80.000000
68.159000 66.000000
69.163400 80.000000
69.278300 48.000000
70.138000 50.000000
70.159500 44.000000
72.007800 68.000000
73.162300 48.000000
75.089700 40.000000
75.978700 140.000000
77.320000 112.000000
78.021000 58.000000
78.033300 46.000000
79.054300 562.000000
79.147700 36.000000
80.013400 40.000000
81.069700 2742.000000
82.073000 112.000000
82.252200 50.000000
83.048800 198.000000
83.085100 1034.000000
84.035400 40.000000
85.064500 630.000000
85.279100 78.000000
87.065800 56.000000
88.038800 56.000000
88.297400 50.000000
89.060300 50.000000
89.964100 40.000000
90.010100 44.000000
90.088700 68.000000
91.037400 58.000000
91.053900 344.000000
91.062800 148.000000
91.123400 76.000000
93.069700 964.000000
94.076900 82.000000
94.217100 56.000000
94.967500 86.000000
95.085300 1440.000000
95.143600 98.000000
96.052400 52.000000
96.055300 54.000000
96.159800 38.000000
96.187800 38.000000
96.337700 44.000000
97.064500 256.000000
97.198000 46.000000
98.044200 56.000000
98.260600 54.000000
99.081100 122.000000
99.105900 44.000000
99.296200 46.000000
101.071600 38.000000
101.111100 54.000000
101.119400 70.000000
101.135600 46.000000
102.131800 40.000000
103.160300 42.000000
103.229100 38.000000
104.049100 58.000000
104.176400 38.000000
104.309900 42.000000
105.070400 398.000000
105.163500 54.000000
105.208000 76.000000
105.338000 44.000000
105.990100 46.000000
106.013700 68.000000
106.073800 116.000000
107.085200 1494.000000
107.984800 58.000000
108.010900 252.000000
108.046900 58.000000
108.088500 172.000000
109.100700 1082.000000
109.995900 42.000000
110.102400 238.000000
110.987500 76.000000
111.042200 38.000000
111.079400 112.000000
112.006300 58.000000
112.229700 52.000000
112.953100 66.000000
113.013200 42.000000
113.042700 98.000000
113.062000 44.000000
113.106800 40.000000
113.961100 36.000000
114.114200 60.000000
114.146300 40.000000
115.100000 54.000000
115.194100 66.000000
115.206200 48.000000
115.263000 52.000000
115.286200 64.000000
115.345100 56.000000
115.984900 62.000000
117.009700 60.000000
117.036900 80.000000
117.070300 134.000000
117.113900 48.000000
117.263500 44.000000
117.996200 40.000000
118.172500 40.000000
118.269400 72.000000
118.285800 44.000000
119.085200 508.000000
119.109300 36.000000
120.071500 46.000000
120.135200 60.000000
120.292300 50.000000
120.329800 80.000000
121.100400 486.000000
121.156300 52.000000
121.309100 76.000000
122.103000 176.000000
122.208800 52.000000
122.226900 36.000000
123.079300 146.000000
123.089600 50.000000
123.105300 44.000000
123.116500 216.000000
123.136300 66.000000
123.215200 54.000000
124.073800 36.000000
124.230800 48.000000
125.085900 50.000000
125.095100 324.000000
126.022000 3376.000000
126.969100 64.000000
127.024800 190.000000
127.266000 50.000000
128.018500 228.000000
128.042500 110.000000
129.075900 74.000000
129.987900 48.000000
130.007300 104.000000
130.330600 52.000000
130.995700 42.000000
131.010600 36.000000
131.038300 40.000000
131.087900 74.000000
131.274600 60.000000
132.018500 36.000000
132.035700 58.000000
132.080800 38.000000
132.156900 42.000000
132.311500 40.000000
132.322100 44.000000
132.959800 36.000000
133.009600 40.000000
133.027400 42.000000
133.067400 44.000000
133.101000 506.000000
133.171600 54.000000
133.188900 78.000000
133.237600 42.000000
133.293900 74.000000
133.332400 58.000000
134.036700 44.000000
134.265400 56.000000
135.081400 88.000000
135.116500 286.000000
135.212700 44.000000
135.309100 50.000000
135.326500 56.000000
136.086100 72.000000
136.123900 40.000000
136.184300 100.000000
136.202800 50.000000
136.312300 60.000000
137.094100 66.000000
138.069300 48.000000
138.335900 58.000000
140.120600 60.000000
140.972100 94.000000
141.114600 66.000000
141.198000 50.000000
142.119000 48.000000
142.221300 44.000000
142.295700 66.000000
143.085000 166.000000
143.157100 60.000000
143.242300 54.000000
143.975600 64.000000
144.094500 104.000000
145.101400 470.000000
145.129900 50.000000
145.242000 52.000000
145.345300 166.000000
146.039000 116.000000
146.096800 40.000000
146.108600 42.000000
146.975800 62.000000
147.077500 56.000000
147.116800 888.000000
148.032200 40.000000
148.120200 188.000000
148.171200 84.000000
148.357700 48.000000
149.037400 46.000000
149.096900 290.000000
149.132500 854.000000
149.290600 48.000000
149.963400 50.000000
149.997700 140.000000
150.009100 42.000000
150.100300 50.000000
150.109200 56.000000
150.133500 244.000000
150.330100 48.000000
151.022000 40.000000
151.113800 162.000000
151.180200 54.000000
151.204600 62.000000
151.253500 36.000000
152.061800 38.000000
152.114800 64.000000
152.127200 90.000000
152.220100 42.000000
152.249900 36.000000
152.950100 38.000000
153.090800 54.000000
153.113600 48.000000
153.122800 72.000000
153.247800 42.000000
154.075900 46.000000
154.109500 46.000000
154.136400 58.000000
154.258200 60.000000
155.085200 280.000000
155.282700 38.000000
156.238300 40.000000
156.292300 36.000000
156.302100 44.000000
157.102100 350.000000
157.142800 50.000000
157.281800 52.000000
158.060200 102.000000
158.112700 86.000000
158.200700 42.000000
158.210200 52.000000
158.300400 56.000000
159.116500 1204.000000
160.071900 70.000000
160.120300 122.000000
160.147700 64.000000
161.096900 140.000000
161.132200 1958.000000
162.091700 54.000000
162.106600 38.000000
162.134800 182.000000
162.168400 86.000000
162.188200 42.000000
162.292200 48.000000
162.972700 40.000000
162.986200 48.000000
163.112200 440.000000
163.148100 628.000000
163.292700 36.000000
163.336600 40.000000
163.993600 50.000000
164.115100 78.000000
164.964500 98.000000
165.042900 50.000000
165.063800 56.000000
165.127600 40.000000
165.161900 48.000000
165.213100 38.000000
166.001300 60.000000
166.171000 66.000000
166.347300 38.000000
166.358700 42.000000
166.992500 50.000000
167.173500 50.000000
167.241100 46.000000
168.025900 42.000000
168.055900 44.000000
168.133600 94.000000
168.176200 38.000000
169.054600 60.000000
169.101700 200.000000
170.121700 54.000000
170.131100 60.000000
170.150700 122.000000
170.213400 50.000000
170.268000 38.000000
170.993700 80.000000
171.116100 350.000000
171.178700 36.000000
171.241600 52.000000
172.137700 36.000000
172.182100 54.000000
172.994100 40.000000
173.095700 122.000000
173.133100 786.000000
173.961300 50.000000
174.114500 62.000000
174.133900 106.000000
175.110300 478.000000
175.148300 996.000000
176.115400 52.000000
176.149000 102.000000
176.157600 82.000000
176.183900 36.000000
176.257300 82.000000
177.057500 76.000000
177.107300 48.000000
177.127400 694.000000
177.148700 64.000000
177.162500 222.000000
177.339500 56.000000
177.350800 42.000000
177.980100 44.000000
178.059000 38.000000
178.130800 128.000000
178.170500 136.000000
178.313600 40.000000
179.063400 40.000000
179.106600 50.000000
179.139000 50.000000
179.293500 84.000000
180.032300 200.000000
180.216000 48.000000
180.338300 56.000000
181.098800 78.000000
181.214600 82.000000
181.298300 102.000000
182.078000 64.000000
182.186700 96.000000
182.251500 54.000000
183.017300 40.000000
183.114700 108.000000
183.970700 42.000000
183.992100 42.000000
184.055300 40.000000
184.063300 46.000000
184.083300 44.000000
184.121600 68.000000
184.177000 44.000000
184.250500 44.000000
185.001900 52.000000
185.052100 46.000000
185.132200 488.000000
186.031800 38.000000
186.136000 96.000000
186.183300 60.000000
187.110100 84.000000
187.148600 1242.000000
187.217300 66.000000
187.249300 68.000000
187.971600 62.000000
188.079500 36.000000
188.150400 148.000000
189.048900 54.000000
189.127500 690.000000
189.164600 972.000000
189.973100 56.000000
189.991900 50.000000
190.012400 56.000000
190.087300 78.000000
190.130600 90.000000
190.170700 256.000000
190.223600 48.000000
191.028100 48.000000
191.109400 54.000000
191.141400 536.000000
191.183600 88.000000
191.966100 64.000000
192.019500 68.000000
192.058700 64.000000
192.151100 114.000000
192.211500 44.000000
192.264200 48.000000
192.339500 56.000000
192.984500 52.000000
193.047500 56.000000
193.154200 54.000000
193.200800 40.000000
193.258700 38.000000
194.048100 144.000000
194.233800 66.000000
194.303300 64.000000
195.008900 44.000000
195.163400 46.000000
195.292600 74.000000
195.981900 38.000000
196.125800 220.000000
196.216400 36.000000
196.969100 96.000000
197.133000 338.000000
197.153800 84.000000
197.213600 44.000000
198.011700 38.000000
198.025500 38.000000
198.036500 38.000000
198.066900 70.000000
198.137700 76.000000
198.201700 74.000000
199.022900 40.000000
199.077800 58.000000
199.148100 528.000000
199.219700 40.000000
199.967900 40.000000
200.066200 44.000000
200.081900 42.000000
200.137000 52.000000
200.150400 224.000000
200.261400 48.000000
201.163600 1992.000000
202.039800 62.000000
202.067100 46.000000
202.167300 390.000000
202.273800 38.000000
203.099400 86.000000
203.143600 1530.000000
203.181000 804.000000
203.997400 56.000000
204.111000 50.000000
204.126100 46.000000
204.145700 206.000000
204.185400 252.000000
205.037000 36.000000
205.158200 344.000000
205.180800 52.000000
205.193500 68.000000
205.251700 52.000000
206.013300 62.000000
206.047700 136.000000
206.227600 42.000000
206.987100 44.000000
207.011400 78.000000
207.081700 60.000000
207.256500 38.000000
208.063400 3838.000000
208.978400 38.000000
209.068800 302.000000
209.133300 138.000000
209.188100 66.000000
209.304800 42.000000
210.044800 66.000000
210.060000 200.000000
210.101200 36.000000
210.141200 70.000000
210.189900 68.000000
211.147900 3096.000000
212.069800 58.000000
212.096800 80.000000
212.151200 342.000000
213.026200 54.000000
213.163200 1020.000000
213.283700 112.000000
213.983100 38.000000
214.165600 312.000000
215.142800 316.000000
215.179100 6152.000000
216.145800 68.000000
216.182200 824.000000
216.985200 58.000000
217.051700 94.000000
217.110400 78.000000
217.135900 74.000000
217.158900 990.000000
217.195500 626.000000
217.209000 118.000000
217.998000 58.000000
218.066700 44.000000
218.080600 68.000000
218.120800 52.000000
218.161000 144.000000
218.185400 58.000000
218.199400 120.000000
218.229000 38.000000
218.957700 40.000000
219.038700 52.000000
219.135100 40.000000
219.159100 46.000000
219.176500 80.000000
219.281300 40.000000
220.064200 48.000000
220.162100 38.000000
220.179400 88.000000
221.978500 46.000000
222.080900 588.000000
222.290300 50.000000
223.085800 108.000000
223.138200 50.000000
223.149800 42.000000
224.079700 112.000000
224.334600 36.000000
225.164000 1624.000000
226.145900 88.000000
226.166900 292.000000
226.991900 46.000000
227.107600 68.000000
227.140200 66.000000
227.179600 872.000000
227.294200 48.000000
228.182400 166.000000
229.158500 3464.000000
229.194500 2578.000000
229.995300 62.000000
230.160900 436.000000
230.199000 406.000000
230.259300 38.000000
230.328600 64.000000
231.174200 1138.000000
231.956700 82.000000
232.009100 40.000000
232.024600 38.000000
232.056500 66.000000
232.176800 166.000000
232.192100 42.000000
233.180800 74.000000
233.192200 92.000000
233.982100 56.000000
234.078500 630.000000
234.192100 36.000000
235.083500 58.000000
236.005800 52.000000
236.074400 72.000000
236.094000 172.000000
236.162200 66.000000
237.094600 60.000000
237.166300 78.000000
237.350400 46.000000
238.211800 36.000000
239.180100 1198.000000
239.933900 42.000000
240.182700 170.000000
240.328200 56.000000
240.976300 44.000000
241.195700 468.000000
242.201700 188.000000
243.174300 1490.000000
243.210900 1652.000000
244.179100 274.000000
244.214200 368.000000
245.100200 40.000000
245.191400 490.000000
246.079500 126.000000
246.194000 116.000000
247.078900 46.000000
247.174800 42.000000
247.217100 46.000000
247.342200 38.000000
248.011200 44.000000
248.031700 44.000000
248.094900 396.000000
248.114000 100.000000
248.145700 56.000000
248.230800 50.000000
248.310000 40.000000
248.331400 38.000000
249.099700 104.000000
250.112900 268.000000
250.132400 42.000000
250.146200 42.000000
250.240800 38.000000
251.181800 188.000000
252.194800 82.000000
253.079900 62.000000
253.195700 162.000000
254.090400 74.000000
254.197300 36.000000
254.217200 38.000000
255.172300 76.000000
255.195700 50.000000
255.215800 60.000000
256.038100 50.000000
256.219700 38.000000
257.189700 1710.000000
257.213300 88.000000
257.226400 200.000000
258.033100 44.000000
258.193700 344.000000
259.030800 122.000000
259.067800 56.000000
259.191600 108.000000
259.203000 58.000000
260.096300 404.000000
260.206400 40.000000
261.092600 100.000000
261.106500 92.000000
261.127900 36.000000
261.144700 40.000000
261.182200 42.000000
261.203700 76.000000
261.283500 58.000000
261.986000 50.000000
262.110600 796.000000
263.060400 64.000000
263.115100 58.000000
263.158900 38.000000
263.236200 62.000000
264.145400 72.000000
265.080700 56.000000
265.138000 50.000000
265.166700 56.000000
265.194900 450.000000
265.980700 36.000000
266.197200 106.000000
266.278400 44.000000
266.999400 50.000000
267.116200 44.000000
267.207500 96.000000
267.228800 42.000000
268.961500 54.000000
269.189400 76.000000
269.226600 134.000000
271.208700 110.000000
271.267000 36.000000
273.112400 64.000000
273.218900 38.000000
274.109900 806.000000
274.230000 78.000000
274.320400 72.000000
275.113500 68.000000
275.296800 50.000000
276.089900 102.000000
276.127500 192.000000
277.130400 38.000000
277.343100 40.000000
278.083000 90.000000
278.137700 68.000000
279.082500 76.000000
279.174900 92.000000
279.212700 500.000000
280.029500 44.000000
280.213100 74.000000
281.227000 106.000000
281.273800 36.000000
282.047700 58.000000
282.231500 48.000000
283.019200 36.000000
283.076600 46.000000
283.106900 36.000000
283.131900 38.000000
283.203700 372.000000
283.242600 98.000000
283.939700 42.000000
284.048000 44.000000
284.212000 46.000000
285.210200 50.000000
285.258600 184.000000
286.109000 56.000000
286.122600 40.000000
287.222400 62.000000
287.272100 38.000000
288.125600 488.000000
288.190000 40.000000
288.992900 36.000000
289.127100 114.000000
290.060500 38.000000
290.126500 94.000000
290.142400 304.000000
290.231400 40.000000
291.998800 36.000000
292.973500 44.000000
292.990100 52.000000
293.228000 108.000000
294.222700 50.000000
294.330100 40.000000
295.240900 324.000000
295.971900 40.000000
296.244500 100.000000
296.312100 84.000000
297.129000 68.000000
297.222300 1236.000000
297.257200 1018.000000
297.988700 42.000000
298.108100 44.000000
298.209700 40.000000
298.224700 192.000000
298.258800 142.000000
299.267100 72.000000
299.974000 46.000000
300.125200 404.000000
301.095300 64.000000
301.126200 94.000000
301.970000 68.000000
302.142600 1310.000000
303.145200 174.000000
304.155800 136.000000
304.299500 72.000000
305.061400 42.000000
306.126800 38.000000
307.030600 82.000000
307.273900 38.000000
307.288600 64.000000
309.036300 48.000000
310.147600 56.000000
311.183400 60.000000
311.228200 48.000000
311.238800 64.000000
311.274800 416.000000
311.992000 76.000000
312.100600 80.000000
312.116700 142.000000
312.163100 36.000000
312.240100 54.000000
312.280500 70.000000
313.290300 64.000000
313.349200 72.000000
313.937800 70.000000
313.982700 58.000000
314.097000 52.000000
314.143400 516.000000
314.285900 44.000000
315.336100 36.000000
316.159500 480.000000
316.330000 50.000000
317.158300 164.000000
318.005800 52.000000
318.163700 56.000000
319.184900 58.000000
319.252100 62.000000
320.017900 46.000000
321.258200 7618.000000
322.261900 1438.000000
322.990700 64.000000
323.195000 84.000000
323.269200 184.000000
324.161400 92.000000
324.224100 38.000000
325.252300 36.000000
325.299400 74.000000
325.999400 110.000000
326.097200 48.000000
327.158200 38.000000
327.968000 82.000000
328.158900 870.000000
328.311800 52.000000
328.949800 40.000000
329.161700 46.000000
329.224200 40.000000
330.154900 68.000000
330.174500 470.000000
331.083300 78.000000
332.153000 58.000000
338.184100 72.000000
339.268500 10994.000000
340.272800 2794.000000
341.133400 50.000000
341.160100 38.000000
341.273700 308.000000
341.995200 88.000000
342.173600 854.000000
342.275900 44.000000
343.104900 42.000000
343.125600 52.000000
343.177600 194.000000
343.318900 36.000000
344.052800 38.000000
344.164100 56.000000
344.188700 126.000000
344.293300 42.000000
344.330100 72.000000
345.195600 36.000000
346.200300 40.000000
348.004700 40.000000
348.304200 74.000000
349.070800 38.000000
351.119500 46.000000
351.959900 40.000000
353.166200 40.000000
354.173800 1410.000000
355.177000 288.000000
356.188500 962.000000
357.194400 198.000000
357.268700 54.000000
357.278300 52.000000
357.345800 36.000000
358.185800 48.000000
358.205300 118.000000
359.212500 60.000000
359.337500 38.000000
360.141400 52.000000
361.071100 70.000000
361.208400 76.000000
363.145000 68.000000
365.193300 54.000000
367.051900 48.000000
368.190200 664.000000
368.262100 66.000000
369.001300 50.000000
369.039100 54.000000
369.192300 136.000000
370.204400 450.000000
371.182200 40.000000
371.198400 82.000000
371.244000 36.000000
372.209800 36.000000
374.137900 68.000000
375.206000 78.000000
382.179800 44.000000
382.205200 864.000000
382.297300 66.000000
383.203700 172.000000
383.256300 40.000000
384.203700 80.000000
384.224000 106.000000
384.267600 42.000000
386.205500 38.000000
386.224300 50.000000
386.947400 60.000000
393.973000 40.000000
394.204400 100.000000
396.226300 38.000000
399.258900 50.000000
399.947600 40.000000
408.216000 52.000000
408.350500 40.000000
412.286700 38.000000
417.996800 38.000000
422.237100 62.000000
427.254900 72.000000
430.283900 76.000000
432.230500 44.000000
434.168700 38.000000
437.253500 58.000000
439.103300 54.000000
446.272500 168.000000
447.277100 116.000000
451.175000 44.000000
453.221400 66.000000
455.974500 48.000000
456.127600 68.000000
456.336400 44.000000
459.152600 98.000000
460.117300 38.000000
460.211600 62.000000
462.254100 46.000000
463.223100 88.000000
463.252800 44.000000
464.283500 8112.000000
464.312200 514.000000
465.286100 2536.000000
466.015800 42.000000
466.121900 54.000000
466.196100 36.000000
466.285800 506.000000
467.285600 104.000000
467.974600 46.000000
468.255700 50.000000
468.287600 46.000000
469.002100 36.000000
471.113700 40.000000
472.295200 204.000000
478.251200 40.000000

