>compound RP22812647
>parentmass 326.3054
>ionization [M+H]+
>formula C20H39NO2
>rt 410.700000
>profile qtof
#smiles_iso CCCCCCCC/C=C\CCCCCCCC(=O)NCCO
#smiles_can CCCCCCCCC=CCCCCCCCC(=O)NCCO
#inchikey BOWVQLFMWHZBEF-KTKRTIGZSA-N
#pubchem_id 5283454
#mb_accession RP003101,RP003102,RP003103

>ms2peaks
130.192300 104.000000
229.071600 122.000000
252.102600 108.000000
273.239700 104.000000
308.290300 182.000000
309.278600 886.000000
326.304600 102036.000000
328.311700 1780.000000

>ms2peaks
55.299400 48.000000
57.070200 142.000000
60.044300 64.000000
61.003100 36.000000
62.059500 34866.000000
69.069400 304.000000
71.084900 78.000000
83.085700 358.000000
95.086100 474.000000
97.061500 58.000000
97.101200 304.000000
109.064200 80.000000
109.100800 56.000000
121.097900 84.000000
135.115800 80.000000
141.163800 38.000000
142.159400 66.000000
144.089100 38.000000
149.132600 76.000000
153.126600 42.000000
154.079100 44.000000
161.080800 62.000000
163.098400 52.000000
163.149500 36.000000
164.155900 48.000000
164.199300 38.000000
165.163500 176.000000
177.232600 48.000000
191.179100 58.000000
196.100800 52.000000
207.031000 50.000000
211.004600 40.000000
224.051600 46.000000
234.115700 70.000000
242.245500 76.000000
243.074500 78.000000
247.218400 56.000000
247.242100 348.000000
248.247200 92.000000
253.156900 56.000000
256.111600 50.000000
257.993700 58.000000
259.001100 76.000000
261.019200 40.000000
265.251400 382.000000
266.209100 44.000000
266.256900 172.000000
267.030800 46.000000
270.115900 76.000000
271.094400 66.000000
272.144700 42.000000
275.067000 40.000000
307.071200 44.000000
307.143400 62.000000
308.293700 1138.000000
309.278000 3218.000000
310.128500 44.000000
310.179000 36.000000
310.253100 36.000000
310.282700 704.000000
311.279200 180.000000
326.305000 7484.000000
328.308900 140.000000

>ms2peaks
51.022500 52.000000
62.059600 7852.000000
64.015400 36.000000
67.053600 1892.000000
69.069500 2836.000000
70.028600 80.000000
71.048100 94.000000
79.053800 272.000000
81.069100 758.000000
82.253600 44.000000
83.049200 46.000000
83.085300 736.000000
85.064200 54.000000
85.100900 50.000000
86.096500 60.000000
87.043300 40.000000
93.069800 248.000000
95.049100 48.000000
97.101200 220.000000
107.086000 158.000000
108.088600 54.000000
111.079300 106.000000
117.069300 62.000000
121.101900 134.000000
121.110500 44.000000
135.116900 82.000000
191.180000 42.000000
203.108600 40.000000
308.292800 162.000000
309.281100 48.000000
309.297800 98.000000

