>compound RP23485424
>parentmass 106.0499
>ionization [M+H]+
>formula C3H7NO3
>rt 36.120000
>profile qtof
#smiles_iso C([C@@H](C(=O)O)N)O
#smiles_can C(C(C(=O)O)N)O
#inchikey MTCFGRXMJLQNBG-REOHCLBHSA-N
#pubchem_id 5951
#mb_accession RP000701,RP000702,RP000703

>ms2peaks
58.028300 104.000000
64.015200 182.000000
70.028200 3102.000000
88.038900 13788.000000
97.026800 224.000000
106.049500 12136.000000

>ms2peaks
48.007700 82.000000
58.065200 52.000000
61.040100 346.000000
62.047900 106.000000
70.028100 2666.000000
88.038900 1390.000000
106.049600 104.000000

>ms2peaks
61.052300 40.000000

