>compound RP24609019
>parentmass 391.2843
>ionization [M+H]+
>formula C24H38O4
>rt 296.700000
>profile qtof
#smiles_iso CC(CCC(=O)O)C1CCC2C1(CCC3C2CC(=O)C4C3(CCC(C4)O)C)C
#smiles_can CC(CCC(=O)O)C1CCC2C1(CCC3C2CC(=O)C4C3(CCC(C4)O)C)C
#inchikey JWZBXKZZDYMDCJ-UHFFFAOYSA-N
#pubchem_id 4579343
#mb_accession RP007901,RP007902,RP007903

>ms2
355.263100 712.000000
373.273600 171680.000000
374.277400 48694.000000
375.280300 5462.000000
376.286400 370.000000
391.284400 80334.000000
393.290800 1776.000000

>ms2
81.069900 232.000000
95.085500 282.000000
159.116400 644.000000
175.111200 402.000000
191.142700 246.000000
193.122800 248.000000
213.161200 252.000000
227.179500 224.000000
235.169400 266.000000
263.195900 234.000000
319.241400 324.000000
337.253100 1528.000000
338.257800 284.000000
355.262200 3940.000000
356.266900 972.000000
372.193700 210.000000
373.273300 207230.000000
374.276800 67506.000000
375.280400 6754.000000
376.282400 456.000000
391.283800 436.000000

>ms2
44.997400 44.000000
52.018200 60.000000
57.033100 58.000000
60.043800 44.000000
61.121800 130.000000
65.038100 256.000000
66.054800 38.000000
68.057800 204.000000
69.033200 290.000000
69.069300 1580.000000
71.048800 226.000000
71.085400 38.000000
73.064400 46.000000
77.047700 40.000000
79.005800 108.000000
79.053500 1912.000000
79.097100 102.000000
80.058800 42.000000
81.069500 8022.000000
82.229700 38.000000
83.049400 1468.000000
83.085500 1024.000000
85.064200 1650.000000
86.187500 50.000000
90.091800 38.000000
91.053800 1282.000000
91.063500 222.000000
93.069800 3786.000000
94.073800 380.000000
95.085400 7646.000000
96.088400 880.000000
97.064300 466.000000
97.101400 416.000000
98.068200 128.000000
99.044000 288.000000
100.048800 110.000000
101.059100 852.000000
101.174300 52.000000
103.054500 78.000000
105.069700 1746.000000
106.073000 308.000000
106.214000 102.000000
107.085400 2018.000000
109.064300 1020.000000
109.101100 1576.000000
111.081000 212.000000
113.059000 62.000000
117.070300 150.000000
119.085200 976.000000
120.021300 36.000000
121.064200 418.000000
121.100900 1104.000000
122.069600 68.000000
122.084400 36.000000
122.166300 36.000000
123.081200 1104.000000
123.117500 182.000000
124.083800 46.000000
127.026200 42.000000
127.075400 354.000000
127.111600 40.000000
129.008600 38.000000
133.100300 518.000000
134.036700 58.000000
135.080200 270.000000
135.092100 90.000000
135.103700 52.000000
135.116100 860.000000
135.136800 64.000000
136.011900 86.000000
137.013700 90.000000
137.096100 312.000000
139.042700 70.000000
139.074500 54.000000
141.976400 46.000000
142.228700 68.000000
143.084700 330.000000
143.153800 74.000000
144.093800 66.000000
145.100500 1206.000000
146.103900 122.000000
147.079700 150.000000
147.115900 1264.000000
148.018800 36.000000
148.119500 150.000000
149.096300 400.000000
149.132300 806.000000
149.994300 50.000000
150.136700 110.000000
151.027000 40.000000
151.074700 60.000000
151.110600 322.000000
151.147200 44.000000
152.034800 58.000000
152.071300 36.000000
153.090600 104.000000
154.093700 62.000000
155.033000 44.000000
155.086300 226.000000
155.129100 40.000000
157.100200 1086.000000
158.108500 42.000000
158.141600 40.000000
159.116300 4780.000000
159.978000 70.000000
160.039900 38.000000
160.084700 42.000000
160.120000 376.000000
161.096200 372.000000
161.132200 1524.000000
162.034800 38.000000
162.099900 70.000000
162.136600 98.000000
163.110200 848.000000
163.148100 206.000000
163.167900 50.000000
164.115000 132.000000
165.030800 42.000000
165.092200 86.000000
165.126200 236.000000
166.041500 58.000000
166.131800 92.000000
167.106600 146.000000
167.221500 68.000000
169.100100 342.000000
171.081500 100.000000
171.097500 84.000000
171.116400 750.000000
171.132800 120.000000
172.014200 118.000000
172.120400 60.000000
172.146600 54.000000
173.091600 170.000000
173.132100 1672.000000
174.136000 128.000000
175.111200 2802.000000
175.147500 818.000000
175.984000 62.000000
176.116800 272.000000
176.152800 102.000000
176.176400 46.000000
177.127100 2756.000000
178.131400 284.000000
178.144400 94.000000
178.179700 56.000000
178.999800 80.000000
179.085900 106.000000
179.105100 170.000000
181.014600 82.000000
181.122100 314.000000
182.107800 72.000000
182.127400 64.000000
183.116500 368.000000
184.121000 192.000000
185.096500 132.000000
185.112400 90.000000
185.131700 1396.000000
186.134700 206.000000
187.058400 118.000000
187.110700 166.000000
187.147200 994.000000
188.152100 220.000000
188.165000 52.000000
189.029400 40.000000
189.127300 534.000000
189.164100 340.000000
190.131300 38.000000
191.142700 482.000000
191.199400 40.000000
192.125500 82.000000
192.146000 230.000000
192.993500 56.000000
193.072000 42.000000
193.099500 36.000000
193.122800 110.000000
193.156500 62.000000
195.115000 276.000000
195.136900 792.000000
196.061600 52.000000
196.123200 72.000000
196.141300 112.000000
197.132000 806.000000
198.137800 168.000000
199.110100 150.000000
199.147500 1860.000000
200.153300 180.000000
201.042200 44.000000
201.059200 50.000000
201.126000 308.000000
201.149000 62.000000
201.162500 410.000000
201.183000 38.000000
202.167500 168.000000
203.104800 110.000000
203.143700 388.000000
203.176100 116.000000
203.292900 38.000000
204.152300 38.000000
205.100600 38.000000
205.120600 152.000000
205.159300 162.000000
207.116100 98.000000
207.136300 172.000000
209.133300 116.000000
209.153000 126.000000
210.135400 80.000000
210.232200 44.000000
211.111100 88.000000
211.148300 530.000000
212.155300 112.000000
213.128300 156.000000
213.163200 1304.000000
214.167300 168.000000
215.144500 548.000000
215.179700 330.000000
216.058500 48.000000
216.145500 160.000000
216.186500 76.000000
217.157200 926.000000
218.034400 76.000000
218.160500 114.000000
219.135500 106.000000
219.173000 48.000000
220.048700 38.000000
220.154100 56.000000
220.178500 66.000000
220.252100 50.000000
221.133500 60.000000
221.150500 72.000000
222.134400 40.000000
222.173300 58.000000
223.147500 442.000000
224.127500 66.000000
224.152600 68.000000
224.183400 40.000000
225.123700 44.000000
225.164000 302.000000
226.163300 54.000000
226.173200 82.000000
227.179000 404.000000
228.150900 58.000000
228.168400 74.000000
229.118900 42.000000
229.158900 532.000000
229.195400 58.000000
231.144800 42.000000
231.172600 202.000000
232.144100 46.000000
232.179300 70.000000
233.150700 188.000000
233.189600 134.000000
234.156900 74.000000
235.149000 104.000000
235.169200 500.000000
236.173100 62.000000
237.164000 186.000000
238.167400 40.000000
239.101700 44.000000
239.177900 436.000000
240.180700 44.000000
241.158600 262.000000
242.023800 66.000000
242.083300 44.000000
242.162700 96.000000
242.200600 138.000000
243.005800 40.000000
243.136900 82.000000
243.175100 86.000000
245.079100 42.000000
245.152400 194.000000
246.156800 48.000000
247.170100 104.000000
249.162100 170.000000
249.185700 330.000000
250.166100 162.000000
251.181200 90.000000
253.154200 88.000000
253.193000 192.000000
253.999100 36.000000
254.167200 36.000000
254.202400 200.000000
255.176100 96.000000
255.209300 270.000000
257.190000 306.000000
258.050100 84.000000
259.165200 46.000000
259.175800 114.000000
261.186300 182.000000
262.236200 42.000000
262.983100 52.000000
263.066000 84.000000
263.177200 292.000000
263.201900 58.000000
264.182700 102.000000
265.198900 36.000000
266.164800 38.000000
266.199800 36.000000
267.172800 82.000000
267.210100 216.000000
268.211400 62.000000
269.196600 70.000000
271.176200 50.000000
271.206300 154.000000
272.019900 36.000000
272.140100 68.000000
273.187000 80.000000
273.218400 104.000000
275.199500 54.000000
277.192500 246.000000
278.186300 42.000000
278.206400 74.000000
281.188000 298.000000
282.191200 90.000000
284.186900 44.000000
285.185700 98.000000
285.222900 72.000000
286.189600 70.000000
287.209500 100.000000
289.190000 60.000000
289.994300 50.000000
290.217900 54.000000
291.095200 42.000000
293.231300 70.000000
294.229000 78.000000
294.992600 78.000000
295.207200 420.000000
295.243500 234.000000
296.207800 118.000000
297.224000 118.000000
299.201900 218.000000
300.229400 50.000000
301.213600 150.000000
302.254200 50.000000
303.231900 36.000000
304.146400 52.000000
304.985100 58.000000
306.099800 38.000000
309.259700 170.000000
310.230700 42.000000
310.275600 40.000000
310.298500 36.000000
311.231100 76.000000
313.216400 362.000000
314.211700 70.000000
314.255500 64.000000
315.232200 146.000000
316.108800 56.000000
316.195600 70.000000
316.234700 60.000000
316.257800 36.000000
319.218900 44.000000
319.242500 402.000000
320.245400 80.000000
322.225900 92.000000
327.201200 60.000000
327.230500 68.000000
327.266800 100.000000
328.241500 62.000000
328.274000 56.000000
331.228500 62.000000
331.266200 40.000000
333.222800 54.000000
337.252400 822.000000
338.253400 318.000000
340.235400 38.000000
341.179600 84.000000
344.107100 36.000000
346.086300 36.000000
355.262500 2010.000000
356.265600 522.000000
357.241300 58.000000
357.272400 98.000000
358.249500 50.000000
373.273200 6756.000000
374.276900 1710.000000
375.124000 60.000000
375.280500 212.000000

