>compound RP25870474
>parentmass 138.055
>ionization [M+H]+
>formula C7H7NO2
>rt 185.340000
>profile qtof
#smiles_iso C1=CC=C(C(=C1)C(=O)O)N
#smiles_can C1=CC=C(C(=C1)C(=O)O)N
#inchikey RWZYAGGXGHYGMB-UHFFFAOYSA-N
#pubchem_id 227
#mb_accession RP011501,RP011502,RP011503

>ms2
92.048800 13998.000000
120.044200 568244.000000
121.047500 36208.000000
138.054600 17074.000000

>ms2
92.048800 423952.000000
110.059600 2064.000000
120.044300 387908.000000
121.047600 24406.000000

>ms2
59.060700 134.000000
62.059600 200.000000
63.009900 146.000000
83.047700 282.000000
84.045100 244.000000
90.033200 960.000000
91.041100 1046.000000
92.048900 103206.000000
93.052500 6638.000000
110.060100 1416.000000
120.044200 2038.000000
121.047200 224.000000

