>compound RP25834302
>parentmass 407.2792
>ionization [M+H]+
>formula C24H38O5
>rt 263.340000
>profile qtof
#smiles_iso C[C@H](CCC(=O)O)[C@H]1CC[C@@H]2[C@@]1([C@H](C[C@H]3[C@H]2C(=O)C[C@H]4[C@@]3(CC[C@H](C4)O)C)O)C
#smiles_can CC(CCC(=O)O)C1CCC2C1(C(CC3C2C(=O)CC4C3(CCC(C4)O)C)O)C
#inchikey RHCPKKNRWFXMAT-RRWYKFPJSA-N
#pubchem_id 188292
#mb_accession RP026501,RP026502,RP026503

>ms2peaks
97.064300 76.000000
131.295200 46.000000
135.004400 48.000000
141.029700 70.000000
147.044700 38.000000
155.065000 62.000000
199.131400 56.000000
205.970500 68.000000
207.064600 46.000000
207.099000 68.000000
212.055000 36.000000
221.021300 40.000000
222.148800 36.000000
224.115300 64.000000
246.123300 36.000000
246.160500 38.000000
256.175800 48.000000
257.191100 38.000000
271.167500 70.000000
272.172500 72.000000
313.094500 56.000000
324.070200 36.000000
326.132600 46.000000
329.280900 68.000000
335.234700 182.000000
336.238600 64.000000
348.138100 68.000000
349.071800 44.000000
353.217600 42.000000
353.246100 806.000000
354.251500 152.000000
354.281200 54.000000
365.092800 42.000000
370.013700 64.000000
371.258900 580.000000
372.261800 282.000000
373.168700 64.000000
374.265200 72.000000
381.216100 54.000000
389.268700 2228.000000
390.270600 454.000000
391.270800 116.000000
407.280500 1800.000000
409.280400 40.000000

>ms2peaks
83.081500 36.000000
104.234900 38.000000
112.260200 46.000000
165.087700 44.000000
172.224300 48.000000
199.060700 38.000000
199.147000 42.000000
206.127600 36.000000
211.026000 40.000000
235.140400 46.000000
243.135800 68.000000
245.153500 140.000000
253.158200 68.000000
253.218400 72.000000
254.163300 52.000000
257.257200 42.000000
268.109600 88.000000
269.995500 36.000000
271.169300 232.000000
272.175100 76.000000
274.276200 46.000000
282.158800 38.000000
287.199100 42.000000
293.185600 40.000000
293.278800 62.000000
297.184600 46.000000
307.241300 94.000000
312.192500 48.000000
315.003700 48.000000
315.187800 36.000000
317.224200 64.000000
318.211500 36.000000
318.227800 54.000000
324.292400 36.000000
325.255000 108.000000
328.041500 74.000000
335.138600 58.000000
335.236900 594.000000
336.243500 162.000000
340.236900 38.000000
345.215300 84.000000
350.152900 68.000000
351.226500 44.000000
353.247200 1860.000000
354.250100 514.000000
355.988400 42.000000
369.244700 40.000000
371.259300 878.000000
372.263700 164.000000
389.268400 562.000000
390.274300 130.000000
393.135400 38.000000

>ms2peaks
55.053800 42.000000
81.069200 64.000000
83.085300 80.000000
83.293700 58.000000
93.070200 142.000000
95.085800 96.000000
105.069200 128.000000
109.025500 68.000000
109.101300 42.000000
119.221700 56.000000
143.085000 88.000000
148.004600 54.000000
149.025800 48.000000
151.096700 46.000000
155.082900 40.000000
162.234200 40.000000
165.127700 40.000000
171.104000 44.000000
177.005700 40.000000
182.106000 42.000000
185.130800 44.000000
187.146800 50.000000
193.118400 44.000000
195.121300 42.000000
197.132700 76.000000
198.132400 38.000000
199.145800 98.000000
201.162000 68.000000
209.132300 58.000000
211.144300 36.000000
213.163100 42.000000
215.150900 72.000000
225.163700 52.000000
229.122000 52.000000
229.158700 76.000000
235.148300 64.000000
239.160300 40.000000
239.179200 54.000000
243.136800 146.000000
244.142700 130.000000
249.160300 52.000000
251.179600 40.000000
253.155100 38.000000
253.197500 52.000000
257.045200 38.000000
261.146600 40.000000
263.179400 102.000000
267.198100 52.000000
277.193500 42.000000
285.194900 38.000000
286.188700 42.000000
287.196400 56.000000
288.031200 54.000000
293.222700 36.000000
307.242300 70.000000
317.221800 68.000000
318.232400 66.000000
325.222000 50.000000
352.998500 54.000000
353.247600 110.000000
354.243200 126.000000
371.247800 38.000000

