>compound RP25938225
>parentmass 242.1387
>ionization [M+H]+
>formula C12H19NO4
>rt 227.280000
>profile qtof
#smiles_iso CCCCCC(=O)CC(=O)NC1CCOC1=O
#smiles_can CCCCCC(=O)CC(=O)NC1CCOC1=O
#inchikey FXCMGCFNLNFLSH-UHFFFAOYSA-N
#pubchem_id 4476497
#mb_accession RP020901,RP020902,RP020903

>ms2peaks
71.084900 2032.000000
74.023100 1014.000000
74.059400 8534.000000
84.043700 984.000000
98.059600 4184.000000
99.080200 10070.000000
102.054700 155592.000000
141.090600 13710.000000
142.094200 1706.000000
182.119100 324.000000
184.132500 8202.000000
185.136000 750.000000
196.133100 5514.000000
197.136800 694.000000
200.127400 2764.000000
201.131100 268.000000
214.143400 26576.000000
224.127900 5710.000000
225.130300 464.000000
242.138300 183192.000000
244.143600 2234.000000

>ms2peaks
67.053800 424.000000
68.049000 274.000000
68.996800 466.000000
69.069400 342.000000
70.028700 452.000000
74.023000 7362.000000
74.059300 74918.000000
81.033800 194.000000
81.069200 326.000000
84.044000 5472.000000
85.027900 1046.000000
94.040300 100.000000
95.084900 574.000000
97.063900 112.000000
98.059900 8340.000000
99.080200 65100.000000
102.054700 93924.000000
127.058000 156.000000
141.090100 15766.000000
142.094600 1662.000000
172.131700 162.000000
182.117200 1076.000000
184.132700 5100.000000
185.137300 566.000000
196.132100 3094.000000
197.135600 320.000000
200.054700 108.000000
200.127400 556.000000
214.143400 1412.000000
224.128300 1128.000000
242.138900 1388.000000

>ms2peaks
52.076200 64.000000
55.016300 104.000000
55.053700 394.000000
57.032500 794.000000
67.017300 106.000000
68.996600 4528.000000
69.069500 612.000000
70.028200 964.000000
70.123200 62.000000
71.012200 7340.000000
71.084900 39364.000000
73.027600 156.000000
74.023100 26508.000000
74.059400 32700.000000
75.019400 96.000000
75.055700 144.000000
76.026900 114.000000
79.053600 216.000000
81.032400 602.000000
81.069700 690.000000
83.047900 138.000000
83.086200 128.000000
84.044100 6930.000000
85.028500 2026.000000
86.047900 72.000000
91.054400 74.000000
93.070200 250.000000
95.048800 122.000000
95.085000 1080.000000
97.061100 92.000000
98.060400 732.000000
98.095900 44.000000
99.043800 1070.000000
99.080000 2672.000000
102.054500 6748.000000
113.059900 230.000000
139.147400 46.000000
141.090400 1282.000000
142.024100 48.000000
142.095600 92.000000

