>compound RP25232535
>parentmass 229.2162
>ionization [M+H]+
>formula C14H28O2
>rt 408.420000
>profile qtof
#smiles_iso CCCCCCCCCCCCCC(=O)O
#smiles_can CCCCCCCCCCCCCC(=O)O
#inchikey TUNFSRHWOTWDNC-UHFFFAOYSA-N
#pubchem_id 11005
#mb_accession RP008401

>ms2
121.007200 42.000000
153.100800 56.000000
159.138500 46.000000
167.142800 70.000000
179.046900 38.000000
190.121600 44.000000
191.180800 52.000000
195.113600 64.000000
200.214700 44.000000
209.189800 84.000000
225.196400 40.000000
228.160700 38.000000
229.216400 4748.000000
231.220400 44.000000

