>compound RP25317209
>parentmass 277.1646
>ionization [M+H]+
>formula C13H24O6
>rt 182.220000
>profile qtof
#smiles_iso C[C@H]1[C@@H](C[C@H]([C@@H](O1)O[C@H](C)CCCCC(=O)O)O)O
#smiles_can CC1C(CC(C(O1)OC(C)CCCCC(=O)O)O)O
#inchikey KBTQMAFDKPKMEJ-UYNYGYNWSA-N
#pubchem_id 11471380
#mb_accession RP009701,RP009702,RP009703

>ms2peaks
67.989900 42.000000
69.070100 78.000000
83.048500 40.000000
93.045200 38.000000
100.047600 40.000000
111.079600 202.000000
111.087400 74.000000
113.056300 88.000000
123.080400 40.000000
129.090900 1290.000000
147.101000 3124.000000
197.115000 112.000000
225.147000 52.000000
239.087800 38.000000
241.113800 72.000000
243.123900 94.000000
246.048600 44.000000
261.158700 76.000000
279.118000 76.000000

>ms2peaks
55.017800 82.000000
67.053700 42.000000
69.034000 62.000000
69.069500 382.000000
83.085400 2286.000000
85.065200 96.000000
97.064100 82.000000
98.068700 40.000000
111.080000 738.000000
115.074400 36.000000
129.090400 1172.000000
147.077200 76.000000
147.101000 90.000000
221.116300 44.000000

>ms2peaks
83.049200 398.000000
83.084900 3272.000000
85.028400 64.000000
85.065200 136.000000
87.079900 110.000000
111.080500 76.000000
126.116000 40.000000
260.171700 42.000000

