>compound RP25051572
>parentmass 287.055
>ionization [M+H]+
>formula C15H10O6
>rt 239.520000
>profile qtof
#smiles_iso C1=CC(=CC=C1C2=C(C(=O)C3=C(C=C(C=C3O2)O)O)O)O
#smiles_can C1=CC(=CC=C1C2=C(C(=O)C3=C(C=C(C=C3O2)O)O)O)O
#inchikey IYRMWMYZSQPJKC-UHFFFAOYSA-N
#pubchem_id 5280863
#mb_accession RP004701,RP004702,RP004703

>ms2peaks
286.046700 540.000000
287.054900 341516.000000
289.060900 3206.000000

>ms2peaks
153.020900 626.000000
165.019100 780.000000
213.055500 380.000000
241.050400 358.000000
258.051500 584.000000
287.054900 338530.000000
289.060600 3702.000000

>ms2peaks
62.023400 50.000000
75.064900 90.000000
76.998000 62.000000
79.041600 48.000000
83.034400 48.000000
85.051900 38.000000
87.018400 86.000000
88.998300 58.000000
90.068000 130.000000
93.006300 48.000000
93.066400 80.000000
94.016100 40.000000
98.014500 40.000000
99.029700 54.000000
101.083700 80.000000
102.009900 66.000000
103.002200 68.000000
104.050100 50.000000
106.051500 40.000000
106.061800 74.000000
107.009200 68.000000
109.028500 86.000000
110.994500 38.000000
113.979400 64.000000
117.977800 46.000000
122.056400 50.000000
123.051500 68.000000
125.026600 78.000000
126.054200 38.000000
127.018800 108.000000
131.058500 46.000000
131.992500 42.000000
134.010700 52.000000
135.067900 36.000000
137.025200 124.000000
139.054100 52.000000
139.061800 70.000000
140.069300 86.000000
141.064200 58.000000
142.040300 46.000000
143.030700 76.000000
143.045400 86.000000
143.991500 42.000000
144.040300 48.000000
144.065300 64.000000
145.024100 58.000000
145.087700 64.000000
146.068900 82.000000
147.045100 980.000000
148.016500 54.000000
148.050700 110.000000
149.025800 96.000000
150.015500 60.000000
150.032600 38.000000
150.046800 64.000000
151.054800 36.000000
153.019400 15752.000000
154.022600 862.000000
154.057800 52.000000
154.066200 88.000000
155.022900 180.000000
155.048600 98.000000
156.036500 38.000000
157.029200 136.000000
157.066000 1880.000000
158.014500 60.000000
158.035800 68.000000
158.069800 212.000000
159.043400 74.000000
161.021900 66.000000
162.041600 62.000000
162.049600 50.000000
162.064700 114.000000
163.037700 100.000000
165.019500 4568.000000
165.978200 76.000000
165.986800 50.000000
167.024000 118.000000
167.049800 246.000000
167.995600 88.000000
168.017300 94.000000
168.057600 102.000000
169.028100 80.000000
169.066300 226.000000
169.998500 36.000000
171.045700 1038.000000
172.049400 222.000000
173.061000 202.000000
174.005600 66.000000
174.031800 38.000000
175.039700 136.000000
175.076400 142.000000
176.047200 72.000000
177.021600 36.000000
178.045500 38.000000
179.005900 66.000000
179.036000 148.000000
179.050100 122.000000
180.057200 50.000000
180.976700 40.000000
181.016400 182.000000
181.027800 56.000000
181.076900 62.000000
183.028000 148.000000
183.036800 126.000000
184.036500 44.000000
184.053200 318.000000
185.060700 1346.000000
186.064000 236.000000
186.987900 80.000000
187.039500 94.000000
187.063700 38.000000
188.047300 106.000000
189.057300 188.000000
191.034200 64.000000
191.069500 54.000000
192.081500 68.000000
193.009200 58.000000
194.022400 194.000000
195.027100 90.000000
195.045600 134.000000
195.055900 84.000000
197.000700 70.000000
197.059400 354.000000
199.038900 96.000000
201.007100 74.000000
201.054900 352.000000
202.062600 258.000000
203.034700 230.000000
203.071300 428.000000
204.041500 108.000000
207.024600 58.000000
209.056300 44.000000
211.026000 98.000000
212.046100 254.000000
213.054500 6352.000000
214.057400 734.000000
215.033400 76.000000
216.041200 188.000000
217.049800 246.000000
217.076000 64.000000
218.017600 68.000000
218.052000 38.000000
219.029200 68.000000
221.008500 36.000000
223.039300 186.000000
224.048700 84.000000
227.034400 74.000000
229.049900 1404.000000
230.054700 204.000000
231.029900 56.000000
231.064900 1060.000000
232.034800 154.000000
239.035900 42.000000
241.049200 1364.000000
242.055000 492.000000
243.041700 50.000000
243.065100 304.000000
244.037000 84.000000
245.042200 126.000000
246.049700 118.000000
249.029400 74.000000
252.053800 58.000000
257.045200 246.000000
258.052300 3106.000000
259.000400 80.000000
259.059200 1406.000000
259.999900 42.000000
262.992000 36.000000
265.059400 38.000000
269.043700 504.000000
269.069000 36.000000
285.038600 198.000000
286.046000 44.000000
287.054500 18592.000000

