>compound RP25223502
>parentmass 176.0706
>ionization [M+H]+
>formula C10H9NO2
>rt 211.020000
>profile qtof
#smiles_iso C1=CC=C2C(=C1)C(=CN2)CC(=O)O
#smiles_can C1=CC=C2C(=C1)C(=CN2)CC(=O)O
#inchikey SEOVTRFCIGRIMH-UHFFFAOYSA-N
#pubchem_id 802
#mb_accession RP016601,RP016602,RP016603

>ms2peaks
50.047500 64.000000
51.078900 88.000000
60.081000 86.000000
61.063500 56.000000
68.058600 96.000000
69.070000 60.000000
77.037900 58.000000
80.026100 64.000000
96.077500 88.000000
97.999500 96.000000
103.051200 154.000000
107.033400 76.000000
118.025100 46.000000
118.053300 56.000000
119.048200 56.000000
119.059500 66.000000
130.064600 13714.000000
131.067900 1306.000000
132.080600 46.000000
136.064400 88.000000
150.068100 56.000000
158.058500 182.000000
159.062400 190.000000
162.054800 52.000000
172.070300 76.000000
173.071700 54.000000
175.061800 3576.000000
176.069700 44014.000000
178.075000 200.000000

>ms2peaks
59.048100 48.000000
78.046000 38.000000
82.039900 44.000000
84.057300 38.000000
85.027300 54.000000
86.036300 46.000000
88.075200 202.000000
95.048700 122.000000
103.054500 894.000000
104.047400 48.000000
105.041200 52.000000
106.064100 38.000000
111.010100 40.000000
117.057000 100.000000
130.064900 20626.000000
131.067900 1808.000000
145.015300 44.000000
154.016400 86.000000
158.060400 108.000000
162.054100 114.000000
175.061800 154.000000
176.070800 780.000000

>ms2peaks
55.016200 100.000000
65.038800 168.000000
66.046600 58.000000
68.024700 62.000000
74.014400 44.000000
76.016100 40.000000
80.013100 48.000000
80.050200 108.000000
81.032300 98.000000
89.037900 472.000000
91.041500 40.000000
91.055000 86.000000
93.031600 56.000000
95.048900 5446.000000
96.052200 176.000000
102.047100 754.000000
103.053800 21294.000000
104.048900 968.000000
104.057100 1042.000000
105.044300 2120.000000
109.049100 60.000000
116.049000 50.000000
128.049800 188.000000
129.052600 82.000000
130.064600 9780.000000
131.068200 1080.000000
146.035200 44.000000
146.061000 234.000000

