>compound RP26003568
>parentmass 261.037
>ionization [M+H]+
>formula C6H13O9P
>rt 38.640000
>profile qtof
#smiles_iso C([C@@H]1[C@H]([C@@H]([C@H](C(O1)O)O)O)O)OP(=O)(O)O
#smiles_can C(C1C(C(C(C(O1)O)O)O)O)OP(=O)(O)O
#inchikey NBSCHQHZLSJFNQ-GASJEMHNSA-N
#pubchem_id 5958
#mb_accession RP023701,RP023702,RP023703

>ms2
85.029400 174.000000
98.984700 156.000000
109.027500 48.000000
116.994100 46.000000
119.983500 64.000000
145.046500 86.000000
155.976900 38.000000
163.062100 188.000000
187.969700 74.000000
192.058900 48.000000
197.973800 52.000000
207.004300 128.000000
222.039600 36.000000
225.015300 50.000000
243.024900 382.000000
244.033100 70.000000

>ms2
85.027900 50.000000
87.043800 64.000000
98.983900 274.000000
109.027600 60.000000
122.992200 68.000000
215.930500 40.000000

>ms2
69.033100 74.000000
81.033800 80.000000
95.086500 38.000000
98.983700 164.000000

