>compound RP27732458
>parentmass 123.0441
>ionization [M+H]+
>formula C7H6O2
>rt 211.200000
>profile qtof
#smiles_iso C1=CC=C(C=C1)C(=O)O
#smiles_can C1=CC=C(C=C1)C(=O)O
#inchikey WPYMKLBDIGXBTP-UHFFFAOYSA-N
#pubchem_id 243
#mb_accession RP012801,RP012802,RP012803

>ms2
77.038100 402.000000
78.042400 78.000000
79.053700 42302.000000
95.049400 234.000000
105.033100 914.000000
106.036400 248.000000
123.043400 5364.000000

>ms2
77.038100 6518.000000
79.053800 33390.000000
81.033000 46.000000
82.037500 60.000000
95.048400 3672.000000
105.033500 1974.000000
105.045400 1222.000000
106.038300 342.000000

>ms2
74.014700 98.000000
75.023200 52.000000
77.038100 5686.000000
79.054400 554.000000
81.033800 86.000000
95.049000 2046.000000
105.043900 644.000000
106.041300 72.000000

