>compound RP28025023
>parentmass 116.0706
>ionization [M+H]+
>formula C5H9NO2
>rt 37.020000
>profile qtof
#smiles_iso C1C[C@H](NC1)C(=O)O
#smiles_can C1CC(NC1)C(=O)O
#inchikey ONIBWKKTOPOVIA-BYPYZUCNSA-N
#pubchem_id 145742
#mb_accession RP001701,RP001702,RP001703

>ms2peaks
70.064500 445636.000000
116.070700 102800.000000

>ms2peaks
68.049400 3756.000000
70.064500 769338.000000
116.070400 4420.000000

>ms2peaks
68.049100 8602.000000
70.064600 177252.000000

