>compound RP28439774
>parentmass 299.1224
>ionization [M+H]+
>formula C11H16N5O5+
>rt 49.920000
>profile qtof
#smiles_iso CN1C=[N+](C2=C1C(=O)NC(=N2)N)[C@H]3[C@@H]([C@@H]([C@H](O3)CO)O)O
#smiles_can CN1C=[N+](C2=C1C(=O)NC(=N2)N)C3C(C(C(O3)CO)O)O
#inchikey OGHAROSJZRTIOK-KQYNXXCUSA-O
#pubchem_id 135445750
#mb_accession RP031601,RP031602,RP031603

>ms2
108.040400 42.000000
109.108300 36.000000
166.071700 1770.000000
167.114300 42.000000
240.091600 38.000000
298.115200 456.000000

>ms2
112.004900 82.000000
139.973800 56.000000
149.000900 38.000000
149.047900 62.000000
166.071800 1898.000000
167.056100 56.000000
167.075600 110.000000

>ms2
70.086600 40.000000
90.009100 58.000000
149.042500 58.000000
166.002000 44.000000
166.072100 702.000000
167.056000 316.000000
167.079900 54.000000

