>compound RP28304017
>parentmass 181.076
>ionization [M+H]+
>formula C12H8N2
>rt 261.360000
>profile qtof
#smiles_iso C1=CC=C2C(=C1)N=C3C=CC=CC3=N2
#smiles_can C1=CC=C2C(=C1)N=C3C=CC=CC3=N2
#inchikey PCNDJXKNXGMECE-UHFFFAOYSA-N
#pubchem_id 4757
#mb_accession RP019101,RP019102,RP019103

>ms2
101.002800 4310.000000
180.067100 1910.000000
181.075600 1521872.000000

>ms2
77.037800 9890.000000
95.048900 2490.000000
154.064800 13400.000000
179.060000 6772.000000
180.067600 16312.000000
181.075500 1500350.000000

>ms2
55.016700 422.000000
64.017800 310.000000
74.014500 5040.000000
75.022200 63282.000000
76.017500 13600.000000
79.017600 356.000000
81.032600 3512.000000
89.037800 272.000000
90.033100 792.000000
90.046000 424.000000
91.041300 776.000000
92.049300 1954.000000
95.048600 219130.000000
96.044200 4172.000000
101.002800 326.000000
101.038100 310.000000
102.033500 42446.000000
103.053800 2032.000000
104.049100 5674.000000
105.044500 73720.000000
115.041200 314.000000
115.054200 488.000000
117.057300 1324.000000
117.069500 424.000000
118.064700 404.000000
120.044500 7808.000000
121.040100 312.000000
125.038400 534.000000
126.045800 1236.000000
127.054200 9306.000000
128.049600 6552.000000
129.044700 11916.000000
130.040000 20878.000000
140.049500 888.000000
141.056100 332.000000
142.052700 1320.000000
145.064600 3858.000000
146.059400 1336.000000
152.049100 5018.000000
153.044700 1854.000000
153.056700 8300.000000
154.064700 34532.000000
155.060400 7556.000000
164.048000 334.000000
166.051400 410.000000
170.059900 1130.000000
171.054700 496.000000
178.052100 300.000000
179.059900 38238.000000
180.067500 57308.000000
181.075300 239038.000000

