>compound RP28162509
>parentmass 153.0407
>ionization [M+H]+
>formula C5H4N4O2
>rt 41.880000
>profile qtof
#smiles_iso C1=NC2=C(N1)C(=O)NC(=O)N2
#smiles_can C1=NC2=C(N1)C(=O)NC(=O)N2
#inchikey LRFVTYWOQMYALW-UHFFFAOYSA-N
#pubchem_id 1188
#mb_accession RP012501,RP012502,RP012503

>ms2peaks
66.010000 118.000000
67.989400 116.000000
82.039500 166.000000
110.034400 1974.000000
128.043400 88.000000
136.013700 314.000000
143.006800 78.000000
146.008900 80.000000
153.040300 76080.000000

>ms2peaks
46.028800 44.000000
56.997100 44.000000
68.012400 106.000000
69.008800 74.000000
81.008100 484.000000
82.039400 2574.000000
83.023400 286.000000
84.021200 44.000000
87.043600 52.000000
93.009000 94.000000
94.040600 82.000000
108.018200 198.000000
110.034900 17174.000000
136.013800 1486.000000
136.033100 76.000000
153.040000 11152.000000
156.027800 120.000000

>ms2peaks
53.997500 130.000000
56.011600 214.000000
65.012800 754.000000
65.997300 38.000000
68.012100 154.000000
69.008200 278.000000
69.992200 170.000000
80.024500 104.000000
81.008000 7998.000000
82.039500 3176.000000
83.023700 264.000000
83.037300 98.000000
93.008600 594.000000
107.032300 44.000000
108.019700 196.000000
110.034400 1268.000000
136.014300 58.000000

