>compound RP29493913
>parentmass 516.299
>ionization [M+H]+
>formula C26H45NO7S
>rt 234.900000
>profile qtof
#smiles_iso C[C@H](CCC(=O)NCCS(=O)(=O)O)[C@H]1CC[C@@H]2[C@@]1([C@H](C[C@H]3[C@H]2[C@@H](C[C@H]4[C@@]3(CC[C@H](C4)O)C)O)O)C
#smiles_can CC(CCC(=O)NCCS(=O)(=O)O)C1CCC2C1(C(CC3C2C(CC4C3(CCC(C4)O)C)O)O)C
#inchikey WBWWGRHZICKQGZ-HZAMXZRMSA-N
#pubchem_id 6675
#mb_accession RP005901,RP005902,RP005903

>ms2peaks
227.138900 122.000000
246.154300 138.000000
281.219300 124.000000
283.254300 106.000000
287.267900 132.000000
294.134600 120.000000
308.006200 110.000000
310.239700 106.000000
317.970900 128.000000
319.238800 122.000000
329.319900 110.000000
329.974100 124.000000
337.252900 512.000000
343.005600 126.000000
348.131000 110.000000
351.195600 134.000000
368.186400 106.000000
377.204200 106.000000
381.323400 120.000000
387.271800 142.000000
387.322300 116.000000
410.020700 150.000000
416.968800 126.000000
420.218500 114.000000
422.155000 118.000000
444.230000 110.000000
462.266700 20012.000000
463.270000 3966.000000
464.159700 140.000000
464.271000 614.000000
465.265500 198.000000
471.994300 128.000000
476.189900 106.000000
480.277500 35896.000000
481.280100 6786.000000
482.281000 1850.000000
483.276000 188.000000
492.291800 124.000000
497.149000 146.000000
497.188200 114.000000
497.302900 136.000000
498.288200 78510.000000
499.291400 21340.000000
500.291100 4676.000000
501.247700 106.000000
501.290000 688.000000
504.102000 128.000000
515.139500 110.000000
515.161600 180.000000
515.175800 138.000000
516.298300 103984.000000
518.300700 7014.000000
520.297400 138.000000

>ms2peaks
126.021700 240.000000
208.064800 350.000000
209.132100 158.000000
227.144000 352.000000
227.180200 146.000000
265.188400 182.000000
307.024300 156.000000
319.241900 1632.000000
320.244200 254.000000
337.252000 17102.000000
338.255900 3092.000000
339.260000 560.000000
342.175000 158.000000
352.157900 274.000000
354.171900 162.000000
355.179100 184.000000
355.260800 314.000000
376.038700 148.000000
420.220400 518.000000
453.206200 150.000000
460.941000 172.000000
461.065900 162.000000
461.300200 174.000000
461.321100 232.000000
462.266500 143140.000000
463.269700 45654.000000
464.269300 9228.000000
465.271100 1156.000000
465.313200 164.000000
480.276700 47932.000000
481.280100 13098.000000
482.279700 3112.000000
483.279000 560.000000
498.287200 16748.000000
499.291000 4728.000000
500.289800 1308.000000
516.299000 2568.000000

>ms2peaks
49.065100 62.000000
49.276600 100.000000
49.982200 58.000000
55.193000 42.000000
57.036500 50.000000
58.193300 48.000000
60.008100 46.000000
61.076300 112.000000
62.034600 44.000000
63.174000 108.000000
64.015000 68.000000
65.013900 50.000000
65.042600 64.000000
66.102500 70.000000
66.130900 68.000000
67.053800 506.000000
69.032100 56.000000
69.069400 270.000000
69.245500 42.000000
70.253400 58.000000
71.147000 46.000000
75.008100 48.000000
76.203800 76.000000
77.084100 38.000000
77.120100 38.000000
77.988100 36.000000
78.009800 94.000000
78.066900 54.000000
78.108000 78.000000
79.053600 366.000000
79.119500 40.000000
79.246000 46.000000
79.263000 40.000000
80.036400 40.000000
80.142600 60.000000
80.249200 66.000000
82.014300 68.000000
82.099200 58.000000
83.036800 56.000000
83.047400 176.000000
83.069300 42.000000
83.085400 404.000000
84.083300 92.000000
84.195300 46.000000
85.064100 1094.000000
85.182500 58.000000
85.993400 72.000000
86.175100 40.000000
87.047400 66.000000
88.263700 98.000000
89.016800 114.000000
89.154100 60.000000
90.071100 38.000000
91.054400 156.000000
91.299400 54.000000
91.345300 66.000000
92.177900 36.000000
93.030200 80.000000
93.069400 670.000000
93.099300 40.000000
93.115500 58.000000
94.171400 40.000000
95.085200 644.000000
96.094100 36.000000
96.188100 56.000000
96.268000 40.000000
97.065000 116.000000
97.991100 38.000000
98.100000 94.000000
99.080100 48.000000
99.195000 52.000000
100.025800 60.000000
100.102200 48.000000
101.140700 54.000000
101.194200 36.000000
102.144300 42.000000
102.205400 40.000000
103.148400 48.000000
104.235400 42.000000
105.069600 494.000000
105.081800 54.000000
105.099200 46.000000
105.118900 48.000000
105.243100 38.000000
106.216900 72.000000
106.332200 64.000000
107.084700 1134.000000
107.146400 72.000000
107.986300 40.000000
108.015500 174.000000
108.089900 176.000000
108.136200 42.000000
109.006400 52.000000
109.052900 56.000000
109.066700 152.000000
109.101100 592.000000
109.132600 76.000000
109.291700 54.000000
109.331700 70.000000
109.969900 58.000000
110.009100 64.000000
110.096300 42.000000
111.034400 36.000000
111.079400 104.000000
111.295500 92.000000
111.989700 130.000000
112.263700 66.000000
113.226900 56.000000
113.978700 64.000000
113.999100 56.000000
114.101500 52.000000
115.075800 48.000000
116.060800 92.000000
116.259500 78.000000
116.273700 36.000000
117.192500 62.000000
118.070700 152.000000
118.967800 36.000000
119.047900 48.000000
119.085200 412.000000
120.015600 80.000000
120.112100 48.000000
120.137600 70.000000
120.192700 68.000000
120.234800 58.000000
121.020100 74.000000
121.066400 52.000000
121.100000 286.000000
121.990200 54.000000
121.996100 66.000000
122.045200 60.000000
122.072700 60.000000
122.104900 92.000000
122.976900 84.000000
123.082600 136.000000
123.118000 102.000000
123.277400 44.000000
123.984100 44.000000
124.012200 52.000000
124.024000 40.000000
124.080800 44.000000
124.996700 46.000000
125.094500 190.000000
125.161000 52.000000
125.283400 40.000000
126.021700 3712.000000
127.005800 74.000000
127.017900 60.000000
127.027000 100.000000
127.054300 42.000000
128.019100 134.000000
128.095400 90.000000
128.108300 50.000000
128.148800 42.000000
129.021300 50.000000
129.070000 104.000000
129.980500 38.000000
130.192300 36.000000
130.315100 38.000000
130.346000 54.000000
131.066100 40.000000
131.225800 36.000000
131.250200 48.000000
131.987300 108.000000
132.255800 52.000000
132.287500 36.000000
132.975400 36.000000
133.099700 164.000000
133.131800 46.000000
133.159900 78.000000
133.298500 42.000000
133.995000 44.000000
134.011600 112.000000
134.046400 40.000000
134.091700 150.000000
134.168900 42.000000
134.178100 52.000000
134.268700 38.000000
135.010300 48.000000
135.046100 48.000000
135.057300 36.000000
135.080200 94.000000
135.111500 180.000000
135.177800 58.000000
135.296200 96.000000
135.999000 52.000000
136.127100 76.000000
136.210500 108.000000
136.315300 54.000000
137.008100 48.000000
137.090900 38.000000
137.110000 54.000000
137.119900 92.000000
137.156100 38.000000
137.174000 40.000000
137.246500 62.000000
138.053300 54.000000
138.070000 62.000000
138.083200 70.000000
138.129800 36.000000
138.149500 62.000000
138.159400 142.000000
138.170900 44.000000
138.297000 44.000000
139.035300 100.000000
139.075400 44.000000
139.217500 50.000000
140.119000 36.000000
140.255700 38.000000
141.069300 44.000000
141.087100 64.000000
141.120600 38.000000
141.211500 56.000000
141.282800 36.000000
141.299000 86.000000
142.041600 42.000000
142.179600 94.000000
142.277100 38.000000
142.995700 44.000000
143.086000 194.000000
143.135100 60.000000
143.202700 44.000000
143.230700 90.000000
143.246900 56.000000
143.262500 126.000000
143.354200 58.000000
144.192900 68.000000
144.217300 102.000000
145.038300 60.000000
145.061300 38.000000
145.101100 360.000000
145.129600 50.000000
145.166800 38.000000
146.015000 44.000000
146.102900 56.000000
146.150300 46.000000
146.339600 62.000000
147.003300 36.000000
147.115400 496.000000
147.266800 58.000000
147.294600 42.000000
147.988600 60.000000
148.121200 82.000000
148.146100 42.000000
148.167900 46.000000
149.096100 124.000000
149.130200 216.000000
149.181800 112.000000
149.292800 74.000000
149.313100 38.000000
149.321300 58.000000
150.017400 84.000000
150.098200 70.000000
150.134700 50.000000
150.149200 36.000000
151.011800 40.000000
151.040700 46.000000
151.054100 42.000000
151.111200 98.000000
151.153500 50.000000
151.208000 64.000000
152.106100 46.000000
152.296100 36.000000
152.994300 44.000000
153.020500 80.000000
153.081900 66.000000
153.161100 36.000000
153.179700 42.000000
153.251900 48.000000
153.282400 50.000000
154.105800 46.000000
154.971000 50.000000
155.030800 44.000000
155.084600 68.000000
155.114700 38.000000
155.168500 38.000000
155.286100 56.000000
156.039500 36.000000
156.066100 56.000000
156.091900 104.000000
156.107800 54.000000
156.138500 40.000000
156.340000 36.000000
156.967800 66.000000
156.999900 66.000000
157.013700 52.000000
157.048500 90.000000
157.099700 976.000000
157.143800 104.000000
157.979100 42.000000
157.994800 38.000000
158.050000 44.000000
158.105800 88.000000
158.235700 56.000000
158.338100 36.000000
158.981000 118.000000
159.116200 1874.000000
159.140300 126.000000
159.993700 100.000000
160.010900 90.000000
160.027000 42.000000
160.119600 192.000000
160.165800 36.000000
160.190600 92.000000
160.231800 46.000000
160.266400 42.000000
161.096400 52.000000
161.116200 38.000000
161.131900 338.000000
161.174600 130.000000
161.230100 46.000000
161.283700 42.000000
161.325600 50.000000
162.145200 40.000000
162.185400 50.000000
162.231400 44.000000
163.111800 142.000000
163.197400 54.000000
163.266500 40.000000
163.300500 66.000000
163.996900 36.000000
164.019300 46.000000
164.037600 208.000000
164.312100 60.000000
164.979300 48.000000
165.042000 80.000000
165.138200 36.000000
166.002800 36.000000
166.029000 50.000000
167.085900 58.000000
167.134100 92.000000
167.191600 40.000000
167.222700 70.000000
167.987300 116.000000
168.051800 68.000000
168.066000 70.000000
168.086600 94.000000
168.275400 38.000000
168.348300 68.000000
169.031600 46.000000
169.102700 360.000000
169.149200 36.000000
170.062100 60.000000
170.083900 38.000000
170.102900 60.000000
170.133000 86.000000
171.066100 68.000000
171.082500 60.000000
171.116700 810.000000
171.168400 124.000000
171.222700 54.000000
172.026100 88.000000
172.120700 50.000000
172.313100 66.000000
173.004800 68.000000
173.064100 114.000000
173.076800 40.000000
173.092700 44.000000
173.132900 514.000000
173.288600 104.000000
173.949700 48.000000
174.101400 42.000000
174.942000 62.000000
175.042500 46.000000
175.097000 44.000000
175.110700 334.000000
175.147300 664.000000
175.254800 60.000000
175.267400 40.000000
175.275700 50.000000
175.334300 48.000000
175.976800 68.000000
176.013900 50.000000
176.117500 60.000000
176.148100 70.000000
176.169500 46.000000
176.202300 52.000000
176.972100 44.000000
177.022300 40.000000
177.112600 40.000000
177.126600 300.000000
177.162900 74.000000
177.991200 66.000000
178.177600 98.000000
178.195900 38.000000
179.084500 40.000000
179.303200 38.000000
180.016900 38.000000
180.035500 218.000000
180.228400 36.000000
180.290800 76.000000
181.101300 122.000000
181.177200 36.000000
181.272000 64.000000
181.300600 60.000000
182.012700 50.000000
182.067200 78.000000
182.243400 40.000000
182.285900 78.000000
183.066300 58.000000
183.097800 66.000000
183.116100 1092.000000
183.152100 80.000000
183.956300 50.000000
184.007300 88.000000
184.125000 84.000000
184.149100 40.000000
184.222700 44.000000
184.270700 64.000000
184.319800 60.000000
185.097600 394.000000
185.131900 1334.000000
185.972800 42.000000
185.987100 36.000000
186.096800 62.000000
186.134200 220.000000
186.181900 92.000000
187.013000 36.000000
187.033500 108.000000
187.111700 244.000000
187.146500 644.000000
187.206200 86.000000
188.114500 68.000000
188.153200 52.000000
188.330800 46.000000
189.128100 354.000000
189.163000 374.000000
189.270800 96.000000
189.959700 76.000000
190.010400 46.000000
190.137900 50.000000
190.193400 36.000000
191.142300 88.000000
191.202500 36.000000
191.220700 106.000000
191.935800 54.000000
191.980200 44.000000
192.024900 78.000000
192.101500 42.000000
192.160300 76.000000
192.197900 48.000000
192.245000 46.000000
192.310400 60.000000
192.985700 58.000000
193.121500 56.000000
193.221000 54.000000
193.287500 44.000000
193.303200 44.000000
194.023800 68.000000
194.047200 120.000000
194.111300 50.000000
194.136900 98.000000
195.023200 54.000000
195.089800 66.000000
195.116600 420.000000
195.194200 54.000000
195.299800 52.000000
196.073500 42.000000
196.119300 70.000000
196.146500 38.000000
196.211100 50.000000
196.219200 64.000000
197.132400 588.000000
197.193800 56.000000
198.046500 82.000000
198.133300 52.000000
198.146300 54.000000
198.201300 42.000000
198.326500 120.000000
199.147600 3352.000000
199.948800 76.000000
199.981300 50.000000
200.149900 614.000000
200.977300 48.000000
201.040000 60.000000
201.099300 116.000000
201.126200 72.000000
201.163800 592.000000
201.219500 46.000000
201.938300 56.000000
201.981500 38.000000
202.001000 42.000000
202.046400 78.000000
202.102400 64.000000
202.133300 74.000000
202.168600 106.000000
202.280500 54.000000
202.330400 42.000000
203.061700 48.000000
203.118000 68.000000
203.143100 184.000000
203.177100 186.000000
203.314000 52.000000
203.963000 48.000000
204.145400 90.000000
204.235400 50.000000
204.257400 90.000000
205.154900 78.000000
205.244700 36.000000
206.049300 86.000000
206.214200 58.000000
206.316900 68.000000
207.090400 74.000000
207.120000 108.000000
207.164700 82.000000
207.189800 38.000000
207.241500 40.000000
208.063300 5492.000000
209.132200 6210.000000
210.068500 188.000000
210.088300 92.000000
210.135800 1394.000000
210.197500 112.000000
211.147300 1396.000000
211.271700 70.000000
212.042600 56.000000
212.149900 154.000000
212.263600 94.000000
212.305100 92.000000
212.342800 38.000000
213.163000 4398.000000
214.045500 46.000000
214.108600 60.000000
214.168000 614.000000
215.039000 96.000000
215.090000 52.000000
215.142700 274.000000
215.160100 42.000000
215.179200 474.000000
215.206400 62.000000
215.314200 36.000000
215.948600 36.000000
215.970400 36.000000
216.063500 116.000000
216.144700 86.000000
216.181700 116.000000
216.227700 52.000000
217.156600 100.000000
218.160100 76.000000
218.263900 38.000000
218.325400 42.000000
219.144400 36.000000
220.007100 44.000000
220.105400 46.000000
220.159700 112.000000
221.017000 46.000000
221.130800 110.000000
221.259500 46.000000
222.012100 64.000000
222.079200 234.000000
222.107500 62.000000
222.222300 50.000000
222.261100 40.000000
222.970900 52.000000
222.991400 72.000000
223.015400 60.000000
223.068900 44.000000
223.085300 48.000000
223.147000 844.000000
223.269100 74.000000
224.067500 36.000000
224.149800 134.000000
224.171200 60.000000
225.126400 94.000000
225.163900 1332.000000
226.104800 38.000000
226.166300 334.000000
226.228000 36.000000
227.142700 8540.000000
227.178800 3108.000000
228.071700 126.000000
228.093200 66.000000
228.147000 1294.000000
228.181800 630.000000
229.158400 1400.000000
229.190400 146.000000
230.127900 48.000000
230.138600 46.000000
230.160300 186.000000
231.007200 106.000000
231.173500 244.000000
232.089800 56.000000
232.150900 40.000000
232.179700 56.000000
232.962000 40.000000
233.253200 38.000000
233.935200 86.000000
234.049100 44.000000
234.080700 336.000000
234.134300 84.000000
234.253600 62.000000
234.999400 84.000000
235.081300 72.000000
235.146700 228.000000
235.343500 52.000000
236.004100 108.000000
236.098300 82.000000
236.126600 36.000000
236.262500 64.000000
237.112300 70.000000
237.164000 928.000000
238.154000 54.000000
238.166400 134.000000
238.332600 58.000000
238.970200 44.000000
239.133600 36.000000
239.178800 566.000000
240.177300 100.000000
240.201700 40.000000
240.286400 36.000000
241.017600 104.000000
241.160100 1300.000000
241.195100 1766.000000
241.947900 36.000000
242.051400 70.000000
242.064400 40.000000
242.160900 192.000000
242.198500 486.000000
242.250300 64.000000
243.140700 64.000000
243.174400 786.000000
243.960400 38.000000
244.175800 210.000000
245.147900 38.000000
245.189200 122.000000
246.080500 126.000000
246.191900 64.000000
246.263400 56.000000
247.250200 44.000000
247.327700 38.000000
248.095800 856.000000
248.220000 136.000000
248.284900 66.000000
248.988800 38.000000
249.026800 40.000000
249.097600 104.000000
249.161700 226.000000
249.256100 38.000000
250.112200 218.000000
250.169800 94.000000
250.267700 46.000000
251.177700 358.000000
252.083000 60.000000
252.179900 94.000000
252.269900 38.000000
252.289100 38.000000
253.159700 138.000000
253.194100 480.000000
253.293400 70.000000
254.100600 42.000000
254.199700 60.000000
255.173200 766.000000
255.209100 160.000000
255.270800 104.000000
256.176800 140.000000
256.197200 38.000000
256.217500 74.000000
257.016500 44.000000
257.074000 42.000000
257.189200 114.000000
257.215300 60.000000
258.113100 68.000000
259.114900 38.000000
259.164000 46.000000
259.936900 46.000000
260.013700 68.000000
260.094500 320.000000
260.167400 36.000000
261.096800 42.000000
261.139500 54.000000
261.161300 72.000000
261.216500 60.000000
261.986400 52.000000
262.051600 40.000000
262.111800 440.000000
262.212900 58.000000
262.267000 38.000000
263.117000 154.000000
263.180200 566.000000
263.354700 74.000000
264.178200 122.000000
264.286700 44.000000
265.116300 54.000000
265.193400 190.000000
266.019900 52.000000
266.148700 36.000000
267.028500 44.000000
267.176000 140.000000
267.198100 66.000000
267.211800 92.000000
267.233400 56.000000
268.175500 56.000000
268.212300 64.000000
268.224900 68.000000
268.257100 60.000000
268.950700 48.000000
269.187900 106.000000
270.952600 40.000000
271.090400 54.000000
271.166600 60.000000
271.202100 54.000000
271.277900 76.000000
271.291000 54.000000
272.328900 40.000000
273.022400 62.000000
273.336200 76.000000
273.944500 38.000000
273.989700 80.000000
274.020400 40.000000
274.111900 552.000000
275.109200 72.000000
276.101200 98.000000
276.131100 110.000000
277.128300 44.000000
277.195100 588.000000
278.021400 66.000000
278.198500 132.000000
278.963200 50.000000
279.143500 44.000000
279.180000 38.000000
279.209400 318.000000
279.239000 62.000000
279.947400 42.000000
280.130800 66.000000
280.215200 118.000000
281.040000 40.000000
281.065800 50.000000
281.188800 470.000000
281.226600 270.000000
282.013400 62.000000
282.111100 76.000000
282.196000 70.000000
282.230200 90.000000
283.068300 74.000000
283.185800 42.000000
283.208000 168.000000
283.244800 62.000000
284.019400 84.000000
284.030700 46.000000
284.157200 64.000000
284.217200 68.000000
284.245000 62.000000
284.279200 54.000000
285.102800 42.000000
285.254600 60.000000
286.105700 162.000000
286.293100 54.000000
286.344100 38.000000
287.205200 46.000000
287.233400 64.000000
287.976600 44.000000
288.128100 220.000000
289.129900 116.000000
290.096700 36.000000
290.124700 50.000000
290.198600 44.000000
290.305100 70.000000
290.962900 50.000000
291.209800 210.000000
292.024300 50.000000
292.061200 54.000000
292.133000 80.000000
292.214600 74.000000
292.339300 38.000000
292.949600 46.000000
293.049600 50.000000
293.101400 74.000000
293.127100 46.000000
293.226200 902.000000
293.268600 50.000000
293.311900 82.000000
293.340200 48.000000
294.006700 40.000000
294.072800 128.000000
294.229700 194.000000
295.205100 1094.000000
295.241500 1928.000000
295.952600 54.000000
296.008200 88.000000
296.086600 38.000000
296.209500 210.000000
296.246000 410.000000
296.342700 64.000000
297.075900 46.000000
297.245900 64.000000
299.137800 64.000000
300.006000 36.000000
300.019300 36.000000
300.125200 442.000000
300.147600 76.000000
300.991700 36.000000
301.128800 80.000000
302.020100 36.000000
302.140100 128.000000
302.222800 74.000000
302.341800 70.000000
303.128800 60.000000
303.147200 98.000000
304.356600 54.000000
305.068700 38.000000
305.081700 38.000000
305.203600 52.000000
305.957600 52.000000
307.050400 42.000000
307.242100 48.000000
307.311900 58.000000
308.219400 36.000000
308.325900 40.000000
308.961600 76.000000
309.014100 66.000000
309.121700 96.000000
309.224100 106.000000
309.255800 1314.000000
309.963400 44.000000
309.987400 40.000000
310.078000 54.000000
310.136000 56.000000
310.191900 50.000000
310.239800 54.000000
310.260500 306.000000
311.112500 36.000000
311.250200 40.000000
311.986700 40.000000
312.159000 44.000000
312.206000 52.000000
312.220600 36.000000
312.293900 40.000000
313.320800 56.000000
314.002900 54.000000
314.122200 38.000000
314.145900 240.000000
314.229900 60.000000
315.185700 40.000000
316.139100 68.000000
316.155600 198.000000
316.291400 52.000000
317.022000 56.000000
317.351100 80.000000
318.167900 62.000000
319.242000 12946.000000
320.245500 3004.000000
320.990700 52.000000
321.148400 76.000000
321.250100 452.000000
321.339700 62.000000
321.964000 38.000000
322.092100 50.000000
323.129300 52.000000
323.207700 50.000000
324.011500 96.000000
324.123200 40.000000
326.137600 36.000000
326.354500 42.000000
327.136900 40.000000
327.269000 42.000000
327.293400 44.000000
328.157300 226.000000
328.241000 42.000000
328.303200 40.000000
329.154700 110.000000
330.178300 54.000000
330.977300 40.000000
332.261500 82.000000
334.072000 42.000000
336.239400 36.000000
336.250400 36.000000
336.331400 64.000000
337.252300 23446.000000
338.256000 5456.000000
339.163500 42.000000
339.242600 38.000000
339.258800 350.000000
340.000900 54.000000
340.113900 60.000000
340.133300 58.000000
340.156700 120.000000
340.190100 46.000000
340.264400 56.000000
341.160000 70.000000
342.175100 256.000000
344.187900 188.000000
344.986600 100.000000
345.156800 36.000000
345.270500 36.000000
347.067800 76.000000
347.287700 50.000000
349.098000 48.000000
351.977800 66.000000
352.157600 558.000000
352.194500 36.000000
353.158100 58.000000
353.243300 38.000000
354.003300 66.000000
354.147200 56.000000
354.171900 452.000000
354.325500 38.000000
355.177300 50.000000
355.266200 332.000000
356.026000 66.000000
356.178800 146.000000
356.190800 154.000000
356.264500 126.000000
357.186200 48.000000
358.199200 44.000000
358.275800 48.000000
358.982800 64.000000
361.005400 40.000000
361.102800 52.000000
362.280200 38.000000
365.080000 50.000000
366.174300 192.000000
367.027700 38.000000
367.174100 126.000000
368.187200 618.000000
368.225900 42.000000
368.264500 46.000000
369.129400 46.000000
369.193600 62.000000
370.179700 80.000000
370.190500 58.000000
372.956100 36.000000
374.034400 44.000000
377.035600 134.000000
377.280100 46.000000
377.969800 64.000000
380.191400 46.000000
380.207000 40.000000
382.027900 58.000000
382.198100 60.000000
383.066700 52.000000
383.209000 44.000000
384.222500 54.000000
385.225300 72.000000
387.193600 60.000000
388.195600 50.000000
390.149300 36.000000
392.194600 82.000000
392.238900 94.000000
394.181900 56.000000
394.207200 46.000000
398.348600 40.000000
400.142100 58.000000
400.181000 40.000000
404.220900 48.000000
406.200700 86.000000
407.326100 36.000000
407.939200 50.000000
408.224400 212.000000
409.224100 92.000000
410.216000 40.000000
410.262000 40.000000
417.197100 44.000000
417.237400 60.000000
420.219600 108.000000
423.222900 42.000000
428.135400 64.000000
429.286600 36.000000
431.144400 40.000000
433.278900 64.000000
434.247000 66.000000
436.192200 40.000000
436.986800 38.000000
441.939400 36.000000
441.995500 38.000000
443.957400 38.000000
444.258500 230.000000
445.138600 38.000000
445.187100 38.000000
445.214900 38.000000
445.261600 78.000000
446.104200 42.000000
448.938300 46.000000
453.189200 50.000000
457.186100 38.000000
459.027100 40.000000
461.202000 46.000000
462.267400 15528.000000
463.270400 3962.000000
463.998100 62.000000
464.160000 54.000000
464.211300 124.000000
464.268500 1006.000000
465.103300 66.000000
465.188000 62.000000
465.268500 158.000000
466.214000 48.000000
466.271000 38.000000
466.297900 40.000000
467.062400 40.000000
467.218800 36.000000
472.189200 36.000000
480.281800 132.000000
480.315700 70.000000
480.979900 54.000000
485.024700 54.000000
490.981500 62.000000
498.278200 36.000000
501.937600 38.000000
502.244900 36.000000
519.265800 82.000000
521.183300 38.000000

