>compound RP29577206
>parentmass 195.0652
>ionization [M+H]+
>formula C10H10O4
>rt 246.720000
>profile qtof
#smiles_iso COC(=O)C1=CC=CC=C1C(=O)OC
#smiles_can COC(=O)C1=CC=CC=C1C(=O)OC
#inchikey NIQCNGHVCWTJSM-UHFFFAOYSA-N
#pubchem_id 8554
#mb_accession RP019501,RP019502,RP019503

>ms2peaks
77.038100 2218.000000
133.029000 2658.000000
163.039500 2130820.000000
164.041900 297590.000000
195.064800 27350.000000

>ms2peaks
77.037800 69600.000000
79.053700 30810.000000
92.025300 6296.000000
95.048800 18126.000000
105.033200 8248.000000
105.044400 6194.000000
107.049000 3766.000000
133.028600 122692.000000
134.032200 8768.000000
135.044300 92940.000000
136.047600 5838.000000
163.038800 2101588.000000
164.042000 226422.000000

>ms2peaks
67.053700 2152.000000
77.039200 1454078.000000
81.032800 14006.000000
91.053700 21714.000000
92.025000 945326.000000
93.028600 52014.000000
95.048500 652742.000000
96.052200 36236.000000
105.033200 242222.000000
105.044200 282100.000000
106.036900 15530.000000
107.049100 14194.000000
118.065400 1586.000000
120.020700 50168.000000
121.023900 3610.000000
133.028600 119944.000000
134.032200 8678.000000
135.044300 135464.000000
136.047500 10756.000000
138.031600 6236.000000
163.038600 66088.000000
164.042400 5366.000000

