>compound RP30249284
>parentmass 147.0764
>ionization [M+H]+
>formula C5H10N2O3
>rt 36.240000
>profile qtof
#smiles_iso C(CC(=O)N)[C@@H](C(=O)O)N
#smiles_can C(CC(=O)N)C(C(=O)O)N
#inchikey ZDXPYRJPNDTMRX-VKHMYHEASA-N
#pubchem_id 5961
#mb_accession RP001301,RP001302,RP001303

>ms2peaks
81.044900 48.000000
83.060600 52.000000
84.044200 21494.000000
85.026900 168.000000
85.998700 42.000000
101.071200 3440.000000
102.054700 338.000000
116.020500 50.000000
124.021500 40.000000
130.050000 13228.000000
132.053700 62.000000
147.076000 10940.000000

>ms2peaks
74.022700 148.000000
84.044100 104312.000000
85.028000 1196.000000
86.047700 310.000000
95.012800 130.000000
101.071300 562.000000
102.055300 1018.000000
130.049700 1944.000000
131.057700 118.000000
147.075700 158.000000

>ms2peaks
55.017400 74.000000
66.034400 192.000000
74.023700 212.000000
74.060200 42.000000
83.037300 68.000000
84.044300 10176.000000
85.028000 204.000000

