>compound RP31503428
>parentmass 375.28939999999994
>ionization [M+H]+
>formula C24H38O3
>rt 351.600000
>profile qtof
#smiles_iso CC(CCC(=O)O)C1CCC2C1(C=CC3C2CCC4C3(CCC(C4)O)C)C
#smiles_can CC(CCC(=O)O)C1CCC2C1(C=CC3C2CCC4C3(CCC(C4)O)C)C
#inchikey FEGCPHIPSRBREU-UHFFFAOYSA-N
#pubchem_id 3972785
#mb_accession RP007501,RP007502,RP007503

>ms2peaks
67.054000 56.000000
89.120000 38.000000
100.040300 78.000000
111.009800 40.000000
121.087000 38.000000
129.065400 60.000000
134.045100 48.000000
140.021500 48.000000
140.106000 38.000000
144.115900 64.000000
144.138300 84.000000
146.116800 58.000000
152.095500 48.000000
153.089500 90.000000
155.056400 44.000000
156.043700 54.000000
157.100200 52.000000
164.270500 42.000000
165.126700 68.000000
165.222500 42.000000
166.042900 50.000000
167.101600 66.000000
167.154200 42.000000
167.200100 54.000000
169.118600 70.000000
172.203200 38.000000
173.092500 38.000000
173.178800 72.000000
175.156800 58.000000
176.120000 62.000000
177.164700 40.000000
178.041700 42.000000
178.122500 58.000000
179.104300 64.000000
180.114700 42.000000
181.036600 60.000000
181.101000 54.000000
181.122100 150.000000
182.011100 44.000000
184.051500 58.000000
185.178100 70.000000
187.136700 54.000000
189.163600 108.000000
191.174000 48.000000
195.136400 172.000000
200.126500 50.000000
201.091400 40.000000
201.163300 164.000000
202.098300 68.000000
203.079900 58.000000
205.006400 38.000000
205.036900 58.000000
206.044600 44.000000
207.137700 56.000000
208.015500 42.000000
210.157200 48.000000
211.147600 38.000000
214.006300 38.000000
215.108300 66.000000
215.175800 82.000000
217.077300 66.000000
217.191400 46.000000
218.024700 50.000000
218.163500 74.000000
219.149300 38.000000
220.058400 62.000000
220.153100 66.000000
221.155800 58.000000
225.171100 38.000000
226.135600 50.000000
229.183900 38.000000
229.197000 114.000000
231.044400 72.000000
231.082700 54.000000
231.169600 76.000000
236.998500 44.000000
237.114200 48.000000
240.173700 38.000000
241.194400 48.000000
243.209900 148.000000
243.993900 38.000000
244.108400 62.000000
244.228300 38.000000
245.160900 46.000000
246.990900 46.000000
247.168700 58.000000
249.045400 66.000000
249.174600 42.000000
250.167400 56.000000
257.038500 50.000000
257.228700 40.000000
258.009600 40.000000
260.994400 38.000000
262.121000 84.000000
262.999100 42.000000
263.023300 54.000000
264.993200 50.000000
265.119400 38.000000
266.248300 48.000000
267.233100 68.000000
270.171600 42.000000
273.152300 72.000000
274.192100 76.000000
275.199400 70.000000
275.274500 42.000000
276.065400 48.000000
276.204900 94.000000
276.220700 54.000000
282.100300 52.000000
284.143800 38.000000
285.990700 48.000000
286.031600 38.000000
286.132900 58.000000
287.197900 100.000000
293.197900 66.000000
296.272500 42.000000
297.258100 54.000000
300.219500 64.000000
301.213400 58.000000
306.055100 62.000000
308.000900 38.000000
309.113700 52.000000
310.067900 64.000000
310.087200 66.000000
311.045600 46.000000
311.131400 110.000000
312.237700 74.000000
312.266900 92.000000
313.085200 46.000000
314.198200 44.000000
314.238100 42.000000
314.255600 56.000000
315.093400 56.000000
317.105400 78.000000
320.167300 40.000000
321.135400 60.000000
321.256600 136.000000
322.195700 56.000000
323.138400 50.000000
323.281900 68.000000
327.234200 72.000000
328.271700 64.000000
333.056000 42.000000
333.284800 50.000000
338.132400 42.000000
339.267200 1528.000000
340.269900 198.000000
341.188600 80.000000
342.227400 62.000000
343.081800 94.000000
346.223700 74.000000
348.028700 40.000000
348.267300 78.000000
350.171600 48.000000
350.199200 60.000000
350.244700 58.000000
350.256100 50.000000
352.134600 74.000000
352.258500 46.000000
354.288400 56.000000
355.261500 108.000000
357.278400 36138.000000
358.282000 9028.000000
359.009300 46.000000
359.037200 42.000000
359.155100 66.000000
359.283500 762.000000
361.214800 56.000000
362.256700 40.000000
364.246900 98.000000
366.061900 48.000000
373.271600 306.000000
375.288400 25612.000000
377.266000 190.000000
377.295000 680.000000

>ms2peaks
67.054000 164.000000
69.069700 64.000000
77.026400 64.000000
83.085000 162.000000
85.065500 90.000000
92.058300 72.000000
92.249300 48.000000
93.041500 58.000000
93.069400 38.000000
96.088400 38.000000
101.039200 38.000000
101.059000 110.000000
102.114900 102.000000
105.069300 70.000000
105.278100 50.000000
106.192800 54.000000
107.086000 64.000000
115.075000 108.000000
121.037800 44.000000
121.098200 102.000000
122.109900 60.000000
131.033000 90.000000
131.082700 68.000000
135.117600 80.000000
137.013600 38.000000
138.047400 70.000000
142.108900 48.000000
144.171000 40.000000
146.024200 62.000000
147.116400 318.000000
148.119200 86.000000
149.092700 64.000000
149.132900 228.000000
151.111900 88.000000
152.021000 52.000000
157.195900 40.000000
159.117500 48.000000
161.132600 676.000000
162.065000 86.000000
162.136100 102.000000
163.111000 90.000000
163.148600 406.000000
165.005600 42.000000
167.105700 94.000000
169.100500 60.000000
173.133300 86.000000
174.161400 86.000000
175.147900 510.000000
176.001700 50.000000
177.126700 58.000000
177.152700 48.000000
177.186700 50.000000
179.000400 68.000000
179.141800 96.000000
180.125400 90.000000
181.124000 658.000000
182.259000 68.000000
183.115300 38.000000
185.131100 40.000000
186.021600 62.000000
187.148000 150.000000
189.124900 40.000000
189.162900 614.000000
191.070300 76.000000
192.135700 46.000000
193.121900 234.000000
195.041100 42.000000
195.138000 638.000000
196.124000 74.000000
197.982700 66.000000
199.145300 40.000000
200.164500 54.000000
200.251700 44.000000
201.163300 462.000000
202.060900 38.000000
202.169200 106.000000
202.191300 44.000000
203.142200 74.000000
203.178400 514.000000
204.183200 48.000000
207.137400 706.000000
208.142700 102.000000
208.188800 40.000000
208.984900 60.000000
209.130500 48.000000
209.154700 374.000000
210.218100 50.000000
211.052500 44.000000
211.147600 108.000000
213.087200 58.000000
215.178800 978.000000
216.183200 144.000000
217.036500 38.000000
217.194200 284.000000
219.170700 142.000000
221.027800 50.000000
221.151800 460.000000
223.167700 138.000000
224.082400 64.000000
225.004900 42.000000
225.170700 68.000000
226.121800 42.000000
227.083900 66.000000
227.175300 56.000000
228.266300 44.000000
229.158300 46.000000
229.194000 512.000000
230.198000 90.000000
232.000800 38.000000
234.174600 40.000000
234.294000 42.000000
234.987900 72.000000
235.075700 76.000000
235.155300 42.000000
235.169000 170.000000
236.037700 58.000000
236.171500 128.000000
236.996900 70.000000
237.183400 192.000000
240.198000 46.000000
241.172100 50.000000
241.194400 76.000000
243.173200 52.000000
243.209700 676.000000
244.058100 48.000000
244.182800 48.000000
244.212400 40.000000
247.075700 64.000000
247.167500 404.000000
249.184400 176.000000
249.230900 52.000000
250.170300 42.000000
250.189200 114.000000
252.056500 54.000000
254.119900 40.000000
256.227900 80.000000
257.185000 126.000000
258.128900 38.000000
258.194900 82.000000
258.231700 74.000000
261.034300 38.000000
261.182900 454.000000
261.999500 44.000000
262.187100 92.000000
263.199600 182.000000
264.027500 96.000000
264.198400 60.000000
265.204300 58.000000
268.214600 40.000000
270.104200 44.000000
272.013900 46.000000
272.236700 82.000000
273.180300 76.000000
274.262700 70.000000
275.199000 580.000000
276.198200 64.000000
278.152600 42.000000
279.206500 42.000000
280.050800 38.000000
280.229500 44.000000
281.229100 58.000000
282.141600 38.000000
284.250000 38.000000
287.071500 44.000000
287.131700 50.000000
288.008900 58.000000
291.070100 38.000000
291.240300 44.000000
292.060700 52.000000
292.219900 60.000000
295.243200 92.000000
296.032000 40.000000
297.257800 146.000000
298.268100 70.000000
299.031200 48.000000
301.215700 122.000000
302.044400 38.000000
304.049300 56.000000
305.267500 66.000000
310.061300 58.000000
310.280800 152.000000
311.129000 44.000000
311.145300 48.000000
312.282400 42.000000
313.188400 44.000000
315.231400 54.000000
318.291100 64.000000
321.256700 910.000000
322.262000 222.000000
323.248300 44.000000
326.091700 68.000000
327.007100 38.000000
339.102000 94.000000
339.268300 1802.000000
339.987400 52.000000
340.272000 524.000000
341.273400 148.000000
342.253300 74.000000
345.125400 46.000000
346.191200 58.000000
356.186600 44.000000
356.270500 88.000000
357.278000 37284.000000
358.281600 8574.000000
359.061000 44.000000
359.283700 852.000000
373.273100 68.000000
374.280700 42.000000
375.288000 1446.000000

>ms2peaks
52.088800 46.000000
56.177500 76.000000
59.048600 80.000000
61.088300 56.000000
65.038400 48.000000
67.029500 64.000000
71.048500 188.000000
79.053800 764.000000
80.057800 72.000000
81.069300 2338.000000
83.049000 132.000000
83.084800 418.000000
85.064300 208.000000
85.075800 52.000000
88.240400 54.000000
91.038800 46.000000
91.053900 572.000000
93.069400 982.000000
94.073600 42.000000
95.085000 1456.000000
97.064500 112.000000
99.022300 48.000000
105.069700 466.000000
107.058500 58.000000
107.085500 546.000000
108.088200 66.000000
109.063800 90.000000
109.100900 394.000000
110.104300 90.000000
114.198000 72.000000
116.084000 50.000000
117.067000 40.000000
119.085700 118.000000
121.101000 514.000000
123.076800 64.000000
123.117700 54.000000
133.100600 242.000000
133.273100 46.000000
134.104000 126.000000
135.117000 396.000000
135.230600 56.000000
136.119600 62.000000
138.140800 52.000000
143.084800 52.000000
145.101100 344.000000
146.105500 76.000000
147.116900 826.000000
149.132400 378.000000
151.988500 54.000000
155.032600 36.000000
155.085100 66.000000
156.008900 68.000000
156.045200 92.000000
157.102100 112.000000
159.116600 546.000000
160.124500 58.000000
161.132200 798.000000
162.135700 72.000000
163.112600 298.000000
164.150600 62.000000
169.099800 114.000000
170.223000 50.000000
171.115800 86.000000
173.132700 288.000000
175.110500 104.000000
175.147700 588.000000
176.115400 58.000000
176.150800 178.000000
176.235100 42.000000
177.126500 152.000000
177.162300 66.000000
178.131700 48.000000
178.166000 38.000000
181.122100 140.000000
183.092800 56.000000
183.116900 44.000000
185.132100 130.000000
186.137700 180.000000
187.147200 250.000000
188.150500 42.000000
189.123300 56.000000
189.164400 218.000000
191.104300 52.000000
191.141700 112.000000
195.116900 56.000000
196.122900 52.000000
197.131400 94.000000
199.024400 88.000000
199.084400 56.000000
199.147600 96.000000
201.121800 50.000000
201.162200 292.000000
201.277000 58.000000
202.169100 110.000000
203.179800 154.000000
207.137200 62.000000
209.150700 66.000000
211.148000 86.000000
213.162300 70.000000
214.166500 158.000000
215.179800 374.000000
216.187500 72.000000
217.158000 44.000000
217.196100 100.000000
218.201800 62.000000
219.174700 52.000000
220.063500 40.000000
221.154200 148.000000
222.148800 46.000000
225.164700 96.000000
229.193400 76.000000
233.149000 116.000000
235.148500 54.000000
235.169300 68.000000
238.190000 64.000000
241.192000 94.000000
243.168200 38.000000
243.210300 168.000000
245.223900 52.000000
246.185200 64.000000
247.167200 216.000000
249.171700 42.000000
249.185000 44.000000
250.191000 40.000000
257.190100 46.000000
261.185800 100.000000
263.202800 64.000000
273.181200 70.000000
275.196800 74.000000
276.204800 46.000000
279.210400 68.000000
284.246200 40.000000
287.203000 80.000000
295.238400 64.000000
298.259100 42.000000
313.249500 46.000000
321.251200 40.000000
339.264400 50.000000
341.240700 78.000000
355.995900 48.000000
357.277000 278.000000
358.281000 80.000000
360.264600 62.000000

