>compound RP32857363
>parentmass 372.2897
>ionization [M+H]+
>formula C24H37NO2
>rt 380.100000
>profile qtof
#smiles_iso CC/C=C\C/C=C\C/C=C\C/C=C\C/C=C\C/C=C\CCC(=O)NCCO
#smiles_can CCC=CCC=CCC=CCC=CCC=CCC=CCCC(=O)NCCO
#inchikey GEEHOLRSGZPBSM-KUBAVDMBSA-N
#pubchem_id 5283451
#mb_accession RP002501,RP002502,RP002503

>ms2peaks
60.043800 40.000000
62.001900 122.000000
91.053400 40.000000
156.031300 56.000000
163.042100 40.000000
163.144800 64.000000
171.113100 38.000000
173.131300 128.000000
175.113000 56.000000
175.147800 142.000000
176.155600 44.000000
177.127800 38.000000
183.123800 64.000000
185.131200 126.000000
187.147000 146.000000
188.153200 72.000000
189.125700 154.000000
196.132700 106.000000
196.182500 52.000000
197.132200 78.000000
199.112000 110.000000
201.164300 84.000000
202.172300 42.000000
208.131600 66.000000
209.040000 42.000000
210.147800 36.000000
211.148000 42.000000
213.123800 56.000000
213.160200 150.000000
215.180500 150.000000
220.132600 62.000000
223.147600 70.000000
224.163200 86.000000
225.162800 66.000000
226.179700 36.000000
227.144400 36.000000
227.180900 216.000000
228.044300 40.000000
229.156900 52.000000
230.163200 42.000000
231.173700 58.000000
235.013800 52.000000
238.179100 56.000000
241.161000 120.000000
242.162100 118.000000
247.288400 72.000000
250.179000 158.000000
251.181100 124.000000
254.204900 50.000000
262.179000 44.000000
264.198100 76.000000
265.192000 60.000000
267.212900 44.000000
269.226300 302.000000
270.228600 72.000000
274.273400 38.000000
281.196800 42.000000
283.248100 40.000000
290.211100 78.000000
291.218300 38.000000
293.225100 194.000000
293.286500 50.000000
310.066600 62.000000
311.237900 158.000000
312.235100 48.000000
339.008400 48.000000
354.278600 162.000000
354.303400 42.000000
360.079400 68.000000
371.243100 62.000000
372.290300 5176.000000
374.201300 52.000000
374.295400 138.000000

>ms2peaks
66.066800 70.000000
67.053900 258.000000
77.998000 40.000000
88.018900 92.000000
91.054200 152.000000
92.057700 42.000000
93.070500 150.000000
95.086500 100.000000
96.090000 58.000000
105.042600 66.000000
121.100700 132.000000
130.087500 84.000000
131.144200 52.000000
135.078900 40.000000
145.101400 64.000000
146.011400 50.000000
146.105600 82.000000
147.115400 114.000000
149.095700 96.000000
159.117100 48.000000
160.119600 56.000000
161.132800 76.000000
171.117200 128.000000
173.132900 144.000000
175.110100 40.000000
181.101900 70.000000
185.097200 48.000000
187.112500 54.000000
187.146400 82.000000
190.133000 56.000000
196.095100 46.000000
199.113500 142.000000
199.148700 144.000000
201.127700 76.000000
203.141300 66.000000
203.180300 88.000000
210.137300 60.000000
210.174100 68.000000
212.153700 44.000000
215.031800 42.000000
223.147000 176.000000
224.103300 58.000000
227.178800 140.000000
228.183700 36.000000
230.156100 40.000000
267.211900 78.000000
269.224300 108.000000
272.197400 64.000000
283.263600 40.000000
290.046700 42.000000
293.228500 56.000000
294.230400 46.000000
298.224300 66.000000
311.246200 88.000000
312.268100 64.000000
354.272500 52.000000
369.220200 88.000000
370.228700 48.000000
370.299500 48.000000
372.293100 394.000000

>ms2peaks
55.054200 78.000000
60.044800 76.000000
65.038800 62.000000
68.049700 42.000000
69.070400 86.000000
79.053800 760.000000
81.069400 202.000000
91.053800 286.000000
93.070400 226.000000
105.070100 260.000000
141.069000 46.000000
143.084300 78.000000
144.093200 78.000000
145.100000 80.000000
157.100100 62.000000
158.117600 60.000000
159.017800 36.000000
172.124700 58.000000
261.216400 66.000000

