>compound RP32641634
>parentmass 272.1856
>ionization [M+H]+
>formula C14H25NO4
>rt 263.040000
>profile qtof
#smiles_iso CCCCCCCC(CC(=O)NC1CCOC1=O)O
#smiles_can CCCCCCCC(CC(=O)NC1CCOC1=O)O
#inchikey DOICJCCMIBBSOO-UHFFFAOYSA-N
#pubchem_id 11521893
#mb_accession RP021601,RP021602,RP021603

>ms2peaks
69.069400 3404.000000
74.023000 4978.000000
74.059300 16312.000000
81.069900 524.000000
83.085300 1286.000000
84.043900 3880.000000
85.027800 742.000000
93.069000 540.000000
95.084900 618.000000
97.064400 1306.000000
102.054500 455592.000000
107.086300 560.000000
135.116100 1718.000000
153.126700 6950.000000
154.130000 640.000000
214.180700 480.000000
226.179200 1502.000000
236.163700 1018.000000
244.190400 670.000000
254.174400 77374.000000
255.177700 10284.000000
256.180600 608.000000
272.184900 173340.000000
274.190800 2408.000000

>ms2peaks
55.017400 306.000000
59.047900 458.000000
71.048500 3758.000000
71.084800 366.000000
73.065100 600.000000
74.023000 27602.000000
80.057400 358.000000
81.069300 5944.000000
82.073100 310.000000
83.048600 1378.000000
83.084800 17100.000000
84.043800 18518.000000
85.028000 2510.000000
85.065300 592.000000
87.079400 288.000000
91.054000 296.000000
93.069600 7518.000000
94.072900 596.000000
95.085000 4194.000000
96.088400 304.000000
97.064400 10328.000000
98.067900 660.000000
102.054500 279946.000000
104.058800 752.000000
107.085300 5178.000000
109.101000 1846.000000
111.080900 1144.000000
111.116400 1774.000000
125.131500 564.000000
135.116200 6546.000000
136.120400 420.000000
153.126500 7650.000000
154.130700 864.000000
170.152500 606.000000
208.169700 374.000000
226.178900 1292.000000
236.163800 2554.000000
237.167900 432.000000
254.174700 4308.000000
255.178300 610.000000
272.184500 498.000000

>ms2peaks
49.007200 100.000000
53.038200 406.000000
57.032500 872.000000
59.048600 654.000000
65.038000 566.000000
67.053600 18702.000000
71.048500 1776.000000
71.084900 474.000000
72.008200 332.000000
73.063800 1034.000000
74.023000 79796.000000
74.059400 69398.000000
79.053700 12470.000000
80.057600 786.000000
81.069400 6600.000000
82.028200 124.000000
83.048400 2102.000000
83.085100 13810.000000
84.043800 25446.000000
85.027900 5722.000000
85.064300 306.000000
87.043900 116.000000
91.053900 2002.000000
93.069400 8636.000000
95.049000 670.000000
95.085000 2116.000000
96.088600 142.000000
97.064400 5332.000000
100.039700 220.000000
102.054500 26600.000000
104.057300 144.000000
105.044400 166.000000
105.070600 408.000000
107.085400 3404.000000
109.100900 590.000000
111.080400 386.000000
111.116700 120.000000
135.116100 438.000000
153.126900 86.000000

