>compound RP33965704
>parentmass 510.3554
>ionization [M+H]+
>formula C25H52NO7P
>rt 377.460000
>profile qtof
#smiles_iso CCCCCCCCCCCCCCCCC(=O)OC[C@H](COP(=O)([O-])OCC[N+](C)(C)C)O
#smiles_can CCCCCCCCCCCCCCCCC(=O)OCC(COP(=O)([O-])OCC[N+](C)(C)C)O
#inchikey SRRQPVVYXBTRQK-XMMPIXPASA-N
#pubchem_id 24779463
#mb_accession RP026201,RP026202,RP026203

>ms2
104.106800 2008.000000
184.072600 594.000000
492.345000 2296.000000
493.347000 484.000000
509.266500 646.000000
509.325300 736.000000
509.349600 924.000000
510.355400 453278.000000
512.360900 23456.000000

>ms2
86.095700 1356.000000
104.106700 56454.000000
184.072700 29922.000000
185.076800 524.000000
492.345400 27826.000000
493.349100 5776.000000
494.351500 696.000000
509.263600 432.000000
509.318000 606.000000
509.349100 616.000000
510.355600 325910.000000
512.361700 16652.000000

>ms2
69.069200 298.000000
71.084800 2238.000000
72.081400 144.000000
81.069200 584.000000
83.085200 618.000000
85.100800 1058.000000
86.095900 41166.000000
95.085200 746.000000
97.100700 552.000000
99.116900 168.000000
104.106700 87396.000000
106.111900 424.000000
109.100600 338.000000
111.115200 140.000000
124.999000 2220.000000
128.328600 140.000000
143.011700 154.000000
163.014300 574.000000
166.062300 1486.000000
181.026200 490.000000
184.072600 132188.000000
185.076500 6252.000000
186.076400 712.000000
199.036800 164.000000
240.098600 218.000000
258.110500 1698.000000
259.115200 134.000000
271.264500 138.000000
297.275100 158.000000
327.289900 7216.000000
328.293300 1190.000000
433.271400 1296.000000
434.277800 252.000000
492.345100 3486.000000
493.346800 860.000000
510.356400 562.000000

