>compound RP34569797
>parentmass 459.0922
>ionization [M+H]+
>formula C22H18O11
>rt 164.880000
>profile qtof
#smiles_iso C1[C@H]([C@H](OC2=CC(=CC(=C21)O)O)C3=CC(=C(C(=C3)O)O)O)OC(=O)C4=CC(=C(C(=C4)O)O)O
#smiles_can C1C(C(OC2=CC(=CC(=C21)O)O)C3=CC(=C(C(=C3)O)O)O)OC(=O)C4=CC(=C(C(=C4)O)O)O
#inchikey WMBWREPUVVBILR-WIYYLYMNSA-N
#pubchem_id 65064
#mb_accession RP017901,RP017902,RP017903

>ms2
88.125400 90.000000
91.132700 132.000000
109.123000 108.000000
116.049900 126.000000
124.995400 110.000000
133.123200 116.000000
135.114100 158.000000
139.038600 11560.000000
140.042700 754.000000
141.044700 140.000000
151.038600 6762.000000
152.041600 582.000000
153.018300 480.000000
153.041800 94.000000
154.073400 94.000000
157.070900 182.000000
163.039700 260.000000
167.078900 94.000000
176.059200 94.000000
177.046300 120.000000
181.050500 198.000000
187.096600 98.000000
190.073800 122.000000
204.997200 164.000000
205.047800 104.000000
206.127800 140.000000
208.064500 98.000000
215.070100 162.000000
223.048800 102.000000
224.127300 94.000000
230.118300 148.000000
238.059000 114.000000
248.095000 150.000000
249.069800 96.000000
252.998700 98.000000
261.152800 110.000000
271.060900 220.000000
272.098300 134.000000
287.055300 1416.000000
288.060000 194.000000
289.070400 65266.000000
290.074100 9162.000000
291.016400 94.000000
291.050300 276.000000
291.075600 1000.000000
292.077300 108.000000
305.065500 5866.000000
306.069600 1092.000000
307.081400 1370.000000
308.083800 276.000000
312.127900 96.000000
332.008200 90.000000
333.060600 2780.000000
334.064000 430.000000
354.023200 116.000000
360.999600 110.000000
394.057600 102.000000
400.060200 102.000000
421.037300 104.000000
439.070600 118.000000
441.086700 158.000000
455.068600 116.000000
457.076500 860.000000
457.099900 112.000000
458.034100 118.000000
458.082200 234.000000
459.092500 88008.000000
461.098200 3508.000000
462.030400 94.000000

>ms2
58.004700 58.000000
64.039000 54.000000
72.041100 36.000000
73.015400 38.000000
76.075800 42.000000
79.017100 44.000000
83.060700 40.000000
84.114900 66.000000
89.044500 100.000000
90.041700 54.000000
94.066000 52.000000
95.049800 36.000000
96.099400 36.000000
97.008200 36.000000
97.016800 60.000000
98.031300 40.000000
99.102100 56.000000
102.078600 44.000000
103.998000 48.000000
106.005600 70.000000
106.083500 50.000000
107.995400 88.000000
110.056700 36.000000
115.147500 36.000000
116.011100 58.000000
116.025500 36.000000
117.040000 42.000000
118.026200 40.000000
120.099500 56.000000
121.998800 50.000000
122.115100 38.000000
124.058000 36.000000
125.967500 70.000000
127.047900 50.000000
130.013600 38.000000
130.029900 64.000000
133.064200 44.000000
133.106500 64.000000
135.113900 62.000000
136.000200 42.000000
136.087400 42.000000
136.995800 36.000000
137.992100 46.000000
139.038700 28574.000000
140.042000 2580.000000
140.997500 78.000000
141.043100 142.000000
141.076900 66.000000
142.025100 38.000000
142.052000 94.000000
142.074700 38.000000
143.130800 36.000000
147.995500 36.000000
148.134100 62.000000
148.973200 88.000000
149.022900 50.000000
150.139000 78.000000
151.038400 5794.000000
152.042100 628.000000
153.017800 3372.000000
155.046000 58.000000
155.076400 72.000000
159.065100 54.000000
160.044200 46.000000
163.038900 972.000000
164.043700 168.000000
167.035000 46.000000
172.011000 40.000000
173.014600 36.000000
173.037600 36.000000
173.056100 50.000000
173.116900 50.000000
175.039100 36.000000
175.996100 42.000000
177.051800 52.000000
177.978500 40.000000
177.992700 46.000000
178.028000 40.000000
179.034100 168.000000
181.049400 2260.000000
182.052600 382.000000
182.108300 62.000000
183.056200 60.000000
183.089900 40.000000
183.106300 40.000000
185.075000 52.000000
189.023400 50.000000
189.061600 38.000000
189.982300 62.000000
190.011100 82.000000
192.004100 62.000000
192.108900 68.000000
193.004900 60.000000
194.140100 66.000000
196.134700 88.000000
197.095300 54.000000
200.977000 48.000000
200.988600 66.000000
201.103900 42.000000
203.084800 50.000000
205.050200 522.000000
205.984600 38.000000
207.121500 38.000000
208.033600 50.000000
210.112200 48.000000
211.952700 110.000000
213.041000 76.000000
213.055600 92.000000
216.016600 114.000000
219.105200 96.000000
221.133500 48.000000
221.994400 42.000000
224.045500 38.000000
225.011300 70.000000
225.023800 56.000000
228.037400 38.000000
229.048400 100.000000
229.087400 40.000000
230.125100 42.000000
231.064100 74.000000
232.035400 50.000000
232.988700 64.000000
236.098700 40.000000
237.057700 92.000000
238.001100 46.000000
240.058400 64.000000
244.965300 62.000000
245.046400 52.000000
245.119200 36.000000
247.061600 82.000000
248.126400 46.000000
249.976900 42.000000
253.047400 94.000000
253.997500 60.000000
254.106000 42.000000
256.986100 38.000000
257.050600 38.000000
258.129700 36.000000
259.060800 208.000000
260.026000 86.000000
260.061600 50.000000
261.012600 38.000000
261.042600 46.000000
261.092800 46.000000
262.003800 58.000000
262.044100 44.000000
264.062400 36.000000
265.007200 36.000000
269.044600 56.000000
271.060400 248.000000
272.066400 36.000000
275.058200 44.000000
276.971700 36.000000
277.073200 74.000000
277.120900 72.000000
279.114400 46.000000
279.968600 36.000000
280.975500 38.000000
283.953800 50.000000
284.119900 38.000000
285.126500 66.000000
287.054300 990.000000
288.064900 200.000000
289.070900 23476.000000
290.074000 4036.000000
291.049800 218.000000
291.077700 396.000000
291.150100 42.000000
291.979900 44.000000
292.057500 114.000000
293.065000 132.000000
293.084700 70.000000
294.003400 46.000000
298.975700 98.000000
303.017400 46.000000
305.065500 4000.000000
306.068400 538.000000
307.081600 2564.000000
307.101000 292.000000
308.083300 360.000000
309.008200 56.000000
309.085000 80.000000
311.012100 50.000000
321.060700 250.000000
322.055300 66.000000
333.059700 356.000000
334.064500 70.000000
370.080600 52.000000
393.069100 70.000000
432.986700 72.000000
457.088300 36.000000
459.092600 366.000000
484.950800 36.000000

>ms2
53.038800 44.000000
55.054000 38.000000
59.086000 62.000000
67.054600 108.000000
68.996700 482.000000
71.070200 142.000000
79.002100 56.000000
79.017300 140.000000
79.998000 38.000000
80.009900 44.000000
85.987200 46.000000
93.033700 186.000000
93.988900 70.000000
95.049500 130.000000
96.991400 40.000000
98.011600 36.000000
98.073300 40.000000
99.103500 38.000000
100.039300 54.000000
101.023400 52.000000
102.079500 50.000000
107.072400 38.000000
108.042500 38.000000
110.031200 38.000000
110.078300 50.000000
111.007700 174.000000
111.043300 442.000000
112.047200 114.000000
113.095400 40.000000
121.028100 168.000000
121.038500 70.000000
123.042900 372.000000
124.998700 40.000000
125.026500 56.000000
127.041400 96.000000
128.043900 84.000000
133.027800 56.000000
135.040700 92.000000
137.067400 64.000000
139.038700 29148.000000
140.042300 2564.000000
141.033800 38.000000
141.044800 358.000000
141.069100 76.000000
142.048500 40.000000
143.036000 60.000000
143.113100 36.000000
144.962900 36.000000
145.071300 40.000000
146.979500 110.000000
151.039500 2212.000000
152.041900 246.000000
153.017900 4822.000000
153.991200 58.000000
154.020900 266.000000
154.076400 40.000000
156.048700 42.000000
159.040300 80.000000
160.018300 40.000000
161.060700 54.000000
162.067800 84.000000
163.038900 2708.000000
164.043400 246.000000
165.041900 56.000000
167.030000 58.000000
169.046600 86.000000
169.065700 40.000000
170.105800 48.000000
173.129100 38.000000
176.001600 62.000000
176.975500 56.000000
177.017600 42.000000
179.034100 614.000000
179.069600 238.000000
180.037700 58.000000
181.048300 1084.000000
182.052500 74.000000
183.045700 56.000000
185.058100 106.000000
186.039800 44.000000
187.036300 42.000000
187.074700 68.000000
188.045000 106.000000
190.129500 60.000000
191.070000 48.000000
192.017800 36.000000
195.067500 92.000000
199.037300 100.000000
201.054900 136.000000
202.999400 50.000000
203.035200 54.000000
203.044700 72.000000
204.961700 36.000000
205.049400 670.000000
205.075300 50.000000
207.026500 50.000000
213.053500 90.000000
215.068300 76.000000
221.038900 70.000000
221.047500 90.000000
223.044100 38.000000
223.059300 164.000000
227.031600 60.000000
229.048600 56.000000
231.033000 68.000000
231.064800 44.000000
236.951400 42.000000
238.996600 50.000000
241.048400 252.000000
243.062400 74.000000
244.983100 46.000000
245.038300 50.000000
247.061800 158.000000
248.057200 66.000000
249.006000 36.000000
257.045400 110.000000
258.051200 84.000000
259.060700 112.000000
259.102500 102.000000
265.072300 36.000000
269.036000 48.000000
271.059900 94.000000
271.119400 74.000000
272.065200 50.000000
273.048600 48.000000
276.988900 66.000000
287.054300 330.000000
288.058000 70.000000
289.070100 774.000000
290.073300 100.000000
305.067200 366.000000
306.063000 56.000000
331.055800 40.000000
337.965900 38.000000

