>compound RP34970399
>parentmass 275.1489
>ionization [M+H]+
>formula C13H22O6
>rt 175.560000
>profile qtof
#smiles_iso C[C@H]1[C@@H](C[C@H]([C@@H](O1)O[C@H](C)CC/C=C/C(=O)O)O)O
#smiles_can CC1C(CC(C(O1)OC(C)CCC=CC(=O)O)O)O
#inchikey GGHOMCWJOMBZEK-LHYQPRBASA-N
#pubchem_id 86289656
#mb_accession RP009801,RP009802,RP009803

>ms2peaks
65.038100 82.000000
68.057400 50.000000
80.058800 42.000000
81.069100 1080.000000
83.048700 564.000000
83.086100 72.000000
85.064400 2502.000000
88.074900 40.000000
95.048700 682.000000
96.053000 70.000000
99.022100 38.000000
103.076100 68.000000
109.064700 966.000000
113.059400 5020.000000
114.063200 424.000000
114.160500 40.000000
118.026000 46.000000
123.077500 72.000000
127.075100 7830.000000
128.078300 708.000000
131.070200 6214.000000
145.085500 4536.000000
147.148100 56.000000
147.174400 40.000000
153.034300 60.000000
162.017800 44.000000
163.075200 38.000000
165.014000 58.000000
172.131400 64.000000
192.013500 46.000000
205.143100 42.000000
211.087900 60.000000
223.131300 78.000000
226.050100 38.000000
239.126300 74.000000
239.140200 50.000000
243.124200 92.000000
243.989000 46.000000
257.138000 7204.000000
258.140500 964.000000
261.096700 36.000000
275.148700 3508.000000

>ms2peaks
55.017500 412.000000
59.048900 138.000000
68.058500 86.000000
68.997200 44.000000
69.032900 158.000000
71.048500 3088.000000
81.069100 5404.000000
83.048700 8572.000000
85.064300 15522.000000
86.014600 68.000000
89.131900 68.000000
91.060600 36.000000
95.048700 2136.000000
99.040100 48.000000
109.064300 5048.000000
110.068400 444.000000
113.059400 11924.000000
114.062900 534.000000
115.060300 44.000000
127.075000 4682.000000
131.069200 2036.000000
145.087900 74.000000
159.054900 62.000000
181.048500 38.000000
181.076600 44.000000
191.126900 46.000000
257.135600 152.000000
258.141800 160.000000

>ms2peaks
53.038100 154.000000
53.059600 50.000000
57.070100 250.000000
69.032900 318.000000
75.043300 224.000000
81.069300 13698.000000
83.048500 17086.000000
85.027800 272.000000
85.064600 5248.000000
87.044900 72.000000
95.048200 1310.000000
96.052800 66.000000
97.065400 54.000000
99.079500 106.000000
109.064200 1014.000000
110.067500 68.000000
113.059200 916.000000
114.062500 78.000000
127.074100 340.000000
131.070200 124.000000

