>compound RP34727920
>parentmass 284.222
>ionization [M+H]+
>formula C16H29NO3
>rt 347.940000
>profile qtof
#smiles_iso CCCCCCCCCCCC(=O)NC1CCOC1=O
#smiles_can CCCCCCCCCCCC(=O)NC1CCOC1=O
#inchikey WILLZMOKUUPJSL-UHFFFAOYSA-N
#pubchem_id 11565426
#mb_accession RP020501,RP020502,RP020503

>ms2peaks
67.053700 568.000000
71.084800 2658.000000
81.069100 1164.000000
83.085100 2104.000000
85.100500 1928.000000
95.085200 3952.000000
97.100900 492.000000
99.116200 288.000000
102.054700 67542.000000
109.101400 2576.000000
110.104900 260.000000
123.117100 394.000000
165.163000 474.000000
183.174100 36518.000000
256.227000 7262.000000
266.211300 10744.000000
267.215200 1320.000000
284.222200 192948.000000
286.227500 2894.000000

>ms2peaks
58.052100 78.000000
68.201400 46.000000
75.018700 70.000000
76.063600 210.000000
79.053800 182.000000
80.214000 42.000000
81.069500 11260.000000
82.073300 432.000000
83.084900 12816.000000
84.044200 1378.000000
85.100700 24730.000000
89.120400 48.000000
92.020900 52.000000
93.069000 42.000000
94.076900 54.000000
95.085200 23894.000000
97.101100 2778.000000
99.078800 160.000000
99.116500 1478.000000
101.094300 118.000000
102.054800 40874.000000
104.061200 208.000000
104.140500 56.000000
109.101000 8248.000000
110.105000 694.000000
113.133300 324.000000
114.055300 128.000000
119.060800 68.000000
122.037000 46.000000
123.116600 1042.000000
124.089300 132.000000
127.098400 58.000000
128.069900 60.000000
129.209600 48.000000
131.024800 54.000000
136.190600 56.000000
138.219500 48.000000
141.069600 98.000000
143.033600 46.000000
147.080000 46.000000
147.113900 78.000000
149.021700 70.000000
158.036300 56.000000
160.033800 42.000000
164.061200 58.000000
165.163400 1298.000000
166.167400 342.000000
170.155200 64.000000
183.173900 17108.000000
222.199200 66.000000
228.124200 50.000000
237.207100 44.000000
238.118000 56.000000
245.137500 44.000000
251.125800 48.000000
256.227800 328.000000
258.197900 102.000000
266.211200 7440.000000
267.193400 122.000000
267.215500 1280.000000
268.214300 78.000000
281.197100 66.000000
284.223000 1114.000000

>ms2peaks
68.071200 50.000000
70.065200 44.000000
72.031400 40.000000
74.023100 8520.000000
74.059500 17544.000000
76.026300 52.000000
76.205500 42.000000
78.221600 38.000000
81.069300 6522.000000
82.065000 92.000000
83.085400 1372.000000
84.044000 2064.000000
85.027800 2220.000000
85.063000 158.000000
85.101000 1840.000000
93.069400 424.000000
94.066000 60.000000
94.074000 52.000000
95.085300 5640.000000
96.088800 520.000000
97.100300 300.000000
99.117400 154.000000
101.227200 38.000000
102.054900 4092.000000
105.069800 38.000000
109.101400 656.000000
110.104000 152.000000
149.024700 68.000000
149.037200 66.000000
166.170100 56.000000
183.174400 248.000000

