>compound RP35583434
>parentmass 409.29490000000004
>ionization [M+H]+
>formula C24H40O5
>rt 277.020000
>profile qtof
#smiles_iso C[C@H](CCC(=O)O)[C@H]1CC[C@@H]2[C@@]1([C@H](C[C@H]3[C@H]2[C@@H](C[C@@H]4[C@@]3(CC[C@H](C4)O)C)O)O)C
#smiles_can CC(CCC(=O)O)C1CCC2C1(C(CC3C2C(CC4C3(CCC(C4)O)C)O)O)C
#inchikey BHQCQFFYRZLCQQ-PGHAKIONSA-N
#pubchem_id 160636
#mb_accession RP027101,RP027102,RP027103

>ms2peaks
96.080700 38.000000
104.161500 80.000000
117.164800 48.000000
128.010500 36.000000
130.998000 46.000000
158.067600 46.000000
161.080500 46.000000
162.292600 44.000000
165.056000 36.000000
177.066900 52.000000
189.090800 42.000000
191.046600 38.000000
196.049500 42.000000
197.283400 40.000000
208.097900 38.000000
209.092000 36.000000
212.249200 56.000000
212.983000 36.000000
214.143100 80.000000
228.028900 46.000000
231.117800 38.000000
231.209200 38.000000
238.115900 40.000000
244.108800 42.000000
245.023300 44.000000
251.999100 52.000000
254.158500 46.000000
255.109800 40.000000
256.192600 70.000000
257.201500 42.000000
262.060700 48.000000
267.033600 56.000000
268.203700 48.000000
270.111200 38.000000
270.987700 44.000000
273.074500 44.000000
274.082500 50.000000
278.283600 40.000000
286.072600 72.000000
287.067500 98.000000
294.117000 46.000000
295.976800 40.000000
301.986400 38.000000
303.973600 68.000000
304.025300 78.000000
304.174200 68.000000
305.000400 56.000000
311.178400 64.000000
314.291800 36.000000
319.241000 36.000000
324.211100 44.000000
336.256700 52.000000
338.260100 40.000000
340.103900 40.000000
346.170400 50.000000
349.180700 54.000000
350.010900 40.000000
355.050400 68.000000
355.263600 1318.000000
356.268600 172.000000
357.268200 60.000000
368.264200 62.000000
372.182600 38.000000
373.273300 15600.000000
374.277100 3948.000000
375.302000 38.000000
376.273400 46.000000
379.174200 42.000000
381.220100 38.000000
391.284000 1988.000000
391.306900 156.000000
392.285000 430.000000
393.295300 102.000000
407.250200 54.000000
409.293500 622.000000
411.187500 40.000000
412.164600 36.000000

>ms2peaks
89.035100 74.000000
91.042200 56.000000
123.115700 38.000000
125.269300 44.000000
131.048200 52.000000
136.029700 74.000000
143.082600 40.000000
146.104900 70.000000
147.116700 74.000000
152.982500 38.000000
154.129900 48.000000
159.115900 68.000000
161.131200 186.000000
163.039000 66.000000
169.123500 68.000000
172.133000 62.000000
177.127500 48.000000
182.079300 36.000000
185.026200 44.000000
185.136900 56.000000
187.149900 36.000000
190.216400 36.000000
193.124100 96.000000
195.137400 60.000000
195.163600 38.000000
197.202400 48.000000
198.209400 38.000000
201.030400 52.000000
205.085800 36.000000
209.137400 36.000000
209.319100 38.000000
210.009500 88.000000
211.145900 44.000000
213.162200 220.000000
214.071400 40.000000
214.253200 42.000000
215.142500 42.000000
217.153500 44.000000
221.154100 46.000000
223.148900 46.000000
223.168800 110.000000
225.161000 42.000000
227.142400 54.000000
227.177100 66.000000
229.159400 68.000000
230.037000 36.000000
231.174200 178.000000
232.181800 36.000000
233.224800 96.000000
234.194700 48.000000
235.169000 52.000000
236.221000 52.000000
239.180900 40.000000
241.175800 80.000000
241.191200 50.000000
243.051600 68.000000
243.176600 52.000000
245.154200 156.000000
246.157900 52.000000
247.168300 236.000000
247.985000 38.000000
248.172700 66.000000
248.249800 80.000000
249.091400 44.000000
249.129400 40.000000
252.195400 56.000000
252.265700 38.000000
254.201700 42.000000
255.204600 40.000000
259.168600 72.000000
259.199300 60.000000
260.980500 36.000000
261.063400 60.000000
261.988300 64.000000
262.161300 44.000000
263.043900 42.000000
263.197600 82.000000
266.295000 62.000000
268.163100 48.000000
270.077800 60.000000
273.190800 76.000000
277.276000 40.000000
279.190000 74.000000
279.229000 86.000000
281.108200 68.000000
289.001000 40.000000
290.151200 52.000000
295.203300 48.000000
297.079300 38.000000
299.063600 36.000000
299.200600 82.000000
300.175200 44.000000
300.210400 50.000000
305.133900 80.000000
305.990000 52.000000
306.226600 36.000000
307.287400 50.000000
308.125400 70.000000
315.138300 40.000000
316.208900 38.000000
317.094600 36.000000
319.243400 98.000000
325.122600 36.000000
326.206800 48.000000
326.260100 62.000000
331.131500 50.000000
334.207300 36.000000
337.071600 70.000000
337.251200 358.000000
339.267500 104.000000
340.260100 40.000000
345.039400 36.000000
345.182600 64.000000
346.105400 44.000000
347.095500 38.000000
347.163900 42.000000
352.093700 36.000000
355.263000 5898.000000
356.227100 86.000000
356.265000 1366.000000
357.263800 154.000000
357.986400 40.000000
358.281600 52.000000
361.057300 48.000000
361.093200 40.000000
367.121000 78.000000
371.253300 48.000000
372.287900 132.000000
373.273500 10154.000000
374.278100 2314.000000
374.992400 64.000000
375.277000 174.000000
376.044100 42.000000
376.272700 76.000000
376.285500 66.000000
386.008300 36.000000
391.287400 94.000000
392.232800 72.000000
402.267600 76.000000
413.266700 36.000000

>ms2peaks
69.070000 50.000000
81.069700 44.000000
85.064500 88.000000
89.081100 64.000000
92.996800 42.000000
93.069600 192.000000
95.085100 206.000000
105.004700 36.000000
105.070900 116.000000
107.200500 48.000000
109.106700 44.000000
117.044400 50.000000
119.059600 62.000000
121.100400 38.000000
130.064800 44.000000
131.084700 70.000000
133.100200 128.000000
135.117800 46.000000
143.085900 50.000000
147.115900 416.000000
148.121000 68.000000
149.133100 98.000000
155.082700 64.000000
159.117100 224.000000
160.071600 50.000000
161.131200 390.000000
167.045000 64.000000
167.106000 50.000000
169.099500 150.000000
171.115200 232.000000
172.122000 44.000000
173.095000 44.000000
173.116300 38.000000
173.132900 128.000000
174.139100 84.000000
175.148500 134.000000
176.151500 36.000000
177.128800 36.000000
181.099600 60.000000
183.110400 62.000000
185.131400 202.000000
185.306100 48.000000
187.107600 40.000000
187.148100 146.000000
189.088100 38.000000
189.127000 52.000000
191.139900 42.000000
195.139500 138.000000
199.146100 194.000000
200.037900 44.000000
200.104900 70.000000
201.163600 66.000000
205.121800 64.000000
207.135500 38.000000
210.140800 58.000000
211.146700 198.000000
211.169200 46.000000
213.164300 490.000000
214.167500 106.000000
215.176500 52.000000
221.132000 48.000000
223.137400 68.000000
223.150100 68.000000
223.170600 80.000000
224.142200 74.000000
225.162400 70.000000
226.166700 56.000000
227.139200 96.000000
227.173200 74.000000
227.184200 72.000000
228.112700 36.000000
229.158200 98.000000
230.161100 38.000000
231.173200 180.000000
232.178200 40.000000
235.146300 52.000000
235.163400 48.000000
237.158700 40.000000
241.156300 74.000000
241.195700 40.000000
242.081300 46.000000
243.072300 48.000000
243.176300 40.000000
245.130100 74.000000
245.153000 68.000000
247.169000 268.000000
248.155100 48.000000
248.175900 54.000000
249.158000 40.000000
249.169900 82.000000
249.184800 58.000000
251.062000 36.000000
254.203000 108.000000
255.171100 58.000000
259.168300 64.000000
261.185600 126.000000
265.039000 44.000000
267.163200 58.000000
277.199500 46.000000
285.187100 44.000000
287.197900 48.000000
289.213200 40.000000
295.248900 44.000000
303.088400 40.000000
309.254000 46.000000
319.241200 106.000000
323.187800 42.000000
331.227300 42.000000
337.252100 86.000000
355.086600 84.000000
355.261700 758.000000
356.268400 322.000000
367.025100 40.000000
373.281100 82.000000
391.200900 48.000000

