>compound RP35831060
>parentmass 300.2897
>ionization [M+H]+
>formula C18H37NO2
>rt 319.500000
>profile qtof
#smiles_iso CCCCCCCCCCCCC/C=C/[C@H]([C@H](CO)N)O
#smiles_can CCCCCCCCCCCCCC=CC(C(CO)N)O
#inchikey WWUZIQQURGPMPG-KRWOKUGFSA-N
#pubchem_id 5280335
#mb_accession RP014701,RP014702,RP014703

>ms2
81.069200 2328.000000
83.084900 1482.000000
93.069400 1276.000000
95.084600 2778.000000
97.100600 1394.000000
109.100400 1486.000000
121.101200 1902.000000
135.116800 1246.000000
211.205000 15744.000000
247.242000 2054.000000
252.268100 16086.000000
253.271100 1988.000000
264.267900 5968.000000
265.252100 6636.000000
266.257200 1286.000000
282.278700 1147410.000000
283.282100 244922.000000
300.289200 301676.000000
302.295000 4814.000000

>ms2
57.032100 1120.000000
71.048000 5702.000000
83.048100 13286.000000
86.059200 15570.000000
91.053600 1060.000000
95.084600 59620.000000
96.080000 5606.000000
97.064200 7612.000000
97.100400 31348.000000
99.079400 766.000000
99.116200 1940.000000
100.075000 3108.000000
107.085100 17328.000000
108.088700 1326.000000
109.100600 21606.000000
110.096200 1178.000000
111.080000 1868.000000
111.116200 7150.000000
121.101200 18378.000000
122.104200 1556.000000
123.116800 5544.000000
135.116600 7064.000000
137.132400 1900.000000
149.132100 1538.000000
184.206100 1046.000000
211.205700 3618.000000
238.251800 808.000000
247.241700 1092.000000
252.268200 118048.000000
253.271600 22714.000000
262.254300 834.000000
264.268200 75164.000000
265.252800 5496.000000
265.271300 15318.000000
266.255800 1056.000000
266.272700 1220.000000
282.278700 719300.000000
283.282200 177314.000000

>ms2
45.057500 74.000000
45.069600 50.000000
48.031800 72.000000
48.044100 90.000000
50.071500 54.000000
50.296800 50.000000
54.009100 126.000000
54.055000 92.000000
57.032200 2920.000000
59.047300 74.000000
59.273200 74.000000
61.063200 90.000000
61.109400 50.000000
61.240500 78.000000
62.166400 46.000000
62.202800 44.000000
62.297300 42.000000
64.005300 112.000000
64.026400 76.000000
66.221500 48.000000
71.048100 2716.000000
73.028900 64.000000
73.063600 66.000000
78.066200 64.000000
78.079000 88.000000
83.048400 11602.000000
84.080100 1892.000000
85.064300 326.000000
85.100400 2980.000000
86.059300 9030.000000
91.053600 11304.000000
92.107800 90.000000
93.069200 25074.000000
94.049300 94.000000
94.064700 1808.000000
94.072900 1794.000000
95.048900 2564.000000
95.072400 1950.000000
95.085000 24864.000000
96.080400 10040.000000
97.064300 2864.000000
97.100700 4806.000000
98.061000 70.000000
98.067800 162.000000
98.095900 234.000000
99.068500 202.000000
99.081000 104.000000
100.075200 1040.000000
100.218700 72.000000
105.045200 1404.000000
105.069400 820.000000
106.253400 54.000000
107.084800 3318.000000
107.983900 78.000000
108.080600 714.000000
109.063700 174.000000
109.100600 2468.000000
110.096000 1084.000000
111.022900 50.000000
111.079800 110.000000
111.117800 110.000000
113.083200 38.000000
114.091500 194.000000
119.058000 124.000000
119.085700 128.000000
121.101400 696.000000
123.116700 192.000000
124.112700 106.000000
125.116600 36.000000
131.048800 42.000000
133.076500 44.000000
134.261200 38.000000
135.022700 44.000000
138.077700 36.000000
138.126600 52.000000
152.142900 72.000000
157.145100 42.000000
160.083900 46.000000
162.008000 90.000000
168.175100 60.000000
168.196700 50.000000
171.219100 48.000000
172.049500 110.000000
173.095800 42.000000
175.074400 48.000000
176.144800 42.000000
181.155900 44.000000
182.188000 84.000000
184.207000 158.000000
186.160000 64.000000
191.081200 54.000000
193.195900 40.000000
194.163900 58.000000
194.188800 38.000000
196.074200 74.000000
198.223500 130.000000
201.069600 40.000000
202.022700 74.000000
211.227500 68.000000
212.120900 74.000000
219.207800 108.000000
220.201700 80.000000
221.165600 44.000000
224.232200 46.000000
226.015300 50.000000
226.253200 136.000000
227.096300 36.000000
230.162400 38.000000
231.007800 58.000000
234.220900 78.000000
236.238200 76.000000
237.232400 38.000000
238.248900 80.000000
242.038100 36.000000
250.214100 60.000000
250.251800 126.000000
252.268400 2708.000000
253.030600 54.000000
253.191200 44.000000
253.270700 356.000000
254.103800 62.000000
254.172900 76.000000
254.247000 44.000000
254.283400 70.000000
255.244000 40.000000
262.252900 3070.000000
263.254800 666.000000
264.268100 3848.000000
265.110200 40.000000
265.249500 76.000000
265.271700 740.000000
266.271100 102.000000
282.280600 1212.000000
283.280200 330.000000
284.284400 74.000000

