>compound RP35544258
>parentmass 117.091
>ionization [M+H]+
>formula C6H12O2
>rt 232.260000
>profile qtof
#smiles_iso CC(C)CCC(=O)O
#smiles_can CC(C)CCC(=O)O
#inchikey FGKJLKRYENPLQH-UHFFFAOYSA-N
#pubchem_id 12587
#mb_accession RP015401,RP015402,RP015403

>ms2
59.048700 920.000000
68.049000 44.000000
73.064300 438.000000
74.060100 50.000000
79.053500 290.000000
81.069300 11382.000000
97.064700 492.000000
99.090900 54.000000
101.058700 998.000000
117.090400 2354.000000

>ms2
61.028500 40.000000
73.064200 506.000000
77.047800 40.000000
80.058800 50.000000
81.069200 1384.000000
83.048800 220.000000
97.063900 168.000000

>ms2
79.053900 44.000000

