>compound RP35093398
>parentmass 194.0812
>ionization [M+H]+
>formula C10H11NO3
>rt 195.060000
>profile qtof
#smiles_iso CC1=CC(=CC=C1)C(=O)NCC(=O)O
#smiles_can CC1=CC(=CC=C1)C(=O)NCC(=O)O
#inchikey YKAKNMHEIJUKEX-UHFFFAOYSA-N
#pubchem_id 99223
#mb_accession RP012901,RP012902,RP012903

>ms2peaks
87.042500 54.000000
91.054100 606.000000
105.078100 60.000000
109.062600 154.000000
119.049100 42682.000000
120.052500 3772.000000
121.053400 184.000000
132.092600 54.000000
146.034100 48.000000
148.074700 248.000000
166.085400 48.000000
173.080500 60.000000
176.070500 664.000000
191.070000 52.000000
194.080500 18726.000000

>ms2peaks
52.063100 64.000000
55.017000 108.000000
73.064000 106.000000
91.053800 8266.000000
92.057200 536.000000
96.080800 54.000000
109.064800 2360.000000
110.068600 190.000000
119.048900 45084.000000
120.052200 3430.000000
132.078600 46.000000
194.079400 60.000000

>ms2peaks
55.017000 112.000000
74.023600 100.000000
91.053800 95086.000000
95.049100 120.000000
109.064400 6170.000000
110.068600 264.000000
119.048900 4062.000000
119.060000 2772.000000
120.052700 490.000000

