>compound RP36365492
>parentmass 111.0441
>ionization [M+H]+
>formula C6H6O2
>rt 153.780000
>profile qtof
#smiles_iso C1=CC=C(C(=C1)O)O
#smiles_can C1=CC=C(C(=C1)O)O
#inchikey YCIMNLLNPGFGHC-UHFFFAOYSA-N
#pubchem_id 289
#mb_accession RP012001,RP012002,RP012003

>ms2
80.025800 54.000000
81.033200 3424.000000
82.037200 212.000000
93.033200 1476.000000
109.027400 1178.000000
111.043600 1552.000000

>ms2
53.038100 172.000000
63.023300 38.000000
65.038000 8514.000000
81.033000 4430.000000
93.032800 708.000000
109.028800 56.000000
110.036300 46.000000
111.044200 432.000000

>ms2
63.023100 350.000000
65.038000 936.000000

