>compound RP36504929
>parentmass 251.1278
>ionization [M+H]+
>formula C14H18O4
>rt 326.100000
>profile qtof
#smiles_iso CC(C)OC(=O)C1=CC=CC=C1C(=O)OC(C)C
#smiles_can CC(C)OC(=O)C1=CC=CC=C1C(=O)OC(C)C
#inchikey QWDBCIAVABMJPP-UHFFFAOYSA-N
#pubchem_id 11799
#mb_accession RP019601,RP019602,RP019603

>ms2
149.024600 2942974.000000
150.026700 510914.000000
151.028700 39290.000000
167.033900 301880.000000
191.069800 830332.000000
192.073400 101288.000000
193.075500 8118.000000
209.080500 301084.000000
251.127700 256330.000000

>ms2
65.038000 4542.000000
93.033000 3062.000000
121.028500 15086.000000
149.024700 2942974.000000
150.026800 669152.000000
151.028700 47774.000000
167.034000 136392.000000
191.070200 6038.000000
209.081100 5096.000000

>ms2
80.025000 22088.000000
93.032600 558122.000000
94.036400 31884.000000
111.043800 100202.000000
112.047300 4874.000000
121.028300 1401268.000000
121.038400 378264.000000
122.031900 97212.000000
149.023400 2482484.000000
150.027000 344336.000000
151.028700 26594.000000
167.034400 8756.000000

