>compound RP37731063
>parentmass 225.06589999999997
>ionization [M+H]+
>formula C13H8N2O2
>rt 260.640000
>profile qtof
#smiles_iso C1=CC=C2C(=C1)N=C3C=CC=C(C3=N2)C(=O)O
#smiles_can C1=CC=C2C(=C1)N=C3C=CC=C(C3=N2)C(=O)O
#inchikey JGCSKOVQDXEQHI-UHFFFAOYSA-N
#pubchem_id 95069
#mb_accession RP019001,RP019002,RP019003

>ms2
179.059800 2518.000000
180.066000 336.000000
207.054900 129950.000000
208.058400 15274.000000
225.065300 250980.000000

>ms2
152.049300 668.000000
153.044500 776.000000
171.055500 278.000000
179.059900 52300.000000
180.064000 5464.000000
181.075700 1794.000000
197.070200 814.000000
207.054800 266054.000000
208.058300 35526.000000
225.065700 62620.000000

>ms2
51.022500 180.000000
76.018600 222.000000
77.038100 1074.000000
78.033400 746.000000
95.048900 512.000000
102.033000 750.000000
103.018100 160.000000
105.045100 186.000000
120.043800 458.000000
125.037900 648.000000
128.049200 1664.000000
129.043500 396.000000
130.040000 778.000000
131.045000 246.000000
146.059800 404.000000
151.041600 398.000000
152.049100 26796.000000
153.044600 14602.000000
154.047600 984.000000
170.059900 4538.000000
171.055300 5474.000000
172.058700 448.000000
178.052700 688.000000
179.059900 158864.000000
180.063200 22422.000000
181.073100 1114.000000
197.070500 8500.000000
207.055300 2202.000000
208.059100 400.000000
225.065500 1786.000000

