>compound RP37322616
>parentmass 426.3578
>ionization [M+H]+
>formula C25H47NO4
>rt 351.780000
>profile qtof
#smiles_iso CCCCCCCC/C=C\CCCCCCCC(=O)O[C@H](CC(=O)[O-])C[N+](C)(C)C
#smiles_can CCCCCCCCC=CCCCCCCCC(=O)OC(CC(=O)[O-])C[N+](C)(C)C
#inchikey IPOLTUVFXFHAHI-WHIOSMTNSA-N
#pubchem_id 46907933
#mb_accession RP025101,RP025102,RP025103

>ms2peaks
85.027900 378.000000
367.284600 446.000000
426.357500 339182.000000
428.364200 12466.000000

>ms2peaks
60.080200 8624.000000
71.085100 366.000000
81.070100 344.000000
85.028000 30608.000000
241.141000 360.000000
247.242600 588.000000
255.159100 806.000000
265.253300 1354.000000
269.174300 882.000000
283.191600 850.000000
297.205600 556.000000
311.221000 660.000000
367.284700 8518.000000
368.288700 1866.000000
426.357800 283970.000000
428.364500 10502.000000

>ms2peaks
55.054000 594.000000
57.033000 1328.000000
57.069400 886.000000
60.080300 24314.000000
67.054000 2112.000000
69.069300 3710.000000
71.048600 374.000000
71.085200 1526.000000
79.053800 532.000000
81.069300 3440.000000
83.085300 2544.000000
84.080000 480.000000
85.027900 191258.000000
93.070000 1112.000000
95.085000 1470.000000
97.065200 382.000000
97.101600 976.000000
107.085000 340.000000
109.100900 372.000000
121.102100 274.000000
135.117600 260.000000
144.101200 1576.000000
149.132000 236.000000
426.356700 380.000000

