>compound RP37265396
>parentmass 132.1019
>ionization [M+H]+
>formula C6H13NO2
>rt 44.160000
>profile qtof
#smiles_iso CC[C@H](C)[C@@H](C(=O)O)N
#smiles_can CCC(C)C(C(=O)O)N
#inchikey AGPKZVBTJJNPAG-WHFBIAKZSA-N
#pubchem_id 6306
#mb_accession RP000801,RP000802,RP000803

>ms2
69.069200 25068.000000
86.095900 577810.000000
132.102100 14294.000000

>ms2
59.047600 270.000000
67.053700 1342.000000
73.064300 976.000000
86.095900 202078.000000

>ms2
53.038100 42.000000
55.016800 74.000000
58.040900 56.000000
59.047800 212.000000
65.038300 48.000000
68.024700 204.000000
69.069200 5710.000000
71.012300 90.000000
71.073000 130.000000
73.064900 300.000000
81.057500 50.000000
86.095900 2198.000000
87.043900 122.000000

