>compound RP38805379
>parentmass 450.3214
>ionization [M+H]+
>formula C26H43NO5
>rt 253.860000
>profile qtof
#smiles_iso CC(CCC(=O)NCC(=O)O)C1CCC2C1(CCC3C2CC(C4C3(CCC(C4)O)C)O)C
#smiles_can CC(CCC(=O)NCC(=O)O)C1CCC2C1(CCC3C2CC(C4C3(CCC(C4)O)C)O)C
#inchikey SPOIYSFQOFYOFZ-UHFFFAOYSA-N
#pubchem_id 13955650
#mb_accession RP008201,RP008202,RP008203

>ms2
175.148900 236.000000
252.159200 188.000000
278.174300 196.000000
315.070500 218.000000
318.207400 210.000000
321.252800 380.000000
334.242000 228.000000
339.269200 1402.000000
340.269700 236.000000
357.279200 254.000000
414.300200 159258.000000
414.322800 11368.000000
415.303500 40816.000000
416.306400 4614.000000
417.305500 262.000000
432.310800 173940.000000
432.334500 10062.000000
433.314000 54300.000000
434.315800 5474.000000
435.320600 466.000000
441.311500 420.000000
450.321300 101480.000000
452.328500 3672.000000

>ms2
147.117200 596.000000
149.133000 516.000000
158.081100 1484.000000
159.116500 270.000000
161.132100 2216.000000
162.132600 256.000000
163.147800 448.000000
175.148000 1572.000000
177.126500 364.000000
185.134200 460.000000
187.148800 442.000000
189.164600 898.000000
199.148500 310.000000
201.163500 2274.000000
202.167400 324.000000
203.142500 386.000000
203.179900 772.000000
211.146900 442.000000
215.178500 1530.000000
217.157100 308.000000
224.127100 320.000000
226.143600 1270.000000
229.158000 662.000000
229.193700 794.000000
236.130600 264.000000
238.142900 1416.000000
239.146600 324.000000
240.158700 314.000000
243.210400 920.000000
250.144200 594.000000
252.159300 1516.000000
257.191600 250.000000
264.158900 838.000000
266.175700 730.000000
267.181700 262.000000
278.174900 1652.000000
279.177900 346.000000
280.190200 616.000000
292.189700 764.000000
297.255700 294.000000
304.191200 832.000000
318.206200 560.000000
319.209800 268.000000
321.257700 5598.000000
322.261700 1530.000000
332.223100 1384.000000
333.224700 322.000000
334.237900 1972.000000
335.242700 338.000000
339.268200 26358.000000
340.271700 4584.000000
348.251100 276.000000
357.278200 1114.000000
372.255500 258.000000
396.288900 580.000000
397.290900 388.000000
414.300300 248278.000000
415.303500 76298.000000
416.306000 7452.000000
417.308000 770.000000
432.310600 38586.000000
433.313900 10740.000000
434.315800 714.000000
450.320600 314.000000

>ms2
48.044200 42.000000
48.174700 44.000000
52.275800 36.000000
52.300000 44.000000
53.997400 42.000000
54.008200 42.000000
56.156200 90.000000
58.171900 42.000000
59.237100 42.000000
63.255200 60.000000
64.051200 42.000000
64.312100 66.000000
65.116900 38.000000
68.010400 36.000000
68.140800 66.000000
68.213000 52.000000
68.237800 82.000000
71.000800 42.000000
71.200600 102.000000
76.003500 66.000000
78.292300 78.000000
80.128100 38.000000
81.090900 96.000000
81.301900 38.000000
86.342400 76.000000
87.195200 48.000000
87.304300 42.000000
90.184500 56.000000
91.989200 48.000000
92.105100 80.000000
92.238100 104.000000
94.000100 56.000000
95.106700 40.000000
96.028300 58.000000
96.040800 58.000000
96.090200 36.000000
97.000800 84.000000
98.080300 44.000000
98.151300 40.000000
99.010200 60.000000
99.065000 52.000000
99.081400 44.000000
99.253600 44.000000
101.013900 52.000000
101.038300 74.000000
101.094300 38.000000
101.174000 38.000000
102.280100 58.000000
103.083700 42.000000
103.123900 58.000000
104.106700 54.000000
104.163500 38.000000
105.079300 66.000000
105.126500 42.000000
105.137600 36.000000
106.111100 74.000000
106.346600 80.000000
107.036600 50.000000
108.325900 38.000000
109.049000 80.000000
109.121100 46.000000
109.238300 68.000000
112.019000 42.000000
112.247700 52.000000
112.284700 72.000000
112.296900 50.000000
113.096700 72.000000
113.198200 68.000000
113.226600 38.000000
113.304800 48.000000
113.319500 60.000000
115.004400 38.000000
115.073400 50.000000
116.162800 38.000000
116.343900 70.000000
117.075300 44.000000
117.277800 88.000000
117.988800 46.000000
119.117200 52.000000
119.330700 98.000000
119.984900 38.000000
120.040800 36.000000
120.086700 74.000000
120.172500 50.000000
121.074100 46.000000
121.202100 42.000000
121.277100 64.000000
122.046300 68.000000
122.303800 64.000000
122.326100 46.000000
122.990000 56.000000
123.311700 36.000000
123.997900 96.000000
124.019300 42.000000
125.107800 60.000000
126.139700 38.000000
126.184600 80.000000
126.207300 42.000000
127.263800 44.000000
128.021800 206.000000
128.164700 52.000000
129.090100 40.000000
129.209500 50.000000
129.323100 44.000000
131.053500 60.000000
131.072300 46.000000
132.254200 64.000000
132.311000 36.000000
133.100300 36.000000
133.108800 50.000000
133.195400 74.000000
134.022800 38.000000
134.054700 50.000000
134.113600 60.000000
135.198000 58.000000
137.046400 38.000000
138.134100 100.000000
138.226400 96.000000
139.024200 44.000000
139.059800 48.000000
139.086800 72.000000
140.154600 44.000000
140.201700 60.000000
140.222700 42.000000
141.005000 48.000000
141.075200 100.000000
142.081100 58.000000
142.191500 44.000000
143.061000 100.000000
143.085000 284.000000
143.992400 62.000000
144.094300 94.000000
144.102300 56.000000
144.123700 42.000000
144.217500 54.000000
145.069200 78.000000
145.100900 1178.000000
145.204900 88.000000
146.104200 72.000000
146.175500 46.000000
147.080300 142.000000
147.116600 1750.000000
148.119100 262.000000
149.019700 70.000000
149.063000 58.000000
149.095300 332.000000
149.120500 64.000000
149.131700 1058.000000
149.977500 82.000000
150.009400 36.000000
150.125900 66.000000
150.135200 302.000000
150.186000 42.000000
150.254800 42.000000
151.083400 44.000000
151.111600 318.000000
152.050100 88.000000
152.105700 94.000000
152.221700 72.000000
153.068700 80.000000
153.089800 44.000000
153.258000 50.000000
153.992900 50.000000
154.035600 36.000000
154.066500 40.000000
154.079000 94.000000
154.109800 38.000000
154.155200 52.000000
155.086400 398.000000
155.150400 40.000000
155.236500 40.000000
155.259400 40.000000
155.985000 86.000000
156.006400 92.000000
156.064700 478.000000
156.094500 140.000000
156.111700 44.000000
157.028400 48.000000
157.100700 944.000000
158.016100 102.000000
158.031600 166.000000
158.080900 1204.000000
158.105200 178.000000
159.116700 3212.000000
160.085700 84.000000
160.120200 452.000000
160.132200 100.000000
160.201700 62.000000
160.301100 70.000000
161.094900 416.000000
161.132500 4194.000000
162.135800 626.000000
162.182400 56.000000
163.003700 100.000000
163.111800 1150.000000
163.148500 934.000000
163.218300 94.000000
164.101700 62.000000
164.153500 144.000000
164.259700 52.000000
165.032800 48.000000
165.126900 188.000000
165.182100 36.000000
165.993400 72.000000
166.005200 38.000000
166.035600 56.000000
166.072500 38.000000
167.045500 38.000000
167.102200 42.000000
167.272900 60.000000
168.073000 62.000000
168.229200 68.000000
169.002400 46.000000
169.071200 74.000000
169.101600 326.000000
169.116900 46.000000
170.107800 52.000000
171.116400 1184.000000
172.095700 256.000000
172.122300 148.000000
173.132000 2234.000000
174.135500 360.000000
175.111000 1000.000000
175.147900 3666.000000
176.047900 44.000000
176.152500 478.000000
177.127200 2418.000000
178.060700 50.000000
178.129400 390.000000
178.248600 104.000000
179.131200 62.000000
179.141200 218.000000
180.024600 66.000000
180.285900 62.000000
181.104300 96.000000
181.216000 36.000000
182.012000 40.000000
182.106200 36.000000
182.115900 50.000000
182.153900 50.000000
182.281700 36.000000
183.116900 902.000000
183.217400 130.000000
184.083200 62.000000
184.098000 208.000000
184.118100 208.000000
185.131900 2908.000000
185.990300 40.000000
186.003600 58.000000
186.111700 134.000000
186.135800 240.000000
187.111700 210.000000
187.147700 1914.000000
187.169400 110.000000
188.053700 54.000000
188.151200 242.000000
189.125800 1330.000000
189.163400 942.000000
189.993200 46.000000
190.130700 138.000000
190.167400 132.000000
191.073200 52.000000
191.142600 1004.000000
192.098800 44.000000
192.182700 38.000000
192.283000 42.000000
193.099900 38.000000
193.160400 96.000000
194.074000 44.000000
194.090500 38.000000
194.107300 76.000000
195.088900 44.000000
195.122700 88.000000
195.297100 36.000000
196.024100 64.000000
196.124500 190.000000
196.171500 88.000000
197.056500 56.000000
197.089400 40.000000
197.132800 774.000000
198.067800 148.000000
198.078300 40.000000
198.113300 202.000000
198.135000 124.000000
198.314100 46.000000
199.147200 1894.000000
200.094500 38.000000
200.152500 292.000000
200.223600 40.000000
200.279800 44.000000
201.163600 4250.000000
202.119300 58.000000
202.134000 38.000000
202.154400 84.000000
202.166300 534.000000
203.142700 1290.000000
203.179600 676.000000
204.146500 298.000000
204.163900 60.000000
204.186800 98.000000
205.110200 48.000000
205.158200 526.000000
205.260100 84.000000
206.019200 74.000000
206.079700 60.000000
206.091000 42.000000
206.112800 50.000000
206.161700 82.000000
207.233000 48.000000
207.987300 66.000000
208.168900 58.000000
208.264400 48.000000
208.998100 70.000000
209.038700 42.000000
209.106500 48.000000
209.131600 198.000000
209.214700 46.000000
209.313900 50.000000
210.028800 46.000000
210.113700 224.000000
210.139900 124.000000
211.148300 1828.000000
212.128800 364.000000
212.151500 440.000000
213.164000 1982.000000
213.186600 100.000000
214.011800 36.000000
214.020400 62.000000
214.040400 52.000000
214.115800 50.000000
214.167200 424.000000
214.275400 40.000000
215.143000 446.000000
215.179400 3560.000000
216.021400 60.000000
216.134400 36.000000
216.145700 98.000000
216.182700 382.000000
216.268700 56.000000
217.158400 1024.000000
217.195600 334.000000
218.162000 128.000000
219.176400 92.000000
220.317300 80.000000
223.007000 134.000000
223.149700 196.000000
224.098200 54.000000
224.128000 418.000000
224.153200 132.000000
224.257100 42.000000
225.163800 1170.000000
226.011800 50.000000
226.143100 328.000000
226.168000 412.000000
227.140400 122.000000
227.178900 1094.000000
228.161300 56.000000
228.181900 302.000000
229.033600 74.000000
229.158700 1358.000000
229.193800 742.000000
230.125700 42.000000
230.197600 286.000000
231.173300 572.000000
231.202100 98.000000
231.240600 68.000000
231.977100 44.000000
232.180400 154.000000
233.041700 62.000000
233.188600 44.000000
233.222600 108.000000
234.148100 70.000000
236.127300 48.000000
237.163300 166.000000
238.025500 40.000000
238.146200 514.000000
238.164500 50.000000
239.148000 102.000000
239.179600 1972.000000
240.159200 54.000000
240.182700 562.000000
241.195900 1080.000000
242.019400 74.000000
242.199800 332.000000
242.297100 38.000000
243.172500 790.000000
243.210500 630.000000
243.298600 42.000000
244.000600 72.000000
244.023200 90.000000
244.179300 258.000000
244.213100 154.000000
245.186200 144.000000
245.280500 66.000000
246.141800 162.000000
246.197000 94.000000
246.336200 96.000000
247.082400 42.000000
247.119400 74.000000
247.200600 52.000000
248.212800 36.000000
249.169600 54.000000
250.148100 134.000000
251.182900 150.000000
252.158500 456.000000
252.182700 150.000000
253.068300 36.000000
253.147600 52.000000
253.160700 82.000000
253.194400 386.000000
253.214200 50.000000
253.971200 70.000000
254.202700 270.000000
255.109400 90.000000
255.209800 476.000000
256.183100 56.000000
257.190300 864.000000
257.217900 58.000000
258.193200 312.000000
259.194700 94.000000
259.205600 218.000000
259.275900 66.000000
260.213800 66.000000
261.180900 52.000000
264.158000 262.000000
264.181400 50.000000
264.274400 66.000000
265.053000 46.000000
265.139600 46.000000
265.163900 46.000000
265.195000 918.000000
266.126600 40.000000
266.176100 138.000000
266.196200 292.000000
266.241700 46.000000
266.981300 58.000000
267.179600 44.000000
267.204000 118.000000
268.173800 50.000000
268.210400 54.000000
269.191600 94.000000
269.226800 90.000000
270.200100 62.000000
270.234700 40.000000
271.051700 40.000000
271.075700 40.000000
271.204900 122.000000
272.044300 38.000000
272.222400 90.000000
273.221900 262.000000
274.044200 38.000000
274.056400 74.000000
274.109100 84.000000
274.224600 72.000000
276.032900 38.000000
277.213100 94.000000
278.128900 48.000000
278.176400 204.000000
279.173000 62.000000
279.210800 502.000000
280.187700 118.000000
280.213700 178.000000
281.224900 194.000000
282.028300 66.000000
282.202900 40.000000
282.233400 54.000000
283.077100 36.000000
283.190400 92.000000
283.205900 260.000000
283.236100 42.000000
283.284600 36.000000
284.207200 42.000000
285.222800 98.000000
286.204400 118.000000
289.343100 40.000000
290.175900 68.000000
292.189600 132.000000
292.219300 78.000000
293.223800 296.000000
294.204300 54.000000
294.229100 40.000000
295.047600 50.000000
295.241600 250.000000
296.029500 50.000000
296.196500 52.000000
296.247000 110.000000
297.220600 228.000000
297.257200 562.000000
298.221700 82.000000
298.262500 216.000000
299.250300 52.000000
299.261200 80.000000
299.995700 40.000000
302.256300 60.000000
304.189800 260.000000
305.192400 44.000000
305.320600 70.000000
306.014900 68.000000
306.204200 188.000000
307.213900 56.000000
307.336900 54.000000
308.200000 56.000000
308.223200 48.000000
311.235100 138.000000
311.274900 236.000000
311.306700 38.000000
312.245400 50.000000
313.003800 38.000000
313.246500 72.000000
313.278500 38.000000
314.206300 56.000000
314.218900 36.000000
315.270900 38.000000
318.209300 102.000000
319.053200 36.000000
319.242300 40.000000
320.158900 50.000000
320.209800 54.000000
320.222600 60.000000
320.247700 70.000000
320.329200 44.000000
321.257400 6252.000000
322.029800 76.000000
322.203200 88.000000
322.243000 64.000000
322.260000 1278.000000
323.038400 36.000000
323.267800 224.000000
324.133000 46.000000
324.243800 56.000000
325.124900 46.000000
327.179200 40.000000
329.321900 50.000000
331.040500 86.000000
332.213200 50.000000
332.229500 140.000000
333.225700 64.000000
334.233000 196.000000
335.247500 112.000000
335.324400 66.000000
339.268700 6316.000000
340.086700 94.000000
340.270600 1202.000000
341.064900 50.000000
341.257000 36.000000
341.272300 342.000000
342.065900 88.000000
342.191500 48.000000
344.218600 70.000000
346.242200 40.000000
348.249200 46.000000
357.052700 66.000000
357.264900 70.000000
357.280700 160.000000
358.237400 46.000000
358.250700 38.000000
358.283400 86.000000
359.216100 44.000000
361.345300 40.000000
378.284800 68.000000
385.345800 78.000000
396.291400 94.000000
397.297700 112.000000
398.050300 44.000000
406.288300 50.000000
408.160500 40.000000
413.344200 40.000000
414.298600 1076.000000
415.302100 392.000000
416.308700 124.000000
436.280800 84.000000
446.314600 56.000000

