>compound RP39679472
>parentmass 291.0863
>ionization [M+H]+
>formula C15H14O6
>rt 152.880000
>profile qtof
#smiles_iso C1[C@@H]([C@H](OC2=CC(=CC(=C21)O)O)C3=CC(=C(C=C3)O)O)O
#smiles_can C1C(C(OC2=CC(=CC(=C21)O)O)C3=CC(=C(C=C3)O)O)O
#inchikey PFTAWBLQPZVEMU-DZGCQCFKSA-N
#pubchem_id 9064
#mb_accession RP017801,RP017802,RP017803

>ms2
64.018300 62.000000
68.997100 64.000000
81.021000 62.000000
94.025100 68.000000
97.060900 84.000000
101.010300 158.000000
103.054500 62.000000
113.031500 60.000000
116.025800 70.000000
123.043600 1802.000000
124.046800 194.000000
133.040500 64.000000
135.052300 66.000000
137.003000 84.000000
139.038400 3946.000000
139.975400 126.000000
140.042000 260.000000
140.091300 62.000000
147.042900 536.000000
148.005500 60.000000
148.051300 100.000000
151.038900 650.000000
152.077700 64.000000
153.053600 240.000000
154.036900 62.000000
163.038100 300.000000
163.048200 92.000000
165.054200 5626.000000
166.058000 508.000000
168.074800 70.000000
169.049100 300.000000
175.975200 96.000000
181.025100 60.000000
181.048900 136.000000
182.106000 66.000000
185.097500 66.000000
188.066300 64.000000
203.021600 100.000000
203.068600 92.000000
205.052400 66.000000
207.063500 220.000000
211.997200 94.000000
224.981000 64.000000
228.076600 64.000000
231.062400 114.000000
237.052500 76.000000
243.065400 88.000000
243.976100 74.000000
244.984600 64.000000
245.045400 66.000000
248.990200 76.000000
249.041300 72.000000
249.077300 232.000000
250.073100 64.000000
257.019100 66.000000
259.060900 86.000000
264.987500 66.000000
272.991900 92.000000
273.076100 1760.000000
274.079700 330.000000
281.068100 102.000000
289.070700 2206.000000
290.075900 326.000000
291.086200 58870.000000
293.091400 758.000000

>ms2
65.023100 62.000000
68.034800 68.000000
69.034000 54.000000
78.018500 36.000000
81.033000 144.000000
82.041500 42.000000
83.012300 38.000000
89.011000 44.000000
91.099400 50.000000
93.032900 120.000000
95.048200 166.000000
105.033600 82.000000
105.042000 70.000000
105.065600 46.000000
111.040400 66.000000
114.026400 56.000000
117.007900 104.000000
119.049000 226.000000
121.076000 50.000000
122.035400 46.000000
123.043800 3390.000000
123.980200 66.000000
124.011000 80.000000
136.059500 74.000000
137.059200 50.000000
139.038200 6980.000000
140.042100 728.000000
141.043500 46.000000
141.985400 44.000000
145.051900 82.000000
147.043100 2982.000000
149.061100 66.000000
151.038600 432.000000
153.053100 86.000000
156.044600 138.000000
157.985500 94.000000
161.058800 726.000000
162.062700 66.000000
163.038700 764.000000
164.043300 60.000000
164.059300 56.000000
165.053700 3434.000000
166.058000 324.000000
169.048100 274.000000
170.056200 78.000000
175.084900 64.000000
176.069600 42.000000
177.004100 36.000000
177.053400 148.000000
178.014200 68.000000
179.070100 636.000000
180.074300 66.000000
181.048800 222.000000
182.052800 52.000000
186.973600 54.000000
187.040000 84.000000
189.055300 254.000000
190.063800 76.000000
190.083400 36.000000
194.045300 40.000000
197.057900 82.000000
198.099500 68.000000
200.044800 130.000000
203.068900 170.000000
205.049500 234.000000
205.087200 146.000000
206.093900 92.000000
207.065200 4906.000000
208.068600 466.000000
209.068700 46.000000
213.054800 50.000000
227.067600 82.000000
231.063000 264.000000
232.067300 122.000000
241.082800 96.000000
243.065400 96.000000
249.074900 426.000000
250.079300 218.000000
255.063800 84.000000
255.084200 42.000000
271.062000 60.000000
273.040500 90.000000
273.075800 494.000000
274.079100 150.000000
291.086200 1050.000000

>ms2
51.022700 74.000000
59.048900 114.000000
64.088900 38.000000
67.017200 124.000000
68.036500 46.000000
71.048600 76.000000
79.053800 100.000000
83.012600 116.000000
83.048300 578.000000
86.094600 36.000000
91.053600 808.000000
93.033300 488.000000
97.027600 246.000000
99.007200 98.000000
105.033000 332.000000
107.049400 120.000000
109.028400 54.000000
111.009800 106.000000
111.043700 504.000000
112.048400 74.000000
115.053800 82.000000
115.997000 46.000000
117.034600 44.000000
119.049000 574.000000
123.043700 3238.000000
127.038400 52.000000
130.074100 36.000000
135.044800 144.000000
139.038200 3282.000000
143.048000 448.000000
144.053700 42.000000
145.027800 74.000000
147.043600 2196.000000
148.046500 354.000000
149.060100 112.000000
150.033600 36.000000
151.022400 40.000000
151.074400 54.000000
151.084000 36.000000
152.045300 58.000000
152.080300 52.000000
153.026700 36.000000
153.055100 44.000000
157.065600 48.000000
159.042500 60.000000
161.059000 1464.000000
162.062300 196.000000
163.038400 412.000000
163.059500 42.000000
165.054100 226.000000
169.061500 76.000000
169.089600 36.000000
177.052300 216.000000
179.071500 146.000000
189.055300 272.000000
189.100500 38.000000
190.084700 72.000000
193.993900 44.000000
207.063400 80.000000
225.055700 52.000000
231.063700 64.000000
245.043100 262.000000

