>compound RP39461186
>parentmass 505.1763
>ionization [M+H]+
>formula C18H32O16
>rt 35.400000
>profile qtof
#smiles_iso C([C@@H]1[C@@H]([C@@H]([C@H]([C@H](O1)OC[C@@H]2[C@H]([C@@H]([C@H]([C@H](O2)O[C@]3([C@H]([C@@H]([C@H](O3)CO)O)O)CO)O)O)O)O)O)O)O
#smiles_can C(C1C(C(C(C(O1)OCC2C(C(C(C(O2)OC3(C(C(C(O3)CO)O)O)CO)O)O)O)O)O)O)O
#inchikey MUPFEKGTMRGPLJ-ZQSKZDJDSA-N
#pubchem_id 439242
#mb_accession RP023001,RP023002,RP023003

>ms2
152.045800 122.000000
152.249900 54.000000
272.087400 86.000000
276.152100 40.000000
291.135700 42.000000
319.140300 70.000000
325.110800 236.000000
326.117500 56.000000
327.125800 38.000000
328.110000 70.000000
343.122700 186.000000
487.164800 60.000000
488.163900 64.000000
505.172300 58.000000

>ms2
85.028000 42.000000
163.059500 116.000000
190.202700 36.000000
205.083900 38.000000
255.257600 42.000000
307.095300 38.000000
325.114700 194.000000
326.114300 38.000000

>ms2
85.027800 74.000000
91.039300 100.000000
115.039500 46.000000
155.009400 38.000000
262.960400 38.000000
272.193500 36.000000
420.111900 38.000000

