>compound RP40625263
>parentmass 132.1019
>ionization [M+H]+
>formula C6H13NO2
>rt 57.240000
>profile qtof
#smiles_iso CCCC[C@@H](C(=O)O)N
#smiles_can CCCCC(C(=O)O)N
#inchikey LRQKBLKVPFOOQJ-YFKPBYRVSA-N
#pubchem_id 21236
#mb_accession RP002201,RP002202,RP002203

>ms2
86.095900 204348.000000
132.101700 3666.000000

>ms2
67.053900 170.000000
86.095900 69168.000000

>ms2
55.054600 66.000000
65.038300 50.000000
74.023800 44.000000
86.096000 772.000000

