>compound RP40108565
>parentmass 405.2636
>ionization [M+H]+
>formula C24H36O5
>rt 298.980000
>profile qtof
#smiles_iso C[C@H](CCC(=O)O)[C@H]1CC[C@@H]2[C@@]1(CC[C@H]3[C@H]2C(=O)C(=O)[C@H]4[C@@]3(CC[C@H](C4)O)C)C
#smiles_can CC(CCC(=O)O)C1CCC2C1(CCC3C2C(=O)C(=O)C4C3(CCC(C4)O)C)C
#inchikey FRIRHJVKXFYECW-ZTERCDMUSA-N
#pubchem_id 137333800
#mb_accession RP026901,RP026902,RP026903

>ms2peaks
175.110400 318.000000
227.143700 262.000000
323.238100 220.000000
333.219500 2086.000000
334.220000 452.000000
341.247200 990.000000
351.231200 23170.000000
352.234500 4082.000000
353.238400 322.000000
369.241400 51456.000000
370.245000 10314.000000
371.247500 1226.000000
387.252300 52108.000000
388.255300 11710.000000
389.258300 1042.000000
405.262700 205826.000000
407.268900 7308.000000

>ms2peaks
85.064800 134.000000
99.043300 132.000000
99.079900 1092.000000
105.070500 160.000000
119.085200 260.000000
123.081500 160.000000
135.986500 136.000000
145.100000 180.000000
149.094700 174.000000
157.109400 140.000000
159.116000 154.000000
160.068900 156.000000
163.110100 158.000000
165.993800 134.000000
171.080000 172.000000
171.118400 242.000000
173.095500 482.000000
173.133000 278.000000
175.075300 138.000000
175.111100 1438.000000
175.147200 150.000000
176.114200 130.000000
179.106400 186.000000
181.119700 172.000000
185.131600 156.000000
187.111900 150.000000
189.127900 324.000000
191.105800 294.000000
191.142700 294.000000
192.112400 196.000000
197.141300 142.000000
199.147700 294.000000
200.050700 136.000000
201.126200 1066.000000
201.143700 190.000000
202.205100 150.000000
203.143100 186.000000
207.136800 354.000000
209.132600 146.000000
209.150600 178.000000
211.147000 352.000000
213.123900 166.000000
215.142200 1078.000000
216.146300 130.000000
217.120500 318.000000
223.148400 162.000000
224.163900 166.000000
225.126200 140.000000
226.131400 154.000000
227.143200 748.000000
228.146000 146.000000
228.218400 140.000000
229.158100 684.000000
230.162400 180.000000
239.143100 274.000000
240.188300 154.000000
241.157300 814.000000
243.138500 304.000000
248.154000 132.000000
251.144900 170.000000
251.180100 158.000000
253.159000 176.000000
253.201300 140.000000
253.998300 148.000000
255.139500 134.000000
255.173700 312.000000
259.165200 154.000000
261.147300 320.000000
269.154500 292.000000
269.189500 192.000000
270.191300 136.000000
274.043100 132.000000
277.157600 138.000000
289.195300 192.000000
291.209600 710.000000
292.213700 222.000000
293.192100 152.000000
295.169100 286.000000
296.244600 160.000000
297.255400 168.000000
305.226500 2298.000000
306.229700 452.000000
307.202800 178.000000
307.232200 152.000000
307.243200 132.000000
309.185400 236.000000
309.221300 274.000000
315.209800 880.000000
316.213100 162.000000
323.236400 2730.000000
324.239500 766.000000
333.220500 34834.000000
334.224100 6332.000000
335.228600 634.000000
339.231300 242.000000
341.246700 9520.000000
342.249300 2274.000000
343.253900 230.000000
347.270300 140.000000
351.231100 128550.000000
352.234300 36052.000000
353.238100 3094.000000
354.241800 232.000000
359.260000 240.000000
369.241500 82144.000000
370.245000 21534.000000
371.248700 2032.000000
372.251700 148.000000
387.252100 13718.000000
388.255600 3718.000000
389.258400 548.000000
405.262200 8274.000000
407.269000 272.000000

>ms2peaks
48.008000 78.000000
50.060500 66.000000
54.161800 64.000000
57.069700 90.000000
60.008300 74.000000
61.015300 56.000000
61.987600 40.000000
68.037200 48.000000
68.058100 164.000000
68.119200 36.000000
70.016400 60.000000
70.029000 44.000000
73.002900 66.000000
73.064300 48.000000
73.252500 42.000000
74.015700 44.000000
77.995500 66.000000
81.069100 5766.000000
82.156800 42.000000
83.048800 952.000000
83.085500 610.000000
84.136000 72.000000
85.064000 1412.000000
87.989600 52.000000
89.001400 36.000000
90.005300 46.000000
91.053500 1622.000000
93.069100 4506.000000
94.049600 46.000000
95.084800 7588.000000
96.064800 42.000000
96.977300 40.000000
97.016700 50.000000
97.039900 36.000000
97.064500 434.000000
97.101300 524.000000
98.059900 68.000000
99.043400 740.000000
99.079700 1520.000000
100.048000 52.000000
101.059600 572.000000
103.041100 58.000000
104.161900 60.000000
105.069500 2668.000000
106.029500 60.000000
106.073300 208.000000
106.120400 58.000000
107.048900 300.000000
107.085100 2704.000000
108.088800 318.000000
109.064200 890.000000
109.086600 46.000000
110.060800 50.000000
110.067700 96.000000
110.130200 42.000000
110.245800 118.000000
111.016400 110.000000
111.068400 108.000000
111.080700 336.000000
111.196400 46.000000
111.210600 50.000000
115.074700 38.000000
115.168300 62.000000
115.248900 38.000000
116.197800 66.000000
117.069000 584.000000
118.156100 60.000000
119.085100 1300.000000
120.042400 92.000000
120.088100 78.000000
121.064300 562.000000
121.100900 790.000000
122.068100 80.000000
122.104900 240.000000
123.015800 62.000000
123.080500 1174.000000
124.084000 200.000000
124.130100 36.000000
125.022700 42.000000
125.096300 140.000000
125.129500 80.000000
126.002100 54.000000
128.009800 40.000000
128.019200 48.000000
128.057500 58.000000
128.178200 106.000000
130.034500 84.000000
130.073600 106.000000
130.086300 46.000000
130.177100 36.000000
131.117100 54.000000
131.165400 72.000000
131.968700 60.000000
131.981300 68.000000
132.027900 70.000000
132.068900 132.000000
132.282300 64.000000
133.064600 80.000000
133.100400 946.000000
133.200700 74.000000
134.106100 78.000000
135.116800 252.000000
135.254100 142.000000
135.991400 42.000000
136.157500 66.000000
137.095500 56.000000
137.116600 36.000000
138.016800 38.000000
139.001500 56.000000
139.075100 42.000000
139.153500 62.000000
140.197800 70.000000
141.122200 56.000000
142.057300 74.000000
142.192500 62.000000
143.163700 52.000000
144.017400 54.000000
144.056600 74.000000
144.093000 158.000000
145.063400 208.000000
145.100400 1650.000000
146.072100 38.000000
146.082700 80.000000
146.108000 206.000000
147.079200 276.000000
147.115400 1232.000000
149.057100 132.000000
149.095500 436.000000
150.099600 130.000000
150.136100 40.000000
150.234400 70.000000
151.111000 448.000000
152.116000 82.000000
153.090400 102.000000
153.127400 38.000000
154.025400 42.000000
154.096100 54.000000
155.073300 162.000000
155.153100 48.000000
155.969500 112.000000
155.992100 40.000000
156.031300 50.000000
156.090200 218.000000
156.208900 136.000000
157.065800 64.000000
157.100700 1082.000000
158.068200 96.000000
158.105700 252.000000
158.188200 48.000000
159.080700 528.000000
159.116000 1582.000000
159.976000 98.000000
159.986100 54.000000
160.086900 192.000000
160.119300 232.000000
160.219200 48.000000
161.001000 68.000000
161.059400 62.000000
161.071100 78.000000
161.095200 874.000000
161.131300 604.000000
161.998500 60.000000
162.019300 50.000000
162.136100 68.000000
162.181100 46.000000
163.023000 56.000000
163.038200 68.000000
163.111200 948.000000
164.233900 48.000000
165.068800 118.000000
166.071500 38.000000
167.084200 164.000000
167.104200 62.000000
167.968700 84.000000
168.058300 70.000000
168.086300 132.000000
168.988200 50.000000
169.017500 78.000000
169.100200 460.000000
170.007900 38.000000
170.068900 38.000000
170.090100 50.000000
170.101600 82.000000
170.190700 40.000000
171.002400 60.000000
171.079900 420.000000
171.115600 1190.000000
171.253400 62.000000
172.016100 40.000000
172.120600 152.000000
172.145400 52.000000
172.239600 68.000000
173.038200 102.000000
173.095300 1926.000000
173.131600 1524.000000
174.101200 294.000000
174.136000 204.000000
174.185200 52.000000
175.075500 184.000000
175.111100 2626.000000
176.022600 40.000000
177.091000 290.000000
177.127900 302.000000
177.257100 42.000000
178.072400 82.000000
178.131800 60.000000
179.087000 102.000000
179.106500 688.000000
179.139100 94.000000
179.200400 44.000000
179.235900 42.000000
180.038300 38.000000
180.074900 36.000000
180.092100 74.000000
181.101700 630.000000
181.123900 144.000000
181.199300 60.000000
181.274800 70.000000
182.110000 166.000000
183.029200 74.000000
183.075800 78.000000
183.116900 514.000000
184.017000 50.000000
184.083500 56.000000
184.124400 144.000000
184.201700 46.000000
185.010300 50.000000
185.096600 196.000000
185.132200 976.000000
186.014600 38.000000
186.040400 54.000000
186.080000 44.000000
186.098700 144.000000
186.137500 328.000000
186.240700 50.000000
187.012800 50.000000
187.075200 72.000000
187.088400 48.000000
187.111600 818.000000
187.148400 230.000000
188.068800 52.000000
189.090600 196.000000
189.127200 1378.000000
190.094300 82.000000
190.132100 98.000000
190.144400 38.000000
190.169100 36.000000
191.022500 78.000000
191.058500 60.000000
191.084900 100.000000
191.106100 1110.000000
191.142800 276.000000
191.175300 102.000000
192.111200 92.000000
192.137000 48.000000
193.065800 58.000000
193.101900 306.000000
193.119900 324.000000
193.194900 38.000000
194.106600 232.000000
194.203100 66.000000
195.081300 88.000000
195.117400 766.000000
195.139000 132.000000
195.999500 58.000000
196.082600 64.000000
196.122500 308.000000
196.195300 52.000000
196.225200 46.000000
197.095900 222.000000
197.111400 64.000000
197.130800 1110.000000
197.187400 70.000000
198.103600 106.000000
198.121100 58.000000
198.137900 180.000000
198.157800 54.000000
198.998200 102.000000
199.111800 696.000000
199.147700 1254.000000
199.983400 88.000000
200.112700 62.000000
200.120600 126.000000
200.151100 388.000000
201.090900 126.000000
201.126700 2398.000000
201.164000 164.000000
202.130100 334.000000
202.160800 62.000000
203.024200 48.000000
203.062200 38.000000
203.086900 74.000000
203.103700 230.000000
203.140000 172.000000
204.110100 38.000000
204.183200 64.000000
204.281400 60.000000
205.102800 52.000000
205.120400 112.000000
206.114900 48.000000
207.115000 462.000000
207.138100 220.000000
208.024900 44.000000
208.123600 118.000000
208.155700 70.000000
208.260200 46.000000
209.093100 158.000000
209.132500 1312.000000
209.224900 80.000000
210.004300 48.000000
210.067200 36.000000
210.100600 38.000000
210.136800 320.000000
210.253800 36.000000
211.111200 252.000000
211.132100 46.000000
211.148300 852.000000
212.038600 38.000000
212.079500 44.000000
212.114600 312.000000
212.152500 274.000000
213.092900 44.000000
213.127100 866.000000
213.149100 102.000000
213.163000 764.000000
213.245400 48.000000
214.130000 226.000000
214.169000 158.000000
215.082300 84.000000
215.143300 1570.000000
215.176400 178.000000
215.967800 44.000000
216.018100 40.000000
216.146800 268.000000
216.283200 40.000000
217.102200 52.000000
217.121300 356.000000
217.156900 192.000000
217.240900 44.000000
217.289400 112.000000
218.054100 48.000000
218.107200 60.000000
218.125100 98.000000
219.090600 44.000000
219.116600 296.000000
219.138200 104.000000
219.176500 52.000000
220.105600 42.000000
221.061300 46.000000
221.132700 852.000000
221.151400 120.000000
222.086200 120.000000
222.099300 40.000000
222.138400 202.000000
223.111900 224.000000
223.147800 1180.000000
224.115400 118.000000
224.131800 40.000000
224.153700 204.000000
225.093100 60.000000
225.125100 1194.000000
225.162700 770.000000
225.181500 104.000000
226.087300 44.000000
226.130800 514.000000
226.166300 232.000000
227.107400 124.000000
227.141900 1446.000000
227.179000 216.000000
228.147400 524.000000
228.181700 104.000000
229.122500 140.000000
229.157300 1112.000000
229.182300 74.000000
230.013100 36.000000
230.062000 54.000000
230.107500 80.000000
230.147100 36.000000
230.161900 142.000000
231.120600 66.000000
231.137600 450.000000
232.142600 122.000000
232.997900 58.000000
233.132900 234.000000
233.150900 74.000000
234.040100 52.000000
234.097100 72.000000
234.148300 38.000000
235.035300 76.000000
235.109300 96.000000
235.146600 898.000000
236.117400 74.000000
236.136200 54.000000
236.153600 324.000000
237.126900 228.000000
237.164400 422.000000
237.182800 48.000000
238.135500 92.000000
238.167200 50.000000
239.104800 58.000000
239.143700 766.000000
239.179300 272.000000
239.197600 58.000000
240.069300 52.000000
240.112000 38.000000
240.146400 98.000000
240.186700 694.000000
241.123000 62.000000
241.158400 848.000000
241.192600 382.000000
242.163500 276.000000
242.187200 100.000000
242.198500 102.000000
243.137000 610.000000
243.171800 140.000000
244.074100 42.000000
244.124600 36.000000
244.144400 112.000000
244.160500 36.000000
245.133100 214.000000
245.153100 174.000000
245.166900 118.000000
245.191300 66.000000
246.116700 46.000000
246.136700 190.000000
246.160600 92.000000
246.204000 44.000000
246.241100 38.000000
247.147200 248.000000
247.169600 56.000000
248.149200 68.000000
249.064300 46.000000
249.125300 168.000000
249.163200 754.000000
250.107000 46.000000
250.129900 50.000000
250.171200 386.000000
250.212500 46.000000
250.237000 52.000000
251.125300 42.000000
251.142300 410.000000
251.178900 258.000000
251.199600 64.000000
252.052800 52.000000
252.149300 112.000000
252.183300 114.000000
252.232100 40.000000
253.156900 984.000000
253.192200 290.000000
254.160800 144.000000
254.235100 48.000000
255.074300 104.000000
255.138500 174.000000
255.175800 398.000000
256.125200 48.000000
256.144800 104.000000
256.179700 160.000000
256.264200 50.000000
257.038100 66.000000
257.153200 182.000000
257.188200 102.000000
257.246400 48.000000
258.109100 40.000000
258.136000 36.000000
258.172500 68.000000
258.205400 132.000000
259.005200 74.000000
259.056200 96.000000
259.148000 366.000000
259.227500 48.000000
260.047000 76.000000
260.155100 176.000000
260.179100 40.000000
261.147300 522.000000
261.165400 150.000000
262.121100 72.000000
262.147600 62.000000
262.158400 96.000000
262.170900 76.000000
263.142900 300.000000
263.179600 570.000000
264.149200 144.000000
264.183500 134.000000
264.999500 68.000000
265.081700 88.000000
265.157300 166.000000
265.194800 214.000000
266.159300 48.000000
266.193700 36.000000
267.140000 52.000000
267.155200 36.000000
267.173200 388.000000
267.210400 58.000000
268.179800 512.000000
268.220800 52.000000
269.019100 42.000000
269.154600 156.000000
269.186700 230.000000
270.160400 70.000000
271.145000 50.000000
271.158700 62.000000
271.170800 196.000000
271.208000 46.000000
272.156100 104.000000
273.162300 334.000000
274.126000 68.000000
274.166900 160.000000
274.202300 46.000000
274.261700 66.000000
275.138300 44.000000
275.177000 102.000000
275.185200 96.000000
275.978900 36.000000
276.188200 250.000000
277.157700 822.000000
277.194700 416.000000
278.112600 36.000000
278.124700 44.000000
278.162900 260.000000
278.200300 150.000000
279.173300 154.000000
279.194700 68.000000
279.211800 50.000000
280.212400 36.000000
281.073200 104.000000
281.148600 92.000000
281.161000 118.000000
281.188200 258.000000
281.218600 36.000000
282.080200 58.000000
282.197800 36.000000
283.052900 40.000000
283.075000 62.000000
283.204100 100.000000
283.222300 44.000000
284.176900 64.000000
285.163300 100.000000
285.186300 122.000000
286.126800 38.000000
286.173600 126.000000
286.186700 122.000000
287.025800 38.000000
287.142200 76.000000
287.178900 308.000000
288.136500 64.000000
288.180000 80.000000
289.193900 480.000000
290.166100 248.000000
290.202400 386.000000
291.173400 738.000000
291.209700 1420.000000
292.179300 180.000000
292.215100 282.000000
293.006600 74.000000
293.188900 368.000000
293.214200 44.000000
293.226500 76.000000
294.196000 224.000000
294.255500 38.000000
295.147500 38.000000
295.167600 404.000000
295.205000 156.000000
295.242300 162.000000
295.265500 52.000000
296.176100 86.000000
296.205800 74.000000
296.238400 38.000000
297.222500 68.000000
298.117100 38.000000
298.173600 56.000000
298.192600 74.000000
299.078400 80.000000
299.216500 38.000000
300.054300 40.000000
300.188200 548.000000
300.992500 50.000000
301.192000 168.000000
302.209100 74.000000
302.223100 40.000000
303.175800 182.000000
303.213200 54.000000
304.061900 46.000000
304.183400 162.000000
304.214100 214.000000
305.190000 384.000000
305.225600 2846.000000
306.115700 42.000000
306.193200 198.000000
306.230100 618.000000
307.145600 38.000000
307.201100 140.000000
307.237200 88.000000
308.212100 106.000000
308.279600 78.000000
309.148500 50.000000
309.184600 386.000000
309.220600 302.000000
310.193900 132.000000
310.221200 200.000000
311.200000 118.000000
312.206500 38.000000
313.063900 38.000000
313.178900 58.000000
313.211300 94.000000
315.120200 76.000000
315.208800 1466.000000
316.211800 254.000000
317.193700 38.000000
318.197500 1106.000000
319.199300 202.000000
321.220700 108.000000
322.188200 50.000000
322.231700 88.000000
323.200300 168.000000
323.235700 978.000000
324.051400 62.000000
324.204400 88.000000
324.242600 242.000000
325.153800 54.000000
326.190800 38.000000
326.219900 80.000000
327.150700 36.000000
327.232300 46.000000
327.257700 62.000000
330.062800 66.000000
331.202600 92.000000
332.223700 62.000000
333.220500 6620.000000
334.225000 1476.000000
334.245000 96.000000
335.065900 38.000000
335.228600 88.000000
336.207900 264.000000
337.212000 88.000000
339.229900 64.000000
340.104900 66.000000
340.198000 46.000000
341.089900 62.000000
341.210800 70.000000
341.245900 1190.000000
341.981900 42.000000
342.080800 40.000000
342.251600 374.000000
343.256400 74.000000
344.122000 44.000000
350.171500 46.000000
351.231300 7460.000000
352.234700 2028.000000
353.173000 68.000000
353.241100 108.000000
354.214000 44.000000
354.242000 56.000000
369.241600 532.000000
369.276000 48.000000
370.245900 184.000000
371.244600 60.000000
378.146700 36.000000
385.127200 80.000000
387.212800 70.000000
387.246600 128.000000
408.048900 62.000000

