>compound RP40384161
>parentmass 223.0747
>ionization [M+H]+
>formula C7H14N2O4S
>rt 35.340000
>profile qtof
#smiles_iso C(CSC[C@@H](C(=O)O)N)[C@@H](C(=O)O)N
#smiles_can C(CSCC(C(=O)O)N)C(C(=O)O)N
#inchikey ILRYLPWNYFXEMH-WHFBIAKZSA-N
#pubchem_id 439258
#mb_accession RP014601,RP014602,RP014603

>ms2peaks
49.007500 120.000000
71.000600 82.000000
72.101500 94.000000
87.054700 104.000000
89.005900 106.000000
95.088500 100.000000
99.104700 82.000000
101.035400 106.000000
107.057200 104.000000
113.001100 86.000000
113.117000 122.000000
121.088400 104.000000
125.070800 86.000000
130.066000 82.000000
132.075800 98.000000
134.027100 5560.000000
135.029300 250.000000
143.039700 110.000000
147.088800 84.000000
154.010900 90.000000
159.968300 82.000000
160.041900 180.000000
160.056000 84.000000
162.092900 122.000000
164.104100 98.000000
173.027500 92.000000
173.038800 178.000000
177.068900 918.000000
180.032700 86.000000
202.017900 96.000000
205.028400 100.000000
205.067900 182.000000
206.047300 96.000000
223.074400 79146.000000

>ms2peaks
58.062700 56.000000
59.073500 36.000000
69.073100 146.000000
74.022200 48.000000
84.042000 78.000000
85.003100 42.000000
85.042500 54.000000
88.020900 25792.000000
90.017200 462.000000
90.036400 336.000000
91.013300 36.000000
94.029900 66.000000
101.083000 46.000000
102.053300 146.000000
114.008400 112.000000
115.061700 58.000000
119.028400 38.000000
121.067500 36.000000
134.026900 8452.000000
135.020000 90.000000
135.030500 248.000000
136.022600 394.000000
137.042400 40.000000
138.026200 36.000000
160.044100 108.000000
177.069900 54.000000
206.059100 74.000000
223.074700 872.000000

>ms2peaks
54.031700 66.000000
70.027700 284.000000
74.022600 198.000000
88.020900 58406.000000
89.005000 74.000000
89.023700 1292.000000
90.017100 1806.000000
90.036600 168.000000
106.994600 72.000000
134.026200 398.000000

