>compound RP40796663
>parentmass 163.0754
>ionization [M+H]+
>formula C10H10O2
>rt 290.940000
>profile qtof
#smiles_iso CC1=CC=C(C=C1)/C=C/C(=O)O
#smiles_can CC1=CC=C(C=C1)C=CC(=O)O
#inchikey RURHILYUWQEGOS-VOTSOKGWSA-N
#pubchem_id 731767
#mb_accession RP011101,RP011102,RP011103

>ms2peaks
59.036500 88.000000
61.088800 48.000000
88.075100 704.000000
103.055100 202.000000
121.065600 36.000000
131.048700 3566.000000
132.053300 384.000000
161.060300 72.000000
163.074800 2930.000000

>ms2peaks
53.038400 50.000000
70.004800 60.000000
77.038100 214.000000
88.075400 724.000000
95.049800 110.000000
103.054000 3780.000000
105.044600 40.000000
121.061000 126.000000
122.069100 56.000000
128.996200 42.000000
131.048300 2254.000000

>ms2peaks
49.007100 72.000000
77.038200 3132.000000
81.033600 48.000000
88.075700 156.000000
91.054200 308.000000
95.048600 2194.000000
96.052000 168.000000
103.053800 2264.000000
104.058700 164.000000
105.044400 844.000000

