>compound RP40956588
>parentmass 468.2228
>ionization [M+H]+
>formula C23H33NO9
>rt 202.560000
>profile qtof
#smiles_iso CC1[C@@H](CC([C@@H](O1)OC(C)CCC(=O)O)O)OC(=O)CCC(=O)NCCC2=CC=C(C=C2)O
#smiles_can CC1C(CC(C(O1)OC(C)CCC(=O)O)O)OC(=O)CCC(=O)NCCC2=CC=C(C=C2)O
#inchikey VQYVTRPNVGUOGV-WLAKMJJWSA-N
#pubchem_id 137628558
#mb_accession RP009301,RP009302,RP009303

>ms2peaks
220.096800 4126.000000
238.107400 11376.000000
239.111600 1034.000000
292.154900 222.000000
350.159900 205844.000000
351.163500 51794.000000
352.166200 5544.000000
353.166500 322.000000
468.222800 5082.000000
470.229900 384.000000

>ms2peaks
81.065300 112.000000
82.192300 136.000000
83.047600 90.000000
85.013300 78.000000
85.063900 102.000000
95.048500 468.000000
101.059600 278.000000
113.060000 548.000000
115.018100 86.000000
120.245900 98.000000
121.066000 662.000000
121.195000 92.000000
122.224800 82.000000
126.030200 104.000000
128.093900 100.000000
136.085700 78.000000
140.090900 94.000000
147.117700 130.000000
148.211500 86.000000
150.066500 86.000000
153.000500 78.000000
153.008900 100.000000
153.978300 104.000000
154.186400 82.000000
157.086300 78.000000
164.156100 104.000000
166.120800 78.000000
171.042700 124.000000
171.073000 150.000000
172.009000 108.000000
175.110900 182.000000
177.242200 110.000000
179.026400 106.000000
182.085500 92.000000
187.062200 84.000000
190.045200 78.000000
192.060600 92.000000
192.134700 128.000000
192.270000 100.000000
193.184400 78.000000
194.193400 80.000000
195.993000 124.000000
196.233700 84.000000
198.991300 114.000000
201.040900 84.000000
203.998800 128.000000
204.024400 84.000000
204.091500 94.000000
206.133300 94.000000
211.012200 120.000000
213.999500 108.000000
215.127200 88.000000
220.096400 61524.000000
221.100000 6816.000000
222.024400 82.000000
222.103100 436.000000
229.030500 106.000000
237.117200 90.000000
238.107000 76356.000000
239.110400 10462.000000
240.114100 920.000000
241.119000 96.000000
241.224200 106.000000
250.106300 256.000000
250.145100 78.000000
274.142500 262.000000
276.182000 82.000000
281.214600 108.000000
286.167700 94.000000
292.154000 5606.000000
293.158600 778.000000
294.162500 94.000000
307.993400 80.000000
314.138000 128.000000
319.115100 98.000000
332.140800 108.000000
332.152700 92.000000
338.083500 112.000000
340.202500 82.000000
350.159600 72822.000000
351.163100 15908.000000
352.165800 1882.000000
353.171700 116.000000

>ms2peaks
53.038900 84.000000
57.032400 72.000000
59.047300 186.000000
59.167300 66.000000
65.038600 118.000000
67.053600 1386.000000
68.057800 164.000000
69.033500 94.000000
71.048400 98.000000
75.162100 70.000000
77.038100 130.000000
82.003800 66.000000
83.048600 2102.000000
85.064600 832.000000
87.990200 58.000000
91.053900 110.000000
93.069200 490.000000
94.074200 64.000000
95.048500 938.000000
96.052900 128.000000
100.038800 1058.000000
100.998000 64.000000
101.022600 612.000000
101.059200 898.000000
102.075600 68.000000
111.255300 58.000000
113.060100 912.000000
116.009200 64.000000
118.065400 104.000000
119.071300 66.000000
120.171900 60.000000
121.064800 18380.000000
122.068600 1484.000000
125.105600 64.000000
126.053000 58.000000
134.000800 76.000000
138.033000 58.000000
138.090300 252.000000
138.098200 142.000000
139.097900 68.000000
145.044600 72.000000
151.960200 76.000000
156.040000 88.000000
164.249100 66.000000
165.184400 76.000000
167.206800 62.000000
169.208000 74.000000
173.096100 64.000000
175.111200 632.000000
176.185900 62.000000
177.109400 70.000000
178.237200 80.000000
179.162900 80.000000
182.033900 84.000000
182.261100 72.000000
183.179800 100.000000
184.225300 86.000000
186.996900 66.000000
190.160300 62.000000
190.168800 64.000000
191.099900 60.000000
195.061000 60.000000
195.078300 64.000000
195.974000 126.000000
196.208100 82.000000
199.993200 78.000000
204.170100 62.000000
204.224400 58.000000
205.084600 64.000000
210.198300 58.000000
217.129700 62.000000
218.106100 62.000000
220.096500 57332.000000
221.100600 6406.000000
222.103200 434.000000
232.097700 200.000000
233.015900 72.000000
238.107200 11892.000000
239.109900 1774.000000
240.114100 188.000000
244.212300 72.000000
250.107200 70.000000
274.142600 244.000000
275.152200 98.000000
292.154400 308.000000
350.161800 330.000000
351.160300 94.000000
382.004900 62.000000

