>compound RP41774406
>parentmass 245.07679999999996
>ionization [M+H]+
>formula C9H12N2O6
>rt 39.480000
>profile qtof
#smiles_iso C1=C(C(=O)NC(=O)N1)[C@H]2[C@@H]([C@@H]([C@H](O2)CO)O)O
#smiles_can C1=C(C(=O)NC(=O)N1)C2C(C(C(O2)CO)O)O
#inchikey PTJWIQPHWPFNBW-GBNDHIKLSA-N
#pubchem_id 15047
#mb_accession RP031501,RP031502,RP031503

>ms2peaks
53.001700 64.000000
55.005500 42.000000
64.038900 72.000000
64.087100 42.000000
66.021500 36.000000
72.041700 38.000000
76.026800 94.000000
76.072500 76.000000
80.981500 50.000000
81.033400 40.000000
85.028000 102.000000
87.044400 64.000000
89.057900 36.000000
89.994400 54.000000
90.010700 48.000000
91.038000 52.000000
91.097500 38.000000
94.041200 104.000000
97.987300 74.000000
100.005100 52.000000
100.095900 56.000000
101.035000 62.000000
101.993100 38.000000
102.055300 36.000000
103.985700 48.000000
108.081600 48.000000
109.004300 38.000000
110.993300 40.000000
112.999000 46.000000
113.046800 36.000000
114.990200 48.000000
115.973200 54.000000
117.978000 84.000000
117.989800 74.000000
119.011500 66.000000
121.026400 66.000000
122.032200 64.000000
123.039200 72.000000
125.034100 398.000000
125.070900 48.000000
127.001100 40.000000
128.050300 66.000000
129.089100 74.000000
130.034700 60.000000
133.085200 44.000000
138.043700 78.000000
141.085800 40.000000
142.000700 50.000000
142.060000 48.000000
144.084900 92.000000
144.998100 40.000000
146.092500 38.000000
147.062800 38.000000
148.049000 62.000000
151.033800 48.000000
151.049700 54.000000
153.060800 126.000000
155.044700 2958.000000
156.049000 296.000000
156.089100 78.000000
156.997600 52.000000
157.021600 44.000000
157.032800 52.000000
158.981200 46.000000
160.033400 40.000000
160.988200 42.000000
163.050700 154.000000
163.064300 92.000000
164.050100 54.000000
166.049400 318.000000
167.045200 304.000000
167.070100 64.000000
168.041300 78.000000
168.050100 52.000000
168.982600 94.000000
170.993000 38.000000
172.044100 56.000000
173.976700 80.000000
174.064300 40.000000
175.034900 50.000000
175.082200 42.000000
175.984400 40.000000
176.030300 64.000000
177.024500 36.000000
177.113700 48.000000
179.044400 4094.000000
181.048400 126.000000
181.061100 198.000000
186.974500 40.000000
187.008300 40.000000
190.068800 84.000000
191.044900 3470.000000
192.048100 434.000000
193.083500 54.000000
195.986300 36.000000
200.064300 56.000000
202.033000 56.000000
203.028500 38.000000
204.049500 38.000000
206.028500 66.000000
206.066500 92.000000
209.055100 35464.000000
210.058600 2924.000000
211.060800 338.000000
212.066100 106.000000
213.097300 36.000000
221.989600 52.000000
225.074300 64.000000
227.066600 514.000000
238.994100 106.000000
245.076400 15852.000000
247.081100 226.000000

>ms2peaks
47.047800 40.000000
51.104200 54.000000
53.083300 48.000000
55.016600 70.000000
59.024200 36.000000
61.987900 36.000000
63.055500 36.000000
65.011200 38.000000
66.066800 40.000000
71.094300 62.000000
80.049800 136.000000
82.028400 856.000000
83.085100 38.000000
84.043600 398.000000
85.027700 82.000000
85.036600 68.000000
89.034800 36.000000
91.041000 64.000000
91.061300 130.000000
92.049300 114.000000
92.992900 74.000000
94.029300 64.000000
96.043200 162.000000
98.032000 52.000000
100.039800 234.000000
102.016400 52.000000
104.061500 66.000000
105.977700 52.000000
106.053500 36.000000
110.059300 102.000000
115.018800 40.000000
117.102800 112.000000
118.983900 60.000000
120.032300 60.000000
120.043200 124.000000
121.053200 86.000000
125.034400 1336.000000
126.037800 116.000000
127.037700 36.000000
127.060400 74.000000
132.062500 48.000000
135.042000 38.000000
137.034400 60.000000
138.053200 112.000000
139.051200 186.000000
143.035600 38.000000
144.027900 80.000000
144.041100 82.000000
146.022000 56.000000
147.054700 140.000000
148.038200 772.000000
149.041000 78.000000
150.055300 42.000000
151.049000 424.000000
153.031200 62.000000
153.063400 132.000000
155.044200 3852.000000
159.985800 42.000000
162.018700 44.000000
163.049200 2074.000000
164.053500 180.000000
165.030900 68.000000
166.049300 948.000000
167.044300 3054.000000
168.030700 60.000000
168.048000 138.000000
169.037700 40.000000
171.086500 54.000000
171.980200 50.000000
172.971900 46.000000
173.028400 62.000000
174.018000 38.000000
174.066500 44.000000
176.073400 36.000000
179.045100 2508.000000
180.048300 172.000000
181.059500 440.000000
187.093400 68.000000
191.044600 9520.000000
192.027700 52.000000
192.047800 534.000000
194.030000 38.000000
196.056500 48.000000
197.051000 66.000000
209.054700 4636.000000
210.058600 422.000000
245.076500 106.000000

>ms2peaks
55.017300 312.000000
57.032600 72.000000
61.028000 114.000000
64.076000 46.000000
65.037900 1750.000000
67.017000 186.000000
67.041600 216.000000
69.033400 296.000000
69.992700 130.000000
70.051900 38.000000
70.077300 38.000000
73.028200 42.000000
78.033700 210.000000
79.017200 76.000000
80.049200 1600.000000
81.033100 72.000000
81.052900 158.000000
82.028100 3828.000000
82.064500 538.000000
83.012400 52.000000
83.068200 36.000000
84.043600 1088.000000
90.034300 194.000000
92.048800 1482.000000
93.032600 410.000000
93.053200 90.000000
94.028900 92.000000
94.037300 72.000000
94.064300 38.000000
95.012100 36.000000
96.044000 842.000000
97.028300 64.000000
99.022500 44.000000
100.038800 1096.000000
103.017300 76.000000
105.033100 200.000000
108.043700 234.000000
110.021200 80.000000
110.058800 126.000000
111.042600 96.000000
111.064700 62.000000
112.038700 156.000000
120.044700 210.000000
121.027100 112.000000
122.042900 56.000000
125.033600 328.000000
126.054200 82.000000
127.049900 64.000000
128.068300 64.000000
139.011300 62.000000
139.046400 54.000000
148.040500 148.000000
155.045100 452.000000
156.049900 40.000000
163.049900 504.000000
164.054600 60.000000
166.046600 42.000000
167.046700 202.000000
168.017200 38.000000
169.061400 44.000000
179.043900 92.000000
180.052000 36.000000
191.042800 54.000000
192.052800 54.000000

