>compound RP41926263
>parentmass 396.3472
>ionization [M+H]+
>formula C24H45NO3
>rt 433.620000
>profile qtof
#smiles_iso CCCCCCCC/C=C\CCCCCCCC(=O)N[C@@H](CC(C)C)C(=O)O
#smiles_can CCCCCCCCC=CCCCCCCCC(=O)NC(CC(C)C)C(=O)O
#inchikey UMOAAMQGRRCHPA-GJCOWUBNSA-N
#pubchem_id 52922067
#mb_accession RP029701,RP029702,RP029703

>ms2peaks
86.095900 13660.000000
132.101800 12156.000000
265.253700 370.000000
350.341600 4180.000000
351.345600 754.000000
378.336900 7266.000000
379.340900 1700.000000
396.347600 295700.000000
398.353500 10232.000000

>ms2peaks
81.069200 1250.000000
83.085300 874.000000
85.100600 328.000000
86.095900 147988.000000
93.070200 286.000000
95.085600 702.000000
97.064300 198.000000
97.100700 780.000000
109.100900 578.000000
111.116500 264.000000
121.101500 466.000000
132.101800 35948.000000
149.132200 254.000000
247.243300 1668.000000
265.252800 4452.000000
266.257700 808.000000
313.295200 150.000000
350.341600 9676.000000
351.345900 1984.000000
352.345300 200.000000
378.337300 1538.000000
379.340000 654.000000
396.347400 20242.000000
398.353700 510.000000
399.306900 418.000000

>ms2peaks
71.049300 326.000000
71.085100 956.000000
79.053700 3008.000000
81.069200 6520.000000
83.085000 6064.000000
85.100500 436.000000
86.095800 207378.000000
91.053900 394.000000
93.069400 2290.000000
94.073400 242.000000
95.085400 3630.000000
96.088400 364.000000
97.100500 1502.000000
107.085900 472.000000
109.101100 572.000000
121.101100 650.000000
132.102100 3050.000000
135.117700 352.000000
149.132800 224.000000

