>compound RP42865447
>parentmass 482.3241
>ionization [M+H]+
>formula C23H48NO7P
>rt 339.960000
>profile qtof
#smiles_iso CCCCCCCCCCCCCCC(=O)OC[C@H](COP(=O)([O-])OCC[N+](C)(C)C)O
#smiles_can CCCCCCCCCCCCCCC(=O)OCC(COP(=O)([O-])OCC[N+](C)(C)C)O
#inchikey RJZVWDTYEWCUAR-JOCHJYFZSA-N
#pubchem_id 24779458
#mb_accession RP025901,RP025902,RP025903

>ms2
104.106500 4044.000000
184.071800 884.000000
464.313500 3302.000000
465.314700 696.000000
481.308500 698.000000
482.323700 531806.000000
484.330000 21338.000000

>ms2
86.095800 1762.000000
104.106700 99920.000000
184.072800 57084.000000
185.076000 1302.000000
258.109100 578.000000
299.259100 400.000000
464.313400 39086.000000
465.317100 7512.000000
466.321300 898.000000
482.323800 387978.000000
484.330400 15398.000000

>ms2
67.053700 740.000000
71.072400 5204.000000
71.084800 5448.000000
81.069100 1344.000000
83.085100 1010.000000
85.100700 2096.000000
86.095900 78348.000000
89.059100 286.000000
95.084800 1540.000000
97.101000 370.000000
98.983600 282.000000
104.106700 124974.000000
106.111300 362.000000
109.101300 488.000000
111.114700 378.000000
124.999600 4758.000000
163.016100 566.000000
166.062400 2072.000000
181.025500 276.000000
184.072700 168360.000000
185.076100 7322.000000
186.078700 724.000000
199.036600 300.000000
225.222700 318.000000
240.100200 310.000000
258.108700 1490.000000
259.115200 180.000000
269.248300 276.000000
299.257500 10212.000000
300.261700 1844.000000
405.240700 1126.000000
464.313400 2648.000000
465.313200 576.000000
466.321100 196.000000
482.320800 416.000000

