>compound RP42771738
>parentmass 328.2482
>ionization [M+H]+
>formula C18H33NO4
>rt 343.860000
>profile qtof
#smiles_iso CCCCCCCCCCCC(CC(=O)NC1CCOC1=O)O
#smiles_can CCCCCCCCCCCC(CC(=O)NC1CCOC1=O)O
#inchikey IKQUESGRCDRZTI-UHFFFAOYSA-N
#pubchem_id 11681427
#mb_accession RP021801,RP021802,RP021803

>ms2
74.059800 1964.000000
83.085100 110.000000
84.043800 544.000000
97.100500 138.000000
102.054600 50878.000000
104.057800 116.000000
115.038000 122.000000
120.065400 120.000000
123.041100 94.000000
129.101900 96.000000
135.196400 96.000000
147.147200 98.000000
171.139100 114.000000
173.007500 100.000000
173.234100 96.000000
191.179200 520.000000
193.098300 102.000000
209.189400 1554.000000
213.191500 94.000000
218.081700 98.000000
225.049500 104.000000
231.099000 122.000000
237.100700 108.000000
283.212200 116.000000
289.034200 114.000000
292.225900 144.000000
294.074200 100.000000
300.255700 136.000000
310.237200 23890.000000
311.240200 3878.000000
322.231700 102.000000
327.215300 174.000000
328.247900 92998.000000
330.253400 2134.000000

>ms2
61.182900 56.000000
67.054300 458.000000
71.024600 82.000000
75.055400 90.000000
83.048100 136.000000
83.085100 1978.000000
85.027100 424.000000
85.064000 284.000000
85.100700 356.000000
86.071700 62.000000
87.080100 180.000000
87.161500 70.000000
89.084000 78.000000
91.054900 146.000000
93.069900 182.000000
95.085100 822.000000
97.064500 302.000000
97.100500 1406.000000
99.080700 190.000000
101.058600 66.000000
101.095800 106.000000
102.054500 51314.000000
104.057700 172.000000
107.086200 228.000000
109.101700 588.000000
109.159400 64.000000
110.105000 228.000000
111.080600 182.000000
111.116500 580.000000
113.094500 88.000000
115.072200 92.000000
121.100700 444.000000
122.105600 116.000000
123.116700 126.000000
124.170700 64.000000
125.096900 56.000000
125.132000 152.000000
127.108800 142.000000
132.113700 60.000000
135.115700 294.000000
137.131100 78.000000
139.112400 100.000000
144.066000 86.000000
149.132900 358.000000
151.143800 128.000000
153.158400 56.000000
167.180800 112.000000
188.096200 54.000000
191.178800 3300.000000
192.181500 538.000000
209.189700 3108.000000
210.192800 456.000000
226.142500 58.000000
226.216200 368.000000
227.129700 68.000000
238.213800 62.000000
264.233000 244.000000
268.225000 140.000000
276.111600 90.000000
282.243600 440.000000
282.267000 68.000000
292.226800 756.000000
293.231500 178.000000
310.236900 3020.000000
311.242500 668.000000
312.246900 90.000000

>ms2
57.032300 102.000000
57.069400 586.000000
70.026000 48.000000
75.019500 58.000000
76.026200 82.000000
79.053800 2224.000000
80.037600 46.000000
81.069800 1272.000000
83.048400 356.000000
83.084700 3284.000000
84.043800 4846.000000
85.007200 38.000000
85.027700 670.000000
85.063500 76.000000
85.101500 170.000000
91.054600 224.000000
93.069700 940.000000
94.073500 156.000000
95.084900 952.000000
96.088400 72.000000
97.065000 678.000000
97.101200 1140.000000
100.039800 120.000000
102.054500 10024.000000
103.204800 36.000000
104.057300 62.000000
104.062300 84.000000
111.079900 70.000000
111.116700 42.000000
112.040000 36.000000
121.100400 128.000000
127.111200 54.000000
185.133600 48.000000
199.163800 38.000000
209.185700 70.000000

