>compound RP43802067
>parentmass 300.2169
>ionization [M+H]+
>formula C16H29NO4
>rt 303.900000
>profile qtof
#smiles_iso CCCCCCCCCC(CC(=O)NC1CCOC1=O)O
#smiles_can CCCCCCCCCC(CC(=O)NC1CCOC1=O)O
#inchikey RGTXFFYJJNWEPV-UHFFFAOYSA-N
#pubchem_id 11507677
#mb_accession RP021701,RP021702,RP021703

>ms2
74.059400 13436.000000
81.069400 768.000000
83.084800 1032.000000
84.043700 4064.000000
85.027800 508.000000
95.085000 688.000000
97.064300 416.000000
97.100700 1092.000000
102.054600 361814.000000
163.147600 3166.000000
181.157800 6792.000000
182.162800 572.000000
198.186900 400.000000
242.211700 400.000000
254.211000 1038.000000
264.194900 688.000000
272.222600 554.000000
282.206000 78190.000000
283.209600 12978.000000
300.216800 186178.000000
302.222400 3094.000000

>ms2
57.033000 300.000000
59.048200 686.000000
67.053700 3986.000000
71.048400 1586.000000
71.084900 3960.000000
73.063800 776.000000
74.022900 21022.000000
74.059300 70402.000000
79.054000 1272.000000
81.069300 12804.000000
82.073600 1140.000000
83.085100 23552.000000
84.043800 13292.000000
85.028100 1650.000000
85.064500 1954.000000
93.069200 3148.000000
95.085200 4506.000000
97.064900 2794.000000
97.100800 15440.000000
99.080700 576.000000
101.060200 262.000000
102.054700 260186.000000
104.058900 676.000000
107.085200 3916.000000
109.101100 776.000000
111.079800 1552.000000
111.117600 940.000000
121.100900 2004.000000
122.104200 290.000000
163.147600 13396.000000
164.151200 1680.000000
181.158000 10180.000000
182.161500 1050.000000
198.184800 624.000000
236.200800 458.000000
254.211700 1686.000000
264.196100 2842.000000
282.206400 5906.000000
283.209800 1466.000000
300.217900 458.000000

>ms2
57.033000 338.000000
59.048200 456.000000
67.053600 11130.000000
69.069200 31794.000000
71.048300 372.000000
71.085000 1668.000000
72.008000 240.000000
72.208600 112.000000
73.064200 658.000000
74.023000 71062.000000
74.059300 74946.000000
76.027100 136.000000
77.038100 846.000000
79.053800 11976.000000
81.069600 11084.000000
82.073500 366.000000
83.048800 1162.000000
83.085200 21400.000000
84.044000 26092.000000
85.028000 5398.000000
85.064100 666.000000
87.043900 88.000000
87.079900 246.000000
91.053800 1210.000000
92.057400 84.000000
93.069600 4760.000000
94.073400 394.000000
95.047700 378.000000
95.085300 5038.000000
96.079900 132.000000
97.064400 3492.000000
97.101000 5084.000000
98.057800 86.000000
98.068500 198.000000
99.080800 126.000000
100.039500 196.000000
102.054700 34832.000000
104.058700 242.000000
105.044800 156.000000
105.069500 212.000000
107.084900 2654.000000
108.088600 298.000000
109.065100 200.000000
109.100800 554.000000
111.081400 502.000000
111.116200 210.000000
121.100500 1346.000000
122.104600 94.000000
163.149300 126.000000
181.156800 90.000000

