>compound RP43291401
>parentmass 496.3398
>ionization [M+H]+
>formula C24H50NO7P
>rt 359.220000
>profile qtof
#smiles_iso CCCCCCCCCCCCCCCC(=O)OCC(COP(=O)([O-])OCC[N+](C)(C)C)O
#smiles_can CCCCCCCCCCCCCCCC(=O)OCC(COP(=O)([O-])OCC[N+](C)(C)C)O
#inchikey ASWBNKHCZGQVJV-UHFFFAOYSA-N
#pubchem_id 86554
#mb_accession RP012101,RP012102,RP012103

>ms2peaks
104.106800 5918.000000
184.072900 1498.000000
478.328700 4834.000000
479.330500 826.000000
495.312800 1118.000000
496.339700 620548.000000
498.346200 32150.000000

>ms2peaks
86.095700 2080.000000
104.106600 120538.000000
184.072900 52982.000000
185.076600 1682.000000
258.109800 820.000000
313.273800 510.000000
478.329200 42536.000000
479.332300 9922.000000
480.336300 1112.000000
495.294300 686.000000
495.330100 942.000000
496.339800 447718.000000
498.345600 24022.000000

>ms2peaks
57.032900 348.000000
69.069300 690.000000
71.084800 4824.000000
81.069200 1564.000000
83.085000 1426.000000
85.100800 2138.000000
86.095900 82722.000000
89.060600 192.000000
95.085500 1840.000000
97.100700 638.000000
98.984100 514.000000
99.116000 464.000000
104.106800 149750.000000
106.111900 444.000000
109.101500 318.000000
124.999600 6252.000000
163.015700 768.000000
166.062400 1768.000000
181.025700 570.000000
184.072800 184370.000000
185.076600 10024.000000
186.077600 1278.000000
239.239200 508.000000
240.100500 286.000000
257.247400 316.000000
258.109700 2342.000000
283.262000 504.000000
313.273600 13172.000000
314.277400 2518.000000
419.256200 1526.000000
420.258500 312.000000
478.329300 3898.000000
479.332000 1332.000000
480.332100 230.000000
496.338200 706.000000

