>compound RP43010686
>parentmass 282.1197
>ionization [M+H]+
>formula C11H15N5O4
>rt 46.680000
>profile qtof
#smiles_iso CO[C@@H]1[C@@H]([C@H](O[C@H]1N2C=NC3=C(N=CN=C32)N)CO)O
#smiles_can COC1C(C(OC1N2C=NC3=C(N=CN=C32)N)CO)O
#inchikey FPUGCISOLXNPPC-IOSLPCCCSA-N
#pubchem_id 102213
#mb_accession RP031201,RP031202,RP031203

>ms2
136.061700 10496.000000
137.064400 562.000000
182.062200 162.000000
282.119500 141108.000000

>ms2
54.102600 40.000000
55.016600 100.000000
57.033000 126.000000
58.999900 66.000000
59.048300 716.000000
61.027000 222.000000
64.005500 74.000000
69.032800 2262.000000
71.012200 74.000000
71.048700 208.000000
73.027100 72.000000
73.063500 124.000000
75.043500 238.000000
76.050100 50.000000
79.111800 52.000000
81.989900 46.000000
85.027900 268.000000
87.043600 1064.000000
89.059500 136.000000
92.130500 70.000000
94.064900 44.000000
97.001000 36.000000
97.028700 400.000000
98.032900 62.000000
101.059400 1586.000000
105.101000 68.000000
107.045500 82.000000
107.999200 68.000000
111.044600 86.000000
112.003300 44.000000
112.016400 82.000000
115.037900 372.000000
115.123200 44.000000
116.048800 80.000000
117.052900 46.000000
125.011000 78.000000
125.019500 44.000000
125.114400 96.000000
126.052600 46.000000
129.053800 204.000000
134.124500 80.000000
136.061400 23780.000000
137.064500 1540.000000
138.068800 50.000000
147.065400 244.000000
149.025600 94.000000
178.072700 40.000000
189.976500 38.000000
192.087600 100.000000
210.008100 40.000000
217.057500 40.000000
218.029000 50.000000
240.997400 58.000000
247.060800 74.000000
251.990100 40.000000
280.106100 36.000000
282.119900 4586.000000
284.122300 72.000000

>ms2
53.038900 56.000000
53.094600 46.000000
55.016600 448.000000
57.032200 1096.000000
59.048200 1208.000000
60.020100 130.000000
61.027600 648.000000
67.016800 50.000000
69.032600 8788.000000
71.012300 666.000000
71.047400 296.000000
73.028000 440.000000
73.064900 570.000000
74.034700 80.000000
75.043300 1290.000000
83.048900 88.000000
85.027400 486.000000
87.043200 1112.000000
89.059600 182.000000
89.094200 60.000000
92.024400 104.000000
92.997300 46.000000
94.040000 1210.000000
97.028200 658.000000
99.042300 36.000000
101.059800 696.000000
102.031900 54.000000
102.989500 36.000000
108.057800 56.000000
109.049500 196.000000
112.003500 44.000000
115.036900 50.000000
119.034300 1190.000000
120.039600 118.000000
127.057600 46.000000
129.054400 46.000000
131.998900 40.000000
136.061700 17974.000000
137.045100 388.000000
137.064700 1108.000000
149.023500 44.000000
149.070900 50.000000
178.066700 72.000000
192.086500 38.000000

