>compound RP43439763
>parentmass 182.0812
>ionization [M+H]+
>formula C9H11NO3
>rt 42.540000
>profile qtof
#smiles_iso C1=CC(=CC=C1C[C@@H](C(=O)O)N)O
#smiles_can C1=CC(=CC=C1CC(C(=O)O)N)O
#inchikey OUYCCCASQSFEME-QMMMGPOBSA-N
#pubchem_id 6057
#mb_accession RP000301,RP000302,RP000303

>ms2peaks
58.003700 64.000000
60.992100 70.000000
61.987400 130.000000
63.007200 82.000000
74.014800 116.000000
91.053900 254.000000
93.020500 94.000000
95.049200 190.000000
95.984200 72.000000
104.044900 60.000000
105.034400 64.000000
119.048700 576.000000
123.044200 724.000000
129.089300 118.000000
136.075000 6858.000000
141.989600 52.000000
147.043300 2222.000000
148.047600 384.000000
155.058800 58.000000
163.085000 54.000000
165.054000 50268.000000
168.066000 54.000000
173.080700 100.000000
182.080700 29412.000000
184.085600 124.000000

>ms2peaks
64.086900 84.000000
65.038100 218.000000
69.057400 48.000000
74.023100 42.000000
77.038600 366.000000
78.055100 64.000000
91.053900 10302.000000
92.057200 640.000000
93.070300 344.000000
94.077300 90.000000
95.048700 4040.000000
96.052400 266.000000
100.086400 112.000000
103.054800 432.000000
106.065400 76.000000
107.049400 126.000000
107.068900 102.000000
108.080700 66.000000
109.063200 204.000000
117.006300 104.000000
118.064300 158.000000
119.049100 4538.000000
121.065900 162.000000
123.044100 6540.000000
124.047000 416.000000
125.044300 64.000000
136.075600 9042.000000
137.057400 100.000000
137.078400 776.000000
147.043900 2820.000000
148.047800 430.000000
165.054500 3736.000000

>ms2peaks
51.022800 88.000000
59.048400 66.000000
65.038000 13128.000000
66.042300 660.000000
67.053600 1270.000000
69.034000 102.000000
75.023300 76.000000
77.038200 10192.000000
79.054300 562.000000
81.033200 260.000000
81.070600 560.000000
82.073700 90.000000
90.046200 96.000000
91.053900 48902.000000
92.057400 2846.000000
93.069300 78.000000
94.041900 512.000000
94.065700 62.000000
95.048900 13718.000000
96.052300 550.000000
103.054000 278.000000
105.044700 2128.000000
107.048800 3204.000000
109.065100 382.000000
117.054200 184.000000
118.065600 230.000000
119.049100 936.000000
120.057200 68.000000
123.044200 486.000000
136.074100 90.000000

