>compound RP44633085
>parentmass 322.2741
>ionization [M+H]+
>formula C20H35NO2
>rt 363.780000
>profile qtof
#smiles_iso CC/C=C\C/C=C\C/C=C\CCCCCCCC(=O)NCCO
#smiles_can CCC=CCC=CCC=CCCCCCCCC(=O)NCCO
#inchikey HBJXRRXWHSHZPU-PDBXOOCHSA-N
#pubchem_id 5283449
#mb_accession RP003401,RP003402,RP003403

>ms2peaks
69.069800 104.000000
81.069300 290.000000
99.080800 184.000000
109.101100 338.000000
123.117400 120.000000
145.101100 100.000000
147.218600 118.000000
149.132000 140.000000
158.116300 144.000000
163.147200 122.000000
164.152600 104.000000
172.132300 538.000000
175.143500 154.000000
177.163600 530.000000
184.133600 324.000000
186.148800 1042.000000
190.251200 106.000000
198.148100 242.000000
200.165200 1128.000000
201.165400 250.000000
210.147900 116.000000
212.165300 344.000000
214.180200 1336.000000
215.189300 170.000000
219.991700 98.000000
226.179700 470.000000
227.180800 132.000000
228.195200 596.000000
229.201500 148.000000
230.202900 158.000000
233.224100 178.000000
238.178500 460.000000
240.194800 698.000000
242.211700 320.000000
243.211000 1738.000000
244.213200 256.000000
252.195500 482.000000
252.210000 148.000000
254.210000 184.000000
256.226200 180.000000
261.221400 3058.000000
262.224000 626.000000
263.051300 100.000000
263.238000 116.000000
266.211300 448.000000
267.211600 264.000000
279.233500 228.000000
280.228500 382.000000
287.072000 162.000000
304.263600 1798.000000
305.247200 2574.000000
306.251200 452.000000
312.173400 104.000000
322.274200 96540.000000
324.229200 100.000000

>ms2peaks
45.031800 48.000000
47.036400 64.000000
53.189700 62.000000
54.021200 40.000000
55.148400 36.000000
57.033200 36.000000
57.078300 46.000000
58.122400 54.000000
59.048800 48.000000
63.055800 172.000000
67.053600 3386.000000
71.048800 232.000000
81.069300 2948.000000
83.048300 146.000000
83.085200 384.000000
85.063900 252.000000
85.102000 70.000000
88.038600 146.000000
91.053900 148.000000
93.069100 1152.000000
94.005000 42.000000
94.073600 132.000000
95.085000 1800.000000
96.088800 128.000000
97.065400 224.000000
98.059700 114.000000
98.166100 50.000000
99.042300 110.000000
99.079600 36.000000
103.229500 38.000000
105.070000 220.000000
107.106800 42.000000
109.100800 622.000000
110.164400 44.000000
121.100700 534.000000
123.115900 212.000000
131.084400 62.000000
131.094000 102.000000
132.021400 46.000000
133.100400 218.000000
135.080900 64.000000
140.106300 60.000000
141.993300 40.000000
143.189000 44.000000
145.100800 180.000000
147.116500 184.000000
148.121400 46.000000
149.094400 106.000000
149.132100 560.000000
150.137300 80.000000
152.103500 50.000000
152.163000 44.000000
153.092400 36.000000
155.105300 44.000000
156.100900 36.000000
156.270100 60.000000
157.997100 64.000000
158.116800 152.000000
159.116300 488.000000
161.070100 98.000000
161.133200 464.000000
162.126300 74.000000
162.135700 96.000000
163.028800 54.000000
163.148300 590.000000
164.056600 62.000000
165.128000 52.000000
166.120200 76.000000
166.253100 38.000000
172.133800 168.000000
173.132300 382.000000
174.137600 60.000000
175.149300 218.000000
177.124800 42.000000
177.164000 378.000000
179.144200 68.000000
181.085900 42.000000
181.121500 52.000000
182.010500 36.000000
183.137300 116.000000
184.050700 44.000000
184.131500 130.000000
186.004700 50.000000
186.148900 296.000000
187.147500 196.000000
188.150500 80.000000
189.163400 88.000000
191.140500 106.000000
194.154400 36.000000
195.137200 72.000000
195.172500 60.000000
197.154700 72.000000
198.147600 106.000000
200.150500 38.000000
210.150800 56.000000
210.163200 42.000000
214.179600 238.000000
215.179800 76.000000
217.193600 90.000000
218.201200 50.000000
220.016600 36.000000
220.166700 56.000000
220.218700 36.000000
224.194800 86.000000
225.184400 70.000000
226.180400 124.000000
227.174600 86.000000
233.227700 154.000000
234.181400 58.000000
236.251500 36.000000
238.180200 54.000000
238.216700 50.000000
243.064800 44.000000
243.211800 696.000000
243.234000 42.000000
244.213200 178.000000
245.215400 44.000000
246.117000 46.000000
249.183100 98.000000
261.221900 2250.000000
262.224700 498.000000
263.226000 42.000000
266.209700 82.000000
287.213900 44.000000
304.263600 2262.000000
305.247500 1074.000000
319.203000 72.000000
322.274100 1842.000000
324.279900 42.000000
326.223300 56.000000

>ms2peaks
53.039100 172.000000
55.017000 46.000000
56.049700 48.000000
63.055600 128.000000
64.063700 96.000000
66.041900 44.000000
70.028200 308.000000
71.048600 226.000000
71.085100 52.000000
77.038900 260.000000
79.053700 4756.000000
80.057300 392.000000
81.069200 4644.000000
83.048300 96.000000
83.085900 344.000000
85.064100 72.000000
91.053900 1056.000000
92.057500 156.000000
93.069300 2530.000000
94.072800 310.000000
95.049900 308.000000
95.085400 1884.000000
96.080500 64.000000
98.059800 84.000000
105.045200 60.000000
105.070300 418.000000
107.085900 664.000000
109.100900 226.000000
117.070700 98.000000
121.100700 230.000000
122.105500 40.000000
131.085300 94.000000
145.101200 50.000000
147.118100 46.000000
149.132100 52.000000
159.114200 40.000000
161.131400 46.000000
161.270700 36.000000
202.169200 134.000000
304.270700 60.000000

