>compound RP44417682
>parentmass 186.0761
>ionization [M+H]+
>formula C8H11NO4
>rt 58.020000
>profile qtof
#smiles_iso CC(=O)CC(=O)NC1CCOC1=O
#smiles_can CC(=O)CC(=O)NC1CCOC1=O
#inchikey FIHPLICEAUNEFV-UHFFFAOYSA-N
#pubchem_id 11513882
#mb_accession RP020701,RP020702,RP020703

>ms2peaks
53.997700 44.000000
74.023700 474.000000
84.043900 144.000000
85.028200 1614.000000
97.072900 38.000000
98.059700 112.000000
100.047400 44.000000
102.054600 13900.000000
109.040200 56.000000
128.070800 310.000000
136.075800 70.000000
139.985900 64.000000
140.069700 240.000000
141.064900 48.000000
141.073300 68.000000
143.034200 64.000000
144.988700 44.000000
147.032800 52.000000
150.019400 176.000000
150.066500 46.000000
158.081000 2770.000000
168.066500 328.000000
169.070100 60.000000
179.019700 42.000000
180.061700 68.000000
186.076100 9558.000000

>ms2peaks
74.023200 1990.000000
74.059600 8014.000000
84.044300 932.000000
85.027700 3198.000000
87.031700 56.000000
98.059500 202.000000
102.054900 5582.000000
104.058800 58.000000
128.071300 238.000000
140.070500 220.000000
149.017900 46.000000
158.081300 154.000000
168.066600 82.000000
169.001200 78.000000
192.041600 92.000000

>ms2peaks
55.038800 50.000000
57.044200 78.000000
59.048700 46.000000
68.049300 102.000000
70.028700 62.000000
74.023100 3192.000000
74.059500 1242.000000
84.043800 568.000000
85.028100 626.000000
102.055300 122.000000
174.991100 46.000000

