>compound RP45214798
>parentmass 272.2584
>ionization [M+H]+
>formula C16H33NO2
>rt 366.240000
>profile qtof
#smiles_iso CCCCCCCCCCCCCC(=O)NCCO
#smiles_can CCCCCCCCCCCCCC(=O)NCCO
#inchikey JHIXEZNTXMFXEK-UHFFFAOYSA-N
#pubchem_id 8890
#mb_accession RP003001,RP003002,RP003003

>ms2peaks
211.204700 600.000000
254.246700 840.000000
255.231400 8458.000000
272.257700 267960.000000
274.263800 4194.000000

>ms2peaks
56.143600 42.000000
58.086800 38.000000
60.114200 60.000000
60.186900 54.000000
61.007900 46.000000
64.063700 368.000000
66.046500 60.000000
67.053700 1862.000000
69.069400 3394.000000
71.085100 11452.000000
74.117100 42.000000
79.053600 42.000000
79.098400 38.000000
79.110600 38.000000
81.069500 2524.000000
83.085200 1096.000000
85.100700 4542.000000
94.073700 48.000000
95.085000 3444.000000
96.089300 194.000000
97.100600 564.000000
97.122300 58.000000
101.246700 68.000000
103.000500 74.000000
109.101200 1376.000000
111.116800 470.000000
116.249600 86.000000
117.245000 42.000000
118.109900 82.000000
122.047000 60.000000
123.116500 288.000000
125.132800 54.000000
130.075000 36.000000
131.116900 40.000000
134.128500 38.000000
149.153100 46.000000
151.147300 116.000000
155.011600 48.000000
159.186700 46.000000
160.028300 44.000000
166.063800 66.000000
171.159100 70.000000
174.078800 56.000000
175.145300 70.000000
178.077000 38.000000
184.106200 44.000000
184.219900 74.000000
185.155400 48.000000
186.242100 60.000000
193.152700 58.000000
193.193700 48.000000
197.142500 66.000000
199.075000 68.000000
201.158200 66.000000
203.156100 38.000000
204.267500 64.000000
205.146000 80.000000
206.106000 40.000000
211.205800 1814.000000
217.026700 74.000000
219.137800 40.000000
221.079600 38.000000
223.988500 38.000000
233.012100 42.000000
235.230200 64.000000
236.176300 58.000000
240.127700 80.000000
243.267700 50.000000
251.034100 38.000000
254.247300 8190.000000
255.231300 21782.000000
258.265300 46.000000
272.258500 6134.000000
277.140900 38.000000

>ms2peaks
52.218700 36.000000
53.038900 44.000000
55.169500 44.000000
57.069300 10414.000000
62.059500 35176.000000
63.174300 42.000000
65.038200 334.000000
66.185500 68.000000
67.053700 5522.000000
69.069300 2354.000000
71.085000 7170.000000
73.027600 144.000000
79.054000 352.000000
81.069400 2588.000000
83.084900 334.000000
85.063000 66.000000
85.101000 996.000000
87.043600 58.000000
95.085000 2104.000000
96.089100 62.000000
98.059900 76.000000
109.016200 42.000000
109.101900 154.000000
113.108300 38.000000
123.117200 46.000000
123.162100 50.000000
138.136300 38.000000
221.058900 40.000000
254.245800 344.000000
255.230300 136.000000
255.252900 196.000000
256.133200 38.000000

