>compound RP45426495
>parentmass 228.1594
>ionization [M+H]+
>formula C12H21NO3
>rt 263.760000
>profile qtof
#smiles_iso CCCCCCCC(=O)NC1CCOC1=O
#smiles_can CCCCCCCC(=O)NC1CCOC1=O
#inchikey JKEJEOJPJVRHMQ-UHFFFAOYSA-N
#pubchem_id 3474204
#mb_accession RP020301,RP020302,RP020303

>ms2peaks
83.085100 798.000000
84.043600 1298.000000
102.054700 265196.000000
109.101000 7194.000000
127.111900 92856.000000
200.164400 22244.000000
210.148800 32204.000000
211.152100 3124.000000
228.159300 223902.000000
230.164400 1836.000000

>ms2peaks
48.175000 108.000000
59.048400 1334.000000
61.065100 154.000000
69.069300 406.000000
71.048200 538.000000
71.084900 598.000000
74.023100 7752.000000
80.082900 116.000000
81.069600 1100.000000
83.085200 2738.000000
84.044100 4596.000000
85.028000 5292.000000
85.064500 802.000000
86.071600 112.000000
100.039200 158.000000
100.076400 136.000000
102.054800 85518.000000
104.057800 216.000000
109.101000 13378.000000
110.104900 916.000000
120.066600 104.000000
126.128700 120.000000
127.111600 16920.000000
128.069800 88.000000
140.071900 234.000000
152.139700 108.000000
200.165400 368.000000
210.148800 8794.000000
211.152000 1030.000000
228.160300 724.000000

>ms2peaks
52.051700 64.000000
59.048200 374.000000
59.060900 130.000000
68.025000 62.000000
69.033000 38.000000
70.065800 106.000000
71.047100 48.000000
71.084900 290.000000
72.044000 54.000000
74.023100 21818.000000
74.059400 27724.000000
75.101900 36.000000
76.026000 42.000000
79.054300 630.000000
80.049000 86.000000
80.058300 78.000000
81.069400 1704.000000
82.065100 100.000000
83.085900 302.000000
84.043600 5020.000000
85.027800 2738.000000
86.037000 52.000000
91.054600 74.000000
94.060600 38.000000
94.077300 96.000000
102.054800 3706.000000
109.101500 530.000000
127.111100 184.000000

