>compound RP45321598
>parentmass 449.1078
>ionization [M+H]+
>formula C21H20O11
>rt 190.080000
>profile qtof
#smiles_iso C1=CC(=CC=C1C2=C(C(=O)C3=C(C=C(C=C3O2)O)O)O[C@H]4[C@@H]([C@H]([C@@H]([C@H](O4)CO)O)O)O)O
#smiles_can C1=CC(=CC=C1C2=C(C(=O)C3=C(C=C(C=C3O2)O)O)OC4C(C(C(C(O4)CO)O)O)O)O
#inchikey JPUKWEQWGBDDQB-QSOFNFLRSA-N
#pubchem_id 5282102
#mb_accession RP017301,RP017302,RP017303

>ms2
69.032900 176.000000
85.027700 566.000000
149.132200 186.000000
168.019700 156.000000
204.947000 152.000000
287.055300 138268.000000
288.058600 21136.000000
289.061400 1882.000000
449.108300 40374.000000
451.113400 1670.000000

>ms2
81.033000 154.000000
85.027900 5084.000000
87.044100 540.000000
91.038600 550.000000
97.028000 856.000000
99.043500 344.000000
127.039000 274.000000
145.050100 654.000000
275.977500 192.000000
287.054900 140072.000000
288.058400 23666.000000
289.060900 2654.000000

>ms2
55.017300 116.000000
73.027700 464.000000
81.032900 1782.000000
82.036600 168.000000
83.013100 118.000000
85.028000 8220.000000
87.043900 342.000000
91.038900 262.000000
91.111200 102.000000
95.118500 114.000000
97.028300 1352.000000
109.027400 434.000000
127.039900 218.000000
129.998100 106.000000
137.026000 166.000000
153.017300 400.000000
165.018000 334.000000
166.020600 130.000000
176.977800 124.000000
185.030100 114.000000
193.031000 104.000000
197.083300 138.000000
203.036200 142.000000
204.111000 128.000000
213.055900 178.000000
237.991900 122.000000
241.049500 186.000000
245.056200 102.000000
248.099400 104.000000
258.053100 240.000000
259.060400 172.000000
261.071500 128.000000
273.989400 106.000000
274.055400 128.000000
286.061700 146.000000
287.055100 101740.000000
288.058600 17260.000000
289.031800 104.000000
289.060600 1762.000000

