>compound RP46350845
>parentmass 153.05459999999997
>ionization [M+H]+
>formula C8H8O3
>rt 181.620000
>profile qtof
#smiles_iso C1=CC=C(C(=C1)CC(=O)O)O
#smiles_can C1=CC=C(C(=C1)CC(=O)O)O
#inchikey CCVYRRGZDBSHFU-UHFFFAOYSA-N
#pubchem_id 11970
#mb_accession RP004601,RP004602,RP004603,RP015501,RP015502,RP015503

>ms2
95.049200 554.000000
97.065600 46.000000
104.034600 56.000000
107.048800 17746.000000
108.052000 1194.000000
135.043100 1726.000000
137.048300 48.000000
153.053800 1488.000000

>ms2
77.038400 1126.000000
78.046000 148.000000
79.053700 8526.000000
80.057200 416.000000
95.048900 2024.000000
95.998600 40.000000
96.052100 302.000000
97.065300 76.000000
105.045000 292.000000
106.040800 46.000000
107.048800 18028.000000
108.052000 1228.000000

>ms2
53.038100 748.000000
77.038000 14640.000000
79.053600 7478.000000
81.032700 258.000000
95.048700 6020.000000
97.052700 108.000000
105.044000 1848.000000
107.049400 1174.000000
108.052100 100.000000
158.011300 42.000000
164.010600 40.000000

>ms2
77.037900 134.000000
79.053500 408.000000
107.048900 24600.000000
108.052300 1356.000000
129.018100 38.000000
135.043800 1634.000000
153.053600 1724.000000
180.016900 36.000000

>ms2
77.038000 1030.000000
78.045800 108.000000
80.057900 182.000000
85.076300 44.000000
93.070800 56.000000
95.048200 1002.000000
105.043100 264.000000
106.040800 104.000000
107.048900 17418.000000
108.051900 1126.000000
135.043800 286.000000

>ms2
55.017800 40.000000
66.042100 48.000000
67.054700 96.000000
68.997100 58.000000
77.037800 15712.000000
78.041700 658.000000
79.053600 7742.000000
81.032900 182.000000
95.048600 4750.000000
105.044400 2074.000000
107.049300 1310.000000
108.053700 84.000000

