>compound RP46920440
>parentmass 484.3091
>ionization [M+H]+
>formula C26H45NO5S
>rt 294.120000
>profile qtof
#smiles_iso C[C@H](CCC(=O)NCCS(=O)(=O)O)[C@H]1CC[C@@H]2[C@@]1(CC[C@H]3[C@H]2CC[C@H]4[C@@]3(CC[C@H](C4)O)C)C
#smiles_can CC(CCC(=O)NCCS(=O)(=O)O)C1CCC2C1(CCC3C2CCC4C3(CCC(C4)O)C)C
#inchikey QBYUNVOYXHFVKC-GBURMNQMSA-N
#pubchem_id 439763
#mb_accession RP006101,RP006102,RP006103

>ms2peaks
294.184400 210.000000
341.282300 306.000000
349.967000 150.000000
354.173700 120.000000
465.306100 126.000000
466.298600 118020.000000
467.301900 32658.000000
468.300900 6392.000000
469.301000 916.000000
484.309000 36878.000000
486.273100 132.000000
486.312100 2174.000000
487.308700 428.000000

>ms2peaks
126.021900 726.000000
128.019700 134.000000
149.131900 222.000000
163.147400 144.000000
177.163900 152.000000
208.063800 476.000000
209.060500 134.000000
231.177600 146.000000
239.119500 148.000000
262.111200 306.000000
276.126800 590.000000
290.144300 358.000000
292.167700 130.000000
302.141300 606.000000
303.151600 130.000000
304.157400 372.000000
310.172700 162.000000
316.159200 414.000000
318.177400 148.000000
323.272900 3028.000000
324.275500 482.000000
330.173500 536.000000
331.175000 156.000000
341.283500 8640.000000
342.172400 160.000000
342.287600 1758.000000
343.290400 176.000000
344.188200 294.000000
345.188100 154.000000
356.187100 354.000000
358.202500 238.000000
370.204900 622.000000
384.220600 888.000000
385.225700 180.000000
386.225200 138.000000
386.240300 166.000000
465.135300 134.000000
465.312000 158.000000
465.329200 194.000000
466.298700 129128.000000
467.301700 41530.000000
468.302300 9044.000000
469.299100 896.000000
484.308300 156.000000

>ms2peaks
55.098700 64.000000
60.044600 74.000000
67.053600 960.000000
69.069400 424.000000
70.078100 76.000000
71.048000 86.000000
76.222600 40.000000
78.348800 64.000000
79.054000 418.000000
79.169500 56.000000
81.069400 2816.000000
82.044700 80.000000
82.050700 114.000000
82.073800 220.000000
82.232400 50.000000
83.048300 48.000000
83.239900 42.000000
83.276600 86.000000
84.018700 44.000000
84.081000 68.000000
85.064600 1958.000000
89.058800 50.000000
91.055100 134.000000
93.069100 522.000000
93.185100 80.000000
94.042800 50.000000
95.085300 1866.000000
97.064200 78.000000
97.100800 44.000000
98.263200 42.000000
99.078200 68.000000
101.058800 54.000000
103.000300 50.000000
103.090900 58.000000
103.303800 54.000000
103.985500 38.000000
104.131700 36.000000
104.180700 52.000000
105.070800 168.000000
105.224300 100.000000
107.085400 952.000000
108.011100 292.000000
108.089600 100.000000
109.028700 50.000000
109.100700 764.000000
111.017200 62.000000
111.078600 106.000000
111.129400 50.000000
111.313900 100.000000
112.031000 60.000000
112.248200 52.000000
113.095000 42.000000
116.014600 62.000000
116.149900 90.000000
117.068800 92.000000
117.265500 50.000000
118.252700 76.000000
118.290300 60.000000
119.021500 36.000000
119.086000 64.000000
119.264400 60.000000
119.340500 104.000000
121.001200 128.000000
121.100200 636.000000
121.199500 40.000000
122.127600 66.000000
123.081400 220.000000
123.116400 138.000000
123.290600 64.000000
124.015200 46.000000
124.119100 84.000000
124.149000 40.000000
124.342900 66.000000
126.021800 4268.000000
127.024900 132.000000
127.985200 80.000000
128.018300 152.000000
128.279800 84.000000
129.007500 80.000000
130.985600 40.000000
131.084300 66.000000
131.150800 48.000000
132.032800 42.000000
133.100100 160.000000
135.043900 42.000000
135.075300 52.000000
135.117100 506.000000
136.119600 128.000000
136.246900 44.000000
137.029300 42.000000
137.133700 42.000000
137.217500 38.000000
137.998300 44.000000
139.109100 48.000000
139.273000 40.000000
142.156500 38.000000
142.255900 42.000000
143.011700 60.000000
143.317400 50.000000
144.198800 36.000000
145.003900 86.000000
145.100400 266.000000
146.062700 36.000000
147.117400 442.000000
148.119800 162.000000
148.147800 50.000000
148.207900 52.000000
148.322200 40.000000
149.054900 70.000000
149.095500 96.000000
149.131600 1122.000000
149.993500 64.000000
150.136100 108.000000
151.110300 404.000000
151.148600 174.000000
151.227000 36.000000
151.285500 64.000000
152.114500 66.000000
152.176800 40.000000
153.114200 98.000000
153.138300 36.000000
153.160800 56.000000
153.192200 60.000000
153.316400 44.000000
154.184200 66.000000
155.314200 68.000000
156.117000 52.000000
157.101300 198.000000
158.109000 50.000000
158.201100 38.000000
158.978100 50.000000
159.116100 984.000000
160.092700 98.000000
160.120800 46.000000
160.132200 50.000000
160.221400 140.000000
161.106200 58.000000
161.132400 834.000000
161.174800 52.000000
161.307500 62.000000
161.983500 46.000000
162.135700 108.000000
163.088100 44.000000
163.111300 370.000000
163.147400 814.000000
163.173600 48.000000
163.239000 60.000000
164.010500 44.000000
164.028700 58.000000
164.036500 96.000000
164.153200 114.000000
165.129700 266.000000
165.263100 38.000000
168.972700 102.000000
169.100300 42.000000
170.014400 58.000000
171.114900 134.000000
171.186000 42.000000
171.288300 56.000000
173.075500 60.000000
173.104100 38.000000
173.133000 660.000000
174.084200 36.000000
174.137700 52.000000
174.241400 36.000000
174.298700 36.000000
175.079200 66.000000
175.111500 82.000000
175.147800 950.000000
175.182800 72.000000
176.015400 44.000000
176.151100 98.000000
176.329100 42.000000
177.127100 1264.000000
177.163700 958.000000
178.096800 36.000000
178.129800 258.000000
178.165600 94.000000
179.143400 122.000000
179.169200 38.000000
180.032000 184.000000
180.145100 46.000000
180.212100 56.000000
180.327800 50.000000
180.994500 36.000000
181.066200 54.000000
182.188700 38.000000
183.015300 48.000000
183.114200 36.000000
183.987600 102.000000
185.056200 50.000000
185.133900 356.000000
185.315100 60.000000
186.015500 106.000000
186.135700 56.000000
187.147600 1060.000000
187.310700 64.000000
188.150900 82.000000
188.226500 86.000000
188.244300 86.000000
189.129200 96.000000
189.163800 1314.000000
190.116800 40.000000
190.165800 288.000000
191.112500 58.000000
191.142600 806.000000
192.146700 70.000000
192.183800 62.000000
193.051200 46.000000
193.145600 38.000000
194.039400 40.000000
196.179800 44.000000
197.078100 42.000000
197.165100 68.000000
199.030600 66.000000
199.089400 38.000000
199.148400 364.000000
199.170700 56.000000
200.121800 42.000000
200.148800 66.000000
201.163000 832.000000
202.137500 60.000000
202.164800 98.000000
203.080400 44.000000
203.141300 208.000000
203.179000 778.000000
203.283100 46.000000
203.337700 40.000000
203.951300 40.000000
204.186300 116.000000
205.097400 48.000000
205.156800 498.000000
205.199500 114.000000
206.046100 72.000000
206.161400 104.000000
206.261900 46.000000
207.153600 40.000000
207.174600 82.000000
208.063200 1472.000000
208.178700 74.000000
209.064500 116.000000
211.071700 38.000000
211.078700 56.000000
211.988200 38.000000
212.148200 36.000000
212.212800 56.000000
213.163500 1822.000000
213.943300 36.000000
214.167600 256.000000
215.179800 1070.000000
215.201500 102.000000
215.974300 56.000000
216.184200 224.000000
216.997900 98.000000
217.073000 46.000000
217.120900 48.000000
217.157600 322.000000
217.193900 666.000000
217.216500 42.000000
218.200100 126.000000
219.175700 126.000000
220.157700 76.000000
220.182200 110.000000
221.268700 38.000000
222.079100 604.000000
222.226800 40.000000
222.237000 42.000000
223.082500 156.000000
224.071900 64.000000
225.167800 80.000000
226.141100 42.000000
226.189800 64.000000
226.954200 102.000000
227.179000 1162.000000
228.043100 68.000000
228.183600 378.000000
229.195600 834.000000
229.214500 58.000000
230.012000 40.000000
230.196100 156.000000
231.173600 786.000000
231.209800 346.000000
232.183800 56.000000
232.216300 94.000000
233.188200 202.000000
234.011800 54.000000
234.056300 60.000000
234.079400 262.000000
235.128300 58.000000
236.068500 66.000000
236.096000 244.000000
237.098000 80.000000
238.016800 36.000000
238.090100 134.000000
239.181300 84.000000
239.337600 50.000000
239.979300 64.000000
240.157000 74.000000
241.194800 1048.000000
242.082400 42.000000
242.136500 36.000000
242.190700 82.000000
242.201100 178.000000
243.066800 52.000000
243.151300 48.000000
243.209500 340.000000
244.210900 60.000000
245.191000 624.000000
245.227200 220.000000
246.077100 36.000000
246.134600 44.000000
246.195500 52.000000
246.231700 36.000000
247.206800 260.000000
248.093500 136.000000
249.096800 80.000000
249.181300 78.000000
250.088300 44.000000
250.107600 94.000000
251.115100 50.000000
253.194900 242.000000
253.955600 36.000000
254.004200 64.000000
254.197600 144.000000
254.225700 36.000000
255.208700 214.000000
257.212100 40.000000
257.221300 56.000000
257.271500 50.000000
258.006100 46.000000
258.227800 46.000000
259.204000 600.000000
260.001400 72.000000
260.096700 130.000000
260.192700 38.000000
260.210300 242.000000
261.041800 74.000000
261.094500 42.000000
262.109800 228.000000
262.993400 38.000000
263.948800 56.000000
264.081200 92.000000
264.107300 42.000000
264.119200 78.000000
265.131300 76.000000
267.210500 286.000000
267.239500 64.000000
268.215300 48.000000
268.322800 72.000000
269.224100 124.000000
272.185000 50.000000
272.252900 54.000000
274.113200 144.000000
275.109300 42.000000
276.105500 38.000000
276.124100 496.000000
277.134100 40.000000
278.140800 74.000000
281.161100 36.000000
281.222000 86.000000
283.237700 86.000000
283.269200 38.000000
283.310000 42.000000
283.338700 36.000000
284.133600 64.000000
285.220700 160.000000
285.324600 38.000000
287.078400 56.000000
287.265500 38.000000
288.100900 58.000000
288.127100 224.000000
288.227200 66.000000
290.108100 46.000000
290.141400 584.000000
290.236800 48.000000
291.144900 108.000000
294.240000 62.000000
295.231400 64.000000
296.243500 38.000000
297.255400 168.000000
297.970400 90.000000
298.149700 62.000000
298.202300 40.000000
298.268600 68.000000
299.241800 44.000000
299.273000 456.000000
300.128200 44.000000
300.245800 48.000000
301.110800 36.000000
301.139300 50.000000
301.272200 36.000000
302.142500 454.000000
302.248700 40.000000
303.146000 74.000000
303.989900 54.000000
304.158800 236.000000
304.279900 46.000000
305.041400 36.000000
305.132600 64.000000
305.156800 96.000000
306.110800 56.000000
308.252000 60.000000
309.255400 36.000000
313.252700 114.000000
313.286400 64.000000
314.127900 44.000000
314.172000 42.000000
314.290700 76.000000
316.156800 324.000000
316.180200 48.000000
318.159600 56.000000
318.174700 214.000000
318.218200 42.000000
319.171000 56.000000
319.184600 80.000000
320.183300 42.000000
323.273500 6504.000000
324.277000 1816.000000
324.987200 74.000000
325.056600 40.000000
325.084300 98.000000
325.260400 54.000000
325.283100 184.000000
326.092900 40.000000
327.132700 38.000000
327.161600 54.000000
329.308600 44.000000
330.175700 250.000000
331.021600 38.000000
331.174500 72.000000
331.189600 56.000000
332.133400 86.000000
332.162100 62.000000
332.189400 48.000000
333.110900 38.000000
333.194000 36.000000
335.276200 38.000000
341.283100 4334.000000
342.287100 1514.000000
343.289500 162.000000
344.189000 180.000000
345.188500 42.000000
356.191600 232.000000
358.204500 106.000000
359.198200 44.000000
370.204900 230.000000
371.202500 74.000000
372.208100 50.000000
372.221600 94.000000
382.213600 60.000000
384.216900 156.000000
385.221700 116.000000
385.254800 36.000000
386.238500 42.000000
390.257800 84.000000
396.218700 66.000000
410.236600 48.000000
414.185400 48.000000
417.030000 38.000000
433.997100 38.000000
448.281500 52.000000
449.284300 44.000000
450.166100 82.000000
466.298100 1364.000000
466.339900 70.000000
467.299600 428.000000
468.100700 46.000000
468.294100 138.000000
468.306300 122.000000

