>compound RP46624696
>parentmass 343.1235
>ionization [M+H]+
>formula C12H22O11
>rt 34.500000
>profile qtof
#smiles_iso C([C@@H]1[C@H]([C@@H]([C@H]([C@H](O1)O[C@@H]2[C@@H]([C@H]([C@@H]([C@H](O2)CO)O)O)O)O)O)O)O
#smiles_can C(C1C(C(C(C(O1)OC2C(C(C(C(O2)CO)O)O)O)O)O)O)O
#inchikey HDTRYLNUVZCQOY-LIZSDCNHSA-N
#pubchem_id 7427
#mb_accession RP014901,RP014902,RP014903

>ms2peaks
163.060000 136.000000
188.069800 52.000000
191.991200 38.000000
203.150200 68.000000
325.115200 160.000000

>ms2peaks
163.057000 38.000000
181.069000 44.000000

>ms2peaks
85.027900 136.000000
97.028400 72.000000
180.974500 36.000000
186.093400 38.000000

