>compound RP47811721
>parentmass 312.1302
>ionization [M+H]+
>formula C12H17N5O5
>rt 96.240000
>profile qtof
#smiles_iso CN(C)C1=NC2=C(C(=O)N1)N=CN2[C@H]3[C@@H]([C@@H]([C@H](O3)CO)O)O
#smiles_can CN(C)C1=NC2=C(C(=O)N1)N=CN2C3C(C(C(O3)CO)O)O
#inchikey RSPURTUNRHNVGF-IOSLPCCCSA-N
#pubchem_id 135501639
#mb_accession RP031101,RP031102,RP031103

>ms2peaks
72.113500 70.000000
79.061200 78.000000
83.057500 66.000000
83.984900 58.000000
83.999200 66.000000
94.084600 60.000000
107.129200 90.000000
109.000300 84.000000
111.123400 78.000000
118.039000 74.000000
124.045900 66.000000
131.125400 64.000000
136.048800 72.000000
142.035100 88.000000
142.146100 64.000000
145.058000 86.000000
145.128600 62.000000
146.020400 70.000000
146.053300 108.000000
147.044800 60.000000
148.027600 82.000000
153.050700 68.000000
154.033100 68.000000
157.107500 58.000000
158.008100 74.000000
158.141700 86.000000
159.012000 60.000000
162.012000 68.000000
169.023200 64.000000
170.113500 76.000000
175.034500 60.000000
180.087500 57920.000000
181.090500 3120.000000
182.013900 74.000000
182.089600 92.000000
184.091700 64.000000
194.997700 70.000000
196.016300 88.000000
198.064700 72.000000
212.052900 76.000000
212.092600 60.000000
218.005800 110.000000
221.022900 60.000000
225.099900 78.000000
225.995600 58.000000
237.975300 66.000000
248.147900 80.000000
257.121600 134.000000
299.120000 76.000000
301.019600 66.000000
311.120800 124.000000
312.130100 31340.000000
314.130800 316.000000

>ms2peaks
85.028800 138.000000
91.985500 80.000000
97.084800 80.000000
104.997700 84.000000
108.137600 102.000000
114.115800 88.000000
120.110900 86.000000
122.128400 92.000000
143.076500 114.000000
146.995000 88.000000
153.086300 92.000000
161.019600 94.000000
165.064300 84.000000
179.117000 98.000000
180.087500 79682.000000
181.090600 4992.000000
182.091300 222.000000
312.130100 130.000000

>ms2peaks
55.099600 54.000000
57.032600 180.000000
59.048300 44.000000
62.000200 66.000000
63.979700 72.000000
67.074100 48.000000
69.032800 134.000000
71.012100 222.000000
71.036600 78.000000
71.094500 58.000000
73.028900 132.000000
85.028900 84.000000
86.080900 112.000000
90.009500 46.000000
97.029000 54.000000
110.034900 1780.000000
111.039500 120.000000
111.121800 68.000000
115.041100 66.000000
115.119100 58.000000
116.091200 52.000000
116.103400 68.000000
117.122400 84.000000
122.059200 70.000000
123.113200 50.000000
126.110700 62.000000
127.092600 114.000000
128.045800 178.000000
128.103900 52.000000
135.029600 158.000000
137.081600 356.000000
137.092300 60.000000
140.053900 64.000000
141.029500 46.000000
144.138200 100.000000
147.053200 86.000000
150.103500 44.000000
153.040100 540.000000
154.023600 46.000000
154.048600 88.000000
158.141300 44.000000
159.101800 44.000000
160.156000 58.000000
161.027300 56.000000
161.050100 78.000000
161.069900 66.000000
162.077300 564.000000
163.006600 56.000000
163.059500 88.000000
163.080100 92.000000
165.064200 342.000000
166.045300 66.000000
168.144100 50.000000
173.129900 70.000000
177.110000 84.000000
178.055800 64.000000
178.072100 112.000000
180.087400 42100.000000
181.090400 3030.000000
182.092900 112.000000

