>compound RP48180677
>parentmass 204.12299999999996
>ionization [M+H]+
>formula C9H17NO4
>rt 40.080000
>profile qtof
#smiles_iso CC(=O)O[C@@H](CC(=O)[O-])C[N+](C)(C)C
#smiles_can CC(=O)OC(CC(=O)[O-])C[N+](C)(C)C
#inchikey RDHQFKQIGNGIED-QMMMGPOBSA-N
#pubchem_id 18230
#mb_accession RP025201,RP025202,RP025203

>ms2
85.027900 92434.000000
144.101600 994.000000
145.049600 8392.000000
204.122400 467078.000000

>ms2
57.032700 1134.000000
58.064600 1186.000000
85.027800 772764.000000
87.032200 1872.000000
144.101100 3486.000000
145.048700 6930.000000
204.122400 43556.000000

>ms2
61.027600 284.000000
84.080400 13794.000000
85.027900 263762.000000
103.038400 326.000000

