>compound RP48621338
>parentmass 298.1146
>ionization [M+H]+
>formula C11H15N5O5
>rt 56.460000
>profile qtof
#smiles_iso CNC1=NC2=C(C(=O)N1)N=CN2[C@H]3[C@@H]([C@@H]([C@H](O3)CO)O)O
#smiles_can CNC1=NC2=C(C(=O)N1)N=CN2C3C(C(C(O3)CO)O)O
#inchikey SLEHROROQDYRAW-KQYNXXCUSA-N
#pubchem_id 135501934
#mb_accession RP031901,RP031902,RP031903

>ms2
56.025300 74.000000
111.041300 44.000000
117.055400 106.000000
122.045900 38.000000
143.049100 70.000000
145.996600 42.000000
158.989600 60.000000
166.072100 3318.000000
167.065400 72.000000
167.078000 130.000000
169.091700 40.000000
222.065900 60.000000
234.073600 82.000000
288.081800 58.000000
298.113500 816.000000
300.117100 74.000000

>ms2
69.069900 46.000000
73.028500 50.000000
91.112500 38.000000
96.055900 46.000000
99.100000 106.000000
110.033600 60.000000
115.096000 64.000000
117.007800 60.000000
132.026900 52.000000
149.044000 252.000000
161.064000 40.000000
165.064100 52.000000
166.071100 4092.000000
167.074800 126.000000
169.052400 42.000000
186.052700 54.000000

>ms2
57.033400 46.000000
69.032000 50.000000
71.011300 98.000000
85.028200 64.000000
93.070000 38.000000
110.033500 76.000000
112.987300 62.000000
132.026200 38.000000
149.045800 300.000000
166.071800 1524.000000
167.056500 862.000000
167.087800 54.000000
168.058700 52.000000
205.070600 50.000000

