>compound RP49746857
>parentmass 269.088
>ionization [M+H]+
>formula C10H12N4O5
>rt 43.440000
>profile qtof
#smiles_iso C1=NC2=C(C(=O)N1)N=CN2[C@H]3[C@@H]([C@@H]([C@H](O3)CO)O)O
#smiles_can C1=NC2=C(C(=O)N1)N=CN2C3C(C(C(O3)CO)O)O
#inchikey UGQMRVRMYYASKQ-KQYNXXCUSA-N
#pubchem_id 135398641
#mb_accession RP011001,RP011002,RP011003

>ms2peaks
69.033800 60.000000
75.078700 40.000000
81.041700 36.000000
84.052400 54.000000
85.029000 76.000000
97.024900 56.000000
108.066100 36.000000
114.007100 40.000000
117.056400 40.000000
117.102200 68.000000
118.108600 44.000000
120.080100 40.000000
133.048400 88.000000
137.045100 23852.000000
138.048400 1374.000000
139.047400 148.000000
149.097600 38.000000
268.045900 68.000000
269.087500 5430.000000

>ms2peaks
54.034300 90.000000
55.016900 178.000000
57.032200 126.000000
61.027500 92.000000
69.032300 298.000000
71.011100 60.000000
73.027300 566.000000
80.011700 36.000000
82.040000 52.000000
85.028200 206.000000
87.043100 52.000000
87.080000 40.000000
97.028500 340.000000
97.084900 50.000000
99.064100 74.000000
107.043600 68.000000
113.071000 40.000000
115.005200 40.000000
115.038100 110.000000
119.036400 50.000000
125.103100 42.000000
133.047200 80.000000
134.078700 120.000000
137.045700 21368.000000
138.049500 1222.000000
139.037300 42.000000
139.049500 78.000000
140.011400 38.000000
269.089300 40.000000

>ms2peaks
49.052600 42.000000
53.038600 52.000000
55.017400 454.000000
57.033000 772.000000
59.049000 132.000000
61.028000 216.000000
65.013600 36.000000
69.032700 1016.000000
71.012700 518.000000
73.028000 510.000000
75.031000 64.000000
82.040100 432.000000
83.023600 102.000000
85.028100 500.000000
92.025100 128.000000
94.039900 2050.000000
95.024300 50.000000
95.034600 60.000000
100.075900 36.000000
103.039600 40.000000
110.034900 2222.000000
115.038400 154.000000
117.030300 52.000000
119.035200 844.000000
128.045600 42.000000
136.061200 78.000000
137.045300 15646.000000
137.991700 94.000000
138.030400 78.000000
138.048900 1026.000000
139.046100 66.000000
175.034000 42.000000
224.988900 56.000000

