>compound RP50484733
>parentmass 301.2162
>ionization [M+H]+
>formula C20H28O2
>rt 414.600000
>profile qtof
#smiles_iso CC1=C(C(CCC1)(C)C)/C=C/C(=C/C=C/C(=C/C(=O)O)/C)/C
#smiles_can CC1=C(C(CCC1)(C)C)C=CC(=CC=CC(=CC(=O)O)C)C
#inchikey SHGAZHPCJJPHSC-YCNIQYBTSA-N
#pubchem_id 444795
#mb_accession RP013501,RP013502,RP013503

>ms2peaks
69.069300 856.000000
81.069400 2744.000000
82.073000 178.000000
83.085300 382.000000
85.064000 2342.000000
87.043800 180.000000
93.069200 838.000000
95.085000 4658.000000
97.100700 326.000000
109.064500 282.000000
109.101000 2784.000000
110.105300 374.000000
111.044900 246.000000
111.081400 286.000000
111.116000 1018.000000
113.060300 336.000000
119.084600 574.000000
121.101200 636.000000
123.116700 18956.000000
124.119900 1632.000000
127.075200 1284.000000
127.111300 266.000000
135.116500 214.000000
139.076700 172.000000
143.085100 164.000000
145.101700 444.000000
147.116300 352.000000
153.092400 210.000000
157.101800 506.000000
159.115900 1338.000000
160.123400 278.000000
161.095800 4798.000000
161.132400 1208.000000
162.099500 394.000000
163.076100 196.000000
163.111000 158.000000
164.083300 636.000000
167.106600 234.000000
171.117800 482.000000
172.087500 210.000000
173.094800 1794.000000
173.132400 822.000000
174.099100 278.000000
174.135900 348.000000
175.110500 210.000000
175.148400 1036.000000
176.082600 178.000000
176.155200 504.000000
177.091200 3046.000000
177.163300 790.000000
179.106100 20376.000000
183.116700 364.000000
183.136200 158.000000
185.095000 208.000000
185.132000 758.000000
187.111800 924.000000
187.148200 572.000000
188.150900 168.000000
189.090600 186.000000
189.127500 228.000000
190.171300 262.000000
191.106800 3090.000000
197.132700 902.000000
199.110700 264.000000
199.147100 1000.000000
200.155600 172.000000
201.163500 3922.000000
202.168400 626.000000
203.107200 640.000000
203.180100 198.000000
204.115200 262.000000
205.122200 10672.000000
207.137500 296.000000
209.132500 242.000000
211.112400 204.000000
211.148900 192.000000
212.117500 186.000000
213.127900 344.000000
213.163900 432.000000
214.167800 226.000000
215.106100 232.000000
215.178900 256.000000
217.123500 762.000000
218.129000 454.000000
219.137900 1164.000000
225.127300 424.000000
227.143700 356.000000
229.122000 1008.000000
230.130300 632.000000
231.137100 884.000000
239.178800 430.000000
241.158300 1204.000000
241.194000 1320.000000
242.160600 378.000000
243.138000 3860.000000
245.152700 1834.000000
253.195200 812.000000
255.174900 346.000000
255.210600 6208.000000
256.213800 1180.000000
257.153000 882.000000
259.170000 312.000000
265.195100 226.000000
281.190400 598.000000
282.193700 214.000000
283.205500 9720.000000
284.209000 1434.000000
285.185700 1770.000000
299.200500 30134.000000
300.206600 16664.000000
301.216200 156630.000000

>ms2peaks
47.060800 60.000000
58.052500 90.000000
59.049300 130.000000
68.057800 112.000000
70.052900 36.000000
70.171800 40.000000
71.048500 2548.000000
71.084900 322.000000
73.064300 44.000000
78.019300 46.000000
79.053800 2052.000000
81.069300 17278.000000
83.048700 198.000000
83.085800 1902.000000
84.020600 68.000000
85.064100 4668.000000
85.101300 450.000000
87.044000 368.000000
87.103600 70.000000
90.046400 46.000000
91.017200 74.000000
91.053500 712.000000
92.062200 192.000000
92.155200 88.000000
92.177500 66.000000
93.069500 3430.000000
95.085100 10390.000000
96.088600 670.000000
97.006500 56.000000
97.064900 412.000000
97.100300 656.000000
97.999400 40.000000
99.043400 58.000000
99.116800 36.000000
101.058900 100.000000
101.190200 38.000000
102.006800 50.000000
102.090900 108.000000
103.147700 48.000000
103.205300 56.000000
105.069600 1734.000000
106.073600 120.000000
107.084700 3120.000000
108.056800 86.000000
108.080100 36.000000
108.088400 526.000000
109.064400 356.000000
109.101100 4168.000000
110.068900 72.000000
110.105000 704.000000
111.043500 672.000000
111.080200 178.000000
111.116900 806.000000
113.059800 428.000000
114.160800 64.000000
115.076000 58.000000
117.029000 38.000000
119.085400 1634.000000
120.092500 234.000000
121.064500 148.000000
121.101300 1878.000000
122.104200 136.000000
123.116800 22828.000000
124.119800 2290.000000
125.060200 328.000000
125.097200 36.000000
125.154300 44.000000
126.067500 36.000000
127.075400 324.000000
128.026800 84.000000
128.120700 64.000000
129.043100 92.000000
130.122400 40.000000
131.085900 574.000000
133.039100 56.000000
133.072800 50.000000
133.100300 840.000000
134.010800 98.000000
134.068200 50.000000
134.104000 168.000000
135.080000 148.000000
135.117000 328.000000
136.087200 50.000000
136.096000 58.000000
136.120400 120.000000
136.998500 96.000000
137.035100 72.000000
137.128000 114.000000
138.033300 40.000000
138.199200 42.000000
142.076400 58.000000
143.085600 256.000000
143.118600 64.000000
144.125400 54.000000
145.063800 182.000000
145.100900 1622.000000
146.059800 86.000000
146.071300 230.000000
146.105500 218.000000
146.201800 62.000000
147.079100 196.000000
147.116200 728.000000
147.148700 48.000000
147.172900 94.000000
148.120100 116.000000
148.146100 62.000000
149.059000 124.000000
149.095900 168.000000
149.132700 120.000000
149.201300 54.000000
150.104100 56.000000
151.062900 62.000000
151.087800 118.000000
151.112100 282.000000
152.061100 60.000000
153.069000 112.000000
153.090900 278.000000
154.016200 50.000000
154.029000 44.000000
154.042700 50.000000
155.085300 116.000000
156.093100 216.000000
156.113900 48.000000
157.102200 1744.000000
158.071200 150.000000
158.108800 266.000000
159.080100 584.000000
159.116500 5358.000000
160.061800 64.000000
160.085200 92.000000
160.122000 834.000000
161.095800 12696.000000
161.132000 2312.000000
162.098600 1426.000000
162.111300 102.000000
162.135200 212.000000
163.054300 48.000000
163.075900 242.000000
163.110500 506.000000
163.147900 60.000000
163.205400 42.000000
164.082200 402.000000
165.046300 50.000000
165.066900 104.000000
165.090600 226.000000
165.128500 38.000000
166.099700 86.000000
167.105300 358.000000
167.997000 58.000000
168.091800 148.000000
169.066100 44.000000
169.101300 290.000000
169.987400 44.000000
170.108900 356.000000
171.079900 286.000000
171.116200 2064.000000
171.995000 38.000000
172.120900 254.000000
173.096200 1772.000000
173.132300 2170.000000
174.054500 56.000000
174.105000 234.000000
174.137100 396.000000
175.111600 524.000000
175.147700 1984.000000
176.115900 198.000000
177.090600 2414.000000
177.164200 532.000000
178.073200 46.000000
178.129900 46.000000
178.166300 68.000000
179.106300 4122.000000
180.092100 50.000000
181.028800 42.000000
181.100900 104.000000
182.108500 106.000000
183.081300 66.000000
183.092300 84.000000
183.116300 844.000000
183.994800 78.000000
184.122400 308.000000
185.095800 986.000000
185.132100 2846.000000
186.006200 38.000000
186.105300 140.000000
186.137100 416.000000
186.174000 50.000000
186.221400 46.000000
187.111300 2366.000000
187.147200 1316.000000
188.082800 50.000000
188.115200 272.000000
189.090100 352.000000
189.128100 180.000000
189.162100 168.000000
191.106700 1572.000000
191.142900 116.000000
191.175600 104.000000
193.097800 80.000000
193.122600 286.000000
194.037200 68.000000
195.114100 174.000000
196.124400 44.000000
197.097400 184.000000
197.132200 1724.000000
198.020500 58.000000
198.104100 164.000000
198.137400 154.000000
199.111300 1316.000000
199.148100 2448.000000
200.116200 218.000000
200.151800 454.000000
201.128200 494.000000
201.163700 5280.000000
202.131300 142.000000
202.168600 1440.000000
203.105200 788.000000
203.144000 72.000000
203.178100 284.000000
204.112700 78.000000
204.184400 94.000000
205.121800 6510.000000
207.116200 294.000000
209.131300 238.000000
210.029100 76.000000
210.104900 248.000000
211.112500 264.000000
211.131600 46.000000
211.148600 338.000000
212.120300 142.000000
213.127300 1258.000000
213.163800 882.000000
214.170400 202.000000
215.105600 314.000000
215.140500 200.000000
215.178500 228.000000
216.185100 64.000000
217.121800 1550.000000
219.137900 1300.000000
219.171500 76.000000
220.180900 60.000000
221.037600 82.000000
221.154400 80.000000
221.223500 80.000000
223.147800 170.000000
224.153900 142.000000
225.126800 750.000000
225.164700 224.000000
226.133800 148.000000
226.169200 142.000000
227.143600 1546.000000
227.179900 178.000000
228.146600 286.000000
228.181000 60.000000
229.122000 940.000000
229.158800 54.000000
230.131100 398.000000
230.156100 36.000000
231.137200 2200.000000
234.160700 38.000000
237.164800 66.000000
237.209800 52.000000
238.136400 92.000000
238.165800 46.000000
239.107900 44.000000
239.142900 180.000000
239.179400 780.000000
240.183800 282.000000
241.157900 1118.000000
241.195500 1726.000000
242.162800 96.000000
242.197700 466.000000
243.136900 2020.000000
244.109700 46.000000
245.153700 3294.000000
246.078300 76.000000
247.154700 44.000000
247.212600 38.000000
248.150600 68.000000
248.166100 44.000000
249.157900 50.000000
250.168700 64.000000
253.159900 66.000000
253.195000 320.000000
253.216500 54.000000
254.198800 156.000000
255.173900 208.000000
255.210800 3932.000000
256.143500 168.000000
256.176800 98.000000
256.213100 934.000000
257.185500 90.000000
259.019000 40.000000
259.169300 372.000000
263.177100 40.000000
265.194100 344.000000
266.164800 102.000000
266.192700 38.000000
267.175500 226.000000
267.199200 42.000000
268.178200 60.000000
269.081500 48.000000
271.037300 36.000000
271.171700 90.000000
271.199500 36.000000
272.215400 42.000000
273.183700 70.000000
277.229900 84.000000
278.062500 44.000000
279.185100 50.000000
280.002100 38.000000
281.188500 626.000000
282.191100 68.000000
283.205500 3022.000000
284.209100 548.000000
285.184400 2426.000000
286.190800 488.000000
287.071700 50.000000
293.103900 38.000000
299.201100 1342.000000
300.173400 48.000000
300.207900 500.000000
301.216000 13936.000000
306.192800 46.000000

>ms2peaks
63.010800 64.000000
77.038100 1584.000000
78.042900 112.000000
79.053600 11832.000000
80.058300 392.000000
81.069200 61156.000000
83.048400 392.000000
85.064300 840.000000
87.043300 78.000000
91.053700 7948.000000
92.057700 778.000000
93.069500 5640.000000
95.048500 956.000000
95.085300 9528.000000
96.080000 64.000000
96.088900 386.000000
97.063900 494.000000
97.101700 100.000000
99.080400 142.000000
100.088600 74.000000
103.053700 506.000000
105.069600 7852.000000
107.085300 2746.000000
109.064200 470.000000
109.100900 680.000000
111.080100 370.000000
111.117200 70.000000
112.100400 62.000000
115.014200 74.000000
115.053500 274.000000
116.057600 172.000000
117.069800 1000.000000
118.077100 118.000000
119.059400 98.000000
119.085700 1826.000000
120.090100 256.000000
121.065300 560.000000
121.100800 1166.000000
121.133300 78.000000
122.068400 290.000000
123.116400 5636.000000
124.119800 352.000000
129.069300 570.000000
130.078100 264.000000
131.084800 906.000000
133.100800 1148.000000
134.103700 198.000000
135.211300 92.000000
141.069800 538.000000
142.076700 594.000000
143.084700 1146.000000
144.093200 714.000000
145.065100 390.000000
145.100700 1710.000000
146.072100 646.000000
146.108200 334.000000
147.115400 300.000000
148.996900 62.000000
151.005100 76.000000
152.062500 316.000000
153.069100 268.000000
155.085300 810.000000
156.092100 1074.000000
157.063300 254.000000
157.100200 2308.000000
158.072100 500.000000
158.108200 700.000000
159.079100 502.000000
159.116200 3622.000000
160.119900 586.000000
161.095900 2180.000000
161.131100 710.000000
162.098800 212.000000
163.076300 130.000000
165.069400 198.000000
166.077100 242.000000
168.092600 336.000000
169.062400 218.000000
169.100500 1318.000000
170.072300 148.000000
170.108000 1014.000000
171.079100 544.000000
171.116200 1492.000000
172.087700 714.000000
172.122000 206.000000
173.095000 294.000000
173.132400 986.000000
174.099900 166.000000
174.136800 252.000000
175.148500 184.000000
177.092400 122.000000
180.087600 162.000000
181.064100 68.000000
181.099600 374.000000
182.071700 66.000000
182.108000 278.000000
183.080300 224.000000
183.115900 802.000000
184.090100 384.000000
184.124400 336.000000
185.094400 1004.000000
185.131700 850.000000
186.102900 146.000000
186.135500 300.000000
187.111200 220.000000
187.147800 1062.000000
188.116600 104.000000
188.151700 154.000000
189.124200 74.000000
193.097200 156.000000
194.107600 114.000000
195.082000 112.000000
195.117800 248.000000
196.089300 176.000000
196.121300 106.000000
197.095900 138.000000
197.132300 406.000000
198.104900 146.000000
198.139300 358.000000
199.109100 168.000000
199.147000 430.000000
201.089900 70.000000
201.122900 62.000000
201.163500 252.000000
202.170900 64.000000
207.115200 184.000000
208.084800 92.000000
209.096300 66.000000
209.131500 102.000000
210.102300 152.000000
210.137700 74.000000
211.110600 136.000000
211.148500 266.000000
212.119400 114.000000
212.153900 116.000000
213.125800 218.000000
213.164800 120.000000
215.106700 68.000000
223.108800 76.000000
225.161100 222.000000
226.169800 74.000000
227.068800 80.000000
227.085900 68.000000
229.121500 106.000000
241.197000 66.000000
253.160600 116.000000
256.143900 66.000000
271.170800 200.000000

