>compound RP50753758
>parentmass 227.05499999999998
>ionization [M+H]+
>formula C10H10O6
>rt 145.680000
>profile qtof
#smiles_iso C=C(C(=O)O)O[C@@H]1C=C(C=C[C@H]1O)C(=O)O
#smiles_can C=C(C(=O)O)OC1C=C(C=CC1O)C(=O)O
#inchikey WTFXTQVDAKGDEY-HTQZYQBOSA-N
#pubchem_id 12039
#mb_accession RP011401,RP011402,RP011403

>ms2peaks
70.052500 42.000000
95.033200 40.000000
138.031200 58.000000
139.034000 86.000000
143.981400 38.000000
159.975100 48.000000
161.968400 44.000000
173.024000 400.000000
191.033500 5176.000000
192.037400 388.000000
193.038800 86.000000
209.044400 480.000000
219.050900 40.000000
227.056000 112.000000

>ms2peaks
58.064800 56.000000
65.038100 76.000000
81.033800 40.000000
83.049100 136.000000
91.054100 164.000000
93.033800 40.000000
95.049400 44.000000
107.049300 46.000000
129.028400 46.000000
135.044600 136.000000
139.024600 118.000000
149.034800 184.000000
151.039800 44.000000
157.052200 40.000000
163.038500 158.000000
164.041700 56.000000
165.051400 142.000000
165.992000 56.000000
173.023000 392.000000
178.025700 94.000000
191.033900 4426.000000
192.001300 48.000000
192.037900 344.000000
209.039900 62.000000

>ms2peaks
69.034000 48.000000
75.022900 166.000000
83.049000 100.000000
87.044900 80.000000
89.013300 56.000000
89.037900 330.000000
91.054300 230.000000
93.033300 156.000000
95.049700 98.000000
105.045100 52.000000
135.043800 36.000000
191.031000 112.000000

