>compound RP51180109
>parentmass 167.0564
>ionization [M+H]+
>formula C6H6N4O2
>rt 49.140000
>profile qtof
#smiles_iso CN1C=NC2=C1C(=O)NC(=O)N2
#smiles_can CN1C=NC2=C1C(=O)NC(=O)N2
#inchikey PFWLFWPASULGAN-UHFFFAOYSA-N
#pubchem_id 68374
#mb_accession RP016301,RP016302,RP016303

>ms2peaks
51.022500 76.000000
89.058700 78.000000
92.036200 52.000000
124.051200 210.000000
129.027600 90.000000
142.060000 172.000000
149.045700 40.000000
150.029900 274.000000
150.050000 80.000000
165.066000 58.000000
166.049100 56.000000
167.055600 31584.000000
169.058900 230.000000

>ms2peaks
69.044000 418.000000
79.026700 62.000000
81.044000 44.000000
96.055300 284.000000
97.037400 44.000000
124.049800 1738.000000
125.056300 100.000000
126.004800 48.000000
142.060300 876.000000
148.014700 104.000000
149.045600 136.000000
150.029100 1052.000000
154.034700 74.000000
165.998900 96.000000
167.055800 7130.000000
169.036300 40.000000

>ms2peaks
56.011300 98.000000
68.011200 94.000000
70.028300 182.000000
79.028800 162.000000
80.013500 50.000000
80.034000 58.000000
81.044900 180.000000
95.023700 138.000000
96.054700 254.000000
97.040300 70.000000
124.048800 98.000000

