>compound RP52589643
>parentmass 211.0866
>ionization [M+H]+
>formula C13H10N2O
>rt 284.100000
>profile qtof
#smiles_iso CN1C2=CC=CC=C2N=C3C1=CC=CC3=O
#smiles_can CN1C2=CC=CC=C2N=C3C1=CC=CC3=O
#inchikey YNCMLFHHXWETLD-UHFFFAOYSA-N
#pubchem_id 6817
#mb_accession RP018401,RP018402,RP018403

>ms2
168.068500 706.000000
183.092500 1098.000000
196.062600 642.000000
211.086100 342126.000000

>ms2
168.067800 10194.000000
169.070900 768.000000
181.074600 256.000000
182.083700 392.000000
183.091300 18344.000000
193.076700 322.000000
196.062500 11582.000000
211.086200 248888.000000
213.091600 1478.000000

>ms2
66.042200 210.000000
67.054300 142.000000
77.038000 2634.000000
79.053600 170.000000
80.048800 500.000000
81.034200 132.000000
90.033000 374.000000
91.054000 704.000000
92.048700 924.000000
95.048300 624.000000
96.043200 118.000000
101.082400 130.000000
104.050100 142.000000
105.032600 122.000000
105.044300 330.000000
114.047500 222.000000
116.049600 290.000000
118.052100 600.000000
119.059400 206.000000
129.045500 224.000000
131.061300 122.000000
136.073400 116.000000
139.053600 126.000000
140.048700 436.000000
141.057200 620.000000
142.053200 436.000000
143.059300 144.000000
154.065400 170.000000
156.079400 340.000000
166.052100 118.000000
166.064600 436.000000
167.060500 2342.000000
168.067700 112688.000000
169.070900 12516.000000
181.075900 4340.000000
182.083300 5280.000000
183.091100 13548.000000
192.068200 572.000000
193.074700 744.000000
196.062500 19344.000000
210.079300 124.000000
211.086000 6242.000000
213.091300 116.000000

