>compound RP52508080
>parentmass 287.055
>ionization [M+H]+
>formula C15H10O6
>rt 220.200000
>profile qtof
#smiles_iso C1=CC(=C(C=C1C2=CC(=O)C3=C(C=C(C=C3O2)O)O)O)O
#smiles_can C1=CC(=C(C=C1C2=CC(=O)C3=C(C=C(C=C3O2)O)O)O)O
#inchikey IQPNAANSBPBGFQ-UHFFFAOYSA-N
#pubchem_id 5280445
#mb_accession RP004801,RP004802,RP004803

>ms2peaks
257.043900 830.000000
285.039800 578.000000
286.046900 1170.000000
287.054300 210154.000000
289.059900 3528.000000

>ms2peaks
153.018900 256.000000
257.044500 1238.000000
286.047000 478.000000
287.054400 207294.000000
289.060500 3510.000000

>ms2peaks
69.033000 374.000000
77.038200 414.000000
78.046300 94.000000
79.018400 178.000000
79.053400 832.000000
81.065500 52.000000
85.027600 66.000000
88.006200 74.000000
89.038200 2006.000000
90.042100 198.000000
91.018000 116.000000
92.036800 60.000000
93.033400 58.000000
94.026700 80.000000
101.026900 100.000000
103.054500 212.000000
105.029300 54.000000
105.044300 60.000000
107.048900 640.000000
109.029200 184.000000
111.007600 324.000000
111.044400 180.000000
115.053300 160.000000
117.033700 616.000000
118.036400 108.000000
120.057500 68.000000
121.003100 68.000000
121.985400 62.000000
123.044500 58.000000
125.023800 146.000000
129.032300 74.000000
129.056400 74.000000
129.066300 196.000000
130.062000 62.000000
133.015200 106.000000
135.043100 1422.000000
136.048300 84.000000
137.022200 552.000000
137.032200 164.000000
139.053200 180.000000
140.022900 52.000000
140.057400 76.000000
141.070000 66.000000
143.018000 78.000000
145.065300 108.000000
148.038800 72.000000
151.033700 62.000000
152.000000 58.000000
153.017200 17124.000000
154.020800 1188.000000
154.058900 96.000000
155.009600 70.000000
155.021600 138.000000
155.050700 90.000000
157.065600 234.000000
161.022400 2160.000000
162.027200 198.000000
164.013900 80.000000
165.015500 92.000000
165.999400 70.000000
167.007000 72.000000
167.047900 152.000000
169.063600 140.000000
169.985500 80.000000
170.033800 68.000000
171.027600 1422.000000
171.042700 726.000000
172.031800 68.000000
172.052700 54.000000
174.063500 58.000000
175.036300 70.000000
177.014000 58.000000
179.033100 892.000000
180.040100 98.000000
183.029000 54.000000
183.044300 74.000000
185.024600 92.000000
185.058900 736.000000
186.063700 116.000000
187.985300 88.000000
188.000900 54.000000
189.055200 128.000000
191.992200 56.000000
192.028000 80.000000
192.038600 80.000000
192.066600 62.000000
195.042300 134.000000
195.053400 84.000000
196.049000 74.000000
199.037800 352.000000
201.052400 194.000000
203.032800 796.000000
203.069100 136.000000
204.037000 72.000000
205.033300 66.000000
208.982300 78.000000
209.021800 96.000000
211.040000 86.000000
212.047400 72.000000
213.053600 1270.000000
216.030000 58.000000
216.044500 74.000000
217.054000 98.000000
218.058500 228.000000
219.065500 116.000000
223.040700 318.000000
224.043700 74.000000
227.031000 130.000000
227.056100 60.000000
228.035800 54.000000
229.046400 342.000000
230.054700 68.000000
231.063400 360.000000
233.969100 96.000000
240.043800 90.000000
241.048800 3948.000000
244.037500 106.000000
245.044100 354.000000
246.047600 88.000000
247.069600 64.000000
250.046800 74.000000
257.044500 178.000000
258.050100 444.000000
259.056100 352.000000
263.053600 354.000000
267.060700 82.000000
269.043600 1882.000000
270.047500 298.000000
277.985500 66.000000
279.041800 68.000000
283.045600 74.000000
286.045100 246.000000
287.054000 51148.000000
289.059600 812.000000

