>compound RP52501016
>parentmass 288.2169
>ionization [M+H]+
>formula C15H29NO4
>rt 231.960000
>profile qtof
#smiles_iso CCCCCCCC(=O)O[C@H](CC(=O)[O-])C[N+](C)(C)C
#smiles_can CCCCCCCC(=O)OC(CC(=O)[O-])C[N+](C)(C)C
#inchikey CXTATJFJDMJMIY-CYBMUJFWSA-N
#pubchem_id 11953814
#mb_accession RP025301,RP025302,RP025303

>ms2
60.080300 17700.000000
85.027700 101058.000000
127.111200 3414.000000
229.143000 47668.000000
288.216600 1439756.000000
290.222700 23450.000000

>ms2
85.028200 1450550.000000
109.101000 1886.000000
127.111700 48154.000000
144.101400 6924.000000
145.121100 1546.000000
229.142900 135288.000000
288.216400 363312.000000
290.222500 5160.000000

>ms2
57.032900 20964.000000
57.069400 30286.000000
58.064700 10352.000000
67.053600 7712.000000
84.080500 12580.000000
85.027900 1243620.000000
89.059400 1348.000000
144.101200 2146.000000

