>compound RP53134744
>parentmass 132.1019
>ionization [M+H]+
>formula C6H13NO2
>rt 50.640000
>profile qtof
#smiles_iso CC(C)C[C@@H](C(=O)O)N
#smiles_can CC(C)CC(C(=O)O)N
#inchikey ROHFNLRQFUQHCH-YFKPBYRVSA-N
#pubchem_id 6106
#mb_accession RP000601,RP000602,RP000603

>ms2peaks
86.096000 232530.000000
132.101300 6370.000000

>ms2peaks
55.054500 78.000000
69.069300 1278.000000
72.044000 56.000000
73.026600 178.000000
73.063000 182.000000
86.096100 53788.000000
96.008100 68.000000
97.061500 86.000000

>ms2peaks
55.017800 134.000000
59.049400 40.000000
73.027500 78.000000
75.031400 154.000000
86.096800 376.000000

