>compound RP54095763
>parentmass 200.1281
>ionization [M+H]+
>formula C10H17NO3
>rt 210.360000
>profile qtof
#smiles_iso CCCCCC(=O)NC1CCOC1=O
#smiles_can CCCCCC(=O)NC1CCOC1=O
#inchikey ZJFKKPDLNLCPNP-UHFFFAOYSA-N
#pubchem_id 3462373
#mb_accession RP020201,RP020202,RP020203

>ms2peaks
81.069200 312.000000
85.027900 378.000000
99.080100 184362.000000
102.054700 156964.000000
117.091900 194.000000
172.132900 10728.000000
182.117400 21028.000000
183.120900 1866.000000
200.127900 110676.000000

>ms2peaks
62.130500 78.000000
69.091000 70.000000
70.041800 84.000000
74.059300 63674.000000
81.069100 1074.000000
84.043800 4130.000000
85.027900 4432.000000
96.040900 90.000000
98.095500 292.000000
99.080200 48324.000000
102.054800 41948.000000
104.058300 226.000000
117.090700 134.000000
152.140500 74.000000
172.132200 236.000000
182.117600 4042.000000
183.120000 562.000000
200.127700 250.000000

>ms2peaks
50.073000 46.000000
57.032600 106.000000
70.064600 122.000000
71.084900 8826.000000
74.022900 9674.000000
76.026100 82.000000
79.054100 174.000000
80.049100 38.000000
81.069700 230.000000
82.052900 78.000000
84.043600 2238.000000
85.028200 848.000000
85.121700 54.000000
86.034400 148.000000
99.079000 320.000000
100.039300 46.000000
102.054400 914.000000
112.075800 74.000000
171.088900 46.000000

