>compound RP54474500
>parentmass 241.0311
>ionization [M+H]+
>formula C6H12N2O4S2
>rt 34.560000
>profile qtof
#smiles_iso C([C@@H](C(=O)O)N)SSC[C@@H](C(=O)O)N
#smiles_can C(C(C(=O)O)N)SSCC(C(=O)O)N
#inchikey LEVWYRKDKASIDU-IMJSIDKUSA-N
#pubchem_id 67678
#mb_accession RP014401,RP014402,RP014403

>ms2
71.035200 64.000000
85.101200 90.000000
97.063200 42.000000
120.014500 42.000000
122.027300 352.000000
143.944100 36.000000
147.003600 44.000000
151.996800 46.000000
163.063800 58.000000
178.000200 36.000000
190.981700 36.000000
200.975600 40.000000
222.013800 50.000000
241.031500 540.000000

>ms2
74.006400 62.000000
74.021400 172.000000
77.021300 44.000000
86.988600 160.000000
105.000400 50.000000
120.012300 68.000000
122.025900 334.000000
151.983800 204.000000
177.998000 70.000000
239.001200 56.000000

>ms2
62.989900 84.000000
74.022600 348.000000
76.020800 1374.000000
77.029200 46.000000
86.988900 250.000000
90.029800 46.000000
104.999600 148.000000
122.027500 110.000000

