>compound RP54688519
>parentmass 500.3039999999999
>ionization [M+H]+
>formula C26H45NO6S
>rt 257.580000
>profile qtof
#smiles_iso C[C@H](CCC(=O)NCCS(=O)(=O)O)[C@H]1CC[C@@H]2[C@@]1(CC[C@H]3[C@H]2[C@@H](C[C@H]4[C@@]3(CC[C@H](C4)O)C)O)C
#smiles_can CC(CCC(=O)NCCS(=O)(=O)O)C1CCC2C1(CCC3C2C(CC4C3(CCC(C4)O)C)O)C
#inchikey BHTRKEVKTKCXOH-BJLOMENOSA-N
#pubchem_id 387316
#mb_accession RP005801,RP005802,RP005803

>ms2
126.201200 82.000000
150.137900 118.000000
157.331600 74.000000
158.254100 84.000000
168.128900 74.000000
184.088500 84.000000
193.954600 72.000000
212.986900 88.000000
226.255200 94.000000
238.031900 84.000000
242.233700 96.000000
246.081500 86.000000
247.136800 110.000000
248.036600 92.000000
256.993800 72.000000
258.232200 76.000000
260.202500 130.000000
262.184400 80.000000
266.262800 78.000000
268.307900 94.000000
270.029500 86.000000
270.280100 78.000000
274.079200 82.000000
274.209500 98.000000
274.247000 74.000000
278.164400 98.000000
283.050400 74.000000
287.194500 94.000000
288.024900 74.000000
288.125700 110.000000
288.299200 86.000000
298.997600 94.000000
302.212100 90.000000
303.149500 94.000000
303.283400 82.000000
304.955800 112.000000
310.343900 80.000000
311.131400 108.000000
311.216300 72.000000
312.974500 94.000000
318.028800 104.000000
322.095400 106.000000
325.081100 90.000000
331.073700 102.000000
331.940100 84.000000
335.161000 114.000000
337.042500 128.000000
339.267100 128.000000
343.061700 76.000000
343.192200 84.000000
344.291800 84.000000
347.944900 74.000000
348.187800 98.000000
349.017700 80.000000
349.026600 76.000000
350.271500 98.000000
352.034300 98.000000
361.215100 80.000000
363.285700 76.000000
365.158200 76.000000
365.337000 82.000000
367.152000 72.000000
367.975800 98.000000
368.196800 82.000000
371.132100 116.000000
379.103200 76.000000
382.204500 72.000000
382.321100 82.000000
383.139900 80.000000
386.072700 76.000000
386.225900 100.000000
390.249700 72.000000
391.127000 112.000000
393.109500 90.000000
394.228100 100.000000
398.248100 92.000000
399.134200 76.000000
400.154500 74.000000
400.263000 86.000000
400.291500 74.000000
403.062400 78.000000
403.188100 76.000000
409.254900 90.000000
409.295800 92.000000
410.329200 84.000000
411.099000 96.000000
411.142600 100.000000
411.180700 110.000000
412.219300 84.000000
415.257600 74.000000
415.274300 78.000000
416.086900 92.000000
416.165800 80.000000
416.950400 78.000000
421.194000 72.000000
423.193100 86.000000
427.271000 84.000000
433.067400 76.000000
434.127200 86.000000
435.244000 84.000000
436.210500 106.000000
438.144700 86.000000
439.145900 92.000000
440.278800 80.000000
441.270600 78.000000
442.137600 82.000000
443.090800 78.000000
445.152900 76.000000
445.292000 76.000000
446.007200 74.000000
447.209300 80.000000
448.164200 94.000000
449.998300 80.000000
450.124800 108.000000
451.230300 98.000000
452.058300 130.000000
453.134600 74.000000
458.007300 100.000000
462.109200 86.000000
462.156700 80.000000
463.134300 104.000000
463.245200 76.000000
463.278200 130.000000
463.306100 92.000000
464.282400 62130.000000
465.286000 16000.000000
466.286200 3256.000000
467.291800 422.000000
468.283700 86.000000
472.116000 78.000000
473.131500 130.000000
478.052700 144.000000
480.233200 78.000000
481.181200 110.000000
481.240000 104.000000
481.274600 78.000000
481.306700 122.000000
482.293200 70828.000000
483.296200 21616.000000
484.296100 4154.000000
485.232700 74.000000
485.292900 688.000000
488.978300 80.000000
499.172400 98.000000
499.234200 146.000000
499.251100 142.000000
500.303400 44648.000000
502.305300 2386.000000
503.305500 474.000000

>ms2
126.020700 160.000000
161.132000 202.000000
189.162900 238.000000
190.169000 160.000000
200.316500 152.000000
201.162500 480.000000
208.062600 368.000000
215.177100 314.000000
274.110900 206.000000
276.125900 216.000000
287.248400 150.000000
288.127100 528.000000
300.126400 186.000000
302.141200 386.000000
314.141800 312.000000
316.153700 208.000000
321.259500 468.000000
328.157800 238.000000
339.267900 2496.000000
340.273400 502.000000
341.268300 148.000000
342.178900 246.000000
354.176500 416.000000
368.187100 272.000000
382.207100 536.000000
463.035000 148.000000
463.277700 156.000000
463.292700 154.000000
463.336200 190.000000
464.282500 140398.000000
465.285900 47860.000000
466.285400 9990.000000
467.282700 1158.000000
482.292700 5886.000000
483.296600 1880.000000
484.293700 396.000000

>ms2
59.000600 52.000000
60.044200 80.000000
61.039100 44.000000
62.060500 48.000000
63.022600 78.000000
65.095400 46.000000
65.247900 54.000000
65.271900 116.000000
66.019100 64.000000
66.066900 50.000000
67.053800 672.000000
67.242400 50.000000
68.123600 78.000000
69.032300 36.000000
69.045200 60.000000
71.182100 86.000000
72.042000 38.000000
73.073500 64.000000
76.039500 50.000000
77.016700 38.000000
77.035100 64.000000
78.079200 54.000000
78.131300 110.000000
80.050100 50.000000
81.069300 1874.000000
82.158500 40.000000
82.216300 38.000000
82.286700 42.000000
83.052500 40.000000
83.084700 386.000000
83.966400 70.000000
84.029500 74.000000
85.064600 1342.000000
86.070600 36.000000
86.190400 52.000000
87.173500 66.000000
87.989500 86.000000
88.038700 52.000000
89.075100 60.000000
91.012900 46.000000
91.054100 184.000000
91.074500 54.000000
91.205600 92.000000
92.058500 82.000000
92.330400 38.000000
93.029400 72.000000
93.069300 530.000000
93.150800 56.000000
94.073100 64.000000
95.085000 698.000000
96.089000 124.000000
97.100800 96.000000
97.280500 56.000000
98.048400 48.000000
99.059300 62.000000
99.107100 46.000000
100.109500 36.000000
100.263300 64.000000
101.035100 40.000000
101.140500 36.000000
102.972900 36.000000
103.089900 62.000000
103.286000 36.000000
104.130200 46.000000
104.330200 44.000000
105.069100 228.000000
106.108300 58.000000
106.201900 80.000000
107.084800 930.000000
107.338500 58.000000
108.005700 76.000000
108.058600 36.000000
108.347400 44.000000
108.995000 42.000000
109.100700 686.000000
110.978300 70.000000
111.082300 66.000000
111.113800 148.000000
111.183500 36.000000
112.011500 50.000000
112.088500 36.000000
112.115600 38.000000
112.223700 36.000000
112.240500 52.000000
113.043400 38.000000
113.097300 74.000000
113.176700 70.000000
113.340400 46.000000
113.979700 86.000000
114.043000 100.000000
114.349500 52.000000
114.982500 36.000000
115.007500 56.000000
115.287700 70.000000
116.039600 50.000000
117.148900 44.000000
118.099100 50.000000
118.147700 42.000000
118.157000 80.000000
118.966300 76.000000
118.977500 66.000000
119.085200 352.000000
120.112600 46.000000
121.064900 36.000000
121.100100 310.000000
121.997500 58.000000
122.022000 58.000000
122.068900 36.000000
122.102500 100.000000
122.150100 66.000000
122.175800 50.000000
122.259500 58.000000
122.283500 60.000000
123.100700 36.000000
123.116400 114.000000
124.144700 78.000000
124.155300 42.000000
124.358400 42.000000
125.060600 46.000000
125.098300 52.000000
126.021300 2208.000000
126.974400 40.000000
127.017800 58.000000
127.241400 40.000000
128.001300 70.000000
128.017100 50.000000
128.042600 64.000000
129.036900 110.000000
130.192100 46.000000
130.314900 70.000000
131.006100 62.000000
131.011800 70.000000
131.034400 98.000000
132.013000 68.000000
132.148600 62.000000
133.000200 66.000000
133.029400 40.000000
133.067500 36.000000
133.102200 114.000000
133.122500 94.000000
133.180400 42.000000
133.279500 36.000000
134.059700 78.000000
134.072000 36.000000
134.169200 40.000000
134.232500 66.000000
134.289800 40.000000
134.354300 66.000000
135.116700 154.000000
135.278000 52.000000
136.000500 70.000000
136.121400 72.000000
137.100400 74.000000
137.110900 42.000000
138.020100 40.000000
138.095000 48.000000
138.126900 36.000000
138.349400 50.000000
139.125900 64.000000
139.322600 78.000000
140.139800 42.000000
140.977800 48.000000
141.038700 42.000000
141.189300 60.000000
141.323400 40.000000
142.112800 36.000000
143.089900 36.000000
144.134100 40.000000
145.099800 190.000000
145.110900 42.000000
145.952300 56.000000
146.066400 38.000000
146.194400 72.000000
146.226100 52.000000
147.115900 528.000000
148.121300 250.000000
148.239900 80.000000
149.056100 100.000000
149.094600 72.000000
149.131800 664.000000
149.152700 50.000000
149.237000 50.000000
149.283300 42.000000
149.296400 44.000000
150.098800 46.000000
150.134500 36.000000
150.244600 48.000000
150.320600 40.000000
151.108800 114.000000
152.095000 68.000000
153.943700 36.000000
155.012400 52.000000
155.190600 88.000000
155.946600 36.000000
156.014900 44.000000
157.073500 42.000000
157.099300 150.000000
157.116800 46.000000
157.257200 42.000000
157.280400 82.000000
158.078800 38.000000
158.114000 62.000000
158.164800 54.000000
158.996500 74.000000
159.116400 560.000000
160.118500 88.000000
160.238200 60.000000
161.131700 1832.000000
162.102800 148.000000
162.109500 126.000000
162.135200 206.000000
162.147200 60.000000
162.330800 106.000000
163.037400 36.000000
163.111000 712.000000
163.135400 56.000000
163.146900 384.000000
163.198100 48.000000
164.023800 42.000000
164.033500 82.000000
164.099100 50.000000
164.151400 72.000000
164.961300 60.000000
165.004100 38.000000
165.076200 136.000000
165.124500 102.000000
166.216000 56.000000
166.987700 58.000000
167.065800 50.000000
167.138600 76.000000
167.168400 50.000000
167.213600 58.000000
168.044700 42.000000
168.129500 42.000000
168.156600 56.000000
168.945000 36.000000
169.001600 58.000000
169.027200 38.000000
169.099800 82.000000
169.938200 42.000000
170.064600 56.000000
170.194900 60.000000
170.302200 36.000000
171.115100 162.000000
171.163300 36.000000
171.182600 42.000000
171.327400 52.000000
172.120400 86.000000
172.968700 36.000000
173.131200 314.000000
174.134800 70.000000
175.112100 276.000000
175.147600 1572.000000
176.116700 54.000000
176.151500 144.000000
176.186500 48.000000
176.352200 36.000000
177.127000 1376.000000
177.164500 78.000000
178.007600 70.000000
178.127400 80.000000
178.136100 46.000000
178.144100 48.000000
178.164400 44.000000
178.219900 72.000000
179.135400 84.000000
179.153600 64.000000
180.030800 94.000000
180.086500 38.000000
180.995400 42.000000
181.034500 56.000000
181.100300 74.000000
181.347500 42.000000
182.117900 62.000000
183.048100 36.000000
183.114000 70.000000
183.195900 112.000000
184.043100 36.000000
184.088500 38.000000
185.080100 40.000000
185.108500 68.000000
185.131900 788.000000
185.282300 70.000000
186.043500 62.000000
186.134600 96.000000
186.967200 42.000000
187.109300 62.000000
187.148100 444.000000
187.294400 64.000000
187.964300 42.000000
188.112600 44.000000
188.153500 66.000000
188.174300 92.000000
189.087900 70.000000
189.110100 64.000000
189.126200 594.000000
189.163300 1184.000000
189.241600 70.000000
190.057800 50.000000
190.127800 90.000000
190.167600 98.000000
191.016200 64.000000
191.129000 138.000000
191.142200 512.000000
191.231400 38.000000
191.995000 58.000000
192.094400 42.000000
192.255500 42.000000
193.065800 42.000000
195.097500 52.000000
195.140300 36.000000
195.193900 130.000000
195.988600 66.000000
196.045400 54.000000
196.122400 80.000000
196.241100 42.000000
197.100800 58.000000
197.132400 268.000000
197.998400 50.000000
198.133700 62.000000
199.147500 804.000000
200.113500 78.000000
200.129000 52.000000
200.152100 84.000000
200.219800 36.000000
201.163300 6180.000000
202.018600 48.000000
202.082100 50.000000
202.096200 46.000000
202.166900 680.000000
202.252000 56.000000
203.070900 36.000000
203.121600 40.000000
203.142000 560.000000
203.180700 614.000000
203.297600 100.000000
203.318600 42.000000
203.354600 36.000000
204.149400 38.000000
204.180400 142.000000
204.325700 44.000000
204.967400 42.000000
205.051100 36.000000
205.113300 66.000000
205.157400 46.000000
205.277200 44.000000
205.292100 52.000000
206.048600 146.000000
206.159800 122.000000
206.297600 98.000000
206.970600 50.000000
207.050900 72.000000
207.334400 60.000000
208.063300 3906.000000
209.065400 234.000000
209.230900 48.000000
209.342700 46.000000
210.060100 176.000000
210.138100 72.000000
211.079100 42.000000
211.112800 146.000000
211.129100 52.000000
211.148000 760.000000
211.185500 44.000000
211.324700 42.000000
212.070200 50.000000
212.105300 46.000000
212.151300 98.000000
213.066100 104.000000
213.162800 818.000000
213.966500 44.000000
214.165800 146.000000
215.179000 4418.000000
215.977600 40.000000
216.022000 40.000000
216.181900 792.000000
217.117300 54.000000
217.159800 526.000000
217.194100 322.000000
217.996100 44.000000
218.043400 56.000000
218.199800 86.000000
219.172800 96.000000
220.265100 40.000000
221.038400 48.000000
222.076800 292.000000
222.104300 42.000000
222.143100 44.000000
223.148000 82.000000
223.213600 48.000000
223.275300 36.000000
224.078800 64.000000
224.218300 82.000000
225.069400 106.000000
225.075000 114.000000
225.129100 36.000000
225.163300 352.000000
225.259900 44.000000
226.089500 38.000000
226.166200 182.000000
226.177600 46.000000
226.213400 44.000000
226.322700 38.000000
227.177500 454.000000
227.265900 54.000000
228.181700 48.000000
229.158400 1272.000000
229.194800 738.000000
230.119000 44.000000
230.159700 142.000000
230.197600 198.000000
230.987700 66.000000
231.075000 40.000000
231.172100 322.000000
231.224800 36.000000
232.109400 48.000000
232.162400 48.000000
232.178200 50.000000
232.226200 40.000000
233.034400 42.000000
233.127900 46.000000
233.194000 56.000000
234.077500 214.000000
236.093200 274.000000
237.095400 76.000000
237.161000 94.000000
238.214900 42.000000
238.993500 70.000000
239.178900 560.000000
239.983800 36.000000
240.037300 52.000000
240.185300 202.000000
240.210100 64.000000
241.060400 50.000000
241.073700 42.000000
241.196200 388.000000
241.215100 42.000000
242.093700 42.000000
242.134000 46.000000
242.200900 54.000000
242.993200 52.000000
243.109500 54.000000
243.174400 632.000000
243.193000 84.000000
243.209800 972.000000
244.177200 124.000000
244.212400 162.000000
245.056400 38.000000
245.174300 36.000000
245.189300 182.000000
246.129600 40.000000
246.188600 44.000000
247.172900 36.000000
248.097100 362.000000
249.982500 64.000000
250.091800 60.000000
250.116300 170.000000
250.260700 38.000000
250.986000 42.000000
251.111300 64.000000
251.178200 186.000000
252.942500 60.000000
253.195500 298.000000
254.202000 104.000000
255.130100 52.000000
255.181300 42.000000
255.212100 146.000000
255.243900 40.000000
256.210600 46.000000
257.189900 1024.000000
257.225000 84.000000
258.107900 40.000000
258.194300 216.000000
258.224800 54.000000
258.255300 46.000000
259.005300 150.000000
260.094700 156.000000
261.098400 38.000000
261.221600 50.000000
261.349100 78.000000
262.110300 978.000000
263.115100 132.000000
264.055300 80.000000
264.120700 96.000000
264.163800 50.000000
265.123400 36.000000
265.172400 44.000000
265.195000 354.000000
266.194300 82.000000
267.136400 62.000000
267.207000 104.000000
269.087800 50.000000
269.187900 144.000000
270.984800 42.000000
271.204700 132.000000
273.201800 48.000000
274.073000 50.000000
274.110000 352.000000
275.056400 38.000000
275.110900 74.000000
276.127800 396.000000
279.210600 158.000000
279.238700 40.000000
280.034700 46.000000
280.216400 68.000000
281.225100 44.000000
282.120600 36.000000
282.159500 36.000000
282.228300 36.000000
282.256600 52.000000
282.281100 106.000000
283.190800 72.000000
283.206000 128.000000
283.328700 42.000000
284.131500 134.000000
284.201700 50.000000
284.222500 44.000000
285.221700 76.000000
286.109500 220.000000
287.198000 44.000000
288.126300 866.000000
289.131400 234.000000
290.140500 228.000000
290.970900 72.000000
292.213900 60.000000
293.143400 54.000000
293.228000 164.000000
295.238900 152.000000
295.280200 56.000000
296.100200 56.000000
296.228000 36.000000
297.138800 48.000000
297.219300 92.000000
297.256500 586.000000
298.260100 108.000000
299.261600 36.000000
300.127100 472.000000
301.026600 38.000000
301.125100 58.000000
301.268800 40.000000
302.140900 1024.000000
303.010900 38.000000
303.125500 40.000000
303.141700 166.000000
304.149600 142.000000
304.164600 64.000000
305.133000 44.000000
305.160700 46.000000
309.287900 100.000000
311.235400 114.000000
311.272500 252.000000
312.249900 40.000000
312.272000 62.000000
313.324300 48.000000
314.117600 44.000000
314.142800 582.000000
315.016000 44.000000
315.143600 230.000000
315.186100 36.000000
316.156900 346.000000
317.109800 36.000000
317.158100 96.000000
318.213200 38.000000
321.256600 4412.000000
322.208100 54.000000
322.260500 1030.000000
323.153600 40.000000
323.265200 88.000000
323.290100 36.000000
324.162100 44.000000
325.988000 100.000000
326.140800 48.000000
328.136000 44.000000
328.156500 324.000000
329.153100 46.000000
330.169200 170.000000
331.036100 50.000000
332.007200 48.000000
332.075400 66.000000
333.140500 42.000000
335.305200 36.000000
338.310800 38.000000
339.267400 6180.000000
340.155200 150.000000
340.273400 1166.000000
341.064400 60.000000
341.277000 150.000000
342.172000 404.000000
342.182600 352.000000
343.179700 102.000000
344.162100 64.000000
344.187300 100.000000
345.179800 50.000000
346.216700 82.000000
347.094600 50.000000
354.126600 36.000000
354.173700 536.000000
354.200800 52.000000
355.069400 44.000000
355.175900 182.000000
356.187700 394.000000
356.210000 78.000000
357.161600 78.000000
357.192100 74.000000
358.180600 54.000000
358.206100 50.000000
366.182000 56.000000
368.186500 390.000000
369.068300 38.000000
369.077300 62.000000
369.185000 90.000000
370.199300 74.000000
377.141400 60.000000
378.262400 50.000000
378.346700 36.000000
382.165500 40.000000
382.203600 472.000000
383.211100 64.000000
384.225100 56.000000
393.225100 40.000000
395.228600 38.000000
396.224700 52.000000
408.220300 48.000000
409.166300 52.000000
409.227300 46.000000
410.233000 50.000000
422.234000 86.000000
423.237300 52.000000
423.265100 84.000000
428.947400 86.000000
432.280500 62.000000
434.208100 68.000000
446.268800 54.000000
447.275500 118.000000
449.115300 40.000000
454.262200 40.000000
462.329700 38.000000
464.282000 4610.000000
465.285200 1046.000000
465.321000 74.000000
466.282600 252.000000
467.279800 38.000000
469.089400 38.000000
493.272200 78.000000
509.304700 36.000000
521.218200 42.000000

