>compound RP54168702
>parentmass 188.09170000000003
>ionization [M+H]+
>formula C8H13NO4
>rt 54.780000
>profile qtof
#smiles_iso CC(CC(=O)NC1CCOC1=O)O
#smiles_can CC(CC(=O)NC1CCOC1=O)O
#inchikey FIXDIFPJOFIIEC-UHFFFAOYSA-N
#pubchem_id 130846
#mb_accession RP021301,RP021302,RP021303

>ms2peaks
63.091600 36.000000
69.033200 302.000000
74.023100 528.000000
84.044700 292.000000
87.043500 1712.000000
90.075700 44.000000
102.054600 24710.000000
104.058400 48.000000
115.083900 58.000000
123.039200 52.000000
128.036000 56.000000
131.032000 42.000000
142.025900 38.000000
143.022400 38.000000
145.003900 82.000000
149.030600 78.000000
150.078000 54.000000
160.096200 178.000000
170.081500 450.000000
182.055800 50.000000
183.099900 72.000000
186.077600 68.000000
188.091700 10802.000000

>ms2peaks
69.033100 1052.000000
74.059300 10528.000000
84.043700 2404.000000
85.027500 486.000000
87.043400 2280.000000
102.054600 12048.000000
128.033400 74.000000

>ms2peaks
57.032100 70.000000
68.047500 90.000000
69.033200 378.000000
72.007700 534.000000
75.019000 86.000000
85.027400 470.000000
102.054500 458.000000

