>compound RP54904073
>parentmass 260.1856
>ionization [M+H]+
>formula C13H25NO4
>rt 189.780000
>profile qtof
#smiles_iso CCCCCC(=O)O[C@H](CC(=O)[O-])C[N+](C)(C)C
#smiles_can CCCCCC(=O)OC(CC(=O)[O-])C[N+](C)(C)C
#inchikey VVPRQWTYSNDTEA-LLVKDONJSA-N
#pubchem_id 3246938
#mb_accession RP025501,RP025502,RP025503

>ms2peaks
85.027600 194636.000000
99.080200 8852.000000
201.111700 74446.000000
260.185700 1413036.000000
262.191100 24188.000000

>ms2peaks
57.032500 1608.000000
85.029000 1441790.000000
99.080000 120582.000000
117.090800 4094.000000
144.101900 9450.000000
201.111700 146824.000000
260.185300 314198.000000
262.190900 3532.000000

>ms2peaks
57.032700 38578.000000
71.084800 49640.000000
84.080300 35784.000000
85.028300 1442266.000000
89.059000 2392.000000
99.080100 2792.000000
129.078700 1544.000000
144.101800 2152.000000

