>compound RP55693660
>parentmass 220.1179
>ionization [M+H]+
>formula C9H17NO5
>rt 97.800000
>profile qtof
#smiles_iso CC(C)(CO)C(C(=O)NCCC(=O)O)O
#smiles_can CC(C)(CO)C(C(=O)NCCC(=O)O)O
#inchikey GHOKWGTUZJEAQD-UHFFFAOYSA-N
#pubchem_id 988
#mb_accession RP012301,RP012302,RP012303

>ms2peaks
69.069700 202.000000
72.043900 222.000000
73.028500 96.000000
75.089500 90.000000
85.063100 254.000000
90.054700 10668.000000
91.059900 230.000000
95.047100 120.000000
103.075400 234.000000
116.033800 462.000000
124.074000 116.000000
125.081400 106.000000
146.060300 96.000000
156.102100 148.000000
174.113200 218.000000
175.116600 96.000000
184.096500 3394.000000
185.101000 368.000000
202.107700 9978.000000
203.110900 726.000000
220.118100 85886.000000
222.122900 718.000000

>ms2peaks
55.017400 90.000000
55.054100 66.000000
57.069400 320.000000
59.048900 860.000000
61.028100 70.000000
67.039100 42.000000
72.043900 4808.000000
73.027900 970.000000
73.065500 70.000000
83.048400 236.000000
85.064400 2542.000000
86.093200 54.000000
87.080100 318.000000
90.054600 17870.000000
95.049400 576.000000
96.080000 134.000000
97.050400 50.000000
98.023700 1502.000000
99.028200 36.000000
100.039300 428.000000
103.075000 806.000000
113.019100 68.000000
113.058800 138.000000
115.097100 50.000000
116.033800 766.000000
119.115400 36.000000
124.074600 620.000000
125.080100 62.000000
126.078400 40.000000
135.052700 114.000000
142.085300 528.000000
149.105400 36.000000
150.018100 38.000000
154.084500 68.000000
156.102100 226.000000
156.150900 44.000000
157.082700 54.000000
160.096700 676.000000
161.099800 62.000000
164.055000 56.000000
166.025000 38.000000
166.085500 448.000000
174.112800 304.000000
182.045500 60.000000
184.096300 4332.000000
185.102000 514.000000
186.100100 48.000000
202.107000 5928.000000
203.077100 44.000000
203.110300 404.000000
204.088000 40.000000
220.117600 2508.000000

>ms2peaks
53.038400 36.000000
55.016100 92.000000
57.069300 612.000000
59.048600 460.000000
60.044400 142.000000
67.053700 4350.000000
68.118700 80.000000
69.070000 426.000000
70.028200 5460.000000
71.047500 44.000000
72.044100 996.000000
73.028200 468.000000
74.023400 440.000000
79.054500 272.000000
80.050100 114.000000
81.057400 104.000000
83.049300 158.000000
84.081400 118.000000
85.064100 628.000000
91.059900 82.000000
95.048100 898.000000
96.080800 498.000000
98.023500 352.000000
124.075500 104.000000

