>compound RP57963306
>parentmass 285.2213
>ionization [M+H]+
>formula C20H28O
>rt 423.360000
>profile qtof
#smiles_iso CC1=C(C(CCC1)(C)C)/C=C/C(=C/C=C/C(=C/C=O)/C)/C
#smiles_can CC1=C(C(CCC1)(C)C)C=CC(=CC=CC(=CC=O)C)C
#inchikey NCYCYZXNIZJOKI-OVSJKPMPSA-N
#pubchem_id 638015
#mb_accession RP014201,RP014202,RP014203

>ms2
71.048700 108.000000
75.018200 66.000000
81.128100 54.000000
83.086000 76.000000
85.076300 82.000000
95.085600 166.000000
97.064000 236.000000
97.100300 196.000000
101.189700 58.000000
105.070000 110.000000
109.064800 74.000000
110.036600 40.000000
110.105500 46.000000
112.076100 42.000000
117.069700 52.000000
118.042300 96.000000
120.031600 48.000000
121.100700 116.000000
123.115900 118.000000
124.098700 36.000000
126.068100 36.000000
127.990100 36.000000
133.016700 92.000000
136.180800 40.000000
140.120300 48.000000
142.134000 48.000000
143.025200 38.000000
145.101600 64.000000
147.054000 48.000000
147.080600 72.000000
147.114000 40.000000
154.064900 48.000000
157.100900 90.000000
159.069000 36.000000
160.192100 48.000000
161.095100 4518.000000
164.059300 60.000000
164.155500 132.000000
165.126900 64.000000
169.098000 42.000000
171.112500 50.000000
171.198700 46.000000
173.133200 78.000000
175.075100 92.000000
175.148200 1802.000000
176.150900 126.000000
177.125900 88.000000
177.162400 620.000000
177.230900 36.000000
178.064600 36.000000
178.181400 40.000000
185.130800 182.000000
187.147000 84.000000
189.125900 94.000000
189.163100 174.000000
193.157500 1056.000000
197.133000 130.000000
200.000700 52.000000
200.153400 42.000000
201.057500 56.000000
201.160500 56.000000
203.141700 68.000000
203.180400 36.000000
205.159300 74.000000
207.117700 66.000000
210.012100 60.000000
211.110000 44.000000
211.146800 270.000000
215.178200 122.000000
219.011600 44.000000
221.138900 70.000000
227.178500 64.000000
245.118900 36.000000
247.028000 62.000000
255.053800 66.000000
257.224200 106.000000
267.209600 1116.000000
268.216500 150.000000
270.133600 38.000000
271.110700 44.000000
274.026900 38.000000
283.142300 72.000000
283.178000 50.000000
283.205200 160.000000
285.220400 3984.000000
287.199500 62.000000

>ms2
59.049000 68.000000
64.031300 70.000000
73.003100 40.000000
75.211000 40.000000
83.085200 212.000000
95.049700 36.000000
95.085600 552.000000
96.090100 78.000000
104.082400 54.000000
106.077600 50.000000
107.050200 40.000000
107.085000 242.000000
109.065600 270.000000
109.100500 204.000000
115.029700 54.000000
119.085000 324.000000
120.088600 96.000000
123.115700 142.000000
124.121400 56.000000
127.205900 70.000000
129.077900 38.000000
133.100100 276.000000
134.104000 42.000000
145.100100 132.000000
146.108900 102.000000
147.115400 172.000000
155.080500 48.000000
156.094400 98.000000
157.098100 76.000000
159.116700 212.000000
160.089900 50.000000
160.124200 62.000000
161.095800 1304.000000
161.128500 196.000000
161.154700 66.000000
163.061600 90.000000
163.110300 66.000000
163.148600 50.000000
165.103800 66.000000
168.094700 68.000000
168.138900 66.000000
169.101500 54.000000
170.083900 50.000000
170.108400 74.000000
171.115600 140.000000
172.120400 70.000000
173.132900 170.000000
173.142600 38.000000
175.148000 1978.000000
177.161100 216.000000
183.114100 102.000000
184.005600 80.000000
184.121400 74.000000
185.084700 46.000000
185.131000 150.000000
187.049100 66.000000
187.149500 62.000000
189.161500 68.000000
193.157000 124.000000
197.131200 188.000000
198.135300 114.000000
199.149100 200.000000
201.164300 74.000000
203.180100 224.000000
211.148600 384.000000
212.152300 58.000000
223.143300 50.000000
224.153900 36.000000
225.160500 40.000000
237.161300 42.000000
241.148200 52.000000
267.207800 130.000000
285.222000 136.000000
293.073200 38.000000

>ms2
47.179900 44.000000
55.017300 38.000000
60.043800 42.000000
61.040200 84.000000
68.058100 52.000000
69.069200 1400.000000
77.038600 42.000000
81.032800 66.000000
91.054000 486.000000
95.049000 176.000000
95.085600 174.000000
96.007500 36.000000
97.064400 46.000000
105.069600 488.000000
106.073200 104.000000
109.065100 44.000000
117.070000 36.000000
119.084600 220.000000
121.100100 50.000000
130.073900 64.000000
133.100000 154.000000
145.064600 68.000000
146.071200 106.000000
147.115400 124.000000
148.119700 42.000000
154.077200 40.000000
159.115600 52.000000
160.124100 68.000000
161.133000 94.000000
162.020500 46.000000
167.084200 62.000000
169.101500 90.000000
173.129800 60.000000
182.109500 50.000000
187.155800 64.000000
201.158300 48.000000

