>compound RP58022326
>parentmass 122.027
>ionization [M+H]+
>formula C3H7NO2S
>rt 36.240000
>profile qtof
#smiles_iso C([C@@H](C(=O)O)N)S
#smiles_can C(C(C(=O)O)N)S
#inchikey XUJNEKJLAYXESH-REOHCLBHSA-N
#pubchem_id 5862
#mb_accession RP001801,RP001802,RP001803

>ms2
70.029100 50.000000
74.006400 70.000000
76.020800 40740.000000
77.058500 46.000000
86.989400 6848.000000
105.000000 5622.000000
122.026400 3090.000000
125.025700 72.000000

>ms2
62.989300 338.000000
76.020900 42732.000000
77.004000 108.000000
77.023700 570.000000
86.989500 5492.000000
88.038700 200.000000
104.999700 834.000000
110.056900 54.000000

>ms2
55.017300 110.000000
56.049000 60.000000
57.020500 46.000000
57.033200 76.000000
73.026500 100.000000
76.021100 1796.000000
77.023400 40.000000

