>compound RP58684276
>parentmass 372.3108
>ionization [M+H]+
>formula C21H41NO4
>rt 322.680000
>profile qtof
#smiles_iso CCCCCCCCCCCCCC(=O)O[C@H](CC(=O)[O-])C[N+](C)(C)C
#smiles_can CCCCCCCCCCCCCC(=O)OC(CC(=O)[O-])C[N+](C)(C)C
#inchikey PSHXNVGSVNEJBD-LJQANCHMSA-N
#pubchem_id 53477791
#mb_accession RP025401,RP025402,RP025403

>ms2peaks
85.027800 28630.000000
313.236700 12308.000000
372.312700 1503230.000000
374.317000 76388.000000

>ms2peaks
71.084900 3638.000000
83.084800 1742.000000
85.027600 1390100.000000
95.085000 7448.000000
97.100500 3550.000000
109.100700 3946.000000
111.116300 3388.000000
123.116600 2438.000000
137.132000 1716.000000
144.101900 16722.000000
211.205300 42742.000000
229.216400 2424.000000
313.237000 197282.000000
314.240800 38412.000000
315.243800 2334.000000
372.310800 1493460.000000
374.317200 48490.000000

>ms2peaks
46.158900 80.000000
49.007300 78.000000
49.122100 90.000000
55.112200 78.000000
55.169500 130.000000
56.000800 86.000000
56.107000 80.000000
57.033000 23374.000000
57.069400 23858.000000
58.064600 13592.000000
59.049700 124.000000
67.053800 17732.000000
68.057400 518.000000
69.069400 22824.000000
70.003700 74.000000
71.085000 64348.000000
73.064500 278.000000
75.044000 360.000000
77.038700 84.000000
78.031100 132.000000
79.054200 660.000000
79.263900 88.000000
79.286800 210.000000
81.069600 22628.000000
81.989700 70.000000
82.015500 122.000000
82.062600 80.000000
82.073100 1000.000000
82.085800 158.000000
83.049100 638.000000
83.085200 6262.000000
84.080500 10798.000000
88.146200 130.000000
88.276300 82.000000
89.059500 1726.000000
90.103500 164.000000
95.085300 24304.000000
96.088800 1220.000000
97.064800 372.000000
97.100600 3038.000000
98.097000 290.000000
99.078800 278.000000
99.116700 632.000000
100.111300 72.000000
101.058500 142.000000
103.038500 1804.000000
103.075200 1208.000000
109.101000 5816.000000
110.105700 514.000000
111.116900 958.000000
112.016100 68.000000
113.132500 90.000000
117.088900 236.000000
121.101100 116.000000
123.116800 1090.000000
124.119700 214.000000
125.097300 134.000000
128.070500 130.000000
129.078800 2046.000000
130.081400 118.000000
131.106800 84.000000
135.116500 100.000000
136.121200 136.000000
137.129300 92.000000
144.101900 10384.000000
145.084800 98.000000
145.104700 618.000000
146.104400 86.000000
162.113000 310.000000
185.140400 68.000000
211.204100 400.000000
229.216800 302.000000
313.239500 212.000000
314.241900 146.000000
372.310500 874.000000

