>compound RP58078305
>parentmass 118.0863
>ionization [M+H]+
>formula C5H11NO2
>rt 40.980000
>profile qtof
#smiles_iso CC(C)[C@@H](C(=O)O)N
#smiles_can CC(C)C(C(=O)O)N
#inchikey KZSNJWFQEVHDMF-BYPYZUCNSA-N
#pubchem_id 6287
#mb_accession RP000901,RP000902,RP000903

>ms2
72.080100 566608.000000
118.086000 12570.000000

>ms2
53.038300 1146.000000
56.049300 1192.000000
59.048700 1304.000000
72.080200 271958.000000

>ms2
52.018000 106.000000
53.038800 430.000000
53.083800 126.000000
55.053700 6250.000000
57.056700 9900.000000
59.048700 776.000000
67.041000 66.000000
68.024900 198.000000
69.032700 244.000000
72.080400 6288.000000
87.043500 46.000000

