>compound RP59386600
>parentmass 237.12340000000003
>ionization [M+H]+
>formula C12H16N2O3
>rt 145.500000
>profile qtof
#smiles_iso C[C@@H](C(=O)N[C@@H](CC1=CC=CC=C1)C(=O)O)N
#smiles_can CC(C(=O)NC(CC1=CC=CC=C1)C(=O)O)N
#inchikey OMNVYXHOSHNURL-WPRPVWTQSA-N
#pubchem_id 96814
#mb_accession RP016501,RP016502,RP016503

>ms2peaks
120.080400 11466.000000
121.083900 688.000000
149.059600 358.000000
166.085400 286694.000000
167.088900 25186.000000
168.090500 1076.000000
191.117300 33058.000000
192.120500 3128.000000
219.112200 4720.000000
237.122700 262822.000000
239.128100 2390.000000

>ms2peaks
58.004800 112.000000
83.059900 122.000000
93.069800 120.000000
103.024100 116.000000
103.053900 746.000000
107.048700 386.000000
120.080700 95516.000000
121.084200 7674.000000
122.085100 138.000000
131.048500 718.000000
146.024100 108.000000
146.093600 298.000000
148.074200 256.000000
149.059200 1776.000000
150.063300 184.000000
166.085300 107188.000000
167.088700 10176.000000
173.105000 172.000000
191.116900 3168.000000
192.120700 452.000000
237.122500 1176.000000

>ms2peaks
74.022700 82.000000
79.053600 7490.000000
80.048800 214.000000
91.053900 3762.000000
93.069200 9642.000000
95.049000 774.000000
97.072700 76.000000
102.046300 122.000000
103.054100 29800.000000
104.057700 1512.000000
105.069900 154.000000
107.048400 2984.000000
108.052100 296.000000
117.057000 68.000000
118.064500 244.000000
119.073100 120.000000
120.080800 62932.000000
121.084100 4030.000000
122.082800 122.000000
129.068800 82.000000
131.049900 344.000000
149.057400 82.000000
166.086100 602.000000
167.092300 132.000000

