>compound RP59497740
>parentmass 243.2319
>ionization [M+H]+
>formula C15H30O2
>rt 417.900000
>profile qtof
#smiles_iso CCC(C)CCCCCCCCCCC(=O)O
#smiles_can CCC(C)CCCCCCCCCCC(=O)O
#inchikey XKLJLHAPJBUBNL-UHFFFAOYSA-N
#pubchem_id 21672
#mb_accession RP024701,RP024702,RP024703

>ms2peaks
49.052600 104.000000
57.069500 226.000000
69.070000 40.000000
71.049100 82.000000
71.085400 248.000000
85.100400 220.000000
89.059000 60.000000
101.059100 78.000000
109.102100 38.000000
113.120800 52.000000
171.138400 54.000000
177.162400 38.000000
181.156900 36.000000
183.198600 54.000000
187.170500 214.000000
190.205500 36.000000
191.141800 48.000000
195.138300 88.000000
200.202600 48.000000
205.182600 52.000000
208.001500 58.000000
221.192200 38.000000
223.205400 50.000000
226.179900 54.000000
233.165300 58.000000
240.159500 40.000000
243.231800 5802.000000
245.117800 56.000000
245.130300 74.000000

>ms2peaks
67.053800 44.000000
69.007800 44.000000
69.069200 418.000000
81.069200 120.000000
83.048600 114.000000
85.100800 336.000000
93.069800 86.000000
95.086100 40.000000
103.075500 92.000000
108.094000 108.000000
137.132900 58.000000
154.130100 50.000000
163.111700 36.000000
163.143200 90.000000
187.169900 38.000000
241.154000 38.000000
243.232600 184.000000

>ms2peaks
67.054400 50.000000
69.069900 156.000000
79.053700 104.000000
83.085800 62.000000
184.111000 58.000000

