>compound RP60762009
>parentmass 466.3163
>ionization [M+H]+
>formula C26H43NO6
>rt 244.140000
>profile qtof
#smiles_iso CC(CCC(=O)NCC(=O)O)C1CCC2C1(CCC3C2C(C(C4C3(CCC(C4)O)C)O)O)C
#smiles_can CC(CCC(=O)NCC(=O)O)C1CCC2C1(CCC3C2C(C(C4C3(CCC(C4)O)C)O)O)C
#inchikey ZQYUKJFJPJDMMR-UHFFFAOYSA-N
#pubchem_id 13955647
#mb_accession RP007401,RP007402,RP007403

>ms2peaks
76.038600 496.000000
337.255800 770.000000
355.264100 624.000000
412.284800 8628.000000
413.287800 1560.000000
430.295600 97706.000000
431.299000 23464.000000
432.301600 3284.000000
448.306300 121692.000000
449.309600 35026.000000
450.313200 4128.000000
451.307700 356.000000
466.316500 269724.000000
468.323200 15328.000000

>ms2peaks
76.038600 22596.000000
85.064100 1072.000000
147.117900 276.000000
158.082100 742.000000
159.117200 752.000000
162.133900 252.000000
173.131900 410.000000
175.147700 546.000000
185.132300 422.000000
191.142700 284.000000
199.149200 348.000000
209.132000 374.000000
213.163600 290.000000
223.148000 248.000000
225.165800 248.000000
227.143000 316.000000
229.160200 242.000000
238.143900 370.000000
239.181000 234.000000
241.156600 284.000000
250.144100 404.000000
264.158200 398.000000
266.177300 278.000000
295.243800 382.000000
302.178200 258.000000
304.190900 354.000000
309.256400 670.000000
319.241700 5426.000000
320.245800 906.000000
327.268000 294.000000
332.222400 294.000000
337.252800 26468.000000
338.256000 5082.000000
339.258700 402.000000
355.263200 16542.000000
356.267000 2804.000000
357.268000 328.000000
373.273500 1662.000000
374.276000 400.000000
394.271700 476.000000
400.284200 2030.000000
401.287300 504.000000
402.298000 560.000000
412.284800 78704.000000
413.288300 22822.000000
414.291600 2074.000000
430.295400 232254.000000
431.298900 85906.000000
432.302400 10110.000000
433.305100 482.000000
448.305900 49306.000000
449.309500 14220.000000
450.312200 1736.000000
466.316800 8804.000000
468.322400 250.000000

>ms2peaks
49.076100 64.000000
49.194600 68.000000
53.039100 100.000000
53.283800 66.000000
55.053800 202.000000
59.047800 160.000000
61.064000 72.000000
66.034200 60.000000
67.053700 3822.000000
69.041600 82.000000
69.069600 758.000000
69.128000 58.000000
70.097800 62.000000
71.048400 108.000000
72.032000 106.000000
72.245100 72.000000
75.292600 62.000000
76.038700 55192.000000
78.042100 266.000000
78.054200 74.000000
78.292100 68.000000
79.053800 1206.000000
79.206100 66.000000
81.069600 5164.000000
82.073000 222.000000
83.048300 230.000000
83.084900 1200.000000
84.042400 142.000000
84.080700 112.000000
85.064300 5726.000000
87.268000 86.000000
89.320000 90.000000
91.053800 658.000000
93.069600 3070.000000
94.073000 304.000000
95.085200 3340.000000
96.005200 98.000000
96.088900 408.000000
97.063300 192.000000
97.101400 280.000000
98.037200 88.000000
98.048400 68.000000
99.040500 110.000000
99.080200 266.000000
100.050100 76.000000
100.059800 74.000000
101.059000 108.000000
101.104700 70.000000
101.189500 82.000000
103.251300 90.000000
104.331800 72.000000
105.069300 2392.000000
106.072700 216.000000
107.048300 256.000000
107.085600 2220.000000
108.089700 414.000000
108.266500 62.000000
109.065400 96.000000
109.101100 1498.000000
110.105200 194.000000
111.081400 338.000000
112.997800 74.000000
115.049700 70.000000
115.060000 70.000000
115.213300 88.000000
116.106100 68.000000
116.150100 86.000000
117.069100 304.000000
117.992400 70.000000
119.037400 56.000000
119.047100 102.000000
119.086300 870.000000
119.104700 58.000000
120.055400 132.000000
120.089200 184.000000
120.136600 66.000000
121.063000 118.000000
121.101300 1098.000000
122.071700 70.000000
122.102300 206.000000
122.186600 76.000000
122.325500 64.000000
123.080000 530.000000
124.035400 128.000000
124.076500 68.000000
124.123400 94.000000
124.239700 56.000000
125.019200 88.000000
125.095900 312.000000
126.133800 60.000000
127.242300 60.000000
128.013700 58.000000
128.067200 66.000000
129.339300 56.000000
130.050500 100.000000
131.085900 540.000000
131.165300 68.000000
131.967900 88.000000
131.980400 84.000000
132.062500 100.000000
133.071200 66.000000
133.100900 1016.000000
134.102800 56.000000
135.023100 62.000000
135.054500 96.000000
135.075800 56.000000
135.116100 558.000000
135.162700 58.000000
135.183900 68.000000
136.206200 64.000000
137.096700 176.000000
137.116000 96.000000
137.312400 60.000000
137.967000 76.000000
139.235100 58.000000
140.026900 112.000000
140.177700 66.000000
140.256600 82.000000
140.294900 76.000000
141.017000 78.000000
141.067000 72.000000
142.052300 56.000000
142.082200 76.000000
143.086100 470.000000
144.087600 92.000000
144.159900 70.000000
145.100900 1032.000000
145.281900 70.000000
145.293700 70.000000
146.105500 202.000000
146.152800 210.000000
146.306200 94.000000
147.116300 2564.000000
148.047800 76.000000
148.119000 438.000000
148.205200 90.000000
149.033100 58.000000
149.097500 152.000000
149.132500 1032.000000
149.256000 80.000000
150.098100 78.000000
151.112900 268.000000
152.106600 60.000000
152.117300 66.000000
152.211600 110.000000
152.982400 104.000000
153.019600 68.000000
153.068800 60.000000
153.124200 62.000000
153.205800 68.000000
154.077200 76.000000
154.264400 88.000000
155.085700 556.000000
155.304100 90.000000
155.997900 58.000000
156.013600 74.000000
156.064900 420.000000
156.093200 128.000000
157.100700 1496.000000
157.246700 94.000000
158.081100 1854.000000
158.102700 208.000000
159.116300 7398.000000
160.119600 948.000000
160.227000 92.000000
161.095800 358.000000
161.132000 5598.000000
162.100500 60.000000
162.115800 98.000000
162.135100 532.000000
162.217400 60.000000
162.286300 66.000000
162.336000 80.000000
163.094500 120.000000
163.111100 970.000000
163.147400 404.000000
164.114600 104.000000
164.177000 68.000000
164.306300 60.000000
164.314900 58.000000
165.060100 60.000000
165.068500 92.000000
165.110600 82.000000
165.126600 270.000000
166.140100 66.000000
167.085600 248.000000
168.099900 56.000000
168.136200 88.000000
168.205700 70.000000
168.996700 74.000000
169.068600 62.000000
169.100400 712.000000
169.187800 70.000000
170.104200 198.000000
170.248200 92.000000
171.080300 104.000000
171.116500 986.000000
171.291100 68.000000
172.096500 174.000000
172.123200 104.000000
172.276400 60.000000
173.095200 236.000000
173.132500 3152.000000
174.029900 70.000000
174.134800 286.000000
175.111100 1788.000000
175.147800 2008.000000
176.114000 230.000000
176.151000 96.000000
177.127400 1348.000000
178.014800 62.000000
178.129500 242.000000
179.086100 132.000000
179.179400 66.000000
179.256400 112.000000
181.006600 76.000000
181.052200 62.000000
182.083500 74.000000
182.110100 130.000000
183.081100 56.000000
183.117300 756.000000
184.101300 78.000000
184.117600 68.000000
184.174900 56.000000
185.132200 4182.000000
186.106600 82.000000
186.135500 328.000000
187.112500 574.000000
187.147700 1312.000000
188.099800 64.000000
188.115700 102.000000
188.150800 174.000000
189.126900 1996.000000
189.163400 416.000000
189.999300 78.000000
190.027300 98.000000
190.131400 140.000000
190.166900 86.000000
191.106000 60.000000
191.142800 692.000000
192.110900 66.000000
192.147300 120.000000
193.097500 94.000000
193.121600 74.000000
193.158800 74.000000
195.015100 60.000000
195.117000 598.000000
195.137700 74.000000
196.021800 116.000000
196.125800 182.000000
196.306500 66.000000
197.132500 1650.000000
198.022400 70.000000
198.053500 56.000000
198.074000 90.000000
198.115200 170.000000
198.136900 214.000000
199.147900 5104.000000
200.065700 78.000000
200.139100 78.000000
200.151200 658.000000
200.271600 84.000000
201.127800 420.000000
201.162700 858.000000
201.194000 60.000000
201.262800 112.000000
202.132000 62.000000
202.168300 114.000000
203.112000 72.000000
203.142500 552.000000
203.161800 76.000000
203.179700 288.000000
203.259500 60.000000
204.031800 98.000000
204.101400 64.000000
204.147500 218.000000
204.179500 100.000000
204.244800 76.000000
204.269100 92.000000
204.993900 64.000000
205.158300 84.000000
206.076500 60.000000
206.154000 84.000000
207.043700 58.000000
207.109300 94.000000
207.136400 200.000000
207.259800 94.000000
208.141300 126.000000
209.132500 3056.000000
210.134500 334.000000
210.193200 66.000000
210.316000 82.000000
211.147500 2456.000000
212.117300 56.000000
212.127800 188.000000
212.153500 718.000000
213.127700 906.000000
213.163500 4346.000000
214.130200 88.000000
214.166700 700.000000
215.031000 62.000000
215.142300 892.000000
215.179200 1138.000000
215.331300 90.000000
216.144600 194.000000
216.183300 266.000000
217.158200 670.000000
217.196500 68.000000
218.042500 112.000000
218.064700 78.000000
218.161600 116.000000
219.142600 70.000000
219.180300 62.000000
220.131900 58.000000
221.132500 180.000000
222.137900 68.000000
222.159600 104.000000
223.147600 2962.000000
224.126600 170.000000
224.151900 634.000000
224.250000 92.000000
225.124200 134.000000
225.164700 2138.000000
226.096900 56.000000
226.141700 214.000000
226.167400 370.000000
227.142500 3394.000000
227.180200 2250.000000
228.146800 482.000000
228.182700 322.000000
228.209200 62.000000
229.158100 1398.000000
229.194100 158.000000
230.023200 80.000000
230.090800 86.000000
230.161800 236.000000
231.005300 62.000000
231.016300 62.000000
231.174400 642.000000
231.196100 84.000000
231.204000 94.000000
232.176900 148.000000
233.189900 72.000000
233.984000 58.000000
234.990900 68.000000
235.146400 292.000000
236.117700 88.000000
236.130300 126.000000
236.153700 186.000000
237.162800 1808.000000
237.990700 72.000000
238.144000 694.000000
238.165400 166.000000
238.213100 62.000000
239.149100 188.000000
239.178900 1856.000000
240.161200 162.000000
240.183600 514.000000
241.062500 112.000000
241.158200 1774.000000
241.195300 1100.000000
241.994000 58.000000
242.164200 194.000000
242.196400 200.000000
243.151000 64.000000
243.173100 798.000000
243.214500 96.000000
244.122800 58.000000
244.175300 102.000000
244.185200 76.000000
245.047400 80.000000
245.154900 106.000000
245.188000 114.000000
245.978100 96.000000
247.170100 112.000000
248.127000 58.000000
248.165100 62.000000
249.093600 80.000000
249.164100 860.000000
250.142600 860.000000
250.168500 176.000000
251.144600 114.000000
251.179300 944.000000
252.094700 78.000000
252.159500 512.000000
252.186100 1178.000000
252.210100 108.000000
253.161300 140.000000
253.194900 1280.000000
254.199000 438.000000
254.261400 106.000000
255.173600 1290.000000
255.209900 368.000000
256.176500 154.000000
256.212300 78.000000
256.999100 66.000000
257.188100 382.000000
258.103400 60.000000
258.193200 76.000000
258.264500 64.000000
259.167800 94.000000
259.205700 138.000000
261.182400 72.000000
262.035500 64.000000
262.241700 70.000000
263.179700 1388.000000
264.078900 72.000000
264.159200 744.000000
264.183600 406.000000
264.263700 72.000000
265.164000 218.000000
265.195400 374.000000
266.163600 60.000000
266.174800 98.000000
266.198200 80.000000
267.176200 384.000000
267.209800 404.000000
268.213700 62.000000
269.189800 618.000000
270.018800 62.000000
270.053300 64.000000
270.197200 516.000000
270.285200 78.000000
271.206500 516.000000
272.115800 96.000000
272.210400 104.000000
272.257900 70.000000
273.145000 114.000000
273.185200 106.000000
273.262500 98.000000
273.992800 70.000000
275.090500 64.000000
275.320700 72.000000
276.088600 56.000000
276.145400 76.000000
276.258100 106.000000
277.194300 1024.000000
278.176400 114.000000
278.198800 324.000000
279.210200 252.000000
280.213300 56.000000
281.074300 76.000000
281.159200 68.000000
281.188400 786.000000
281.226900 138.000000
281.246500 80.000000
282.194100 236.000000
283.205200 252.000000
283.239100 190.000000
284.192700 84.000000
284.250400 66.000000
287.045300 60.000000
287.206000 88.000000
288.008700 64.000000
288.127000 64.000000
288.158800 56.000000
289.139200 76.000000
290.179400 90.000000
290.200400 84.000000
291.211200 536.000000
292.185800 144.000000
292.212500 196.000000
292.989200 74.000000
293.199300 120.000000
293.225800 1044.000000
294.232100 200.000000
295.103600 114.000000
295.206200 616.000000
295.241700 2156.000000
296.206500 94.000000
296.245900 358.000000
297.222000 296.000000
297.256600 84.000000
298.178100 64.000000
299.199300 64.000000
299.238100 88.000000
299.297200 76.000000
301.246000 78.000000
302.171700 62.000000
304.191000 300.000000
304.218900 258.000000
305.011900 64.000000
306.253600 100.000000
307.241100 668.000000
308.247800 182.000000
308.310100 62.000000
309.222300 500.000000
309.257200 3586.000000
310.135000 64.000000
310.225500 90.000000
310.260200 984.000000
311.234900 92.000000
311.263800 76.000000
311.993800 56.000000
313.219600 90.000000
313.252500 180.000000
316.197100 96.000000
318.001500 72.000000
318.205600 82.000000
319.241700 18136.000000
320.245000 4472.000000
321.247500 282.000000
322.256400 86.000000
325.252300 958.000000
325.286900 66.000000
326.262100 328.000000
327.215100 62.000000
327.269000 678.000000
328.270900 88.000000
328.311800 58.000000
330.313800 84.000000
331.974600 92.000000
332.222600 94.000000
332.321800 60.000000
333.218700 106.000000
335.225400 60.000000
336.237600 78.000000
337.252400 26010.000000
338.255000 7476.000000
339.258500 650.000000
340.275200 58.000000
342.208100 84.000000
344.224100 56.000000
346.213700 68.000000
349.202600 70.000000
353.251700 60.000000
355.263600 9904.000000
356.266200 2284.000000
357.268100 262.000000
366.277500 94.000000
370.232500 88.000000
371.234300 98.000000
373.273900 224.000000
374.272000 124.000000
384.290100 118.000000
394.276600 176.000000
395.277300 72.000000
400.284900 378.000000
402.295300 76.000000
409.186100 72.000000
412.285300 3984.000000
413.287600 1620.000000
414.290600 166.000000
422.244600 64.000000
424.108500 78.000000
430.294000 1016.000000
430.979500 68.000000
431.296500 278.000000
432.293200 64.000000
453.229200 108.000000

