>compound RP60785388
>parentmass 153.05459999999997
>ionization [M+H]+
>formula C8H8O3
>rt 171.540000
>profile qtof
#smiles_iso C1=CC(=CC(=C1)O)CC(=O)O
#smiles_can C1=CC(=CC(=C1)O)CC(=O)O
#inchikey FVMDYYGIDFPZAX-UHFFFAOYSA-N
#pubchem_id 12122
#mb_accession RP004501,RP004502,RP004503,RP015601,RP015602,RP015603

>ms2
73.064400 90.000000
79.054200 100.000000
89.059300 40.000000
107.049000 8500.000000
108.052200 756.000000
153.055100 196.000000

>ms2
77.038400 260.000000
79.054100 582.000000
105.042900 84.000000
107.048800 7100.000000
129.044700 40.000000

>ms2
53.038200 92.000000
65.038300 46.000000
68.996500 64.000000
69.034000 58.000000
77.038200 2680.000000
78.042700 118.000000
79.054100 1522.000000
80.050100 56.000000
80.057700 68.000000
81.032700 206.000000
89.038100 74.000000
95.048600 1748.000000
105.045800 348.000000
107.049300 1060.000000

>ms2
65.023500 56.000000
73.064500 42.000000
95.049200 42.000000
107.048800 10824.000000
135.043400 54.000000
153.054200 96.000000

>ms2
69.044700 38.000000
76.997600 48.000000
78.042000 58.000000
90.046300 54.000000
95.049200 354.000000
107.048800 12886.000000

>ms2
68.025100 46.000000
80.057900 194.000000
81.033500 222.000000
95.049000 2574.000000
96.052300 182.000000
105.044400 1078.000000
107.048700 1360.000000

