>compound RP61338708
>parentmass 465.10279999999995
>ionization [M+H]+
>formula C21H20O12
>rt 182.040000
>profile qtof
#smiles_iso C1=CC(=C(C=C1C2=C(C(=O)C3=C(C=C(C=C3O2)O)O)O[C@H]4[C@@H]([C@H]([C@@H]([C@H](O4)CO)O)O)O)O)O
#smiles_can C1=CC(=C(C=C1C2=C(C(=O)C3=C(C=C(C=C3O2)O)O)OC4C(C(C(C(O4)CO)O)O)O)O)O
#inchikey OVSQVDMCBVZWGM-QSOFNFLRSA-N
#pubchem_id 5280804
#mb_accession RP017101,RP017102,RP017103

>ms2
261.091500 176.000000
268.063100 252.000000
291.986400 188.000000
301.034000 4598.000000
302.039300 420.000000
303.049500 169034.000000
304.053000 29328.000000
305.054400 3160.000000
465.102800 71244.000000
467.108100 2498.000000

>ms2
85.027900 7220.000000
87.043400 552.000000
91.038200 710.000000
97.028100 1620.000000
99.043400 262.000000
127.038200 316.000000
145.049200 472.000000
301.033900 3950.000000
302.037900 536.000000
303.049400 193282.000000
304.053100 38516.000000
305.055600 3892.000000
465.100900 230.000000

>ms2
81.033000 1990.000000
83.013400 202.000000
85.027800 16110.000000
87.043400 630.000000
91.038700 834.000000
97.027900 2974.000000
99.043900 674.000000
109.028600 694.000000
127.039200 214.000000
153.017000 400.000000
165.017500 668.000000
190.953400 158.000000
201.054200 336.000000
205.029200 154.000000
217.050000 268.000000
229.048700 1300.000000
230.098500 166.000000
245.045000 670.000000
247.059300 250.000000
257.044400 1526.000000
258.051600 184.000000
273.038500 770.000000
274.045300 406.000000
275.054000 154.000000
285.039300 740.000000
286.042900 150.000000
301.036000 1132.000000
302.038200 270.000000
303.049800 141326.000000
304.053100 27578.000000
305.056200 2390.000000
306.055500 410.000000

