>compound RP62496326
>parentmass 413.1415
>ionization [M+H]+
>formula C15H20N6O8
>rt 146.460000
>profile qtof
#smiles_iso C[C@H]([C@@H](C(=O)O)NC(=O)NC1=C2C(=NC=N1)N(C=N2)[C@H]3[C@@H]([C@@H]([C@H](O3)CO)O)O)O
#smiles_can CC(C(C(=O)O)NC(=O)NC1=C2C(=NC=N1)N(C=N2)C3C(C(C(O3)CO)O)O)O
#inchikey UNUYMBPXEFMLNW-DWVDDHQFSA-N
#pubchem_id 161466
#mb_accession RP030801,RP030802,RP030803

>ms2
120.065600 322.000000
136.061900 552.000000
162.040500 3316.000000
268.103600 1908.000000
281.098900 302762.000000
282.101700 34282.000000
283.103800 1970.000000
294.083200 1400.000000
413.141500 247062.000000
415.146300 5310.000000

>ms2
74.059600 1002.000000
120.065500 12088.000000
136.061700 10536.000000
162.040400 51752.000000
163.043700 1474.000000
263.090700 432.000000
268.103700 11892.000000
269.107300 1040.000000
281.098700 350192.000000
282.101700 50306.000000
283.103600 3036.000000
294.082700 2342.000000
413.140600 3748.000000

>ms2
55.016800 212.000000
57.031600 998.000000
59.047600 160.000000
61.026700 372.000000
69.032000 540.000000
71.012100 344.000000
73.027700 412.000000
74.059100 10396.000000
84.043300 292.000000
85.027600 772.000000
87.043700 166.000000
97.028500 168.000000
102.054600 2468.000000
115.038300 250.000000
119.034700 672.000000
120.065300 5224.000000
121.006300 142.000000
136.061800 53408.000000
137.045600 230.000000
137.064800 2516.000000
140.998400 112.000000
145.084300 112.000000
147.146800 128.000000
162.040300 111580.000000
163.043300 6448.000000
164.047100 262.000000
235.093300 302.000000
263.088000 376.000000
281.098900 11676.000000
282.102000 1256.000000
283.107300 136.000000

