>compound RP63922373
>parentmass 516.299
>ionization [M+H]+
>formula C26H45NO7S
>rt 219.540000
>profile qtof
#smiles_iso CC(CCC(=O)NCCS(=O)(=O)O)C1CCC2C1(CCC3C2C(C(C4C3(CCC(C4)O)C)O)O)C
#smiles_can CC(CCC(=O)NCCS(=O)(=O)O)C1CCC2C1(CCC3C2C(C(C4C3(CCC(C4)O)C)O)O)C
#inchikey XSOLDPYUICCHJX-UHFFFAOYSA-N
#pubchem_id 13955653
#mb_accession RP006701,RP006702,RP006703,RP006901,RP006902,RP006903

>ms2peaks
162.349700 98.000000
186.013700 90.000000
214.161700 94.000000
229.955700 92.000000
237.062300 88.000000
238.153100 86.000000
240.100400 84.000000
240.233700 98.000000
243.295600 120.000000
246.244600 116.000000
264.217400 110.000000
275.026700 106.000000
277.003200 118.000000
279.352000 100.000000
283.104900 134.000000
283.981900 92.000000
285.336100 144.000000
291.099600 92.000000
293.078200 86.000000
304.183000 98.000000
305.314600 98.000000
309.079400 150.000000
311.153600 110.000000
321.056500 168.000000
332.071100 102.000000
333.230800 94.000000
336.141600 92.000000
337.257000 122.000000
339.956400 86.000000
349.130600 88.000000
355.259700 202.000000
359.021000 96.000000
366.260400 164.000000
369.229500 88.000000
374.091600 90.000000
374.287100 88.000000
376.106300 86.000000
378.291000 120.000000
389.933400 84.000000
390.352500 94.000000
390.992400 92.000000
396.323700 100.000000
398.189700 90.000000
402.123600 100.000000
408.111300 130.000000
411.055800 122.000000
413.201300 86.000000
418.967200 90.000000
425.306300 92.000000
427.078300 86.000000
427.266200 86.000000
427.954700 96.000000
428.013000 122.000000
441.036900 102.000000
447.163300 88.000000
449.059800 98.000000
450.266400 346.000000
451.057200 110.000000
451.263100 138.000000
452.194200 90.000000
453.217000 108.000000
456.305300 136.000000
462.267100 7088.000000
463.170300 90.000000
463.268800 1438.000000
463.303800 104.000000
464.264700 406.000000
473.134700 86.000000
479.131800 112.000000
479.239600 104.000000
479.253500 144.000000
479.291800 138.000000
479.307900 118.000000
480.277600 83286.000000
481.281100 23440.000000
482.279700 4736.000000
482.958400 92.000000
483.279400 774.000000
484.275100 124.000000
490.032000 104.000000
497.274300 170.000000
497.289100 116.000000
497.325700 144.000000
498.287600 40972.000000
499.290700 12152.000000
500.289900 2040.000000
501.290900 384.000000
501.939200 94.000000
502.286100 88.000000
515.283700 88.000000
516.298500 43486.000000
518.298600 2514.000000
519.298600 446.000000

>ms2peaks
85.065100 204.000000
96.011100 94.000000
98.284900 90.000000
126.021500 2060.000000
134.063600 138.000000
135.963900 98.000000
138.246900 110.000000
158.960800 96.000000
159.116800 192.000000
160.119200 116.000000
161.132400 170.000000
165.128800 110.000000
173.131200 176.000000
175.149200 120.000000
177.112700 140.000000
185.130500 160.000000
191.937200 106.000000
199.146300 220.000000
202.071200 102.000000
206.050200 112.000000
208.061400 224.000000
209.066400 110.000000
217.157500 172.000000
223.146600 174.000000
227.142800 130.000000
232.118800 92.000000
235.328700 118.000000
241.160000 146.000000
246.090000 98.000000
251.973800 106.000000
255.175900 164.000000
265.196500 110.000000
270.292900 94.000000
271.162400 136.000000
274.101600 100.000000
289.121400 108.000000
290.146500 100.000000
295.234100 144.000000
300.130600 214.000000
302.139100 92.000000
303.223700 98.000000
309.220800 134.000000
309.261300 100.000000
310.308400 148.000000
311.176300 100.000000
311.234100 162.000000
314.142400 188.000000
316.163700 152.000000
317.161700 112.000000
319.241300 762.000000
320.247400 304.000000
325.251100 92.000000
336.136000 92.000000
337.252900 5394.000000
338.255400 1094.000000
339.257900 234.000000
340.156400 150.000000
354.174600 98.000000
355.263200 4468.000000
356.266600 890.000000
357.264800 192.000000
363.018800 98.000000
366.170600 112.000000
366.229100 92.000000
373.127300 100.000000
373.272000 552.000000
374.272900 130.000000
375.977900 102.000000
381.998700 104.000000
382.208100 156.000000
383.079900 96.000000
383.299500 100.000000
383.322900 92.000000
392.003300 148.000000
402.199100 92.000000
405.011700 98.000000
406.343600 96.000000
418.246700 92.000000
419.280900 90.000000
444.099300 108.000000
447.109900 94.000000
449.303100 98.000000
450.191100 94.000000
450.267400 1866.000000
451.269400 402.000000
452.089200 102.000000
452.283100 254.000000
455.936700 90.000000
461.280000 126.000000
462.267300 35930.000000
463.270600 9088.000000
464.071500 126.000000
464.267700 1972.000000
465.281400 188.000000
479.199000 114.000000
479.241600 122.000000
479.266100 112.000000
479.314500 144.000000
479.337700 190.000000
480.277600 89768.000000
481.280700 27294.000000
482.279900 5514.000000
483.283400 902.000000
498.289100 7310.000000
499.290500 2202.000000
500.290900 520.000000
516.295300 162.000000

>ms2peaks
47.166700 88.000000
48.044000 42.000000
51.997800 36.000000
52.039000 62.000000
57.055100 50.000000
60.044900 74.000000
61.067700 40.000000
61.145800 70.000000
62.060300 44.000000
62.284000 86.000000
66.055200 48.000000
70.026800 62.000000
71.048100 36.000000
71.085200 40.000000
72.019700 68.000000
73.064900 38.000000
77.271000 44.000000
77.963900 36.000000
78.050200 42.000000
79.054300 144.000000
80.025100 46.000000
81.069800 1194.000000
83.048400 46.000000
83.085000 356.000000
84.044800 44.000000
85.064400 1180.000000
86.189900 82.000000
87.210800 50.000000
88.123900 48.000000
89.010400 80.000000
89.193100 70.000000
91.053800 248.000000
94.073800 60.000000
95.085100 754.000000
96.005100 48.000000
96.089200 116.000000
97.036800 36.000000
97.066900 68.000000
97.101300 68.000000
99.289700 44.000000
100.263900 56.000000
100.316600 52.000000
102.006000 82.000000
102.017900 62.000000
103.003500 66.000000
103.113300 40.000000
103.307500 50.000000
105.069400 440.000000
106.037000 46.000000
106.071900 46.000000
106.326400 38.000000
107.046100 38.000000
107.084600 456.000000
108.011500 506.000000
108.058900 52.000000
108.994400 48.000000
109.018600 106.000000
109.062500 96.000000
109.101100 368.000000
109.197900 38.000000
110.105200 46.000000
111.079800 54.000000
111.232100 38.000000
112.989400 66.000000
114.050200 36.000000
114.164000 72.000000
114.263200 42.000000
115.135100 112.000000
115.270600 102.000000
116.071400 64.000000
116.143600 122.000000
118.327200 76.000000
118.996400 54.000000
119.183000 36.000000
119.278900 50.000000
121.100400 132.000000
122.103400 64.000000
122.193300 36.000000
123.047300 40.000000
123.082900 82.000000
123.117100 100.000000
123.223200 74.000000
125.094800 92.000000
125.235100 36.000000
126.021600 4236.000000
127.027100 60.000000
128.017600 184.000000
128.088000 40.000000
128.980500 52.000000
129.114700 62.000000
129.211600 50.000000
129.977500 48.000000
130.258500 42.000000
131.084900 126.000000
131.225000 44.000000
131.316500 46.000000
133.033700 38.000000
133.066100 38.000000
133.101100 172.000000
133.179200 56.000000
133.216700 58.000000
135.116600 120.000000
136.054000 46.000000
137.087900 56.000000
137.095500 48.000000
137.229000 44.000000
138.013300 62.000000
138.227100 48.000000
138.240100 50.000000
139.064900 50.000000
139.139300 78.000000
139.176400 56.000000
140.054600 68.000000
141.071200 54.000000
141.320200 50.000000
141.982300 38.000000
142.998600 102.000000
143.084500 196.000000
143.122700 56.000000
143.158800 76.000000
143.279000 38.000000
144.090800 46.000000
144.985300 102.000000
145.083800 78.000000
145.100900 372.000000
146.244600 38.000000
147.036100 62.000000
147.082800 64.000000
147.116600 932.000000
147.945500 48.000000
148.024600 50.000000
148.995700 36.000000
149.095800 110.000000
149.132300 416.000000
149.971500 38.000000
149.991200 46.000000
150.132300 42.000000
150.139500 42.000000
150.241100 50.000000
151.103800 106.000000
151.247800 44.000000
152.116500 96.000000
152.211500 98.000000
153.069600 64.000000
153.126300 50.000000
153.314100 64.000000
154.250500 38.000000
154.314000 110.000000
154.992100 38.000000
155.086200 194.000000
155.127300 36.000000
155.212800 44.000000
155.268000 44.000000
157.061500 54.000000
157.101600 428.000000
157.330300 68.000000
158.045200 44.000000
158.193100 40.000000
159.116500 1820.000000
160.031300 36.000000
160.119700 354.000000
160.189800 36.000000
161.096600 112.000000
161.132100 1906.000000
162.134900 162.000000
163.111100 450.000000
163.147200 244.000000
163.202900 42.000000
164.114700 44.000000
164.148700 50.000000
164.301700 38.000000
165.129900 104.000000
165.211700 76.000000
168.023400 36.000000
168.977700 102.000000
169.100100 60.000000
170.106500 100.000000
171.081700 52.000000
171.116900 218.000000
172.120100 46.000000
172.247900 38.000000
173.095700 72.000000
173.132200 1008.000000
174.086200 50.000000
174.096400 36.000000
174.991700 60.000000
175.016500 76.000000
175.112000 694.000000
175.133300 42.000000
175.147600 708.000000
176.065400 40.000000
176.114300 76.000000
176.150200 208.000000
177.128000 644.000000
178.131100 144.000000
178.995800 54.000000
179.143700 128.000000
180.189300 44.000000
180.953500 64.000000
181.102600 68.000000
181.134100 56.000000
182.983600 42.000000
183.117500 184.000000
183.253800 44.000000
184.117000 60.000000
184.126100 40.000000
184.302600 46.000000
185.095900 46.000000
185.133100 836.000000
185.219500 54.000000
186.133400 84.000000
187.085100 36.000000
187.110100 98.000000
187.147100 574.000000
187.244500 54.000000
187.981600 50.000000
188.065900 70.000000
188.258000 90.000000
189.051800 54.000000
189.080100 78.000000
189.127800 586.000000
189.158500 66.000000
189.286800 48.000000
189.989200 78.000000
190.031200 42.000000
190.130800 108.000000
190.232000 40.000000
191.007200 56.000000
191.125600 58.000000
191.142400 398.000000
191.272300 48.000000
192.117700 50.000000
192.145300 52.000000
193.121800 128.000000
194.007100 40.000000
194.161100 88.000000
195.119000 132.000000
195.299100 42.000000
197.132300 368.000000
198.031400 80.000000
198.131600 46.000000
199.147800 1418.000000
200.152500 158.000000
200.948200 58.000000
201.068900 42.000000
201.127300 296.000000
201.164600 320.000000
202.163200 68.000000
202.277500 36.000000
203.142100 240.000000
203.178000 88.000000
204.150700 66.000000
204.185800 70.000000
205.157500 64.000000
205.239700 58.000000
205.951700 58.000000
206.047300 82.000000
206.135700 44.000000
206.221400 54.000000
207.087900 66.000000
208.063600 2084.000000
209.068500 100.000000
209.132000 628.000000
209.313300 86.000000
210.024000 48.000000
210.056800 84.000000
210.064800 86.000000
210.135300 114.000000
211.019400 50.000000
211.148900 488.000000
211.345700 50.000000
212.111000 94.000000
212.153500 48.000000
212.342600 66.000000
212.960900 66.000000
213.076100 66.000000
213.127900 152.000000
213.163800 1220.000000
214.166600 182.000000
215.123900 52.000000
215.141500 166.000000
215.179200 608.000000
216.143700 48.000000
216.186600 84.000000
216.322600 52.000000
217.158200 252.000000
217.301500 40.000000
218.262600 36.000000
219.149600 62.000000
221.133700 92.000000
221.153400 72.000000
222.081900 116.000000
222.132700 44.000000
222.328100 50.000000
223.130000 42.000000
223.146500 736.000000
224.149900 190.000000
225.070200 92.000000
225.165000 470.000000
225.270500 38.000000
225.938500 54.000000
226.168200 100.000000
227.144000 640.000000
227.179800 538.000000
227.322500 64.000000
228.144900 92.000000
228.183100 110.000000
228.966800 72.000000
229.159600 476.000000
229.194800 100.000000
230.162400 122.000000
230.230700 54.000000
231.105200 38.000000
231.124000 58.000000
231.171300 162.000000
232.020800 78.000000
232.182200 58.000000
232.247100 56.000000
233.189200 50.000000
233.290000 64.000000
234.107000 58.000000
234.958200 36.000000
235.014100 44.000000
235.050100 56.000000
235.149800 120.000000
235.236900 94.000000
235.247900 52.000000
235.321000 58.000000
236.047000 42.000000
236.093300 134.000000
236.270000 38.000000
237.162900 250.000000
238.159300 58.000000
238.179500 38.000000
238.991900 36.000000
239.100300 54.000000
239.178700 292.000000
240.186400 174.000000
240.292200 48.000000
240.967100 40.000000
241.159200 598.000000
241.198100 278.000000
242.003200 68.000000
242.164000 172.000000
242.198300 68.000000
243.029000 50.000000
243.175200 294.000000
243.210900 52.000000
243.316900 68.000000
244.185300 46.000000
245.034300 62.000000
245.067000 112.000000
245.153800 124.000000
245.180900 44.000000
245.192000 70.000000
247.965400 38.000000
248.068900 48.000000
248.094000 100.000000
249.162800 180.000000
249.185600 62.000000
249.270200 50.000000
250.094300 62.000000
250.260300 44.000000
251.176500 234.000000
252.028500 48.000000
252.189700 104.000000
252.998900 70.000000
253.023600 38.000000
253.162300 44.000000
253.195600 396.000000
253.213200 64.000000
253.243500 38.000000
254.034800 56.000000
254.200900 124.000000
255.038000 42.000000
255.176700 280.000000
255.210500 114.000000
256.077000 44.000000
256.178900 92.000000
257.188200 78.000000
258.098100 68.000000
258.201300 40.000000
259.085000 56.000000
260.096100 44.000000
261.013400 44.000000
261.188500 38.000000
262.109700 98.000000
262.969800 62.000000
263.178800 360.000000
264.184700 144.000000
264.363100 50.000000
264.944200 36.000000
265.040600 56.000000
265.053900 58.000000
265.187100 114.000000
266.202900 80.000000
266.226600 72.000000
266.991400 56.000000
267.176000 44.000000
267.211000 172.000000
268.177000 40.000000
268.215900 56.000000
268.977400 94.000000
269.190800 176.000000
269.286500 36.000000
270.177200 58.000000
270.196600 110.000000
271.205800 114.000000
272.210100 36.000000
273.026800 110.000000
273.145000 80.000000
274.111000 54.000000
274.122900 36.000000
274.135100 62.000000
274.960000 62.000000
275.173700 50.000000
276.125800 88.000000
277.127400 42.000000
277.196800 258.000000
277.287000 74.000000
278.044800 38.000000
278.197800 188.000000
279.211100 92.000000
279.249000 110.000000
280.994900 38.000000
281.099000 72.000000
281.190900 296.000000
281.226400 116.000000
282.195700 52.000000
282.227900 96.000000
283.204300 110.000000
283.240100 92.000000
285.264400 38.000000
286.036200 74.000000
286.114900 52.000000
287.237800 42.000000
288.113200 78.000000
288.125000 388.000000
289.171900 38.000000
290.125800 40.000000
290.161700 40.000000
291.210500 200.000000
292.175600 64.000000
293.191200 58.000000
293.228300 188.000000
294.229600 110.000000
295.205900 284.000000
295.240300 548.000000
295.952100 38.000000
296.209100 60.000000
296.247400 102.000000
296.264200 48.000000
297.215000 90.000000
298.049700 44.000000
299.210400 100.000000
299.323500 40.000000
300.126600 362.000000
300.360700 38.000000
301.128000 80.000000
301.157600 40.000000
302.142900 110.000000
303.210300 62.000000
304.136500 100.000000
304.189200 70.000000
304.970600 66.000000
304.983700 40.000000
305.329600 102.000000
307.243700 200.000000
308.210700 56.000000
309.218900 90.000000
309.258500 1120.000000
309.294300 66.000000
310.023600 98.000000
310.228900 36.000000
310.259500 184.000000
311.234000 142.000000
311.271500 50.000000
311.958900 78.000000
313.256000 56.000000
314.143300 560.000000
315.121200 96.000000
315.960900 62.000000
316.038600 64.000000
316.157000 114.000000
316.166400 106.000000
319.202200 228.000000
319.243300 3480.000000
320.131600 84.000000
320.245400 948.000000
320.272600 108.000000
320.295300 48.000000
321.248900 72.000000
325.253800 286.000000
325.299700 42.000000
326.146800 52.000000
326.258300 80.000000
327.270400 286.000000
327.305700 94.000000
328.159000 110.000000
328.276200 88.000000
329.172200 48.000000
332.154300 62.000000
333.340400 36.000000
334.056500 50.000000
334.310200 100.000000
337.253100 6998.000000
338.255200 1892.000000
339.040200 46.000000
339.259100 220.000000
339.956600 44.000000
340.154200 72.000000
342.179700 120.000000
345.078100 96.000000
354.171600 82.000000
355.262800 3438.000000
356.195100 60.000000
356.266400 904.000000
357.275200 46.000000
357.282600 68.000000
358.152400 36.000000
358.213600 50.000000
366.175500 62.000000
368.189600 44.000000
370.203500 38.000000
372.178100 40.000000
373.276500 176.000000
383.204200 42.000000
387.083500 44.000000
401.209300 50.000000
406.209700 52.000000
408.152700 50.000000
409.139100 56.000000
419.958900 36.000000
420.223200 104.000000
421.050200 42.000000
427.078900 40.000000
431.990700 54.000000
432.004600 36.000000
432.255600 52.000000
436.253900 54.000000
438.271700 50.000000
444.254700 72.000000
445.262700 46.000000
447.930000 62.000000
450.265900 232.000000
452.281600 44.000000
462.268000 1882.000000
463.142600 36.000000
463.271700 378.000000
464.268000 186.000000
480.278000 226.000000
481.291700 68.000000

>ms2peaks
196.061400 60.000000
230.091000 70.000000
245.055100 56.000000
247.005200 54.000000
260.126700 66.000000
263.007000 58.000000
266.228600 68.000000
285.059800 54.000000
287.934300 56.000000
291.943700 58.000000
294.019600 74.000000
295.242000 72.000000
297.204700 62.000000
297.354000 70.000000
297.972200 56.000000
301.182700 58.000000
301.979700 56.000000
304.322400 58.000000
306.062000 104.000000
309.021900 56.000000
309.051900 64.000000
309.987100 58.000000
324.211100 60.000000
324.308700 60.000000
331.040300 54.000000
332.150000 78.000000
332.176500 70.000000
336.256400 64.000000
344.153000 58.000000
346.036800 78.000000
348.155800 74.000000
349.024300 96.000000
351.979700 106.000000
355.255300 88.000000
358.212600 88.000000
361.300100 90.000000
362.226100 68.000000
363.070300 80.000000
363.219600 76.000000
366.103300 60.000000
367.347400 76.000000
369.186800 58.000000
369.993600 108.000000
374.322600 60.000000
377.934200 72.000000
377.954200 60.000000
378.282300 70.000000
381.047300 66.000000
383.235300 54.000000
384.222600 62.000000
384.990700 56.000000
386.079000 66.000000
386.981600 98.000000
387.255900 78.000000
388.135800 68.000000
388.255700 56.000000
390.005900 84.000000
390.267900 118.000000
395.102200 74.000000
396.240100 54.000000
396.313500 68.000000
399.097500 104.000000
399.268300 74.000000
399.319500 60.000000
401.947800 60.000000
404.280300 76.000000
405.214800 58.000000
405.948900 102.000000
406.011900 86.000000
406.195100 76.000000
406.342200 84.000000
407.934700 116.000000
409.228000 62.000000
413.137700 66.000000
413.158900 66.000000
414.336200 58.000000
415.082400 76.000000
415.198300 60.000000
416.188100 70.000000
416.265600 60.000000
417.016200 68.000000
424.162900 54.000000
425.241600 64.000000
426.056000 54.000000
432.228100 54.000000
435.294900 70.000000
436.984300 64.000000
438.157200 56.000000
440.341100 58.000000
442.142800 70.000000
443.295700 110.000000
447.316700 60.000000
449.067400 60.000000
453.048600 82.000000
454.024300 56.000000
455.186100 68.000000
456.170800 70.000000
456.284000 54.000000
457.103300 72.000000
458.139700 58.000000
459.039600 76.000000
459.979100 104.000000
462.268200 1134.000000
463.264800 154.000000
463.279000 112.000000
464.267100 120.000000
465.202100 54.000000
467.980700 70.000000
476.052100 78.000000
476.215000 84.000000
477.175200 80.000000
479.017600 86.000000
479.335900 64.000000
480.278100 10318.000000
481.282500 2156.000000
482.035400 92.000000
482.189700 66.000000
482.282000 448.000000
483.281400 78.000000
494.112500 54.000000
496.274000 68.000000
497.218500 54.000000
497.248800 82.000000
497.284200 58.000000
497.327000 120.000000
498.288400 25842.000000
499.292100 6130.000000
500.292200 1750.000000
501.286900 244.000000
502.296400 78.000000
507.171400 58.000000
515.289200 82.000000
516.299200 52294.000000
518.301300 2816.000000
519.299800 518.000000
520.992400 60.000000

>ms2peaks
110.055600 60.000000
125.139300 68.000000
126.021800 506.000000
128.023000 64.000000
128.071800 54.000000
139.076700 70.000000
149.132000 56.000000
157.101800 66.000000
168.152500 56.000000
168.332500 68.000000
169.100200 56.000000
171.957800 70.000000
173.133700 62.000000
182.969200 62.000000
183.277700 68.000000
195.114300 66.000000
199.150100 66.000000
201.097300 58.000000
203.154200 66.000000
204.084800 66.000000
208.067000 196.000000
209.213600 76.000000
211.157000 56.000000
212.054500 56.000000
212.942700 54.000000
215.179900 56.000000
216.121200 66.000000
219.115500 106.000000
224.061500 66.000000
227.179500 54.000000
230.947900 76.000000
236.005300 64.000000
236.262400 60.000000
238.175100 68.000000
242.203200 82.000000
244.093600 54.000000
249.043700 66.000000
254.062100 56.000000
254.220500 88.000000
260.110900 58.000000
260.948700 54.000000
260.956300 66.000000
262.269300 68.000000
268.177900 78.000000
268.214100 66.000000
273.143600 82.000000
274.062500 74.000000
274.972400 60.000000
277.948500 94.000000
278.162800 60.000000
281.980700 54.000000
286.305700 84.000000
287.164000 56.000000
288.124700 76.000000
289.149400 56.000000
291.077000 68.000000
292.136600 64.000000
293.140400 76.000000
297.259300 64.000000
300.997800 66.000000
302.144500 54.000000
304.076500 56.000000
304.307700 58.000000
305.234200 74.000000
307.188800 68.000000
308.352200 80.000000
309.261000 80.000000
311.110600 60.000000
314.138500 74.000000
314.959900 92.000000
316.159200 92.000000
316.330200 64.000000
319.247700 178.000000
323.310100 66.000000
326.034800 78.000000
326.312500 94.000000
327.170000 56.000000
327.269300 76.000000
329.238600 64.000000
330.155500 70.000000
332.162600 70.000000
333.048000 68.000000
337.252900 1920.000000
337.999900 64.000000
338.180800 64.000000
338.256700 254.000000
339.265800 72.000000
339.948300 76.000000
340.073700 54.000000
344.974300 62.000000
345.080500 58.000000
346.223300 68.000000
347.219600 86.000000
350.327200 82.000000
352.156700 150.000000
355.263100 2194.000000
356.123600 70.000000
356.268500 294.000000
357.122300 80.000000
357.276500 108.000000
358.209900 96.000000
365.069200 86.000000
365.308500 54.000000
366.240700 66.000000
367.337700 66.000000
370.036700 56.000000
372.962400 64.000000
373.270800 64.000000
374.308200 62.000000
374.950000 74.000000
378.940500 60.000000
380.116300 102.000000
380.336200 58.000000
381.949000 82.000000
382.199500 132.000000
383.052200 54.000000
383.196800 76.000000
389.035900 64.000000
391.131000 56.000000
393.259600 62.000000
395.120700 64.000000
399.023100 58.000000
399.048500 74.000000
401.090000 58.000000
402.243200 100.000000
402.988500 70.000000
404.979800 80.000000
407.085900 72.000000
408.969800 76.000000
418.262200 62.000000
428.147500 60.000000
432.318700 70.000000
433.013100 78.000000
436.961000 72.000000
437.052800 82.000000
438.232000 60.000000
439.091000 58.000000
444.280800 58.000000
450.268100 216.000000
451.271000 68.000000
452.301500 64.000000
452.352000 72.000000
453.032400 58.000000
453.289100 58.000000
455.242200 68.000000
457.953400 76.000000
459.116300 62.000000
461.076900 82.000000
461.173500 56.000000
461.325600 64.000000
462.267600 13498.000000
463.270100 3958.000000
463.962800 88.000000
464.087700 72.000000
464.270400 848.000000
465.261700 78.000000
465.280900 144.000000
466.047000 58.000000
471.079300 54.000000
473.161900 60.000000
473.278500 54.000000
475.257700 64.000000
479.019700 68.000000
479.196100 88.000000
479.227100 136.000000
479.244500 92.000000
479.276100 66.000000
479.304500 108.000000
479.331200 124.000000
480.277700 53810.000000
481.281700 13384.000000
482.280500 2896.000000
483.072400 60.000000
483.109900 62.000000
483.286900 276.000000
484.288200 96.000000
495.094000 60.000000
497.266100 66.000000
497.301900 62.000000
498.288600 8970.000000
499.291500 2630.000000
500.290600 522.000000
501.133700 54.000000
501.273500 62.000000
501.290900 142.000000
516.299700 1168.000000

>ms2peaks
60.044500 58.000000
70.252400 70.000000
77.123400 38.000000
81.069600 398.000000
82.062600 108.000000
82.144500 46.000000
82.310800 72.000000
83.085500 86.000000
85.064500 432.000000
91.059500 52.000000
95.085300 302.000000
96.105000 56.000000
99.045000 38.000000
99.078900 86.000000
99.211300 56.000000
105.068900 212.000000
108.010300 234.000000
108.302400 66.000000
109.036300 50.000000
109.064200 36.000000
110.105100 94.000000
113.283600 50.000000
116.184500 42.000000
117.211600 92.000000
119.086600 62.000000
119.181600 54.000000
119.188900 54.000000
120.171200 36.000000
120.212900 36.000000
121.253100 46.000000
123.118000 70.000000
124.097300 42.000000
125.269000 36.000000
125.323100 46.000000
126.021100 2652.000000
127.015700 66.000000
127.197400 64.000000
128.018200 134.000000
128.291100 36.000000
129.248800 38.000000
129.287500 64.000000
131.143700 62.000000
131.228000 62.000000
133.077100 40.000000
133.090700 50.000000
133.311100 74.000000
134.014300 42.000000
134.073100 62.000000
135.116400 104.000000
135.173600 50.000000
135.958400 74.000000
139.041600 42.000000
139.113400 38.000000
140.294100 36.000000
140.959600 50.000000
142.007000 64.000000
143.043500 68.000000
143.083700 94.000000
143.146200 46.000000
144.306000 68.000000
145.055200 60.000000
145.100200 192.000000
146.000700 36.000000
146.100400 50.000000
147.105700 46.000000
147.117500 312.000000
147.150100 82.000000
147.269500 36.000000
147.311500 36.000000
148.120300 78.000000
148.357400 56.000000
149.132100 174.000000
149.233100 52.000000
150.210700 52.000000
150.234300 52.000000
150.298100 38.000000
151.010900 42.000000
151.304900 98.000000
153.185800 44.000000
154.036700 58.000000
154.070300 62.000000
154.131500 36.000000
154.143600 38.000000
155.244800 94.000000
156.997100 98.000000
157.101100 286.000000
157.246900 46.000000
157.331300 36.000000
158.101800 58.000000
158.198200 50.000000
159.116200 1584.000000
160.066200 50.000000
160.118800 116.000000
160.152500 82.000000
160.317900 40.000000
161.094100 48.000000
161.132600 874.000000
161.341000 52.000000
162.136100 240.000000
162.151400 36.000000
163.110100 312.000000
163.150100 96.000000
163.204700 62.000000
163.344700 48.000000
164.038500 74.000000
164.114400 48.000000
164.308100 84.000000
165.127200 50.000000
165.182500 40.000000
169.100900 96.000000
170.104300 40.000000
171.116800 204.000000
171.165300 60.000000
171.281500 52.000000
172.157100 36.000000
173.132300 590.000000
173.203400 116.000000
174.135800 130.000000
174.219100 38.000000
174.267400 58.000000
175.111700 238.000000
175.147400 456.000000
176.115300 50.000000
177.095200 38.000000
177.125000 194.000000
177.166300 70.000000
177.978600 36.000000
180.038200 70.000000
181.938900 50.000000
182.232600 56.000000
182.970700 90.000000
183.118700 166.000000
183.157600 38.000000
184.084900 78.000000
185.067700 46.000000
185.096700 118.000000
185.132000 806.000000
186.093600 36.000000
186.134900 118.000000
186.209500 36.000000
186.304700 62.000000
187.149000 294.000000
188.122700 44.000000
188.151300 120.000000
189.105300 40.000000
189.127600 278.000000
189.163100 104.000000
189.173000 48.000000
190.163000 46.000000
191.144400 258.000000
193.125800 42.000000
194.255600 36.000000
195.105600 42.000000
195.184300 36.000000
197.095600 40.000000
197.133000 158.000000
199.147000 1062.000000
200.119000 46.000000
200.151400 218.000000
201.126800 74.000000
201.163400 128.000000
202.074200 56.000000
203.016700 46.000000
203.146100 174.000000
204.182000 88.000000
204.207200 40.000000
205.119500 42.000000
205.162600 88.000000
206.051200 56.000000
206.131300 40.000000
207.130900 42.000000
208.062700 1100.000000
208.970900 76.000000
209.068500 174.000000
209.132700 448.000000
209.151200 60.000000
209.935400 94.000000
210.133600 136.000000
211.115800 50.000000
211.148200 522.000000
212.151000 68.000000
212.329600 74.000000
213.048900 62.000000
213.065100 40.000000
213.127900 268.000000
213.162600 664.000000
213.263200 94.000000
213.334300 98.000000
214.078400 56.000000
214.170800 96.000000
215.067500 50.000000
215.144400 226.000000
215.177800 178.000000
215.307400 40.000000
216.037700 48.000000
216.182400 128.000000
217.158500 268.000000
218.051000 42.000000
218.086100 48.000000
218.174500 50.000000
218.236900 50.000000
219.080900 50.000000
220.063800 38.000000
221.132000 72.000000
222.081900 36.000000
222.141600 40.000000
223.149400 246.000000
223.267800 38.000000
224.158900 66.000000
225.165800 158.000000
225.179700 42.000000
225.284500 42.000000
226.165300 90.000000
227.085500 38.000000
227.107700 36.000000
227.141800 668.000000
227.179000 364.000000
228.131400 80.000000
228.146300 108.000000
228.184700 162.000000
229.154500 82.000000
229.169400 64.000000
229.193400 48.000000
230.163200 100.000000
230.192100 56.000000
231.063000 36.000000
231.171700 58.000000
231.226400 36.000000
233.188700 50.000000
234.076800 62.000000
234.191200 46.000000
235.154100 46.000000
236.280200 82.000000
236.983900 36.000000
237.163200 248.000000
238.161700 70.000000
239.050000 40.000000
239.136200 74.000000
239.179000 148.000000
240.098100 66.000000
240.180200 96.000000
241.101200 80.000000
241.160100 332.000000
241.194200 172.000000
242.161200 76.000000
242.174300 52.000000
242.199200 52.000000
243.018900 40.000000
243.174600 88.000000
243.317700 36.000000
244.177800 38.000000
245.190900 52.000000
246.076800 68.000000
246.119400 58.000000
248.043800 58.000000
248.296700 46.000000
249.115900 72.000000
249.163100 82.000000
250.975000 90.000000
251.179300 104.000000
251.953000 38.000000
252.188400 188.000000
253.006700 92.000000
253.158800 54.000000
253.195200 312.000000
254.034600 58.000000
254.041100 60.000000
254.202600 102.000000
255.104200 48.000000
255.178300 136.000000
255.203900 52.000000
255.932500 46.000000
256.128200 40.000000
256.178900 42.000000
257.194000 60.000000
260.094400 56.000000
261.962100 48.000000
262.017400 44.000000
262.112800 116.000000
263.180000 104.000000
263.194400 40.000000
263.980500 44.000000
263.992800 38.000000
264.182500 100.000000
264.271400 48.000000
265.196600 54.000000
265.305400 36.000000
266.273800 62.000000
267.086800 38.000000
267.171600 70.000000
267.213700 54.000000
269.083300 38.000000
269.192600 336.000000
270.181600 36.000000
270.199700 64.000000
271.207700 48.000000
272.967100 76.000000
274.110900 102.000000
277.192600 68.000000
278.140600 50.000000
279.215400 50.000000
280.218600 50.000000
281.084800 116.000000
281.189100 48.000000
282.242100 36.000000
284.972200 38.000000
285.241900 42.000000
286.105000 50.000000
288.113500 38.000000
288.125600 244.000000
289.139300 40.000000
289.258400 68.000000
290.343900 50.000000
291.062600 38.000000
291.207400 100.000000
292.119800 132.000000
292.208200 46.000000
293.226100 116.000000
295.144000 42.000000
295.206300 100.000000
295.241700 266.000000
295.975900 50.000000
296.244200 48.000000
296.311000 52.000000
298.105000 44.000000
299.967500 78.000000
300.126000 152.000000
302.139100 130.000000
303.146700 72.000000
304.246200 72.000000
305.163500 52.000000
305.175600 50.000000
306.151000 42.000000
307.240900 66.000000
308.249100 46.000000
308.271000 64.000000
309.217700 44.000000
309.231200 54.000000
309.259000 646.000000
309.301200 48.000000
311.266300 44.000000
313.256100 66.000000
314.140600 198.000000
315.147900 120.000000
316.157600 70.000000
318.159800 60.000000
318.252300 48.000000
318.277000 58.000000
319.242400 2344.000000
320.243900 434.000000
320.944000 50.000000
321.252100 126.000000
324.064800 66.000000
325.101200 44.000000
325.249900 88.000000
326.138500 82.000000
326.242000 42.000000
326.257600 110.000000
327.239200 40.000000
327.267400 180.000000
328.161000 64.000000
331.941700 72.000000
333.939500 48.000000
337.252900 5114.000000
338.254200 1388.000000
339.062100 42.000000
339.257500 90.000000
339.330900 54.000000
340.155100 138.000000
342.175300 42.000000
342.941000 70.000000
343.208300 46.000000
351.257900 50.000000
351.292500 42.000000
354.173600 120.000000
354.351600 72.000000
355.263100 4600.000000
356.111000 58.000000
356.207100 60.000000
356.266100 1086.000000
357.197400 38.000000
357.272500 130.000000
363.121700 50.000000
366.174300 72.000000
368.194600 94.000000
369.124500 36.000000
370.184500 40.000000
373.271600 112.000000
374.270900 58.000000
379.316400 62.000000
380.194800 82.000000
382.204400 82.000000
383.204700 48.000000
389.947600 42.000000
396.113000 50.000000
396.223900 62.000000
410.989700 50.000000
421.225500 52.000000
435.239500 56.000000
450.270000 66.000000
450.304600 38.000000
451.269800 96.000000
452.287800 36.000000
460.210800 50.000000
461.136600 52.000000
462.268900 1346.000000
463.269500 356.000000
463.313800 46.000000
464.260600 142.000000
480.074700 36.000000
480.279400 312.000000
481.277300 174.000000
482.279900 126.000000
559.290900 66.000000

