>compound RP63013771
>parentmass 524.3711
>ionization [M+H]+
>formula C26H54NO7P
>rt 395.100000
>profile qtof
#smiles_iso CCCCCCCCCCCCCCCCCC(=O)OC[C@H](COP(=O)([O-])OCC[N+](C)(C)C)O
#smiles_can CCCCCCCCCCCCCCCCCC(=O)OCC(COP(=O)([O-])OCC[N+](C)(C)C)O
#inchikey IHNKQIMGVNPMTC-RUZDIDTESA-N
#pubchem_id 497299
#mb_accession RP025801,RP025802,RP025803

>ms2
104.106200 4408.000000
184.072800 1012.000000
506.362600 3344.000000
523.299900 1240.000000
523.334700 1460.000000
523.353700 1512.000000
524.370900 791688.000000
526.377500 42606.000000

>ms2
86.095900 1564.000000
104.106500 131538.000000
184.072800 52996.000000
185.077100 866.000000
258.110400 852.000000
506.360700 47838.000000
507.364200 11412.000000
508.368600 1338.000000
523.257400 690.000000
523.287600 938.000000
523.313900 1246.000000
523.337300 1428.000000
523.360900 1068.000000
524.370900 648910.000000
526.377800 35442.000000

>ms2
69.069400 628.000000
71.084800 4696.000000
81.069600 1250.000000
83.085000 1014.000000
85.100700 2420.000000
86.095800 107374.000000
95.085200 1466.000000
97.101200 994.000000
98.983700 576.000000
99.117300 524.000000
104.106700 276324.000000
106.112600 424.000000
109.099800 694.000000
124.999600 7950.000000
163.014500 786.000000
166.062300 2032.000000
181.024600 598.000000
184.072700 284486.000000
185.076100 14360.000000
186.077900 1834.000000
199.036800 360.000000
240.100000 388.000000
258.110200 3812.000000
259.110100 320.000000
341.305100 16240.000000
342.308700 2568.000000
343.308600 304.000000
447.287300 2348.000000
448.290000 644.000000
506.360200 11810.000000
507.362900 3270.000000
508.367700 532.000000
524.370900 2576.000000

