>compound RP65731444
>parentmass 146.1652
>ionization [M+H]+
>formula C7H19N3
>rt 35.280000
>profile qtof
#smiles_iso C(CCNCCCN)CN
#smiles_can C(CCNCCCN)CN
#inchikey ATHGHQPFGPMSJY-UHFFFAOYSA-N
#pubchem_id 1102
#mb_accession RP022001,RP022002,RP022003

>ms2
89.106500 784.000000
112.111900 109854.000000
127.122700 466.000000
128.107100 280.000000
129.138700 129692.000000
146.165200 265240.000000

>ms2
72.080500 1452030.000000
112.111900 165668.000000
129.138500 9272.000000
146.165100 1774.000000

>ms2
82.064600 1046.000000
84.080000 137254.000000
96.081000 194.000000
112.111800 696.000000

