>compound RP66209442
>parentmass 205.09720000000002
>ionization [M+H]+
>formula C11H12N2O2
>rt 142.140000
>profile qtof
#smiles_iso C1=CC=C2C(=C1)C(=CN2)C[C@@H](C(=O)O)N
#smiles_can C1=CC=C2C(=C1)C(=CN2)CC(C(=O)O)N
#inchikey QIVBCDIJIAJPQS-VIFPVBQESA-N
#pubchem_id 6305
#mb_accession RP000501,RP000502,RP000503

>ms2
74.023300 646.000000
132.080700 980.000000
144.080500 2114.000000
146.059800 20052.000000
147.063500 1248.000000
159.090900 7628.000000
170.059700 2036.000000
188.069900 494048.000000
205.096500 75708.000000

>ms2
74.023200 10186.000000
77.038100 142.000000
86.002700 142.000000
91.053900 750.000000
98.068400 138.000000
115.054500 490.000000
116.036000 126.000000
117.056900 446.000000
117.069600 1428.000000
118.065000 21784.000000
119.068100 1744.000000
130.065500 1468.000000
131.070300 276.000000
132.080200 6368.000000
133.085200 496.000000
142.064100 2160.000000
143.072500 3014.000000
144.080400 21928.000000
145.084200 2106.000000
146.059600 118798.000000
147.063000 11254.000000
159.091200 14266.000000
160.075000 1478.000000
160.094700 1600.000000
170.059600 16504.000000
171.062500 1446.000000
188.070000 109762.000000

>ms2
53.001900 324.000000
53.038300 184.000000
63.022500 138.000000
65.038100 3770.000000
66.033600 500.000000
67.041800 800.000000
74.023300 7214.000000
77.038400 3238.000000
78.041700 330.000000
79.053900 830.000000
80.050000 112.000000
82.050600 130.000000
89.038100 1274.000000
90.046200 2668.000000
91.053900 104338.000000
92.057500 6896.000000
93.057100 776.000000
95.049300 894.000000
101.038300 148.000000
102.045800 144.000000
103.054300 3344.000000
104.049500 592.000000
105.044200 326.000000
105.069700 2464.000000
109.063500 258.000000
115.054300 38558.000000
116.060900 4504.000000
117.057200 24168.000000
117.068700 7100.000000
118.065100 86670.000000
119.068400 7706.000000
127.053500 552.000000
128.049500 624.000000
128.061900 318.000000
129.056200 148.000000
130.065100 6838.000000
131.069200 840.000000
132.080600 5558.000000
133.084500 382.000000
134.059500 290.000000
140.050000 466.000000
141.057300 350.000000
142.064900 6008.000000
143.072500 15398.000000
144.079100 4794.000000
145.065000 742.000000
146.060400 2802.000000
147.063200 206.000000
155.060400 898.000000
157.075900 162.000000
158.081700 166.000000
159.092100 814.000000
160.075500 250.000000
170.060000 1840.000000

