>compound RP66869469
>parentmass 279.2319
>ionization [M+H]+
>formula C18H30O2
>rt 399.480000
>profile qtof
#smiles_iso CC/C=C\C/C=C\C/C=C\CCCCCCCC(=O)O
#smiles_can CCC=CCC=CCC=CCCCCCCCC(=O)O
#inchikey DTOSIQBPPRVQHS-PDBXOOCHSA-N
#pubchem_id 5280934
#mb_accession RP030401,RP030402,RP030403

>ms2
46.229100 50.000000
60.187600 44.000000
65.038900 74.000000
67.205600 40.000000
69.070100 50.000000
74.167200 56.000000
81.069400 716.000000
83.085200 152.000000
88.112300 74.000000
95.085400 724.000000
97.101300 166.000000
103.063600 46.000000
103.148100 76.000000
105.221000 38.000000
109.028600 38.000000
109.100900 638.000000
110.104500 62.000000
111.116700 150.000000
111.174600 46.000000
118.051400 74.000000
123.115800 320.000000
125.129500 90.000000
129.009000 44.000000
131.081900 52.000000
135.115900 48.000000
136.004000 42.000000
137.092200 68.000000
137.129800 140.000000
140.095800 88.000000
141.032300 46.000000
141.152100 40.000000
146.153700 66.000000
147.111800 60.000000
149.046400 56.000000
150.032500 52.000000
150.103300 42.000000
151.087400 52.000000
151.111500 60.000000
151.147300 228.000000
152.116300 42.000000
156.043400 66.000000
161.025400 102.000000
161.105200 36.000000
161.116100 88.000000
161.133600 52.000000
162.135300 88.000000
163.109100 82.000000
163.145700 40.000000
165.127100 224.000000
165.162300 80.000000
166.051000 72.000000
166.061300 60.000000
166.131900 44.000000
167.001300 72.000000
168.053300 40.000000
169.087600 42.000000
169.121600 116.000000
173.022700 114.000000
173.131000 116.000000
174.137500 40.000000
177.126400 162.000000
177.161400 108.000000
179.142000 206.000000
180.126300 42.000000
181.051000 50.000000
181.120600 202.000000
182.191500 40.000000
183.136800 198.000000
184.100000 50.000000
184.145400 100.000000
185.092200 68.000000
185.133800 48.000000
187.147000 80.000000
188.127100 38.000000
188.212600 68.000000
191.142900 58.000000
191.178500 42.000000
195.139000 182.000000
197.152800 90.000000
198.173800 54.000000
201.164400 136.000000
204.992100 58.000000
205.085100 102.000000
205.159000 170.000000
206.142000 62.000000
209.152700 382.000000
211.156300 56.000000
212.071400 52.000000
213.139500 40.000000
219.009100 74.000000
219.022300 54.000000
219.091400 54.000000
219.171100 54.000000
219.207200 44.000000
219.245100 52.000000
220.177600 42.000000
222.174000 52.000000
223.167900 366.000000
224.014500 178.000000
224.026400 44.000000
224.070500 62.000000
226.048500 72.000000
226.156800 44.000000
228.090700 42.000000
231.119100 78.000000
237.185500 158.000000
238.178200 98.000000
241.064300 40.000000
242.062300 56.000000
243.172200 52.000000
243.210000 750.000000
244.177300 36.000000
244.213700 102.000000
246.066000 50.000000
251.226500 38.000000
253.239200 72.000000
256.039900 58.000000
257.196000 50.000000
258.196000 48.000000
261.219600 1174.000000
262.227600 176.000000
263.246900 48.000000
265.001700 42.000000
269.116800 38.000000
275.162100 580.000000
275.248600 64.000000
278.161500 50.000000
279.231100 30432.000000
281.141900 76.000000
281.236000 298.000000

>ms2
57.069300 58.000000
65.013100 52.000000
67.053600 4580.000000
69.033900 42.000000
69.069400 450.000000
71.048700 124.000000
79.054900 150.000000
81.069500 5778.000000
82.073200 220.000000
83.085500 300.000000
93.069300 192.000000
95.085300 2570.000000
96.088600 252.000000
97.100800 210.000000
99.043900 40.000000
107.085900 80.000000
109.101200 1050.000000
109.216200 72.000000
110.104800 68.000000
111.022300 40.000000
119.084500 36.000000
120.080500 44.000000
121.100100 54.000000
123.117000 360.000000
131.082100 58.000000
137.131900 322.000000
139.039700 50.000000
141.034000 88.000000
145.101700 66.000000
149.024500 166.000000
149.132800 106.000000
151.111100 106.000000
151.147400 52.000000
153.126600 82.000000
156.102800 52.000000
159.116100 100.000000
161.132300 128.000000
163.112100 46.000000
163.146800 60.000000
163.169900 48.000000
165.090200 62.000000
165.123400 226.000000
167.106700 44.000000
171.137300 62.000000
173.131500 360.000000
174.138700 38.000000
174.210000 60.000000
177.164600 56.000000
178.170800 38.000000
181.123700 96.000000
187.146500 240.000000
188.150600 42.000000
189.058600 50.000000
191.144200 110.000000
193.154900 66.000000
195.137400 90.000000
201.163100 88.000000
205.158500 54.000000
209.151900 64.000000
211.170500 54.000000
215.180900 66.000000
223.168200 238.000000
235.134400 42.000000
237.183400 40.000000
243.210700 228.000000
261.222400 300.000000
263.227000 44.000000
277.204900 50.000000
279.230500 1720.000000

>ms2
55.018300 68.000000
55.054100 190.000000
57.069400 186.000000
65.038100 406.000000
66.046500 62.000000
67.053600 12298.000000
71.048700 58.000000
71.086100 60.000000
73.028400 48.000000
79.054100 1272.000000
80.058700 104.000000
81.069200 5906.000000
83.085600 44.000000
93.069400 402.000000
94.073200 146.000000
95.085200 1742.000000
96.088700 150.000000
105.044800 46.000000
105.069300 86.000000
107.085500 78.000000
109.101400 302.000000
149.022400 44.000000
159.118400 54.000000

