>compound RP66347031
>parentmass 314.3054
>ionization [M+H]+
>formula C19H39NO2
>rt 419.940000
>profile qtof
#smiles_iso CCCCCCCCCCCCCCCCC(=O)NCCO
#smiles_can CCCCCCCCCCCCCCCCC(=O)NCCO
#inchikey GCCFMSAXQJECNH-UHFFFAOYSA-N
#pubchem_id 14455158
#mb_accession RP003201,RP003202,RP003203

>ms2
62.059400 73064.000000
296.293100 950.000000
297.278800 7198.000000
298.282300 1010.000000
314.305000 433530.000000

>ms2
51.174400 70.000000
51.198400 66.000000
55.053800 240.000000
59.107100 100.000000
59.995100 64.000000
61.194700 66.000000
67.053800 1450.000000
69.069500 1238.000000
71.085100 10040.000000
74.073300 54.000000
81.069600 3142.000000
82.073200 176.000000
83.085600 3188.000000
85.101000 4702.000000
95.085200 4106.000000
97.100900 1892.000000
98.046600 130.000000
99.079700 44.000000
99.116700 710.000000
107.082300 66.000000
109.100900 1664.000000
111.116300 142.000000
113.091700 122.000000
113.132600 76.000000
115.990200 58.000000
117.222000 48.000000
118.135700 72.000000
123.116400 480.000000
123.198600 46.000000
125.092600 60.000000
125.132500 110.000000
127.148100 100.000000
130.117800 56.000000
131.069700 52.000000
132.101900 90.000000
135.138600 48.000000
138.140000 80.000000
138.197200 80.000000
142.122200 70.000000
143.014000 46.000000
145.156100 46.000000
147.149000 60.000000
150.292900 54.000000
151.099000 56.000000
151.146900 54.000000
152.132300 60.000000
155.130900 48.000000
158.210000 56.000000
161.152000 50.000000
164.059200 48.000000
165.163100 64.000000
167.058700 70.000000
169.195600 56.000000
173.091400 50.000000
173.176800 44.000000
179.177800 62.000000
179.281500 66.000000
180.039100 58.000000
181.216500 70.000000
183.125900 52.000000
183.209500 48.000000
183.303200 56.000000
184.076500 68.000000
184.085400 44.000000
186.280900 50.000000
188.010500 44.000000
189.147300 60.000000
191.237100 58.000000
192.091600 50.000000
196.157300 48.000000
196.201600 84.000000
197.189500 52.000000
198.182300 50.000000
199.300700 72.000000
205.095800 46.000000
206.016200 58.000000
206.305100 56.000000
209.202900 66.000000
211.054700 116.000000
211.248900 54.000000
213.170700 48.000000
214.285500 54.000000
216.001400 82.000000
217.071300 50.000000
217.201700 50.000000
218.062000 62.000000
223.206700 62.000000
225.016200 58.000000
226.145800 48.000000
226.274400 60.000000
227.235700 58.000000
229.205500 74.000000
230.094500 90.000000
233.224900 56.000000
235.112900 48.000000
235.242100 322.000000
236.044900 68.000000
236.247700 130.000000
238.122700 56.000000
242.177800 68.000000
244.169800 100.000000
244.287500 48.000000
250.238700 160.000000
251.254500 44.000000
252.055400 48.000000
252.264700 48.000000
253.252900 1910.000000
255.255900 82.000000
260.282300 50.000000
262.300400 48.000000
263.024500 50.000000
270.138700 62.000000
270.199000 56.000000
283.133100 46.000000
284.201000 60.000000
285.092200 50.000000
294.287000 50.000000
295.000800 50.000000
296.294400 10216.000000
297.278400 43094.000000
298.282300 8204.000000
299.042800 58.000000
300.180900 44.000000
300.287900 228.000000
306.122000 44.000000
310.262600 58.000000
311.035200 74.000000
311.220600 56.000000
311.255500 76.000000
314.305100 39478.000000

>ms2
57.069400 14852.000000
62.059500 77640.000000
64.062900 156.000000
65.057900 82.000000
67.053700 8562.000000
69.069300 2996.000000
71.085100 15620.000000
73.027300 414.000000
79.054200 524.000000
81.069600 4048.000000
83.085500 1454.000000
85.101000 3716.000000
93.069400 104.000000
95.085400 2706.000000
97.101000 302.000000
109.101900 478.000000
110.108100 88.000000
296.295000 1728.000000
297.279300 412.000000
297.295900 552.000000

