>compound RP66849804
>parentmass 279.1591
>ionization [M+H]+
>formula C16H22O4
>rt 365.220000
>profile qtof
#smiles_iso CCCCOC(=O)C1=CC=CC=C1C(=O)OCCCC
#smiles_can CCCCOC(=O)C1=CC=CC=C1C(=O)OCCCC
#inchikey DOIRQSBPFJWKBE-UHFFFAOYSA-N
#pubchem_id 3026
#mb_accession RP019901,RP019902,RP019903

>ms2peaks
149.023900 2941082.000000
150.026800 318390.000000
151.028500 21066.000000
167.033800 5042.000000
205.085500 1164850.000000
206.089100 154796.000000
207.091500 11518.000000
279.159300 174160.000000

>ms2peaks
65.038000 3334.000000
121.028500 10618.000000
149.024000 2942328.000000
150.026800 372548.000000
151.028700 25472.000000
167.033800 5136.000000
205.086100 6856.000000

>ms2peaks
80.025000 9988.000000
93.032900 238304.000000
94.036500 11474.000000
111.043900 38362.000000
121.028500 701302.000000
121.038800 158688.000000
122.032000 44420.000000
149.023600 1785866.000000
150.027100 149956.000000
151.028200 10780.000000
167.033600 2864.000000

