>compound RP67823801
>parentmass 300.2897
>ionization [M+H]+
>formula C18H37NO2
>rt 403.260000
>profile qtof
#smiles_iso CCCCCCCCCCCCCCCC(=O)NCCO
#smiles_can CCCCCCCCCCCCCCCC(=O)NCCO
#inchikey HXYVTAGFYLMHSO-UHFFFAOYSA-N
#pubchem_id 4671
#mb_accession RP004201,RP004202

>ms2
80.270800 36.000000
152.107900 40.000000
171.079600 40.000000
216.009400 50.000000
257.246100 132.000000
267.196300 52.000000
292.180300 36.000000
297.137700 72.000000
297.279800 42.000000
298.271300 54.000000
299.242900 36.000000
300.289200 422.000000

>ms2
62.059700 166.000000
65.083100 42.000000
71.086000 42.000000
85.100700 84.000000
195.103800 44.000000
228.127100 60.000000
263.055300 44.000000
283.264100 118.000000

