>compound RP67037871
>parentmass 181.0495
>ionization [M+H]+
>formula C9H8O4
>rt 162.360000
>profile qtof
#smiles_iso C1=CC(=C(C=C1/C=C/C(=O)O)O)O
#smiles_can C1=CC(=C(C=C1C=CC(=O)O)O)O
#inchikey QAIPRVGONGVQAS-DUXPYHPUSA-N
#pubchem_id 689043
#mb_accession RP016701,RP016702,RP016703

>ms2peaks
68.997600 108.000000
95.048600 272.000000
95.060200 86.000000
109.024100 114.000000
114.034000 90.000000
114.047000 84.000000
135.043600 110.000000
139.026300 98.000000
139.038300 172.000000
145.028500 1226.000000
151.039900 218.000000
161.022200 122.000000
163.038600 82554.000000
164.042000 6658.000000
165.043400 392.000000
179.033700 4266.000000
181.049100 7696.000000
183.052500 170.000000

>ms2peaks
55.017900 42.000000
61.039200 74.000000
62.015500 44.000000
65.038000 464.000000
66.042100 88.000000
68.058100 78.000000
68.997100 494.000000
77.037900 822.000000
79.053800 1592.000000
81.033700 202.000000
83.049400 162.000000
89.038000 4648.000000
90.018100 42.000000
90.042100 378.000000
91.054300 526.000000
94.000300 54.000000
95.049000 1294.000000
105.033800 662.000000
105.045500 122.000000
105.977800 98.000000
107.048600 1468.000000
108.052400 226.000000
111.044500 184.000000
115.029000 42.000000
115.041500 78.000000
117.033200 2764.000000
118.037000 130.000000
123.040300 74.000000
124.004100 36.000000
128.009700 50.000000
132.021600 36.000000
133.029300 440.000000
133.052500 74.000000
135.043400 3580.000000
136.026200 116.000000
136.047700 246.000000
139.036000 146.000000
141.004600 40.000000
145.027600 5202.000000
146.032100 690.000000
147.032300 82.000000
147.039900 52.000000
148.002800 38.000000
151.039900 132.000000
158.046100 40.000000
163.038400 26548.000000
164.042300 2242.000000
179.032400 314.000000
179.045900 42.000000

>ms2peaks
61.075600 54.000000
68.057400 76.000000
68.996500 1064.000000
79.053600 3160.000000
80.057400 196.000000
89.038000 52648.000000
91.054100 424.000000
92.058500 58.000000
94.036700 70.000000
95.049000 2004.000000
105.034000 566.000000
105.044800 512.000000
107.049100 386.000000
108.057200 70.000000
111.043600 92.000000
117.033400 1450.000000
117.057500 76.000000
135.043900 328.000000
136.051000 60.000000

