>compound RP67688691
>parentmass 330.0598
>ionization [M+H]+
>formula C10H12N5O6P
>rt 42.600000
>profile qtof
#smiles_iso C1[C@@H]2[C@@H]([C@@H]([C@H](O2)N3C=NC4=C(N=CN=C43)N)O)OP(=O)(O1)O
#smiles_can C1C2C(C(C(O2)N3C=NC4=C(N=CN=C43)N)O)OP(=O)(O1)O
#inchikey IVOMOUWHDPKRLL-ASCDQALMSA-N
#pubchem_id 25322948
#mb_accession RP012701,RP012702,RP012703

>ms2
312.048300 308.000000
330.059900 206462.000000
332.064700 2858.000000

>ms2
69.033500 124.000000
97.028100 1460.000000
136.061300 9778.000000
176.995300 230.000000
178.072600 128.000000
204.086400 264.000000
214.074900 338.000000
232.082000 918.000000
250.094000 346.000000
312.048900 5960.000000
313.053900 558.000000
330.059800 120626.000000
332.065400 1562.000000

>ms2
59.048900 50.000000
67.017900 72.000000
67.028600 46.000000
68.049000 38.000000
69.032700 1674.000000
72.006600 76.000000
78.022300 74.000000
80.973300 58.000000
82.077000 82.000000
87.042200 36.000000
92.023600 82.000000
94.039600 794.000000
94.065100 40.000000
97.028800 760.000000
98.031300 128.000000
98.983700 1056.000000
102.028000 40.000000
102.087400 44.000000
109.051200 94.000000
110.984800 38.000000
119.034800 266.000000
120.006200 52.000000
123.023000 56.000000
126.026700 78.000000
132.007300 70.000000
134.986900 100.000000
136.061000 17666.000000
137.044900 188.000000
148.062200 78.000000
148.951500 50.000000
159.065500 64.000000
162.075200 82.000000
174.077100 40.000000
176.065500 36.000000
176.995700 264.000000
177.997500 38.000000
178.073300 98.000000
186.077000 106.000000
188.083700 40.000000
204.088600 102.000000
214.070700 124.000000
232.083000 108.000000
312.049100 80.000000
330.060800 200.000000

