>compound RP67652023
>parentmass 450.3214
>ionization [M+H]+
>formula C26H43NO5
>rt 255.360000
>profile qtof
#smiles_iso C[C@H](CCC(=O)NCC(=O)O)[C@H]1CCC2[C@@]1(CCC3C2[C@H](C[C@H]4[C@@]3(CC[C@H](C4)O)C)O)C
#smiles_can CC(CCC(=O)NCC(=O)O)C1CCC2C1(CCC3C2C(CC4C3(CCC(C4)O)C)O)C
#inchikey GHCZAUBVMUEKKP-NHIHLBCISA-N
#pubchem_id 93353
#mb_accession RP005501,RP005502,RP005503

>ms2
76.039100 212.000000
321.258200 404.000000
339.268700 1826.000000
340.274500 398.000000
414.300300 193342.000000
415.303900 58026.000000
417.312300 472.000000
432.310800 142560.000000
433.314500 49970.000000
434.317500 5648.000000
435.319300 494.000000
450.321700 58976.000000
452.327300 2142.000000

>ms2
76.038900 13546.000000
81.069800 520.000000
85.064300 504.000000
121.100400 512.000000
147.115500 508.000000
149.132500 686.000000
156.064700 264.000000
158.080700 2986.000000
161.131300 1700.000000
163.110900 386.000000
163.148700 366.000000
172.095900 378.000000
175.147200 2814.000000
176.150600 240.000000
177.127200 476.000000
186.110800 256.000000
187.147300 348.000000
189.163400 1718.000000
190.164800 404.000000
198.110800 246.000000
199.146700 396.000000
201.163100 3248.000000
202.165800 582.000000
203.178200 556.000000
211.149800 394.000000
212.127200 706.000000
213.164600 396.000000
215.178900 2834.000000
216.182900 262.000000
217.193700 346.000000
224.128300 560.000000
225.160400 364.000000
226.144100 794.000000
227.178900 400.000000
229.158100 376.000000
229.193400 784.000000
238.143500 3128.000000
239.148300 490.000000
239.178500 318.000000
240.158600 742.000000
241.194700 302.000000
243.210000 830.000000
244.213400 264.000000
250.143500 428.000000
252.159000 2370.000000
257.189600 488.000000
264.158200 1076.000000
266.176900 960.000000
278.173600 770.000000
280.189800 634.000000
292.189500 936.000000
294.206600 310.000000
297.257200 292.000000
304.190100 1394.000000
305.196600 306.000000
306.205300 832.000000
318.206700 686.000000
320.222400 378.000000
321.257600 11408.000000
322.261000 2298.000000
332.221200 2160.000000
333.223900 458.000000
339.267800 34744.000000
340.271400 6962.000000
357.277100 562.000000
396.289400 880.000000
414.300300 233672.000000
415.303600 84426.000000
416.306200 9588.000000
417.307500 666.000000
432.309900 8664.000000
433.313600 2524.000000
434.316600 362.000000
450.322200 428.000000

>ms2
45.151200 46.000000
47.023900 62.000000
50.047600 46.000000
51.104300 68.000000
55.017400 60.000000
55.111700 82.000000
55.169200 52.000000
56.049500 60.000000
57.114800 56.000000
59.106800 82.000000
62.248400 42.000000
63.007400 50.000000
66.008200 48.000000
68.050000 48.000000
68.083700 78.000000
69.069600 1996.000000
71.047700 108.000000
71.085600 50.000000
71.166200 98.000000
74.284500 48.000000
76.038700 40398.000000
81.069400 11206.000000
82.040000 114.000000
82.179400 44.000000
83.048400 708.000000
83.085000 2726.000000
84.005500 64.000000
84.044800 136.000000
85.064300 7310.000000
86.000000 46.000000
86.060800 66.000000
89.060400 66.000000
90.197300 68.000000
91.083600 96.000000
92.058000 82.000000
92.131500 42.000000
93.069200 5278.000000
94.099500 42.000000
95.085000 6748.000000
97.064500 298.000000
98.021300 56.000000
98.060600 132.000000
98.174100 44.000000
98.190000 42.000000
98.281800 48.000000
99.080100 328.000000
100.155100 66.000000
100.166400 50.000000
100.276100 68.000000
101.095200 46.000000
102.148200 70.000000
102.990400 62.000000
103.319700 56.000000
104.023700 100.000000
105.068900 3122.000000
106.072800 194.000000
106.134400 50.000000
107.084800 4480.000000
108.088900 400.000000
108.322800 44.000000
109.063500 290.000000
109.100700 3040.000000
109.996500 54.000000
110.015900 62.000000
110.104800 176.000000
110.223700 98.000000
110.283400 56.000000
111.080400 604.000000
111.117300 220.000000
111.209800 66.000000
111.253900 56.000000
111.991000 60.000000
112.006400 52.000000
112.075300 380.000000
112.099800 56.000000
112.154000 44.000000
113.001600 46.000000
113.022400 42.000000
113.108100 42.000000
113.291400 118.000000
114.054100 92.000000
114.079700 46.000000
114.091900 50.000000
114.242500 102.000000
114.275400 64.000000
114.990700 98.000000
116.998000 44.000000
117.069200 302.000000
118.073700 52.000000
118.250000 54.000000
119.085600 1680.000000
119.130400 86.000000
120.069000 48.000000
120.089100 98.000000
121.100300 2750.000000
122.048200 50.000000
122.104700 186.000000
122.151500 94.000000
122.166700 46.000000
122.297800 54.000000
123.079500 278.000000
123.115600 424.000000
123.146400 62.000000
123.994100 110.000000
124.203400 48.000000
125.095700 316.000000
125.983100 50.000000
126.054100 48.000000
126.092100 72.000000
126.254300 50.000000
127.029200 68.000000
127.095900 130.000000
127.109000 82.000000
128.070200 50.000000
128.249700 86.000000
129.007400 42.000000
129.128700 58.000000
129.989400 42.000000
130.074100 116.000000
130.099800 82.000000
131.086400 530.000000
131.173200 70.000000
132.031700 46.000000
132.087100 42.000000
132.290000 82.000000
133.100300 1212.000000
134.058900 70.000000
135.078700 94.000000
135.116700 1348.000000
135.313900 96.000000
136.036100 156.000000
136.119400 228.000000
136.239200 60.000000
136.260300 58.000000
137.006300 70.000000
137.095900 108.000000
137.212600 92.000000
138.051200 86.000000
138.088500 96.000000
139.026300 64.000000
139.055000 74.000000
139.110700 90.000000
139.335100 46.000000
140.154900 84.000000
140.221200 42.000000
141.068900 152.000000
141.086700 50.000000
141.100000 70.000000
141.256700 76.000000
141.993700 72.000000
142.021300 50.000000
142.051300 92.000000
142.076400 92.000000
142.254300 92.000000
143.053500 48.000000
143.085600 490.000000
144.061000 98.000000
144.089900 84.000000
145.101300 1968.000000
146.103300 220.000000
147.008500 178.000000
147.116200 2508.000000
148.061600 108.000000
148.082900 54.000000
148.121200 264.000000
149.094400 296.000000
149.119000 152.000000
149.131700 1582.000000
150.067800 56.000000
150.086400 42.000000
150.134900 164.000000
150.160700 46.000000
151.047900 58.000000
151.111300 272.000000
151.994800 50.000000
152.060700 94.000000
152.084700 52.000000
152.107100 70.000000
152.114300 134.000000
152.141600 76.000000
152.251000 44.000000
152.345300 112.000000
153.088000 74.000000
153.125900 114.000000
154.009000 42.000000
154.024100 96.000000
154.060200 102.000000
154.109800 50.000000
154.322300 120.000000
155.017600 114.000000
155.085500 426.000000
155.980700 46.000000
156.002900 42.000000
156.065500 314.000000
156.089700 134.000000
156.207100 62.000000
156.230800 46.000000
157.100700 1308.000000
158.080800 1796.000000
158.104200 392.000000
159.083500 212.000000
159.116300 3746.000000
159.979100 42.000000
160.085200 42.000000
160.120000 408.000000
161.094400 282.000000
161.132400 3448.000000
162.030500 78.000000
162.099200 42.000000
162.136000 664.000000
162.280300 126.000000
163.111500 2134.000000
163.148000 822.000000
163.999600 44.000000
164.114100 176.000000
164.152400 200.000000
164.329600 102.000000
165.053100 100.000000
165.065500 68.000000
165.127700 280.000000
165.303600 54.000000
166.071800 48.000000
166.086700 68.000000
166.122400 158.000000
166.288300 42.000000
166.321500 50.000000
167.011400 54.000000
167.046600 42.000000
167.198300 44.000000
168.077000 82.000000
168.090200 54.000000
168.100300 62.000000
168.148900 74.000000
169.057000 48.000000
169.065400 62.000000
169.100900 858.000000
170.105100 130.000000
171.116300 1330.000000
171.313800 84.000000
172.096300 126.000000
172.118800 114.000000
173.095600 298.000000
173.131700 2514.000000
174.011300 68.000000
174.135200 356.000000
174.162700 72.000000
175.111000 882.000000
175.147700 3406.000000
176.036200 48.000000
176.055300 42.000000
176.116000 188.000000
176.151200 488.000000
176.316200 44.000000
177.127200 2610.000000
177.162600 244.000000
178.059900 90.000000
178.109100 54.000000
178.129400 412.000000
178.170000 42.000000
179.142100 136.000000
179.294400 44.000000
180.041600 54.000000
180.080500 54.000000
180.135200 78.000000
180.160900 64.000000
181.044300 100.000000
181.104000 178.000000
181.117000 58.000000
182.106000 72.000000
182.225500 58.000000
183.011500 76.000000
183.088800 44.000000
183.116700 780.000000
183.138400 64.000000
184.096900 162.000000
185.132600 2266.000000
185.996200 74.000000
186.041600 44.000000
186.115300 122.000000
186.135300 392.000000
187.112500 116.000000
187.148200 2174.000000
187.985400 44.000000
188.023000 46.000000
188.079200 92.000000
188.150100 284.000000
189.127000 1324.000000
189.163000 1572.000000
190.042200 88.000000
190.167400 280.000000
190.251900 50.000000
191.054300 110.000000
191.095100 184.000000
191.126200 62.000000
191.142000 790.000000
191.992600 42.000000
192.101400 50.000000
193.102900 50.000000
195.104100 48.000000
195.117100 136.000000
196.132000 46.000000
196.169200 42.000000
197.132500 952.000000
198.111600 114.000000
198.138700 186.000000
198.228400 96.000000
199.147700 2298.000000
199.996900 50.000000
200.153100 278.000000
200.316600 86.000000
201.126800 326.000000
201.163500 6306.000000
202.166400 1036.000000
202.997600 42.000000
203.058900 42.000000
203.126800 56.000000
203.142600 774.000000
203.178200 832.000000
203.998000 54.000000
204.112400 52.000000
204.159800 52.000000
204.185500 146.000000
205.036600 70.000000
205.158300 268.000000
205.194500 44.000000
205.224200 56.000000
206.325200 60.000000
207.051000 44.000000
207.171600 72.000000
207.312500 50.000000
209.090300 80.000000
209.133300 194.000000
210.110700 112.000000
210.136100 52.000000
211.147900 3168.000000
212.114400 106.000000
212.128000 366.000000
212.151000 558.000000
213.164300 3324.000000
214.057700 42.000000
214.132600 78.000000
214.142100 110.000000
214.166700 472.000000
215.179300 4870.000000
216.153500 230.000000
216.182600 1064.000000
217.007000 82.000000
217.158200 746.000000
217.192400 280.000000
217.293200 54.000000
218.161500 124.000000
218.200800 166.000000
219.175200 210.000000
220.077300 60.000000
221.114900 50.000000
222.077800 58.000000
222.288200 42.000000
223.052200 58.000000
223.078100 48.000000
223.149800 178.000000
224.127400 196.000000
224.151900 104.000000
225.005600 138.000000
225.132200 102.000000
225.164500 1960.000000
226.142400 106.000000
226.166900 364.000000
227.142600 136.000000
227.178900 2424.000000
228.157700 78.000000
228.181800 298.000000
229.158400 2320.000000
229.195200 1408.000000
230.014700 50.000000
230.132600 44.000000
230.162000 266.000000
230.199000 212.000000
231.172800 622.000000
232.032900 60.000000
232.130600 50.000000
232.178900 408.000000
232.207500 98.000000
232.250800 54.000000
233.190000 164.000000
236.127500 78.000000
236.162200 70.000000
237.163400 298.000000
238.029100 42.000000
238.142300 278.000000
238.168500 78.000000
239.179500 2638.000000
240.143000 42.000000
240.156000 128.000000
240.182900 582.000000
241.161200 156.000000
241.194400 1400.000000
242.031800 54.000000
242.044600 70.000000
242.200100 234.000000
242.231500 46.000000
243.174400 1292.000000
243.210800 1078.000000
244.154000 44.000000
244.176300 238.000000
244.212000 136.000000
245.191100 498.000000
245.304800 46.000000
246.014900 42.000000
246.194400 82.000000
246.328400 50.000000
247.991500 50.000000
249.113800 58.000000
249.184400 46.000000
250.000400 46.000000
250.143500 256.000000
250.176200 60.000000
251.126100 56.000000
251.149100 56.000000
251.180500 824.000000
251.302600 50.000000
252.053500 48.000000
252.102000 42.000000
252.118500 132.000000
252.157900 418.000000
252.181500 300.000000
252.231600 72.000000
253.195000 870.000000
254.173000 58.000000
254.203000 966.000000
255.027200 68.000000
255.176400 84.000000
255.209900 1240.000000
256.215200 288.000000
257.189700 1208.000000
258.023000 42.000000
258.192900 274.000000
259.202400 70.000000
259.241500 50.000000
260.212300 46.000000
264.056800 72.000000
264.160900 318.000000
264.189400 48.000000
265.195500 2136.000000
266.174300 164.000000
266.198100 426.000000
267.177400 54.000000
267.212200 530.000000
267.290800 70.000000
268.169800 46.000000
268.217000 80.000000
269.189300 322.000000
269.218700 80.000000
269.981300 42.000000
270.195200 94.000000
270.227900 74.000000
271.180200 44.000000
271.205100 142.000000
272.200100 60.000000
272.211700 128.000000
272.291200 48.000000
273.161300 54.000000
273.220400 94.000000
274.182200 60.000000
274.224800 54.000000
275.093800 50.000000
278.174500 112.000000
279.179600 78.000000
279.210800 1048.000000
280.072600 42.000000
280.188000 82.000000
280.216500 250.000000
281.193300 74.000000
281.227500 328.000000
282.168900 50.000000
282.226600 96.000000
283.204500 420.000000
283.244100 102.000000
284.211600 158.000000
284.238600 44.000000
285.138700 62.000000
285.221400 392.000000
285.241500 50.000000
285.258800 82.000000
286.222300 44.000000
288.126000 46.000000
290.185000 88.000000
292.084000 42.000000
292.190900 226.000000
292.219900 60.000000
293.225400 492.000000
294.229200 120.000000
295.241100 454.000000
295.313700 80.000000
296.245600 222.000000
297.222000 416.000000
297.256900 1000.000000
298.019600 44.000000
298.036400 42.000000
298.226400 90.000000
298.259700 202.000000
302.325700 48.000000
304.191600 184.000000
305.196300 82.000000
306.097500 84.000000
306.207100 176.000000
306.228600 104.000000
307.245500 52.000000
308.234200 48.000000
309.126200 54.000000
309.252300 94.000000
309.317600 42.000000
311.235100 208.000000
311.272100 146.000000
312.239100 98.000000
312.278900 178.000000
313.249900 66.000000
314.023200 50.000000
314.068100 44.000000
314.145700 62.000000
314.211700 48.000000
314.242800 46.000000
317.201900 50.000000
318.206600 214.000000
319.239200 98.000000
319.268800 42.000000
320.223800 50.000000
321.258100 11302.000000
322.261200 3292.000000
323.265800 210.000000
323.283100 68.000000
324.109600 62.000000
329.310800 44.000000
330.281600 44.000000
332.223100 178.000000
334.238600 58.000000
337.269300 52.000000
338.257000 52.000000
338.335500 62.000000
339.268600 9712.000000
340.270900 2752.000000
341.161700 48.000000
341.274400 256.000000
341.301900 58.000000
352.253100 66.000000
357.280600 314.000000
358.235300 148.000000
368.291100 114.000000
369.303600 52.000000
376.996100 60.000000
386.306600 94.000000
396.189100 92.000000
396.289500 142.000000
397.292200 46.000000
397.331300 62.000000
407.017500 58.000000
410.217700 76.000000
411.155300 90.000000
412.114000 86.000000
414.279400 48.000000
414.299600 784.000000
415.305100 338.000000
416.310100 86.000000
426.995600 68.000000
434.243900 46.000000
436.292700 54.000000

