>compound RP68517580
>parentmass 214.1074
>ionization [M+H]+
>formula C10H15NO4
>rt 165.000000
>profile qtof
#smiles_iso CCCC(=O)CC(=O)NC1CCOC1=O
#smiles_can CCCC(=O)CC(=O)NC1CCOC1=O
#inchikey YRYOXRMDHALAFL-UHFFFAOYSA-N
#pubchem_id 119133
#mb_accession RP020801,RP020802,RP020803

>ms2
71.048300 24766.000000
74.023000 1020.000000
84.044100 704.000000
98.059900 2690.000000
102.054800 170192.000000
104.058400 552.000000
113.059500 19246.000000
114.062600 1018.000000
126.054700 298.000000
156.101400 4872.000000
157.104700 292.000000
168.102100 4306.000000
169.104900 444.000000
172.096600 646.000000
186.112100 23378.000000
196.097000 5288.000000
197.100500 516.000000
214.107300 103924.000000

>ms2
57.044800 126.000000
71.048200 123770.000000
84.043800 6452.000000
85.028100 1368.000000
85.065300 142.000000
98.059300 5036.000000
99.064700 206.000000
102.054700 67930.000000
104.058900 472.000000
113.059500 18204.000000
114.062500 1096.000000
126.055000 366.000000
154.086300 494.000000
156.101400 1912.000000
157.105100 192.000000
168.101600 2346.000000
169.104700 274.000000
186.111600 1162.000000
196.096700 1432.000000
214.107600 742.000000

>ms2
57.031800 324.000000
66.091900 112.000000
68.057400 124.000000
68.119300 60.000000
69.033400 298.000000
70.028200 412.000000
71.012100 2942.000000
71.048300 18296.000000
73.016400 104.000000
73.052300 100.000000
74.023000 19990.000000
74.059400 15646.000000
75.080600 42.000000
84.043700 4552.000000
85.028000 1142.000000
86.047600 94.000000
95.047100 72.000000
97.025100 48.000000
98.059500 282.000000
102.054600 3474.000000
113.059800 876.000000
114.063200 216.000000

