>compound RP69413416
>parentmass 303.0499
>ionization [M+H]+
>formula C15H10O7
>rt 221.760000
>profile qtof
#smiles_iso C1=CC(=C(C=C1C2=C(C(=O)C3=C(C=C(C=C3O2)O)O)O)O)O
#smiles_can C1=CC(=C(C=C1C2=C(C(=O)C3=C(C=C(C=C3O2)O)O)O)O)O
#inchikey REFJWTPEDVJJIY-UHFFFAOYSA-N
#pubchem_id 5280343
#mb_accession RP012401,RP012402,RP012403

>ms2peaks
273.041700 264.000000
301.034700 670.000000
302.043200 220.000000
303.050000 192092.000000

>ms2peaks
153.017900 400.000000
165.018800 264.000000
195.028600 248.000000
201.053000 240.000000
229.049000 900.000000
247.061000 316.000000
257.044700 894.000000
273.039500 872.000000
274.042700 328.000000
275.053800 238.000000
285.039100 392.000000
301.033000 372.000000
303.049800 185242.000000
305.055900 3282.000000

>ms2peaks
52.030400 42.000000
53.059700 100.000000
57.008000 64.000000
65.038000 1006.000000
68.996500 5522.000000
70.016000 114.000000
71.012800 270.000000
77.994700 48.000000
86.073400 50.000000
86.083800 62.000000
87.019400 48.000000
89.037800 40.000000
91.054700 182.000000
91.997200 42.000000
93.033000 652.000000
93.069400 48.000000
94.036600 148.000000
95.048500 1186.000000
96.052600 72.000000
97.023800 124.000000
99.029300 48.000000
101.994400 58.000000
104.062000 128.000000
105.034100 144.000000
105.045100 44.000000
107.009100 74.000000
109.012100 52.000000
109.028200 742.000000
110.035900 130.000000
111.007500 742.000000
111.039200 82.000000
112.011800 94.000000
115.053400 154.000000
115.985000 70.000000
116.000900 66.000000
117.029800 116.000000
117.070600 134.000000
120.016200 52.000000
121.029000 386.000000
122.031100 150.000000
123.043000 320.000000
124.026200 40.000000
124.050800 86.000000
125.024200 66.000000
125.997000 36.000000
127.011600 84.000000
127.038300 102.000000
130.014700 36.000000
131.045900 150.000000
134.068300 50.000000
135.043100 282.000000
137.022700 1522.000000
138.026600 148.000000
139.026700 48.000000
143.037700 46.000000
143.048100 104.000000
144.016600 66.000000
144.031400 44.000000
145.028400 228.000000
145.065400 232.000000
146.030900 44.000000
146.068100 158.000000
147.006200 40.000000
149.023200 452.000000
150.031400 138.000000
151.040300 40.000000
151.959800 82.000000
151.998200 68.000000
152.009200 62.000000
153.017900 7890.000000
154.021200 788.000000
154.039900 72.000000
154.998900 76.000000
155.022500 96.000000
155.048800 1026.000000
156.041100 44.000000
156.050900 102.000000
157.065700 64.000000
159.045100 228.000000
160.051800 80.000000
161.022900 44.000000
161.059300 584.000000
162.002800 36.000000
162.062300 130.000000
163.038400 988.000000
163.997700 74.000000
164.041900 106.000000
165.017700 2868.000000
166.026700 380.000000
167.033600 68.000000
167.048400 56.000000
168.005700 56.000000
173.023400 158.000000
173.059400 2162.000000
176.043600 58.000000
177.019500 276.000000
177.054600 224.000000
177.991400 44.000000
178.021700 60.000000
179.035100 434.000000
179.056700 62.000000
179.969800 68.000000
179.993700 48.000000
181.056400 64.000000
182.030900 44.000000
183.027400 880.000000
183.043800 1158.000000
184.049300 528.000000
185.057100 152.000000
185.983500 58.000000
187.016300 66.000000
187.038300 1116.000000
188.036600 66.000000
188.049000 58.000000
189.041300 70.000000
189.057400 48.000000
189.079100 44.000000
190.058400 40.000000
191.033600 428.000000
191.070000 220.000000
192.041900 122.000000
193.014500 102.000000
194.016300 94.000000
195.029200 250.000000
195.045900 60.000000
199.039300 108.000000
200.048900 210.000000
201.054500 6148.000000
202.058600 718.000000
203.020800 40.000000
203.033600 156.000000
204.042300 46.000000
205.012300 98.000000
205.050200 378.000000
207.029600 170.000000
208.032800 68.000000
211.038900 724.000000
212.042500 78.000000
213.054300 186.000000
214.060100 96.000000
215.033200 160.000000
215.054400 110.000000
216.032800 58.000000
216.044900 68.000000
217.049200 252.000000
217.992400 72.000000
218.052900 126.000000
218.062100 98.000000
219.026400 126.000000
219.064800 464.000000
220.037100 46.000000
221.005300 42.000000
221.046000 50.000000
221.995600 44.000000
222.007400 52.000000
223.030100 68.000000
225.042300 58.000000
227.032600 42.000000
228.041200 924.000000
229.049300 16216.000000
230.052900 2048.000000
231.025400 134.000000
231.055100 120.000000
232.035100 398.000000
233.041400 168.000000
234.049700 60.000000
234.985300 42.000000
237.036900 128.000000
239.022200 86.000000
239.033300 822.000000
240.037700 98.000000
243.030000 72.000000
244.002400 36.000000
245.042800 442.000000
246.047100 258.000000
247.023600 90.000000
247.059800 1058.000000
249.035500 52.000000
250.020800 46.000000
256.036700 50.000000
257.044600 6692.000000
258.048500 948.000000
259.049300 96.000000
261.038200 74.000000
267.028000 104.000000
268.031800 88.000000
269.040300 40.000000
273.038200 150.000000
274.047100 1494.000000
275.056200 218.000000
277.057300 36.000000
284.029500 78.000000
285.038800 1938.000000
286.045100 368.000000
301.032200 124.000000
303.049900 10900.000000
305.052200 144.000000

