>compound RP69212086
>parentmass 139.039
>ionization [M+H]+
>formula C7H6O3
>rt 152.880000
>profile qtof
#smiles_iso C1=CC(=CC=C1C(=O)O)O
#smiles_can C1=CC(=CC=C1C(=O)O)O
#inchikey FJKROLUGYXJWQN-UHFFFAOYSA-N
#pubchem_id 135
#mb_accession RP011901,RP011902,RP011903

>ms2peaks
77.039000 250.000000
94.041100 50.000000
95.048800 5974.000000
110.046400 86.000000
111.040500 86.000000
120.043900 38.000000
121.027900 436.000000
139.038100 4314.000000

>ms2peaks
66.046100 50.000000
67.054000 492.000000
77.038400 2604.000000
81.033700 50.000000
93.033500 76.000000
94.040600 42.000000
95.048900 6266.000000
105.044400 502.000000
111.044400 200.000000
121.037800 412.000000
122.032900 48.000000

>ms2peaks
50.015000 92.000000
66.033200 56.000000
77.038300 1434.000000
79.054100 50.000000
82.037400 66.000000
95.049000 690.000000
105.044300 192.000000
121.029300 84.000000

