>compound RP69207956
>parentmass 271.0601
>ionization [M+H]+
>formula C15H10O5
>rt 237.720000
>profile qtof
#smiles_iso C1=CC(=CC=C1C2=COC3=CC(=CC(=C3C2=O)O)O)O
#smiles_can C1=CC(=CC=C1C2=COC3=CC(=CC(=C3C2=O)O)O)O
#inchikey TZBJGXHYKVUXJN-UHFFFAOYSA-N
#pubchem_id 5280961
#mb_accession RP017601,RP017602,RP017603

>ms2
271.059500 525160.000000
273.065700 8496.000000

>ms2
91.054100 484.000000
149.022900 1228.000000
153.017600 3790.000000
197.059900 538.000000
215.070300 5578.000000
225.054100 574.000000
243.065300 6484.000000
253.049100 2204.000000
271.059800 461678.000000
273.065800 7032.000000

>ms2
46.041400 78.000000
50.047400 82.000000
50.072700 78.000000
56.997200 130.000000
63.010500 122.000000
63.978700 98.000000
69.032800 2626.000000
78.045900 132.000000
81.032800 2112.000000
84.000000 78.000000
85.027700 170.000000
89.038000 2926.000000
90.043200 236.000000
91.053700 73068.000000
92.996500 100.000000
94.001500 80.000000
94.063200 96.000000
95.012400 1538.000000
95.049900 364.000000
96.019900 94.000000
97.015500 80.000000
97.028100 1228.000000
99.011100 90.000000
102.052900 98.000000
103.053600 1162.000000
104.057200 148.000000
105.033400 940.000000
105.043100 96.000000
106.040300 128.000000
107.048700 3656.000000
108.020700 266.000000
108.052300 304.000000
109.028200 1116.000000
109.065700 118.000000
110.033000 128.000000
111.007700 912.000000
111.043800 194.000000
111.054700 86.000000
113.014300 94.000000
115.054500 2088.000000
116.057000 212.000000
117.005100 78.000000
117.032700 150.000000
117.070000 824.000000
118.040600 256.000000
119.048900 4910.000000
120.052000 376.000000
120.069400 142.000000
121.028400 2884.000000
122.031500 134.000000
122.043800 90.000000
123.007100 130.000000
125.023500 146.000000
127.003600 100.000000
127.038700 94.000000
127.053600 112.000000
128.063000 322.000000
129.033200 104.000000
129.040900 100.000000
129.069000 504.000000
130.015900 128.000000
130.074500 74.000000
131.048500 1350.000000
131.085200 434.000000
133.028200 346.000000
133.061300 100.000000
135.044400 542.000000
135.068800 104.000000
137.023900 420.000000
137.046600 134.000000
137.983300 80.000000
139.034900 82.000000
139.055000 78.000000
140.056200 120.000000
141.069700 2890.000000
142.073400 310.000000
144.056200 378.000000
144.080500 112.000000
145.027600 1404.000000
145.044600 142.000000
145.064100 998.000000
146.031300 244.000000
147.044000 762.000000
147.080700 462.000000
149.022400 4042.000000
150.041300 120.000000
151.042800 96.000000
151.053000 356.000000
152.042300 84.000000
152.060900 700.000000
153.017400 25908.000000
153.992500 76.000000
154.020900 1258.000000
154.996600 74.000000
155.022600 194.000000
155.048300 764.000000
156.053500 176.000000
156.069300 78.000000
156.989000 100.000000
157.064900 598.000000
159.043800 1998.000000
159.080400 944.000000
160.981400 114.000000
162.078900 98.000000
163.039800 462.000000
165.017500 1854.000000
166.022300 114.000000
167.043200 92.000000
167.087000 80.000000
168.056500 582.000000
169.064100 9914.000000
170.031600 104.000000
170.044500 86.000000
170.067900 940.000000
171.029900 130.000000
171.044200 250.000000
171.077600 136.000000
172.002100 78.000000
172.052900 196.000000
173.059100 1132.000000
174.066100 176.000000
175.075200 666.000000
177.054100 110.000000
178.026500 324.000000
178.986400 154.000000
179.047800 112.000000
181.064200 398.000000
182.069700 92.000000
183.029800 248.000000
183.042900 1262.000000
184.039000 114.000000
184.048900 250.000000
185.033500 82.000000
185.060100 692.000000
186.064400 116.000000
187.038400 1138.000000
187.074100 2018.000000
188.041600 114.000000
191.034400 624.000000
194.033100 86.000000
196.010100 74.000000
196.049200 88.000000
197.059000 12850.000000
198.065000 1362.000000
199.037900 80.000000
200.046100 1776.000000
201.028800 100.000000
201.052700 1132.000000
202.059300 138.000000
203.032500 172.000000
204.038300 116.000000
207.044600 110.000000
209.057900 214.000000
211.037600 566.000000
211.073100 102.000000
213.054200 1318.000000
214.060800 272.000000
215.069700 20482.000000
216.041900 216.000000
217.051900 92.000000
218.067800 108.000000
219.065800 218.000000
221.082000 86.000000
225.054100 1908.000000
226.001400 86.000000
226.061500 810.000000
227.072000 348.000000
228.040500 442.000000
229.047700 752.000000
235.039000 90.000000
239.070400 74.000000
241.048000 340.000000
242.057100 992.000000
243.064200 10832.000000
247.061300 104.000000
252.042900 128.000000
253.049100 9098.000000
254.052500 1084.000000
269.042000 220.000000
270.049900 100.000000
271.059200 14638.000000
273.064000 124.000000

