>compound RP69023800
>parentmass 312.2533
>ionization [M+H]+
>formula C18H33NO3
>rt 383.100000
>profile qtof
#smiles_iso CCCCCCCCCCCCCC(=O)NC1CCOC1=O
#smiles_can CCCCCCCCCCCCCC(=O)NC1CCOC1=O
#inchikey ZQAYHOXXVBVXPZ-UHFFFAOYSA-N
#pubchem_id 4534674
#mb_accession RP020601,RP020602,RP020603

>ms2
71.085400 54.000000
74.059900 210.000000
102.055300 290.000000
107.047200 52.000000
107.163800 46.000000
125.997000 40.000000
134.109900 38.000000
149.153500 56.000000
161.011700 36.000000
165.053500 60.000000
172.131700 52.000000
172.241200 42.000000
179.080100 36.000000
196.153100 40.000000
204.030700 56.000000
205.046400 40.000000
209.198900 46.000000
211.204200 612.000000
217.157800 50.000000
220.114300 42.000000
240.063600 64.000000
259.168700 64.000000
271.057700 88.000000
273.110800 54.000000
277.139800 72.000000
277.212400 48.000000
279.156200 52.000000
284.257400 112.000000
294.240400 304.000000
295.229000 52.000000
296.269100 88.000000
301.245800 38.000000
309.205700 56.000000
310.210200 46.000000
311.164300 36.000000
312.253600 5938.000000

>ms2
57.069500 116.000000
67.054300 154.000000
70.040000 64.000000
71.084900 282.000000
74.022900 48.000000
81.069400 112.000000
82.073900 42.000000
85.100500 122.000000
102.054700 322.000000
109.100800 66.000000
121.098400 64.000000
127.072100 40.000000
140.067200 42.000000
175.145700 62.000000
203.140100 66.000000
211.206800 114.000000
212.211500 38.000000
229.242100 40.000000
260.158400 36.000000
271.132700 44.000000
273.181200 38.000000
274.186700 46.000000
294.241200 218.000000
315.191100 36.000000

>ms2
56.047300 106.000000
57.069500 124.000000
65.034800 42.000000
71.085100 412.000000
74.059600 292.000000
81.069200 130.000000
84.043800 42.000000
85.101300 98.000000
90.054200 44.000000
102.054400 64.000000
123.117400 68.000000
135.006300 88.000000
266.011700 62.000000
315.241600 36.000000

