>compound RP70414963
>parentmass 396.3472
>ionization [M+H]+
>formula C24H45NO3
>rt 434.340000
>profile qtof
#smiles_iso CCCCCCCC/C=C\CCCCCCCC(=O)N[C@@H]([C@@H](C)CC)C(=O)O
#smiles_can CCCCCCCCC=CCCCCCCCC(=O)NC(C(C)CC)C(=O)O
#inchikey TYWACVZIFBZIQZ-BSFUXZNJSA-N
#pubchem_id 52922065
#mb_accession RP029801,RP029802,RP029803

>ms2peaks
86.095800 18934.000000
132.102200 9430.000000
350.341700 10768.000000
351.346400 1572.000000
378.337100 11410.000000
379.339500 2168.000000
396.347200 301708.000000
398.353400 11340.000000

>ms2peaks
81.069200 804.000000
83.085100 810.000000
86.095700 194428.000000
95.084800 654.000000
97.100800 468.000000
109.101900 240.000000
132.101800 28868.000000
135.116200 202.000000
247.241300 1032.000000
248.243600 214.000000
265.251900 2436.000000
266.257900 526.000000
350.341700 20616.000000
351.345500 5432.000000
378.336900 2476.000000
379.340000 584.000000
396.347300 19034.000000
398.352700 534.000000
399.309400 396.000000

>ms2peaks
68.057500 242.000000
79.053800 2516.000000
81.069300 4812.000000
82.073300 374.000000
83.085000 5744.000000
85.101000 308.000000
86.095800 217824.000000
93.069600 1650.000000
95.085100 3330.000000
97.063800 242.000000
97.100800 1358.000000
107.085000 500.000000
109.101500 670.000000
121.101000 430.000000
132.101600 3280.000000
135.117200 266.000000

