>compound RP70264168
>parentmass 172.0968
>ionization [M+H]+
>formula C8H13NO3
>rt 133.380000
>profile qtof
#smiles_iso CCCC(=O)NC1CCOC1=O
#smiles_can CCCC(=O)NC1CCOC1=O
#inchikey VFFNZZXXTGXBOG-UHFFFAOYSA-N
#pubchem_id 443433
#mb_accession RP020101,RP020102,RP020103

>ms2
56.049000 608.000000
70.041100 114.000000
71.048200 51406.000000
74.059400 8302.000000
77.023300 52.000000
84.044500 240.000000
85.027600 178.000000
91.984800 60.000000
102.054800 23630.000000
109.065600 64.000000
117.091300 126.000000
144.102000 1438.000000
152.035700 202.000000
154.085500 3538.000000
155.088500 280.000000
166.997400 80.000000
168.041300 58.000000
172.096200 21402.000000

>ms2
57.032500 72.000000
71.048300 24774.000000
84.043900 1166.000000
85.028100 826.000000
102.054600 6064.000000
154.085600 606.000000

>ms2
57.031900 42.000000
71.048100 614.000000
84.080000 48.000000
85.028600 234.000000
145.988400 56.000000

