>compound RP70183122
>parentmass 243.2319
>ionization [M+H]+
>formula C15H30O2
>rt 422.160000
>profile qtof
#smiles_iso CCCCCCCCCCCCCCC(=O)O
#smiles_can CCCCCCCCCCCCCCC(=O)O
#inchikey WQEPLUUGTLDZJY-UHFFFAOYSA-N
#pubchem_id 13849
#mb_accession RP024801,RP024802,RP024803

>ms2peaks
59.995200 70.000000
69.069400 188.000000
71.085200 546.000000
82.229600 66.000000
85.100700 164.000000
87.043600 66.000000
89.059300 126.000000
99.117500 38.000000
103.075900 204.000000
107.085300 36.000000
109.065400 46.000000
111.117300 50.000000
117.092000 44.000000
121.100900 122.000000
125.046400 72.000000
133.145900 36.000000
140.116400 44.000000
143.985500 46.000000
145.120900 56.000000
152.143900 92.000000
173.154800 50.000000
194.103200 84.000000
199.016100 76.000000
205.195200 64.000000
207.212300 40.000000
223.181100 82.000000
223.205300 66.000000
226.098200 48.000000
227.152200 48.000000
227.162000 96.000000
232.171000 40.000000
243.232000 9454.000000

>ms2peaks
55.054300 162.000000
57.069700 608.000000
67.054100 198.000000
71.085200 750.000000
75.043400 40.000000
81.070600 92.000000
83.049800 114.000000
89.059400 260.000000
95.084700 94.000000
107.071300 86.000000
111.080400 72.000000
117.090700 42.000000
151.112000 56.000000
173.155300 36.000000
241.096700 68.000000

>ms2peaks
57.069600 170.000000
60.044400 54.000000
67.053700 70.000000
69.070500 186.000000
75.043600 82.000000
88.075700 42.000000
94.052500 36.000000
97.100300 54.000000
170.092800 54.000000

