>compound RP71817034
>parentmass 500.3039999999999
>ionization [M+H]+
>formula C26H45NO6S
>rt 232.980000
>profile qtof
#smiles_iso C[C@H](CCC(=O)NCCS(=O)(=O)O)[C@H]1CC[C@@H]2[C@@]1(CC[C@H]3[C@H]2[C@H](C[C@H]4[C@@]3(CC[C@H](C4)O)C)O)C
#smiles_can CC(CCC(=O)NCCS(=O)(=O)O)C1CCC2C1(CCC3C2C(CC4C3(CCC(C4)O)C)O)C
#inchikey BHTRKEVKTKCXOH-LBSADWJPSA-N
#pubchem_id 9848818
#mb_accession RP006201,RP006202,RP006203

>ms2peaks
201.340300 112.000000
246.328300 114.000000
253.297800 116.000000
336.326300 128.000000
339.269500 184.000000
385.080200 122.000000
394.250900 110.000000
397.091000 130.000000
417.984200 138.000000
424.177800 110.000000
459.216600 112.000000
463.082100 120.000000
463.283400 118.000000
463.301200 126.000000
463.320400 130.000000
463.343900 144.000000
464.282300 109334.000000
465.285600 30396.000000
466.284900 6902.000000
467.287700 540.000000
468.276800 142.000000
481.260700 142.000000
482.292800 48520.000000
483.296400 13224.000000
484.294600 2110.000000
486.298900 146.000000
500.303100 25416.000000
502.236200 114.000000
502.304700 1480.000000

>ms2peaks
126.022000 260.000000
149.130500 152.000000
175.147500 798.000000
189.163800 408.000000
201.163400 1226.000000
203.178200 178.000000
208.063500 1352.000000
213.165200 156.000000
215.178400 518.000000
229.192800 198.000000
243.208400 232.000000
257.190500 186.000000
263.270100 164.000000
276.131100 184.000000
288.126200 688.000000
290.147400 292.000000
300.127100 154.000000
302.142000 730.000000
314.143200 586.000000
316.158200 416.000000
321.258900 900.000000
322.257100 250.000000
328.156700 252.000000
330.172000 310.000000
339.267600 4806.000000
340.271200 1146.000000
342.171800 326.000000
354.173000 504.000000
355.177800 242.000000
356.188300 298.000000
368.188100 246.000000
370.208900 170.000000
382.204200 590.000000
383.206700 278.000000
463.251700 166.000000
463.274700 160.000000
463.315900 230.000000
463.338900 202.000000
464.282700 151016.000000
465.285600 50398.000000
466.285300 9194.000000
467.283300 1226.000000
482.292900 1430.000000
483.297400 396.000000

>ms2peaks
48.175000 44.000000
52.015600 36.000000
54.140200 44.000000
57.339100 56.000000
59.049600 68.000000
59.999500 56.000000
62.117600 60.000000
65.038900 50.000000
67.972100 40.000000
68.343500 86.000000
69.032600 88.000000
69.069400 350.000000
71.047800 38.000000
71.167500 62.000000
72.985400 50.000000
73.104600 56.000000
74.002400 38.000000
74.047200 42.000000
74.318400 78.000000
75.091600 46.000000
77.038300 120.000000
77.229000 80.000000
78.018900 78.000000
78.139900 60.000000
81.069300 2120.000000
82.031700 38.000000
83.040000 52.000000
83.048000 54.000000
83.085000 848.000000
83.169800 58.000000
84.083800 92.000000
85.064300 996.000000
86.051200 40.000000
86.093500 50.000000
87.078400 50.000000
87.173700 36.000000
87.268900 88.000000
88.203700 50.000000
90.185800 40.000000
92.140700 40.000000
92.176400 38.000000
92.328100 46.000000
93.008000 80.000000
93.057800 50.000000
93.069200 702.000000
93.129900 50.000000
94.025900 70.000000
94.056700 48.000000
95.354200 98.000000
96.068700 62.000000
96.088600 238.000000
96.149500 60.000000
97.064700 74.000000
97.100500 216.000000
98.071300 46.000000
99.137700 40.000000
99.183000 68.000000
99.292100 42.000000
100.014800 36.000000
101.037100 50.000000
102.039300 46.000000
102.312100 58.000000
104.049100 92.000000
105.069800 256.000000
106.073900 36.000000
106.163400 36.000000
106.217400 48.000000
107.039300 112.000000
107.055800 60.000000
107.085500 826.000000
108.011300 84.000000
108.084500 112.000000
109.067200 134.000000
109.101600 562.000000
109.157200 52.000000
109.251900 78.000000
110.151700 80.000000
111.117100 62.000000
111.232700 56.000000
112.296900 68.000000
114.075800 62.000000
114.281800 60.000000
116.043700 44.000000
117.069900 78.000000
117.135500 36.000000
117.168900 72.000000
117.175300 56.000000
118.069500 48.000000
118.123100 38.000000
119.008300 40.000000
119.084800 316.000000
119.131200 62.000000
119.172100 38.000000
119.208100 50.000000
119.969900 54.000000
120.105900 38.000000
120.153600 44.000000
121.100700 530.000000
121.978800 46.000000
122.025400 44.000000
122.102500 122.000000
122.167700 114.000000
123.056600 46.000000
123.080100 162.000000
123.087400 82.000000
123.145700 40.000000
123.223200 44.000000
123.349400 64.000000
124.005100 44.000000
124.325100 48.000000
125.097700 50.000000
125.233300 36.000000
126.020900 2686.000000
127.019700 180.000000
127.037100 64.000000
127.248800 36.000000
128.015500 126.000000
128.038200 88.000000
128.066700 44.000000
128.141700 98.000000
129.033000 54.000000
129.080900 60.000000
130.014800 88.000000
132.181700 54.000000
133.025700 94.000000
133.089300 46.000000
133.101300 290.000000
133.164600 56.000000
133.253700 84.000000
133.966400 40.000000
134.100600 72.000000
134.140900 50.000000
134.977100 42.000000
135.022100 36.000000
135.115900 326.000000
135.210100 76.000000
135.279200 38.000000
136.117100 90.000000
136.240700 58.000000
137.097300 126.000000
137.174600 42.000000
137.984500 46.000000
138.056100 58.000000
138.258600 44.000000
138.300100 82.000000
139.159100 44.000000
139.173500 102.000000
140.129200 48.000000
140.204400 36.000000
140.294500 50.000000
140.336200 60.000000
140.352000 42.000000
141.033800 64.000000
141.068500 46.000000
141.079700 42.000000
141.128200 46.000000
142.080900 70.000000
142.203600 40.000000
142.238600 60.000000
143.083700 56.000000
143.243600 52.000000
144.003600 42.000000
144.188100 84.000000
144.977200 72.000000
145.013600 54.000000
145.100600 432.000000
145.976400 52.000000
146.103600 134.000000
147.061700 88.000000
147.116900 888.000000
148.028300 46.000000
148.077600 58.000000
148.120000 166.000000
149.013100 70.000000
149.023100 60.000000
149.046400 118.000000
149.095100 146.000000
149.132400 1026.000000
150.135000 144.000000
150.165700 40.000000
151.110500 60.000000
151.206500 90.000000
151.955300 42.000000
151.964000 44.000000
152.065500 82.000000
152.114700 54.000000
152.295600 38.000000
152.963700 44.000000
153.071900 42.000000
153.157400 36.000000
153.186300 36.000000
153.205500 48.000000
154.025700 60.000000
154.156200 62.000000
154.196100 62.000000
154.214600 40.000000
154.982400 98.000000
155.086300 88.000000
155.121900 48.000000
155.966800 100.000000
156.090500 60.000000
156.195500 40.000000
157.196100 44.000000
157.261300 50.000000
157.288500 52.000000
158.104200 62.000000
158.234700 54.000000
159.085000 84.000000
159.116500 1508.000000
159.137500 134.000000
160.100200 76.000000
160.122000 58.000000
161.093700 156.000000
161.132200 1858.000000
162.049500 48.000000
162.081900 36.000000
162.099700 68.000000
162.135000 188.000000
162.189900 82.000000
163.013600 60.000000
163.054400 70.000000
163.110600 938.000000
163.147700 578.000000
163.973200 54.000000
164.115400 134.000000
164.151800 54.000000
165.022400 64.000000
165.064800 66.000000
165.125600 186.000000
165.156600 74.000000
165.164400 74.000000
165.205700 58.000000
166.049500 40.000000
167.074200 98.000000
167.129200 48.000000
167.275400 96.000000
167.952400 62.000000
167.981200 44.000000
168.235700 36.000000
168.325000 64.000000
169.100200 262.000000
171.045400 44.000000
171.115700 218.000000
171.162000 122.000000
171.187500 74.000000
171.960000 52.000000
172.056900 56.000000
172.116000 68.000000
172.145100 102.000000
172.247200 36.000000
172.961500 38.000000
173.133300 636.000000
173.187200 76.000000
174.089200 48.000000
174.133000 60.000000
174.191600 36.000000
175.111800 544.000000
175.147300 1874.000000
175.996300 36.000000
176.051200 48.000000
176.115400 56.000000
176.149600 142.000000
176.271100 92.000000
176.319500 36.000000
177.077500 86.000000
177.126500 1624.000000
177.162700 126.000000
178.078900 36.000000
178.130800 126.000000
179.131800 50.000000
179.189700 50.000000
179.977500 50.000000
180.031400 96.000000
180.048000 46.000000
180.134200 72.000000
180.989500 42.000000
181.103600 40.000000
181.955200 36.000000
182.044300 44.000000
182.106500 38.000000
182.963400 82.000000
183.039900 66.000000
183.076400 68.000000
183.116200 228.000000
184.119300 106.000000
184.159900 42.000000
185.079200 82.000000
185.094200 98.000000
185.132100 1040.000000
186.136600 50.000000
186.169500 82.000000
186.295600 36.000000
187.051000 58.000000
187.111800 116.000000
187.134600 52.000000
187.147900 834.000000
187.320800 44.000000
188.117500 42.000000
188.151500 176.000000
189.127100 386.000000
189.149100 200.000000
189.163600 1412.000000
190.093100 50.000000
190.130800 100.000000
190.166700 376.000000
191.142800 718.000000
191.177000 104.000000
191.947100 36.000000
192.069000 86.000000
192.085100 38.000000
192.145800 126.000000
192.181200 36.000000
192.221400 38.000000
192.302200 50.000000
193.051500 48.000000
193.062700 98.000000
193.148000 36.000000
194.033400 36.000000
194.045600 64.000000
194.118100 38.000000
195.062000 50.000000
195.116200 64.000000
195.136800 42.000000
196.172600 48.000000
197.131700 392.000000
198.133500 118.000000
199.147500 588.000000
199.173600 40.000000
199.957200 36.000000
200.150700 62.000000
200.224100 86.000000
201.163300 5718.000000
201.956400 56.000000
202.021100 70.000000
202.147800 62.000000
202.166100 946.000000
203.144600 526.000000
203.180100 600.000000
203.318000 48.000000
203.982600 50.000000
204.086900 70.000000
204.178800 86.000000
204.312800 50.000000
205.034900 38.000000
205.062200 46.000000
205.156100 106.000000
205.189100 64.000000
206.046000 46.000000
206.160800 110.000000
206.175500 56.000000
206.295400 36.000000
207.141100 54.000000
207.173300 82.000000
207.203800 40.000000
208.063400 4280.000000
209.049800 56.000000
209.064900 302.000000
209.131100 130.000000
209.216400 38.000000
209.326800 36.000000
210.025100 42.000000
210.063200 126.000000
211.054500 52.000000
211.126700 68.000000
211.147500 864.000000
211.285600 56.000000
212.021100 78.000000
212.149900 260.000000
213.075100 78.000000
213.163400 728.000000
213.250400 46.000000
214.165500 358.000000
215.179000 4494.000000
216.013100 40.000000
216.181600 726.000000
216.985300 50.000000
217.159200 370.000000
217.194000 476.000000
218.081900 50.000000
218.128700 38.000000
218.162000 128.000000
218.195500 100.000000
219.034200 50.000000
219.081700 44.000000
219.169400 44.000000
220.064200 80.000000
220.131800 86.000000
222.079100 296.000000
222.136300 48.000000
222.320700 48.000000
223.075000 64.000000
223.136800 50.000000
223.147600 62.000000
223.163500 56.000000
223.969000 44.000000
225.011600 46.000000
225.164100 732.000000
226.013000 88.000000
226.172000 166.000000
226.322100 54.000000
227.138800 42.000000
227.178300 826.000000
227.217200 124.000000
227.332400 130.000000
228.039700 62.000000
228.181300 120.000000
229.158400 1418.000000
229.195800 908.000000
230.162700 156.000000
230.200200 98.000000
231.173600 444.000000
231.211000 60.000000
232.115400 40.000000
232.227700 40.000000
234.078700 450.000000
234.102600 72.000000
235.082900 68.000000
235.321300 38.000000
236.002100 56.000000
236.097100 136.000000
236.201100 36.000000
236.276000 54.000000
237.049600 48.000000
237.162700 40.000000
237.275400 50.000000
237.944400 46.000000
238.310500 38.000000
239.178800 706.000000
240.181600 44.000000
240.199700 44.000000
240.326200 50.000000
241.150300 50.000000
241.194200 410.000000
242.196000 88.000000
242.325800 38.000000
243.172900 870.000000
243.210400 940.000000
244.214800 212.000000
245.190500 288.000000
246.200300 48.000000
246.240400 44.000000
247.161800 50.000000
248.096100 392.000000
249.271500 42.000000
250.112300 202.000000
251.011600 46.000000
251.177600 212.000000
251.321100 58.000000
251.338000 94.000000
252.102800 44.000000
252.183000 90.000000
253.108300 40.000000
253.195300 214.000000
254.202300 226.000000
255.115900 36.000000
255.212000 80.000000
257.190300 742.000000
257.225400 60.000000
258.040800 36.000000
258.085300 36.000000
258.138300 116.000000
258.194400 68.000000
258.230000 80.000000
259.206200 82.000000
259.260800 56.000000
259.957700 38.000000
259.980900 38.000000
260.097400 106.000000
260.971900 68.000000
261.101000 36.000000
262.110700 792.000000
262.328800 60.000000
263.108900 154.000000
263.204500 52.000000
264.103200 44.000000
264.127000 62.000000
264.222800 48.000000
265.119100 56.000000
265.131600 88.000000
265.194100 230.000000
266.200000 122.000000
267.207800 98.000000
268.214500 42.000000
268.326300 62.000000
269.189400 100.000000
269.973800 44.000000
270.113100 60.000000
271.205900 112.000000
272.213600 58.000000
273.127100 84.000000
273.211500 36.000000
273.227500 70.000000
274.113100 300.000000
274.285700 46.000000
275.034300 98.000000
275.116700 120.000000
275.214300 36.000000
275.304200 60.000000
276.101000 72.000000
276.126200 390.000000
277.129200 130.000000
278.139300 120.000000
278.196600 40.000000
278.245400 60.000000
278.299000 60.000000
279.090400 38.000000
279.207400 74.000000
280.213500 162.000000
281.176100 50.000000
281.195900 64.000000
281.225900 130.000000
282.232600 60.000000
282.298900 42.000000
283.203900 236.000000
283.236900 68.000000
283.320000 104.000000
285.035800 42.000000
285.079100 42.000000
285.228800 42.000000
285.256200 48.000000
286.112000 90.000000
287.024800 40.000000
287.119100 50.000000
288.125200 866.000000
289.129800 116.000000
289.201200 52.000000
290.036000 78.000000
290.131700 42.000000
290.992700 44.000000
291.147600 56.000000
293.040200 38.000000
293.159600 54.000000
293.179100 44.000000
293.226700 68.000000
294.128700 38.000000
295.244600 214.000000
295.312400 42.000000
296.070900 44.000000
296.130600 42.000000
296.245500 52.000000
297.045800 50.000000
297.220500 114.000000
297.233500 74.000000
297.256600 486.000000
298.222600 92.000000
298.260100 132.000000
300.125300 414.000000
300.184300 46.000000
301.101200 92.000000
301.134600 38.000000
301.185900 66.000000
302.141400 862.000000
303.147400 96.000000
303.944000 42.000000
304.136700 42.000000
304.155400 130.000000
307.077900 38.000000
308.968000 50.000000
311.161300 56.000000
311.235700 102.000000
311.273700 174.000000
311.292700 36.000000
312.277800 48.000000
314.075700 36.000000
314.143100 430.000000
315.145500 72.000000
316.032100 40.000000
316.156300 394.000000
316.210800 44.000000
316.261700 50.000000
317.158400 92.000000
318.152400 60.000000
318.172600 38.000000
320.237500 48.000000
321.257600 4678.000000
322.141000 62.000000
322.260400 1102.000000
323.270700 82.000000
324.275900 42.000000
325.967100 48.000000
326.105400 72.000000
326.971200 36.000000
328.155300 222.000000
329.270500 42.000000
330.171000 228.000000
331.191300 44.000000
332.304600 42.000000
339.268100 5102.000000
340.160800 114.000000
340.273300 1452.000000
341.156200 44.000000
341.273800 110.000000
342.175200 214.000000
342.274400 150.000000
343.179900 94.000000
344.192300 88.000000
345.021400 38.000000
348.232100 54.000000
350.177800 72.000000
351.991600 38.000000
354.174000 446.000000
355.175000 92.000000
356.089700 38.000000
356.189100 292.000000
357.197400 62.000000
357.276100 106.000000
358.139900 38.000000
358.212000 38.000000
364.192900 52.000000
368.187800 354.000000
369.188400 50.000000
370.197500 84.000000
371.205400 36.000000
371.216300 40.000000
374.248300 36.000000
379.046400 56.000000
380.065700 78.000000
381.199200 46.000000
382.207200 236.000000
382.240800 48.000000
383.201000 84.000000
384.161900 60.000000
394.207100 78.000000
401.991600 50.000000
406.012900 72.000000
408.217500 74.000000
410.213000 50.000000
422.236600 42.000000
426.093100 54.000000
430.117400 44.000000
447.249500 62.000000
452.003000 68.000000
463.183400 42.000000
463.276600 38.000000
464.282100 1726.000000
465.284500 530.000000
466.278900 96.000000
466.293900 74.000000
466.331200 40.000000
468.037700 48.000000
474.159600 44.000000
480.146600 68.000000
483.297800 42.000000
488.291900 42.000000
496.243900 62.000000

