>compound RP71671204
>parentmass 245.07679999999996
>ionization [M+H]+
>formula C9H12N2O6
>rt 41.880000
>profile qtof
#smiles_iso C1=CN(C(=O)NC1=O)[C@H]2[C@@H]([C@@H]([C@H](O2)CO)O)O
#smiles_can C1=CN(C(=O)NC1=O)C2C(C(C(O2)CO)O)O
#inchikey DRTQHJPVMGBUCF-XVFCMESISA-N
#pubchem_id 6029
#mb_accession RP031401,RP031402,RP031403

>ms2peaks
57.032600 152.000000
61.028700 36.000000
70.027700 126.000000
71.011700 110.000000
73.027800 142.000000
85.028000 146.000000
96.008800 52.000000
103.037900 96.000000
113.034300 11152.000000
115.038700 258.000000
130.011600 54.000000
133.049200 642.000000
134.053300 44.000000
198.072100 106.000000
200.992600 46.000000
209.050600 66.000000
220.058500 70.000000
227.067300 44.000000
245.075700 1594.000000

>ms2peaks
57.032500 418.000000
59.049000 110.000000
61.027100 182.000000
69.032300 386.000000
70.028300 556.000000
71.012200 180.000000
73.027700 704.000000
85.027900 362.000000
87.043100 340.000000
95.024200 80.000000
96.007900 226.000000
97.028700 230.000000
103.039400 108.000000
113.034400 11048.000000
114.015700 68.000000
115.038800 296.000000
122.060100 56.000000
133.052200 146.000000
166.050800 52.000000

>ms2peaks
55.016200 292.000000
57.032000 454.000000
59.048000 44.000000
61.028000 126.000000
68.012100 116.000000
69.032600 664.000000
70.027900 9138.000000
71.011600 622.000000
73.027100 474.000000
85.027400 206.000000
96.008300 1774.000000
97.003300 64.000000
97.028600 112.000000
113.034500 2686.000000
115.036500 54.000000

