>compound RP71179160
>parentmass 454.2928
>ionization [M+H]+
>formula C21H44NO7P
>rt 358.020000
>profile qtof
#smiles_iso CCCCCCCCCCCCCCCC(=O)OC[C@H](COP(=O)(O)OCCN)O
#smiles_can CCCCCCCCCCCCCCCC(=O)OCC(COP(=O)(O)OCCN)O
#inchikey YVYMBNSKXOXSKW-HXUWFJFHSA-N
#pubchem_id 9547069
#mb_accession RP026101,RP026102,RP026103

>ms2
216.061800 486.000000
313.273600 23346.000000
314.277200 2130.000000
393.240100 1818.000000
436.282400 61086.000000
437.285800 9704.000000
438.288900 964.000000
454.292700 375254.000000
456.299600 13072.000000

>ms2
64.063400 194.000000
71.085100 266.000000
142.026200 208.000000
155.010500 696.000000
173.019300 180.000000
198.051500 1252.000000
216.063400 2564.000000
217.065100 174.000000
239.236000 712.000000
282.278900 4638.000000
283.283100 670.000000
313.273500 164242.000000
314.277100 38198.000000
315.279800 2684.000000
393.239900 18618.000000
394.243700 3644.000000
395.249300 356.000000
436.282200 32578.000000
437.286000 7834.000000
438.287400 594.000000
454.292600 29672.000000
456.297500 862.000000

>ms2
59.004100 52.000000
63.198000 94.000000
65.038800 66.000000
66.009200 58.000000
66.221400 44.000000
67.053700 2496.000000
68.057300 252.000000
68.143400 48.000000
69.069400 2776.000000
71.084900 17156.000000
72.044400 62.000000
75.044600 142.000000
76.226500 64.000000
80.156700 42.000000
81.069500 3976.000000
83.085000 3188.000000
84.294200 84.000000
85.100900 6866.000000
86.015300 58.000000
86.130900 58.000000
88.005600 100.000000
89.059300 428.000000
91.001700 44.000000
92.062900 70.000000
95.085100 3906.000000
95.996700 44.000000
97.065000 60.000000
97.100700 1178.000000
98.983700 1408.000000
99.078900 158.000000
99.116900 364.000000
103.075200 316.000000
109.100400 1504.000000
110.106100 128.000000
111.115200 206.000000
111.207900 46.000000
112.145400 50.000000
113.132000 54.000000
114.045300 46.000000
114.198400 42.000000
116.992100 62.000000
117.063700 52.000000
119.021100 42.000000
119.091900 72.000000
120.098600 44.000000
121.302300 42.000000
122.117000 46.000000
123.116500 200.000000
123.230700 72.000000
124.016700 168.000000
124.950000 86.000000
124.997100 64.000000
127.149100 64.000000
128.001400 72.000000
129.091000 44.000000
130.099500 42.000000
131.104900 46.000000
131.201300 48.000000
132.218200 50.000000
138.006000 108.000000
144.185600 60.000000
144.315500 50.000000
146.078700 60.000000
147.118000 44.000000
147.992000 78.000000
148.288200 42.000000
149.117400 52.000000
150.032800 50.000000
150.255200 52.000000
151.149900 96.000000
153.059100 50.000000
154.308000 54.000000
155.010200 1232.000000
159.080400 46.000000
159.101600 56.000000
159.138700 70.000000
160.155800 56.000000
161.110000 44.000000
161.174700 48.000000
164.207300 50.000000
165.163800 58.000000
166.171500 48.000000
167.976100 70.000000
168.289500 66.000000
171.137900 46.000000
171.251900 44.000000
173.021000 304.000000
174.006000 48.000000
174.105600 48.000000
174.991000 44.000000
176.076600 64.000000
177.137000 44.000000
178.988600 80.000000
179.178100 74.000000
179.338100 44.000000
179.354400 62.000000
180.002400 46.000000
180.338100 74.000000
180.977100 48.000000
182.244700 100.000000
184.137600 42.000000
185.944500 46.000000
188.091200 100.000000
188.962400 50.000000
191.112300 46.000000
193.029600 88.000000
195.230600 46.000000
196.276100 126.000000
197.972100 44.000000
198.051700 182.000000
199.136000 44.000000
199.312400 42.000000
201.182300 118.000000
203.122100 64.000000
204.310700 64.000000
205.028400 52.000000
206.301400 52.000000
207.187100 42.000000
209.054100 52.000000
211.121300 58.000000
213.052100 48.000000
215.278900 86.000000
216.065600 104.000000
216.304100 44.000000
216.982000 60.000000
218.270700 52.000000
219.114900 100.000000
219.196300 46.000000
219.210100 94.000000
220.023500 76.000000
221.017000 94.000000
221.192100 42.000000
221.223500 100.000000
222.163700 60.000000
223.156000 56.000000
228.100200 66.000000
229.112600 94.000000
229.958800 46.000000
231.006500 44.000000
231.308300 44.000000
232.097700 64.000000
235.099900 44.000000
236.279500 64.000000
238.090900 72.000000
238.295800 78.000000
239.236500 772.000000
240.000500 44.000000
240.243100 130.000000
240.312800 42.000000
243.221900 62.000000
243.989400 102.000000
244.290200 48.000000
245.164700 66.000000
245.187700 78.000000
246.220700 44.000000
248.153800 42.000000
249.212800 58.000000
249.950200 64.000000
251.093800 62.000000
252.008400 44.000000
252.113400 72.000000
253.998500 46.000000
257.247000 606.000000
258.248600 174.000000
260.016200 44.000000
262.010800 44.000000
262.248500 46.000000
264.136300 56.000000
264.291900 64.000000
265.032500 46.000000
266.136000 96.000000
266.153600 64.000000
266.276600 64.000000
269.104500 102.000000
270.085100 110.000000
271.010300 74.000000
271.231300 74.000000
271.331200 44.000000
274.948800 54.000000
274.972200 60.000000
275.257400 120.000000
276.275300 80.000000
276.292700 54.000000
281.328500 68.000000
282.279000 10358.000000
282.990600 118.000000
283.282000 1712.000000
284.101700 48.000000
284.284900 182.000000
285.030400 88.000000
287.996000 44.000000
291.337200 42.000000
294.951000 64.000000
295.021800 76.000000
297.974300 44.000000
298.088400 52.000000
301.140200 76.000000
301.243600 72.000000
302.196200 50.000000
308.279900 44.000000
310.152200 48.000000
311.962200 46.000000
313.273700 40760.000000
314.277400 8122.000000
314.980900 42.000000
315.100500 56.000000
315.252300 74.000000
315.279600 594.000000
316.013700 42.000000
316.123500 50.000000

