>compound RP72080329
>parentmass 258.1084
>ionization [M+H]+
>formula C10H15N3O5
>rt 39.420000
>profile qtof
#smiles_iso CC1=CN(C(=O)N=C1N)[C@H]2[C@@H]([C@@H]([C@H](O2)CO)O)O
#smiles_can CC1=CN(C(=O)N=C1N)C2C(C(C(O2)CO)O)O
#inchikey ZAYHVCMSTBRABG-JXOAFFINSA-N
#pubchem_id 92918
#mb_accession RP032201,RP032202,RP032203

>ms2peaks
126.066200 136718.000000
127.069000 6170.000000
258.108200 90856.000000
260.113400 814.000000

>ms2peaks
57.032600 296.000000
61.027400 198.000000
69.032300 326.000000
73.028000 580.000000
83.060000 760.000000
85.027700 638.000000
87.043000 138.000000
103.039700 262.000000
109.039300 674.000000
115.038700 266.000000
126.066300 123752.000000
127.069100 6684.000000
128.070700 416.000000
133.048300 280.000000

>ms2peaks
56.997000 70.000000
57.032400 1228.000000
59.049100 112.000000
61.027900 608.000000
63.043300 110.000000
69.032600 1734.000000
71.012000 1326.000000
71.023000 1390.000000
73.027500 1088.000000
81.044100 6574.000000
82.028400 2230.000000
83.059900 31746.000000
84.044000 138.000000
85.027700 1084.000000
87.042700 126.000000
97.028200 212.000000
108.055600 9910.000000
109.039500 17428.000000
110.042400 648.000000
112.051300 88.000000
113.092200 74.000000
126.066400 66668.000000
127.069400 3176.000000

