>compound RP74109197
>parentmass 450.3214
>ionization [M+H]+
>formula C26H43NO5
>rt 283.440000
>profile qtof
#smiles_iso C[C@H](CCC(=O)NCC(=O)O)[C@H]1CC[C@@H]2[C@@]1(CC[C@H]3[C@H]2[C@@H](C[C@H]4[C@@]3(CC[C@H](C4)O)C)O)C
#smiles_can CC(CCC(=O)NCC(=O)O)C1CCC2C1(CCC3C2C(CC4C3(CCC(C4)O)C)O)C
#inchikey GHCZAUBVMUEKKP-GYPHWSFCSA-N
#pubchem_id 12544
#mb_accession RP005201,RP005202,RP005203

>ms2peaks
330.314800 210.000000
339.268000 856.000000
361.108400 202.000000
401.065800 224.000000
414.300300 110468.000000
414.320800 5830.000000
415.303900 26564.000000
416.306400 3196.000000
417.312100 228.000000
431.315400 222.000000
432.310800 201282.000000
433.313900 68512.000000
434.317900 7766.000000
435.319500 368.000000
450.321300 156346.000000
452.327900 6500.000000

>ms2peaks
76.038800 6862.000000
85.064700 356.000000
147.116000 342.000000
149.132500 336.000000
158.080900 2536.000000
161.131900 842.000000
175.147900 1310.000000
189.164200 1328.000000
201.163800 1726.000000
202.168100 428.000000
203.180900 416.000000
213.161300 328.000000
215.179300 1832.000000
224.127600 334.000000
226.144800 454.000000
229.195000 322.000000
238.144600 1922.000000
240.160000 310.000000
243.210900 544.000000
250.143100 402.000000
252.160200 1266.000000
257.190100 368.000000
264.158800 692.000000
266.175500 616.000000
278.175200 672.000000
280.189800 452.000000
292.191000 700.000000
304.190600 1072.000000
305.193100 302.000000
306.206200 516.000000
318.205900 378.000000
321.257700 5626.000000
322.262000 1146.000000
332.223400 1412.000000
339.268200 19476.000000
340.272400 4068.000000
341.274200 704.000000
396.289300 532.000000
414.299900 296488.000000
415.303500 100940.000000
416.306400 13464.000000
417.307700 680.000000
432.310800 52228.000000
433.314200 17072.000000
434.316600 1804.000000
450.320900 1244.000000

>ms2peaks
48.055700 82.000000
50.002900 82.000000
53.038200 68.000000
55.018400 152.000000
57.032300 60.000000
59.037000 86.000000
61.007400 60.000000
62.096200 52.000000
65.013800 50.000000
65.038200 232.000000
66.255800 52.000000
68.013300 84.000000
68.057400 220.000000
69.032800 230.000000
70.053200 76.000000
71.048500 220.000000
71.085300 62.000000
72.338700 68.000000
76.038700 49496.000000
77.095800 76.000000
78.042000 128.000000
79.053700 1872.000000
80.057400 78.000000
81.069400 11416.000000
82.073000 396.000000
83.048800 594.000000
83.085200 2574.000000
84.044800 96.000000
85.064300 10170.000000
87.052600 74.000000
88.299200 50.000000
90.029900 70.000000
90.088400 80.000000
91.054100 1570.000000
92.057800 148.000000
92.081700 104.000000
92.105000 68.000000
92.131400 102.000000
92.307900 56.000000
93.069700 4080.000000
94.039700 70.000000
95.085000 6942.000000
96.088600 350.000000
96.134700 58.000000
96.196000 64.000000
97.001300 86.000000
97.064300 326.000000
97.100400 710.000000
98.008300 52.000000
98.057400 188.000000
98.118300 54.000000
99.080000 142.000000
100.003600 68.000000
100.166200 64.000000
101.057600 76.000000
101.096300 50.000000
102.005200 64.000000
102.220700 64.000000
102.279900 94.000000
103.016400 50.000000
103.229300 54.000000
104.010700 66.000000
105.069600 2250.000000
105.150900 156.000000
105.171700 114.000000
106.073400 300.000000
106.216800 56.000000
107.085000 5616.000000
109.064800 336.000000
109.100600 3154.000000
110.001800 50.000000
110.010700 110.000000
110.034600 62.000000
110.246200 68.000000
111.018100 72.000000
111.080500 248.000000
111.117400 122.000000
111.253300 60.000000
111.268500 118.000000
112.037700 72.000000
112.075200 374.000000
113.095500 138.000000
114.020700 62.000000
114.031000 56.000000
114.054500 52.000000
114.089700 80.000000
114.132700 182.000000
115.074000 68.000000
115.285200 54.000000
117.069700 390.000000
117.138700 56.000000
117.286200 62.000000
118.040800 50.000000
119.085300 1974.000000
119.991900 50.000000
120.068100 66.000000
121.100700 2004.000000
122.014900 50.000000
122.069600 62.000000
122.103100 234.000000
122.282500 50.000000
123.018400 58.000000
123.080300 110.000000
123.117400 390.000000
123.239700 54.000000
123.254200 52.000000
123.292300 54.000000
124.005000 110.000000
124.124400 70.000000
124.154800 78.000000
124.168600 68.000000
124.284600 96.000000
125.095400 336.000000
125.219100 78.000000
126.079900 60.000000
126.092100 98.000000
127.000600 84.000000
127.012000 64.000000
128.036300 136.000000
129.069200 144.000000
129.988900 58.000000
130.042500 72.000000
131.085000 342.000000
131.151100 56.000000
132.016100 90.000000
132.207500 80.000000
133.100700 1382.000000
134.000400 50.000000
134.103200 56.000000
134.285400 104.000000
135.051900 60.000000
135.080300 138.000000
135.104800 90.000000
135.116800 998.000000
135.175000 66.000000
136.099600 70.000000
136.121800 202.000000
136.248900 62.000000
136.285200 50.000000
137.096100 296.000000
137.199300 72.000000
138.090000 212.000000
138.101200 52.000000
138.134100 62.000000
138.217800 70.000000
138.320400 60.000000
139.010500 76.000000
139.110100 58.000000
139.140900 68.000000
139.205400 94.000000
139.234800 100.000000
139.337200 62.000000
140.067600 50.000000
141.079700 88.000000
141.168500 90.000000
141.205400 60.000000
142.254300 76.000000
143.044000 58.000000
143.085100 298.000000
143.173500 60.000000
144.004100 54.000000
144.087100 158.000000
145.100900 1566.000000
146.060900 60.000000
146.083800 116.000000
146.104400 188.000000
146.113000 94.000000
146.190000 58.000000
147.116700 2396.000000
148.034900 62.000000
148.119500 394.000000
148.333200 74.000000
149.095000 240.000000
149.116400 90.000000
149.132600 1734.000000
149.200800 96.000000
150.045200 126.000000
150.113100 70.000000
150.135000 134.000000
150.317000 106.000000
151.110400 564.000000
152.041800 52.000000
152.080700 80.000000
153.000100 62.000000
153.113300 70.000000
153.128200 136.000000
153.149500 50.000000
153.229700 84.000000
154.077000 70.000000
154.120700 84.000000
154.228900 64.000000
155.055800 56.000000
155.085900 224.000000
156.066000 514.000000
156.090800 136.000000
157.082600 118.000000
157.101100 834.000000
157.236800 98.000000
157.282700 66.000000
158.081100 2808.000000
158.105700 212.000000
159.083800 286.000000
159.116400 2692.000000
160.087200 104.000000
160.120600 240.000000
160.264300 102.000000
161.131800 4464.000000
162.065000 118.000000
162.135700 408.000000
163.061100 96.000000
163.111700 1860.000000
163.147000 1048.000000
164.024800 54.000000
164.083800 98.000000
164.116000 194.000000
164.150500 74.000000
164.160800 60.000000
164.199300 50.000000
165.126200 286.000000
165.278100 50.000000
165.316400 54.000000
165.991700 58.000000
166.074300 52.000000
166.122000 316.000000
167.153400 58.000000
167.998200 72.000000
168.255000 74.000000
169.100600 862.000000
170.103400 70.000000
170.141300 64.000000
170.991500 62.000000
171.090200 72.000000
171.117100 988.000000
171.303300 86.000000
171.326400 60.000000
171.994100 80.000000
172.097300 406.000000
172.121900 146.000000
172.246900 84.000000
173.057400 118.000000
173.095600 202.000000
173.132400 1386.000000
173.174800 136.000000
174.055200 50.000000
174.066500 50.000000
174.135700 486.000000
175.111200 1266.000000
175.147800 3902.000000
176.056100 52.000000
176.064900 88.000000
176.115700 252.000000
176.139700 56.000000
176.151100 474.000000
176.213400 164.000000
176.278900 52.000000
177.126700 3730.000000
177.164300 196.000000
178.029200 102.000000
178.100300 54.000000
178.164800 82.000000
179.024500 64.000000
179.042900 56.000000
179.142300 82.000000
180.019100 60.000000
180.074100 58.000000
180.090100 82.000000
180.101300 94.000000
180.137800 130.000000
181.169100 52.000000
181.273400 66.000000
182.034600 64.000000
183.117400 608.000000
184.095900 370.000000
184.118600 70.000000
185.132600 2600.000000
186.034900 52.000000
186.112900 192.000000
186.135700 364.000000
186.256700 56.000000
187.110400 266.000000
187.147600 2766.000000
188.057700 58.000000
188.115100 120.000000
188.150800 276.000000
189.126700 1018.000000
189.163700 2026.000000
190.007800 56.000000
190.027500 60.000000
190.167400 510.000000
190.204800 56.000000
191.142500 1292.000000
191.261300 66.000000
192.057100 54.000000
192.076400 60.000000
193.142600 60.000000
193.159500 74.000000
194.114800 64.000000
194.197500 76.000000
195.115500 150.000000
195.133700 58.000000
195.172000 58.000000
196.099500 128.000000
196.128800 130.000000
197.132900 1126.000000
197.172100 94.000000
198.017900 76.000000
198.113400 394.000000
198.134400 96.000000
199.147900 1990.000000
199.997100 62.000000
200.127800 86.000000
200.151000 452.000000
200.214600 50.000000
200.278000 96.000000
201.163400 10318.000000
201.987200 70.000000
202.167700 1370.000000
203.142600 970.000000
203.179900 746.000000
203.238400 56.000000
204.066400 50.000000
204.119800 62.000000
204.183800 86.000000
204.276000 84.000000
205.029100 54.000000
205.142500 68.000000
205.160700 270.000000
205.188300 82.000000
206.077400 58.000000
208.064400 60.000000
208.084500 100.000000
208.132600 62.000000
209.129700 120.000000
210.110700 148.000000
210.133600 218.000000
210.184100 54.000000
211.148200 2696.000000
211.987900 154.000000
212.092500 98.000000
212.106300 122.000000
212.127900 954.000000
212.150800 496.000000
213.163500 2936.000000
214.133600 78.000000
214.144600 78.000000
214.166900 298.000000
215.141900 582.000000
215.179300 8206.000000
216.146500 102.000000
216.182600 1208.000000
217.158600 1202.000000
217.195000 736.000000
218.162900 166.000000
218.201400 178.000000
218.233300 58.000000
223.149700 190.000000
223.224300 50.000000
224.128600 350.000000
224.150500 144.000000
225.102100 120.000000
225.163800 1896.000000
226.144500 332.000000
226.166600 306.000000
227.144700 172.000000
227.179500 2038.000000
227.316200 104.000000
228.120800 118.000000
228.184100 512.000000
228.340000 60.000000
229.159000 2254.000000
229.195400 1638.000000
229.981000 52.000000
230.008100 56.000000
230.161200 258.000000
230.198600 208.000000
231.077800 90.000000
231.175200 1474.000000
232.067200 56.000000
232.133300 106.000000
232.262900 92.000000
233.188700 132.000000
234.149700 114.000000
234.335900 62.000000
235.000600 50.000000
235.163700 90.000000
235.994700 62.000000
236.030100 60.000000
236.123500 64.000000
236.152500 50.000000
237.161000 294.000000
237.317400 52.000000
238.080800 60.000000
238.143100 1062.000000
238.332700 56.000000
239.146400 166.000000
239.179400 2844.000000
240.158700 232.000000
240.182300 602.000000
241.000200 68.000000
241.037100 78.000000
241.194700 1348.000000
241.217600 86.000000
242.042900 54.000000
242.197600 332.000000
243.097000 88.000000
243.174300 1502.000000
243.210900 1292.000000
244.064900 60.000000
244.176700 180.000000
244.215000 278.000000
245.187000 402.000000
245.290700 52.000000
245.305200 50.000000
246.039700 94.000000
246.192100 168.000000
246.236100 62.000000
247.170400 84.000000
248.126400 54.000000
248.157600 68.000000
248.200800 54.000000
248.235000 52.000000
249.161900 74.000000
250.145100 388.000000
250.166700 78.000000
251.130100 78.000000
251.181000 628.000000
251.302300 76.000000
251.982100 54.000000
252.159500 860.000000
252.183200 134.000000
252.325100 62.000000
253.031600 62.000000
253.123500 88.000000
253.165700 128.000000
253.194400 638.000000
254.175800 144.000000
254.202900 2448.000000
255.177200 98.000000
255.208400 1452.000000
256.215400 216.000000
257.190200 2022.000000
257.223000 182.000000
258.193700 498.000000
259.207900 100.000000
260.307700 56.000000
261.172400 68.000000
264.127900 54.000000
264.159200 594.000000
265.029100 78.000000
265.139600 76.000000
265.163300 152.000000
265.195600 1234.000000
266.015900 52.000000
266.176800 590.000000
266.197200 208.000000
267.180500 104.000000
267.210700 370.000000
268.182100 64.000000
268.209200 66.000000
269.189000 174.000000
269.227200 106.000000
270.121800 54.000000
271.011300 50.000000
271.153600 70.000000
271.207400 208.000000
272.211400 94.000000
273.337400 50.000000
274.179700 86.000000
275.061900 68.000000
275.112400 58.000000
275.206700 70.000000
276.161500 60.000000
278.053000 66.000000
278.064300 56.000000
278.175900 252.000000
279.153300 108.000000
279.176000 98.000000
279.209900 766.000000
279.997300 70.000000
280.190500 154.000000
280.213200 250.000000
281.226300 314.000000
281.286500 50.000000
282.086000 70.000000
282.209200 60.000000
282.232600 116.000000
282.317000 72.000000
283.205700 436.000000
283.227200 50.000000
283.249000 62.000000
284.207400 136.000000
284.229700 60.000000
285.204600 62.000000
285.221600 352.000000
285.263500 56.000000
285.337400 76.000000
286.231800 80.000000
287.194200 80.000000
288.193200 94.000000
289.120200 52.000000
291.134600 52.000000
291.973600 72.000000
292.191000 356.000000
293.195600 192.000000
293.229500 246.000000
294.230300 142.000000
295.240400 582.000000
296.254200 70.000000
297.221900 760.000000
297.257100 1418.000000
298.225100 178.000000
298.259900 234.000000
299.022500 124.000000
299.268700 60.000000
301.181700 68.000000
301.237900 76.000000
301.285900 78.000000
302.232100 50.000000
304.191600 544.000000
305.195500 168.000000
306.205400 352.000000
306.237600 152.000000
307.237000 50.000000
308.138200 94.000000
308.222900 76.000000
308.272500 50.000000
309.228000 50.000000
311.238600 260.000000
311.275200 356.000000
312.280000 168.000000
314.175700 72.000000
314.246300 64.000000
315.013200 64.000000
315.313300 50.000000
316.078800 50.000000
317.103100 50.000000
318.206100 574.000000
319.209800 68.000000
319.231700 50.000000
320.221400 88.000000
320.253400 102.000000
321.257700 15470.000000
322.262000 3936.000000
323.063200 50.000000
323.264400 402.000000
325.157300 64.000000
332.046800 50.000000
332.222100 390.000000
333.226900 162.000000
334.235600 82.000000
339.269100 15818.000000
340.272300 4376.000000
341.008300 58.000000
341.273000 362.000000
344.222200 62.000000
345.161300 52.000000
346.238700 126.000000
351.269100 58.000000
356.267700 50.000000
357.279700 220.000000
358.236200 102.000000
368.293400 134.000000
369.295600 84.000000
381.017800 52.000000
391.096600 66.000000
396.291300 376.000000
398.122100 68.000000
398.338300 62.000000
409.270800 68.000000
410.127000 52.000000
414.300700 4538.000000
415.304500 1236.000000
416.276100 74.000000
416.307300 188.000000
444.140600 58.000000
459.268700 98.000000
459.286600 104.000000
483.236000 68.000000

