>compound RP75089343
>parentmass 356.3523
>ionization [M+H]+
>formula C22H45NO2
>rt 466.140000
>profile qtof
#smiles_iso CCCCCCCCCCCCCCCCCCCC(=O)NCCO
#smiles_can CCCCCCCCCCCCCCCCCCCC(=O)NCCO
#inchikey AUJVQJHODMISJP-UHFFFAOYSA-N
#pubchem_id 3787294
#mb_accession RP002401,RP002402,RP002403

>ms2peaks
338.341200 332.000000
339.325600 1150.000000
340.330400 346.000000
355.280700 706.000000
356.352200 316338.000000
358.358700 9472.000000

>ms2peaks
57.257600 96.000000
67.053600 494.000000
69.069800 424.000000
71.085100 2532.000000
81.069300 868.000000
83.085200 830.000000
85.064100 94.000000
85.100600 1610.000000
86.060300 80.000000
89.011300 80.000000
95.085300 1196.000000
97.101000 482.000000
99.116800 208.000000
101.022100 92.000000
109.101700 472.000000
111.117600 286.000000
113.133600 82.000000
123.116500 134.000000
143.355200 96.000000
145.204400 102.000000
146.034100 74.000000
146.079700 80.000000
149.165300 74.000000
150.008700 76.000000
151.148100 90.000000
168.280200 74.000000
177.103600 78.000000
183.211400 102.000000
184.319400 80.000000
187.325000 116.000000
190.321400 92.000000
210.020700 76.000000
217.133700 78.000000
224.342200 78.000000
244.204900 84.000000
248.006900 76.000000
248.297000 78.000000
277.287100 226.000000
278.293900 128.000000
280.273000 92.000000
290.053900 94.000000
293.127300 100.000000
295.300600 598.000000
296.306400 176.000000
317.233200 88.000000
327.089900 94.000000
338.341700 4958.000000
339.325400 24752.000000
340.329400 5042.000000
341.332000 420.000000
345.134600 80.000000
355.281100 792.000000
355.309900 98.000000
356.352200 72556.000000
358.308700 100.000000
358.357000 1822.000000

>ms2peaks
52.039300 50.000000
54.128200 50.000000
58.086100 72.000000
59.331300 60.000000
61.040200 48.000000
64.063700 68.000000
66.255600 36.000000
67.053600 4420.000000
68.057800 170.000000
69.069300 2450.000000
71.084900 12158.000000
73.027600 110.000000
79.053700 114.000000
81.069200 2696.000000
83.085000 1216.000000
85.100600 3534.000000
91.999900 52.000000
93.070100 40.000000
95.085200 2392.000000
97.062600 58.000000
97.101300 478.000000
101.060100 46.000000
109.101300 320.000000
111.117100 94.000000
123.113700 60.000000
124.119600 62.000000
132.326400 58.000000
150.017400 48.000000
168.135900 38.000000
168.288700 68.000000
184.144500 72.000000
191.046400 76.000000
235.073800 36.000000
258.208600 36.000000
270.110600 76.000000
283.301400 44.000000
287.138200 54.000000
333.280200 50.000000
338.341400 3976.000000
339.325900 1046.000000
339.344800 840.000000
340.011300 42.000000
340.350800 64.000000

