>compound RP76888437
>parentmass 316.2482
>ionization [M+H]+
>formula C17H33NO4
>rt 263.580000
>profile qtof
#smiles_iso CCCCCCCCCC(=O)OC(CC(=O)[O-])C[N+](C)(C)C
#smiles_can CCCCCCCCCC(=O)OC(CC(=O)[O-])C[N+](C)(C)C
#inchikey LZOSYCMHQXPBFU-UHFFFAOYSA-N
#pubchem_id 10245190
#mb_accession RP024901,RP024902,RP024903

>ms2
85.027700 64660.000000
155.143100 2338.000000
257.174400 37402.000000
316.248900 1497086.000000
318.254100 37890.000000

>ms2
71.085000 9440.000000
81.069200 9624.000000
85.028300 1442982.000000
95.085100 8676.000000
137.131900 1554.000000
144.102100 12468.000000
155.142800 36782.000000
173.153300 2518.000000
257.174300 170496.000000
259.180500 1968.000000
316.247900 654978.000000
318.254100 12404.000000

>ms2
69.069300 4726.000000
71.084900 38184.000000
81.069400 16336.000000
84.080400 14204.000000
85.028300 1443534.000000
89.059200 1838.000000
95.085300 11812.000000
129.078000 1536.000000
144.101300 4552.000000

