>compound RP76752999
>parentmass 255.0652
>ionization [M+H]+
>formula C15H10O4
>rt 215.160000
>profile qtof
#smiles_iso C1=CC(=CC=C1C2=COC3=C(C2=O)C=CC(=C3)O)O
#smiles_can C1=CC(=CC=C1C2=COC3=C(C2=O)C=CC(=C3)O)O
#inchikey ZQSIJRDFPHDXIC-UHFFFAOYSA-N
#pubchem_id 5281708
#mb_accession RP018101,RP018102,RP018103

>ms2
199.074800 288.000000
254.057500 324.000000
255.064900 217636.000000

>ms2
137.022800 300.000000
145.028400 204.000000
181.063300 682.000000
199.074600 4486.000000
211.072800 256.000000
227.070200 2682.000000
237.054200 770.000000
253.051100 216.000000
255.064800 202218.000000
257.070400 2946.000000

>ms2
46.005000 98.000000
48.992200 42.000000
50.047100 46.000000
56.025400 38.000000
63.080400 54.000000
67.054500 74.000000
70.077900 38.000000
73.051900 58.000000
74.010900 44.000000
77.010800 36.000000
77.022800 56.000000
77.998100 72.000000
80.049000 66.000000
81.032800 3032.000000
82.036600 244.000000
83.045200 58.000000
83.994900 40.000000
85.028000 38.000000
86.072200 52.000000
88.075300 50.000000
91.053600 18048.000000
92.026400 64.000000
92.057500 798.000000
92.981800 58.000000
93.057800 54.000000
93.065400 72.000000
95.023300 70.000000
102.989900 44.000000
103.054300 152.000000
104.069800 70.000000
105.032500 676.000000
106.041200 852.000000
107.046000 134.000000
109.038000 64.000000
112.031300 54.000000
115.054100 258.000000
116.058600 84.000000
117.033500 50.000000
117.068900 38.000000
118.041000 214.000000
119.001200 94.000000
119.048800 1132.000000
119.060300 136.000000
120.040800 40.000000
120.054100 54.000000
121.027500 536.000000
122.032400 36.000000
123.031600 38.000000
123.039000 60.000000
123.991200 36.000000
124.017000 68.000000
125.983400 44.000000
125.997700 110.000000
126.989100 42.000000
127.039500 126.000000
127.055200 38.000000
127.076300 52.000000
128.061500 1022.000000
129.028600 78.000000
129.070700 704.000000
131.048100 504.000000
132.017800 66.000000
132.066800 46.000000
133.089500 58.000000
134.035200 240.000000
135.989400 88.000000
137.022400 2530.000000
138.026600 330.000000
142.078100 78.000000
143.001400 38.000000
143.084700 208.000000
144.005400 38.000000
144.057600 96.000000
145.027700 648.000000
145.064100 104.000000
147.044100 124.000000
148.047900 48.000000
149.023100 290.000000
149.055200 48.000000
150.027200 44.000000
151.015100 68.000000
151.028700 52.000000
151.039300 66.000000
151.054200 750.000000
152.061100 6944.000000
153.068900 5822.000000
154.073700 494.000000
155.048900 170.000000
155.057500 156.000000
155.068800 52.000000
156.057600 60.000000
157.064500 1022.000000
158.068300 178.000000
159.044500 96.000000
160.029900 42.000000
163.039600 38.000000
163.054600 190.000000
164.062100 54.000000
165.069900 328.000000
166.072000 38.000000
167.032300 40.000000
168.057100 144.000000
169.064400 684.000000
169.987300 44.000000
171.079700 2096.000000
172.012700 36.000000
172.028400 52.000000
175.017000 42.000000
175.038100 142.000000
178.063400 56.000000
179.059200 194.000000
181.064600 14422.000000
182.069700 1928.000000
183.040500 106.000000
183.074800 310.000000
183.090200 38.000000
184.051600 1824.000000
185.024800 102.000000
185.058300 514.000000
186.045600 66.000000
186.061800 226.000000
187.040900 128.000000
187.061000 64.000000
190.996800 40.000000
197.059600 1450.000000
198.066700 1492.000000
199.075100 10930.000000
200.047100 106.000000
201.064800 58.000000
208.010100 58.000000
208.050600 48.000000
209.059900 950.000000
210.020200 54.000000
210.031800 104.000000
210.069400 472.000000
211.075400 212.000000
212.046200 332.000000
213.054300 206.000000
219.046000 62.000000
225.052500 464.000000
226.063000 238.000000
227.070000 4296.000000
235.069500 52.000000
237.055200 2598.000000
238.026000 58.000000
238.058800 664.000000
239.056400 46.000000
255.064900 4206.000000
257.067100 234.000000

