>compound RP76365189
>parentmass 183.08630000000002
>ionization [M+H]+
>formula C6H14O6
>rt 36.120000
>profile qtof
#smiles_iso C([C@H]([C@@H]([C@H](C(CO)O)O)O)O)O
#smiles_can C(C(C(C(C(CO)O)O)O)O)O
#inchikey FBPFZTCFMRRESA-NQAPHZHOSA-N
#pubchem_id 71308275
#mb_accession RP022901,RP022902,RP022903

>ms2
59.049300 52.000000
61.027800 874.000000
69.032900 20826.000000
70.077000 46.000000
71.013300 112.000000
71.036200 162.000000
71.048800 680.000000
81.033000 828.000000
82.036500 64.000000
83.048800 2862.000000
84.052400 36.000000
85.028300 1764.000000
87.043600 1526.000000
91.038300 586.000000
95.992600 58.000000
99.044300 844.000000
101.058800 172.000000
111.044000 1500.000000
112.048200 52.000000
117.053600 160.000000
118.999500 64.000000
129.054500 2034.000000
130.057200 116.000000
130.083200 62.000000
130.111100 40.000000
133.046600 48.000000
140.022600 66.000000
147.065100 2618.000000
165.075700 3728.000000
167.078300 76.000000
183.086000 4614.000000

>ms2
49.015500 48.000000
51.022800 48.000000
55.017500 502.000000
55.053700 652.000000
67.053700 270.000000
69.032900 20186.000000
73.027900 748.000000
73.064300 62.000000
75.044000 66.000000
81.032800 1104.000000
82.038000 76.000000
83.048700 4358.000000
84.052200 416.000000
85.027600 3794.000000
87.043900 864.000000
91.039500 116.000000
99.043600 654.000000
101.058700 48.000000
103.038500 234.000000
111.044700 702.000000
112.048300 58.000000
129.055000 118.000000

>ms2
59.049000 38.000000
61.028100 608.000000
63.081100 48.000000
65.046800 86.000000
69.032800 5390.000000
71.012300 76.000000
71.033500 42.000000
74.056900 38.000000
81.033300 156.000000
81.042000 54.000000
82.036900 112.000000
83.048300 582.000000
85.028900 254.000000
99.043800 94.000000

