>compound RP76657280
>parentmass 516.299
>ionization [M+H]+
>formula C26H45NO7S
>rt 222.600000
>profile qtof
#smiles_iso C[C@H](CCC(=O)NCCS(=O)(=O)O)[C@H]1CC[C@@H]2[C@@]1(CC[C@H]3[C@H]2[C@@H]([C@@H]([C@H]4[C@@]3(CC[C@H](C4)O)C)O)O)C
#smiles_can CC(CCC(=O)NCCS(=O)(=O)O)C1CCC2C1(CCC3C2C(C(C4C3(CCC(C4)O)C)O)O)C
#inchikey XSOLDPYUICCHJX-QZEPYOAJSA-N
#pubchem_id 11954195
#mb_accession RP026801,RP026802,RP026803

>ms2peaks
462.266600 6014.000000
463.270900 910.000000
479.315300 192.000000
480.277300 50994.000000
481.281000 10108.000000
482.281100 2254.000000
483.280800 268.000000
498.288100 106764.000000
499.291800 29662.000000
500.289300 6206.000000
501.291000 738.000000
515.254800 298.000000
515.286900 246.000000
516.298900 187704.000000
518.300800 16868.000000
519.301000 2182.000000

>ms2peaks
126.022100 2790.000000
159.115400 318.000000
161.129600 270.000000
208.065700 304.000000
223.152400 232.000000
300.126900 220.000000
302.143800 264.000000
319.243300 788.000000
337.252400 6868.000000
338.255700 990.000000
352.159900 194.000000
355.263100 7910.000000
356.267800 984.000000
357.270700 188.000000
382.202600 222.000000
450.266700 304.000000
452.281000 330.000000
462.266900 64030.000000
463.270400 15236.000000
464.270400 3386.000000
465.270000 422.000000
479.269100 234.000000
479.298700 254.000000
479.312300 286.000000
480.277500 182184.000000
481.280900 63066.000000
482.280700 13094.000000
483.280700 1878.000000
498.288100 41772.000000
499.292200 12528.000000
500.290200 1974.000000
501.289900 388.000000
516.299400 4834.000000
518.299000 268.000000

>ms2peaks
47.237300 44.000000
52.005100 40.000000
52.275900 46.000000
54.291800 78.000000
55.053800 124.000000
56.062100 66.000000
56.155900 56.000000
59.182400 44.000000
60.003400 98.000000
62.071800 126.000000
62.166200 48.000000
64.026800 36.000000
67.169800 40.000000
68.057600 70.000000
70.159200 36.000000
70.286700 50.000000
71.273500 62.000000
73.109500 104.000000
73.253200 40.000000
74.064100 70.000000
75.022800 44.000000
75.961300 40.000000
76.203600 50.000000
77.038600 98.000000
77.120600 40.000000
77.136000 62.000000
77.153200 70.000000
78.055700 58.000000
79.053500 500.000000
80.052700 74.000000
82.032500 82.000000
83.048300 116.000000
83.085200 420.000000
84.068600 66.000000
84.280800 42.000000
85.064000 1916.000000
85.998900 64.000000
87.034900 46.000000
87.177800 38.000000
87.256100 62.000000
88.128300 38.000000
88.299500 36.000000
89.093900 64.000000
89.116300 52.000000
89.271400 64.000000
90.057600 48.000000
90.102000 38.000000
91.054300 182.000000
91.066000 68.000000
92.120000 64.000000
92.996800 84.000000
93.151800 46.000000
93.212700 52.000000
93.242300 38.000000
94.073400 72.000000
95.085300 1362.000000
95.258900 76.000000
95.991100 36.000000
97.056200 68.000000
97.064200 210.000000
97.202800 42.000000
99.100100 104.000000
99.182300 40.000000
99.197400 68.000000
100.148500 46.000000
100.315900 46.000000
101.059200 42.000000
102.124300 46.000000
102.221800 76.000000
102.295600 36.000000
103.992000 50.000000
104.979100 36.000000
105.041900 46.000000
105.068800 708.000000
105.173300 64.000000
106.032300 46.000000
106.135900 48.000000
107.076600 74.000000
107.084700 650.000000
107.141500 80.000000
107.166100 36.000000
107.209900 38.000000
107.264000 54.000000
107.273100 84.000000
108.010700 1078.000000
108.993600 60.000000
109.015700 60.000000
109.100500 624.000000
109.309800 42.000000
110.027900 36.000000
110.087300 60.000000
110.103100 90.000000
110.117300 54.000000
110.156900 54.000000
110.209600 54.000000
110.353200 64.000000
111.013900 80.000000
111.065400 42.000000
111.078200 56.000000
111.946500 44.000000
111.985600 102.000000
112.055800 70.000000
112.112600 48.000000
112.170700 48.000000
112.992300 112.000000
113.097500 38.000000
113.993400 42.000000
114.051200 80.000000
114.145100 94.000000
114.153100 64.000000
115.115800 68.000000
115.271900 74.000000
116.012900 76.000000
116.062400 50.000000
117.035600 52.000000
117.098500 106.000000
117.208700 62.000000
118.001200 54.000000
118.109500 46.000000
119.040000 48.000000
119.046300 62.000000
119.075900 46.000000
119.084700 588.000000
119.201700 66.000000
120.065500 36.000000
120.085200 64.000000
121.083800 54.000000
121.100900 522.000000
121.161300 74.000000
121.216800 68.000000
121.289700 60.000000
121.968500 84.000000
122.011700 76.000000
122.101600 70.000000
122.110000 62.000000
122.172000 60.000000
122.211400 52.000000
123.003700 44.000000
123.080300 238.000000
123.128900 58.000000
123.136700 38.000000
123.202500 40.000000
124.118300 130.000000
124.131700 38.000000
124.144000 58.000000
124.203900 38.000000
124.969900 40.000000
125.001100 44.000000
125.007600 66.000000
125.074900 74.000000
125.094400 170.000000
125.192300 36.000000
126.021900 14422.000000
126.985600 52.000000
127.025200 426.000000
127.193300 38.000000
127.210800 82.000000
127.263700 56.000000
127.998400 46.000000
128.017800 512.000000
128.252800 50.000000
129.071000 112.000000
129.151800 80.000000
129.213100 42.000000
129.243600 48.000000
129.314400 40.000000
130.003200 58.000000
130.138800 46.000000
130.234200 84.000000
131.083600 188.000000
131.153900 66.000000
131.240600 48.000000
132.077700 36.000000
132.092300 78.000000
132.114500 74.000000
132.190400 60.000000
132.267800 72.000000
133.017100 52.000000
133.033200 40.000000
133.055400 48.000000
133.099900 84.000000
133.150400 48.000000
134.074400 40.000000
134.104600 74.000000
134.166800 104.000000
134.340200 54.000000
135.046100 40.000000
135.078100 56.000000
135.116600 122.000000
135.236500 40.000000
135.295700 40.000000
135.956800 48.000000
135.984600 40.000000
136.058900 52.000000
136.116300 36.000000
136.134300 60.000000
136.170600 80.000000
136.194300 40.000000
137.095900 210.000000
137.248900 54.000000
137.978000 38.000000
138.032100 56.000000
138.070800 84.000000
138.089500 58.000000
139.017000 58.000000
139.067400 58.000000
139.107500 72.000000
140.090500 66.000000
140.113000 72.000000
140.184600 56.000000
141.129300 38.000000
141.336400 62.000000
142.078200 56.000000
142.133500 68.000000
142.160000 42.000000
143.007600 38.000000
143.044000 36.000000
143.083400 118.000000
143.108400 64.000000
143.999600 90.000000
144.073900 42.000000
144.093600 114.000000
144.104600 98.000000
144.285600 36.000000
144.345900 44.000000
144.363700 64.000000
144.993600 56.000000
145.088000 38.000000
145.101000 416.000000
146.102100 238.000000
146.227700 86.000000
147.084400 80.000000
147.101000 62.000000
147.117100 1056.000000
147.974900 68.000000
148.046000 42.000000
148.056200 52.000000
148.120000 106.000000
148.168900 78.000000
148.176400 82.000000
148.274900 58.000000
148.971200 44.000000
148.985900 38.000000
148.998600 82.000000
149.097300 66.000000
149.132300 384.000000
149.188000 54.000000
149.267900 38.000000
149.282700 90.000000
149.293400 38.000000
150.068200 94.000000
150.999300 48.000000
151.112300 252.000000
151.139500 78.000000
151.149300 48.000000
151.177600 58.000000
152.071400 68.000000
152.101600 64.000000
152.138700 72.000000
152.301700 42.000000
152.334000 48.000000
154.076200 36.000000
154.117300 42.000000
155.086300 172.000000
155.152200 38.000000
155.181900 48.000000
155.973900 44.000000
156.038500 36.000000
156.061600 50.000000
156.076100 48.000000
156.090500 72.000000
156.109800 56.000000
156.181400 38.000000
156.294000 48.000000
157.085100 56.000000
157.100700 572.000000
157.119300 50.000000
157.150300 56.000000
157.181800 94.000000
157.197000 36.000000
157.217400 60.000000
158.107400 88.000000
158.133600 68.000000
158.186600 38.000000
159.116700 4526.000000
159.945500 48.000000
160.003300 48.000000
160.087300 48.000000
160.098700 38.000000
160.120000 268.000000
160.145400 38.000000
160.180000 38.000000
160.333300 48.000000
161.132000 3012.000000
162.064100 78.000000
162.077500 62.000000
162.104200 46.000000
162.137200 402.000000
162.165000 40.000000
162.314800 36.000000
162.956100 44.000000
163.045700 44.000000
163.069900 74.000000
163.111700 576.000000
163.146600 156.000000
163.343900 48.000000
163.961700 64.000000
163.997800 40.000000
164.091000 48.000000
164.113400 80.000000
164.151300 88.000000
164.964800 56.000000
165.023000 46.000000
165.034200 116.000000
165.062700 92.000000
165.099100 84.000000
165.125500 196.000000
166.133000 56.000000
166.201600 86.000000
166.313800 48.000000
167.056700 86.000000
167.084500 94.000000
167.103600 46.000000
167.125700 46.000000
167.179900 70.000000
167.198400 56.000000
167.331400 44.000000
167.971000 56.000000
168.024400 80.000000
168.071900 46.000000
168.134300 38.000000
169.046000 62.000000
169.099200 118.000000
169.940600 58.000000
170.035600 42.000000
170.107800 86.000000
170.207000 36.000000
170.215200 74.000000
170.231400 44.000000
170.259200 110.000000
170.988400 58.000000
171.058300 42.000000
171.077900 46.000000
171.118100 486.000000
172.052700 52.000000
172.120200 192.000000
172.223500 48.000000
172.245500 38.000000
172.332800 38.000000
173.096300 132.000000
173.131500 1978.000000
173.949500 52.000000
174.008400 52.000000
174.030400 54.000000
174.075900 56.000000
174.135500 188.000000
174.241000 106.000000
174.263100 36.000000
175.052900 52.000000
175.111800 776.000000
175.147100 978.000000
175.173100 62.000000
175.245700 52.000000
175.312200 72.000000
176.088800 40.000000
176.117300 124.000000
176.140600 42.000000
176.151700 116.000000
176.203800 58.000000
176.989500 40.000000
177.057500 42.000000
177.126100 644.000000
177.159600 74.000000
177.207200 44.000000
177.288900 120.000000
178.018400 58.000000
178.026300 56.000000
178.111700 50.000000
178.131600 228.000000
178.180600 58.000000
178.345100 78.000000
179.020300 56.000000
179.040600 44.000000
179.076800 48.000000
179.090400 38.000000
179.133100 56.000000
179.148400 70.000000
179.199600 78.000000
179.257400 44.000000
180.028100 80.000000
180.044600 52.000000
180.088800 40.000000
180.135800 36.000000
180.143900 52.000000
180.256900 74.000000
180.294500 38.000000
181.014300 100.000000
181.033900 40.000000
181.099800 196.000000
181.125300 80.000000
181.141900 38.000000
181.256200 70.000000
181.978900 36.000000
182.064600 42.000000
182.075200 48.000000
182.082600 38.000000
182.172400 56.000000
182.217100 38.000000
182.227100 40.000000
183.079500 40.000000
183.116900 224.000000
183.208900 38.000000
183.291800 54.000000
183.302200 38.000000
183.968700 76.000000
184.057700 36.000000
184.070400 42.000000
184.129800 40.000000
184.196100 50.000000
184.229200 70.000000
184.274000 78.000000
185.093700 108.000000
185.132500 1784.000000
185.958200 36.000000
185.990900 66.000000
186.064900 38.000000
186.105700 46.000000
186.135400 252.000000
186.176800 62.000000
186.320400 58.000000
186.976500 76.000000
187.001100 74.000000
187.043300 56.000000
187.057700 60.000000
187.069800 42.000000
187.112700 198.000000
187.147800 496.000000
187.216100 40.000000
187.954100 48.000000
188.050600 40.000000
188.090500 38.000000
188.120300 98.000000
188.151600 36.000000
189.127200 988.000000
189.162600 358.000000
189.245200 68.000000
189.339400 70.000000
190.005000 62.000000
190.026600 94.000000
190.064000 48.000000
190.109300 82.000000
190.130800 124.000000
190.162700 44.000000
190.227200 36.000000
190.238800 36.000000
190.252800 70.000000
190.965000 64.000000
191.077800 58.000000
191.102800 48.000000
191.142000 708.000000
191.172500 36.000000
191.234000 56.000000
191.245000 44.000000
191.279700 40.000000
191.998700 38.000000
192.148500 106.000000
192.207400 56.000000
192.229600 38.000000
192.273900 94.000000
192.291500 48.000000
192.971500 44.000000
193.102000 38.000000
193.161700 68.000000
193.218700 38.000000
193.315900 82.000000
194.004000 54.000000
194.023000 44.000000
194.051400 60.000000
194.164800 72.000000
194.994600 62.000000
195.079200 60.000000
195.090900 66.000000
195.117700 234.000000
196.015500 64.000000
196.119200 62.000000
196.140800 78.000000
196.203900 44.000000
197.069600 52.000000
197.108200 42.000000
197.132000 718.000000
197.220500 44.000000
197.329300 44.000000
198.070500 44.000000
198.140700 98.000000
199.147200 3632.000000
200.004400 40.000000
200.120400 68.000000
200.130600 72.000000
200.152300 482.000000
201.014800 62.000000
201.124700 232.000000
201.143800 58.000000
201.163300 442.000000
201.212800 118.000000
201.284000 48.000000
201.299900 42.000000
201.323600 42.000000
201.352000 162.000000
202.014400 68.000000
202.036200 90.000000
202.126700 78.000000
202.164800 98.000000
202.183100 44.000000
202.237800 134.000000
202.328300 36.000000
203.099000 52.000000
203.115300 58.000000
203.141900 482.000000
203.181400 110.000000
203.329000 44.000000
203.955900 54.000000
204.008500 40.000000
204.040800 38.000000
204.146600 44.000000
204.185400 74.000000
205.002000 52.000000
205.159400 110.000000
206.045700 118.000000
206.283800 42.000000
206.963300 54.000000
207.114500 52.000000
208.064100 3524.000000
209.014200 52.000000
209.131700 992.000000
209.168400 82.000000
209.251700 88.000000
209.261500 104.000000
209.290500 70.000000
210.033500 42.000000
210.057200 90.000000
210.072300 98.000000
210.100000 44.000000
210.134600 274.000000
210.253500 40.000000
210.268200 40.000000
210.965700 80.000000
211.148100 1230.000000
212.028200 38.000000
212.054100 60.000000
212.112500 52.000000
212.150500 328.000000
213.128000 324.000000
213.162900 2762.000000
214.027900 36.000000
214.128500 158.000000
214.166500 478.000000
214.195800 38.000000
214.961000 48.000000
215.092500 38.000000
215.143800 402.000000
215.178700 504.000000
215.282100 38.000000
216.149600 82.000000
216.188100 48.000000
216.991000 44.000000
217.020100 36.000000
217.140000 44.000000
217.159300 352.000000
217.193800 80.000000
218.165800 62.000000
218.310800 142.000000
218.323900 42.000000
219.116000 52.000000
219.207300 36.000000
219.298900 74.000000
220.096500 50.000000
220.176700 40.000000
220.209800 80.000000
220.309400 124.000000
221.129200 50.000000
221.151200 56.000000
221.207600 48.000000
222.077900 128.000000
222.116700 50.000000
222.349700 36.000000
223.001200 62.000000
223.148600 1026.000000
223.976000 108.000000
223.996900 52.000000
224.104800 36.000000
224.136700 48.000000
224.148900 188.000000
225.163400 1098.000000
225.963300 36.000000
226.166200 120.000000
226.317000 38.000000
227.142100 1920.000000
227.178100 1042.000000
228.127300 46.000000
228.145800 262.000000
228.181200 242.000000
228.241900 44.000000
229.004100 56.000000
229.099700 90.000000
229.159500 610.000000
229.194000 94.000000
229.252300 64.000000
229.284300 92.000000
229.993800 52.000000
230.028100 36.000000
230.104500 70.000000
230.161800 198.000000
230.191400 36.000000
230.202200 84.000000
230.223800 40.000000
230.320000 38.000000
230.996500 52.000000
231.098000 40.000000
231.173300 186.000000
231.196600 44.000000
232.158900 48.000000
232.232500 38.000000
232.358900 40.000000
232.965100 44.000000
233.187800 118.000000
233.287900 54.000000
233.321800 36.000000
234.010300 116.000000
234.023100 42.000000
234.083400 88.000000
234.112600 42.000000
234.230100 66.000000
234.278300 36.000000
235.146600 118.000000
235.163700 100.000000
236.069200 88.000000
236.084200 38.000000
236.094500 100.000000
236.132100 72.000000
236.146500 124.000000
237.096800 48.000000
237.163800 630.000000
238.165800 164.000000
239.137700 56.000000
239.144400 88.000000
239.179100 962.000000
239.967800 46.000000
240.096900 50.000000
240.112700 42.000000
240.183200 160.000000
240.285600 52.000000
241.014200 42.000000
241.087100 76.000000
241.122500 66.000000
241.158000 780.000000
241.194200 788.000000
241.276900 62.000000
241.285100 62.000000
242.058600 44.000000
242.079200 54.000000
242.162200 170.000000
242.194400 144.000000
243.131700 62.000000
243.146800 52.000000
243.173500 292.000000
243.210900 80.000000
243.228300 42.000000
244.178100 46.000000
245.070600 86.000000
245.194700 102.000000
245.245500 36.000000
246.153300 44.000000
246.196400 54.000000
246.331000 36.000000
247.137200 36.000000
247.195500 36.000000
247.987300 36.000000
248.093600 152.000000
248.151200 36.000000
248.177800 36.000000
248.208300 40.000000
248.247300 54.000000
248.338100 44.000000
249.163500 210.000000
249.225500 58.000000
250.018100 48.000000
250.093300 42.000000
250.109700 100.000000
250.171100 48.000000
250.972800 58.000000
251.096600 72.000000
251.162700 66.000000
251.178400 392.000000
252.029900 40.000000
252.112300 98.000000
252.153600 72.000000
252.185800 258.000000
252.976300 36.000000
253.084000 76.000000
253.136300 58.000000
253.154700 56.000000
253.194700 430.000000
253.279700 48.000000
254.153200 58.000000
254.172700 70.000000
254.201200 326.000000
255.172100 508.000000
255.209600 356.000000
256.096900 36.000000
256.178600 78.000000
256.213100 40.000000
257.094400 52.000000
257.106200 36.000000
257.188700 368.000000
257.993800 36.000000
258.082400 56.000000
258.092800 48.000000
258.180900 40.000000
258.192700 84.000000
259.168600 100.000000
259.207500 48.000000
259.232300 48.000000
259.259400 60.000000
260.095700 130.000000
260.164200 80.000000
260.971500 60.000000
261.090700 46.000000
261.147600 38.000000
261.220600 56.000000
261.250300 38.000000
261.938600 80.000000
262.108600 316.000000
263.179300 692.000000
263.256000 42.000000
263.274600 64.000000
263.981200 38.000000
264.126700 72.000000
264.185200 160.000000
264.345000 42.000000
264.980200 42.000000
264.995700 70.000000
265.194100 186.000000
266.171400 40.000000
266.339600 80.000000
266.957200 52.000000
267.174100 252.000000
267.214800 100.000000
268.139600 72.000000
268.176100 88.000000
269.008200 36.000000
269.085300 40.000000
269.189500 368.000000
269.225500 50.000000
270.193400 332.000000
270.981900 40.000000
271.123500 80.000000
271.204300 238.000000
271.301600 60.000000
272.210700 106.000000
272.247700 48.000000
272.973500 44.000000
273.163800 36.000000
273.189300 148.000000
273.304700 58.000000
274.086100 52.000000
274.111700 130.000000
274.180400 66.000000
274.293000 94.000000
275.061700 56.000000
275.112400 36.000000
275.194300 44.000000
275.282700 70.000000
276.125700 206.000000
276.346700 56.000000
276.986200 86.000000
277.195800 404.000000
277.232600 38.000000
277.246900 64.000000
277.313200 36.000000
278.020500 46.000000
278.048000 62.000000
278.068400 102.000000
278.198700 58.000000
279.209400 246.000000
279.986700 40.000000
280.094400 38.000000
280.234900 40.000000
280.334300 44.000000
281.189900 394.000000
281.215000 144.000000
281.220800 146.000000
281.259700 36.000000
281.342900 58.000000
281.934500 40.000000
282.192000 128.000000
282.230100 50.000000
282.951600 36.000000
283.099400 50.000000
283.139800 40.000000
283.211700 80.000000
283.243700 90.000000
283.328200 50.000000
284.046100 38.000000
284.089100 62.000000
284.268900 62.000000
285.289700 36.000000
285.310000 38.000000
286.082700 84.000000
286.112000 102.000000
287.114600 56.000000
287.194400 44.000000
287.274300 48.000000
288.127400 690.000000
288.172200 42.000000
289.134600 112.000000
289.214800 88.000000
289.238900 46.000000
289.333100 64.000000
290.122000 78.000000
290.148300 154.000000
290.211300 42.000000
290.993400 46.000000
291.102200 36.000000
291.182400 36.000000
291.212300 170.000000
291.250600 130.000000
291.940300 54.000000
292.261200 66.000000
293.186200 36.000000
293.225800 348.000000
293.945000 78.000000
293.983400 42.000000
294.069400 70.000000
294.105900 72.000000
294.142700 72.000000
294.230500 202.000000
294.969900 66.000000
295.151000 60.000000
295.205100 410.000000
295.241400 834.000000
295.949500 46.000000
295.972200 46.000000
296.245500 372.000000
297.126300 56.000000
297.222700 64.000000
297.254600 40.000000
297.962300 38.000000
298.112200 54.000000
299.083500 44.000000
299.238600 52.000000
300.008400 76.000000
300.127500 748.000000
300.206800 64.000000
300.297500 60.000000
300.335000 46.000000
301.019900 42.000000
301.040200 56.000000
301.129000 96.000000
302.090100 44.000000
302.139000 428.000000
302.199700 74.000000
303.143400 116.000000
304.133500 106.000000
304.157300 80.000000
304.220300 58.000000
304.303100 42.000000
305.217600 82.000000
305.270800 48.000000
305.958200 124.000000
306.234000 48.000000
306.257600 98.000000
307.112800 62.000000
307.244700 160.000000
308.086500 48.000000
308.245500 78.000000
309.220600 188.000000
309.257300 2578.000000
310.145100 74.000000
310.153700 120.000000
310.222600 56.000000
310.261000 420.000000
311.017600 48.000000
311.130100 78.000000
311.146000 60.000000
311.238500 100.000000
311.263700 84.000000
311.987700 54.000000
312.011700 38.000000
312.028300 56.000000
312.056200 92.000000
312.120900 50.000000
313.238900 40.000000
313.254700 86.000000
314.142400 888.000000
315.143800 194.000000
315.264100 78.000000
315.316100 36.000000
315.960800 80.000000
316.004500 50.000000
316.129900 40.000000
316.156000 136.000000
317.159600 82.000000
317.230100 78.000000
317.306000 36.000000
318.077300 36.000000
318.190000 42.000000
318.200900 62.000000
318.278800 62.000000
318.289600 56.000000
319.241700 9776.000000
320.245100 2468.000000
320.979600 122.000000
321.040700 38.000000
321.251600 134.000000
321.276000 46.000000
321.350800 52.000000
322.033800 50.000000
322.276900 70.000000
323.344100 50.000000
324.942700 120.000000
325.230200 42.000000
325.251200 472.000000
326.142300 114.000000
326.225500 60.000000
326.254400 136.000000
326.291800 38.000000
326.971400 36.000000
327.268200 442.000000
328.158900 74.000000
328.268500 78.000000
329.165700 36.000000
329.285000 44.000000
330.178900 54.000000
330.248900 64.000000
330.968800 52.000000
333.135900 38.000000
333.221500 40.000000
334.100400 42.000000
334.987400 64.000000
336.151200 60.000000
336.252100 78.000000
336.337900 76.000000
337.252400 20294.000000
338.255500 4328.000000
339.259000 516.000000
340.049400 38.000000
340.162500 110.000000
341.189500 60.000000
342.175500 374.000000
342.197400 50.000000
342.307800 40.000000
342.983900 92.000000
343.168600 106.000000
346.013000 40.000000
346.947700 52.000000
347.076100 40.000000
348.364600 36.000000
349.097800 56.000000
349.114600 108.000000
352.157100 134.000000
353.103800 36.000000
353.162300 52.000000
353.187700 54.000000
353.326200 38.000000
354.173900 136.000000
354.281400 60.000000
355.263100 23340.000000
356.267000 4358.000000
357.004900 36.000000
357.183400 48.000000
357.196800 60.000000
357.271800 382.000000
358.201400 38.000000
358.276400 94.000000
359.136300 54.000000
360.166000 68.000000
361.942400 52.000000
362.067000 50.000000
362.252800 74.000000
364.258300 38.000000
366.169900 196.000000
367.176300 40.000000
368.016200 82.000000
368.181800 120.000000
368.363200 38.000000
369.102200 42.000000
369.194800 72.000000
373.082500 48.000000
373.266300 136.000000
375.257800 64.000000
377.232800 40.000000
377.979600 62.000000
378.165900 42.000000
379.284500 52.000000
382.199900 220.000000
383.206700 48.000000
384.149200 46.000000
386.279300 48.000000
389.024000 68.000000
391.042700 38.000000
394.105100 66.000000
394.124200 68.000000
394.203700 122.000000
395.241500 42.000000
396.236800 44.000000
397.229300 48.000000
398.006300 36.000000
406.228700 50.000000
408.213600 54.000000
417.191600 36.000000
419.282300 36.000000
420.221100 48.000000
422.065300 68.000000
422.124800 42.000000
424.237800 72.000000
426.263300 50.000000
428.107900 40.000000
433.051000 36.000000
435.978800 56.000000
437.198500 68.000000
444.251200 124.000000
445.206100 38.000000
450.267600 336.000000
451.264600 48.000000
452.131500 38.000000
452.292800 48.000000
453.289200 36.000000
454.991000 46.000000
460.125300 52.000000
462.266800 6822.000000
463.269700 1578.000000
463.985200 42.000000
464.124400 40.000000
464.267300 338.000000
464.344100 68.000000
465.264500 42.000000
470.084900 42.000000
474.961600 40.000000
480.277000 1854.000000
481.279200 452.000000
481.310500 50.000000
482.276100 92.000000
484.082900 58.000000
498.285700 62.000000
509.128000 60.000000
521.122300 66.000000

