>compound RP77762775
>parentmass 223.0965
>ionization [M+H]+
>formula C12H14O4
>rt 288.960000
>profile qtof
#smiles_iso CCOC(=O)C1=CC=CC=C1C(=O)OCC
#smiles_can CCOC(=O)C1=CC=CC=C1C(=O)OCC
#inchikey FLKPEMZONWLCSK-UHFFFAOYSA-N
#pubchem_id 6781
#mb_accession RP020001,RP020002,RP020003

>ms2peaks
149.022900 2160840.000000
150.026300 162598.000000
151.028200 12736.000000
177.055000 2272050.000000
178.057400 364968.000000
179.059800 28818.000000
223.096100 76466.000000

>ms2peaks
93.033100 3132.000000
121.028400 23280.000000
149.024000 2942974.000000
150.026600 536212.000000
151.028300 36828.000000
167.033500 8152.000000
177.054100 185402.000000
178.057600 18384.000000

>ms2peaks
80.025000 39516.000000
93.032600 929322.000000
98.035800 3788.000000
111.043700 181930.000000
112.047300 8722.000000
121.028300 1405836.000000
121.038600 739906.000000
122.031800 98380.000000
149.023300 1554624.000000
150.026700 133124.000000
151.028300 9960.000000
167.033300 2556.000000

