>compound RP77251924
>parentmass 285.083
>ionization [M+H]+
>formula C10H12N4O6
>rt 43.500000
>profile qtof
#smiles_iso C1=NC2=C(N1[C@H]3[C@@H]([C@@H]([C@H](O3)CO)O)O)NC(=O)NC2=O
#smiles_can C1=NC2=C(N1C3C(C(C(O3)CO)O)O)NC(=O)NC2=O
#inchikey UBORTCNDUKBEOP-UUOKFMHZSA-N
#pubchem_id 64959
#mb_accession RP012601,RP012602,RP012603

>ms2
55.018100 54.000000
57.031900 112.000000
61.027500 82.000000
69.032900 116.000000
73.028100 238.000000
80.047200 50.000000
84.053600 38.000000
85.028300 180.000000
87.043600 90.000000
93.052900 62.000000
97.027100 140.000000
110.071600 44.000000
115.039300 42.000000
127.025400 52.000000
129.017200 60.000000
133.048800 390.000000
134.052900 92.000000
138.032800 38.000000
149.096000 38.000000
152.027700 104.000000
153.040400 16918.000000
154.043800 626.000000
155.029400 40.000000
155.046300 38.000000
155.089900 40.000000
178.077900 54.000000
195.055800 40.000000
205.984500 44.000000
213.092300 126.000000
285.083000 3098.000000

>ms2
61.027800 184.000000
69.032700 466.000000
71.011400 104.000000
73.027700 658.000000
85.027600 380.000000
87.043500 110.000000
97.027800 310.000000
103.035500 72.000000
115.038900 216.000000
119.058300 60.000000
131.046900 38.000000
133.049000 212.000000
135.055200 44.000000
136.015800 40.000000
149.982000 56.000000
150.088100 52.000000
153.040100 9534.000000
154.026400 108.000000
154.036100 226.000000
154.045000 656.000000
155.046000 60.000000
157.029800 36.000000

>ms2
55.017300 256.000000
57.033500 544.000000
61.027900 336.000000
69.033400 336.000000
71.012200 640.000000
73.028100 646.000000
79.055000 50.000000
81.008900 56.000000
83.073400 60.000000
85.028200 376.000000
87.044500 40.000000
97.027300 90.000000
103.037900 92.000000
110.035300 272.000000
133.051900 62.000000
135.031500 46.000000
136.013800 490.000000
150.041400 70.000000
153.040300 1562.000000
154.023700 812.000000
154.044100 72.000000
155.029000 98.000000

