>compound RP77694481
>parentmass 169.0495
>ionization [M+H]+
>formula C8H8O4
>rt 83.220000
>profile qtof
#smiles_iso C1=CC(=C(C=C1O)CC(=O)O)O
#smiles_can C1=CC(=C(C=C1O)CC(=O)O)O
#inchikey IGMNYECMUMZDDF-UHFFFAOYSA-N
#pubchem_id 780
#mb_accession RP011801,RP011802,RP011803

>ms2peaks
87.043800 50.000000
110.008300 50.000000
123.043700 1222.000000
136.025300 46.000000
149.023700 694.000000
149.069600 86.000000
150.028300 250.000000
151.038300 966.000000
169.049700 264.000000

>ms2peaks
65.038100 492.000000
66.045700 54.000000
69.034000 58.000000
94.040800 70.000000
121.028500 94.000000
149.022100 126.000000
150.027100 44.000000

>ms2peaks
55.018100 164.000000
66.045900 186.000000
67.053900 1886.000000
68.058200 46.000000
77.038600 112.000000
95.048300 570.000000
123.044000 60.000000

