>compound RP78450514
>parentmass 103.0754
>ionization [M+H]+
>formula C5H10O2
>rt 196.500000
>profile qtof
#smiles_iso CC(C)CC(=O)O
#smiles_can CC(C)CC(=O)O
#inchikey GWYFCOCPABKNJV-UHFFFAOYSA-N
#pubchem_id 10430
#mb_accession RP015201,RP015202,RP015203

>ms2
86.023300 38.000000
86.060900 90.000000
87.043700 428.000000
100.075400 292.000000
101.060300 60.000000
103.074600 3654.000000

>ms2
58.064600 42.000000
61.039300 72.000000
103.075600 44.000000

>ms2
66.042500 38.000000

