>compound RP78426419
>parentmass 428.3734
>ionization [M+H]+
>formula C25H49NO4
>rt 366.300000
>profile qtof
#smiles_iso CCCCCCCCCCCCCCCCCC(=O)OC(CC(=O)[O-])C[N+](C)(C)C
#smiles_can CCCCCCCCCCCCCCCCCC(=O)OC(CC(=O)[O-])C[N+](C)(C)C
#inchikey FNPHNLNTJNMAEE-UHFFFAOYSA-N
#pubchem_id 6426855
#mb_accession RP025601,RP025602,RP025603

>ms2
85.027500 2236.000000
428.373400 631772.000000
430.379700 26378.000000

>ms2
71.085600 566.000000
85.027600 101966.000000
95.084900 588.000000
97.100800 628.000000
267.268500 2614.000000
369.299700 32276.000000
370.303200 6240.000000
428.373300 546412.000000
430.380200 21954.000000

>ms2
57.032400 2908.000000
71.084900 12028.000000
81.069400 3726.000000
83.085100 1716.000000
84.080000 826.000000
85.027700 575566.000000
95.085100 3152.000000
97.101000 1158.000000
109.100700 924.000000
144.101500 2814.000000
428.372800 1618.000000

