>compound RP78072231
>parentmass 271.0601
>ionization [M+H]+
>formula C15H10O5
>rt 236.280000
>profile qtof
#smiles_iso C1=CC(=CC=C1C2=CC(=O)C3=C(C=C(C=C3O2)O)O)O
#smiles_can C1=CC(=CC=C1C2=CC(=O)C3=C(C=C(C=C3O2)O)O)O
#inchikey KZNIFHPLKGYRTM-UHFFFAOYSA-N
#pubchem_id 5280443
#mb_accession RP015101,RP015102,RP015103

>ms2peaks
158.012200 260.000000
271.060100 217266.000000

>ms2peaks
153.019400 590.000000
271.060100 213792.000000

>ms2peaks
48.080800 168.000000
54.067900 92.000000
57.991800 74.000000
63.023200 112.000000
69.033100 648.000000
79.017500 126.000000
80.000000 48.000000
82.025300 46.000000
82.050400 44.000000
83.012500 298.000000
85.027800 190.000000
86.014700 50.000000
86.057600 124.000000
88.063600 46.000000
89.038200 104.000000
90.046000 46.000000
91.053600 7326.000000
92.996700 64.000000
95.049800 170.000000
98.031300 70.000000
99.064400 54.000000
101.084400 62.000000
103.997700 92.000000
105.066800 72.000000
105.990400 44.000000
107.012200 90.000000
107.049700 62.000000
111.007500 334.000000
112.031600 72.000000
117.020000 52.000000
117.042700 80.000000
118.036600 68.000000
119.048700 4124.000000
121.028400 1318.000000
122.031000 94.000000
122.045100 114.000000
125.024100 82.000000
126.007000 136.000000
127.085400 48.000000
128.035900 48.000000
129.005900 44.000000
129.020500 194.000000
129.991600 90.000000
131.021100 46.000000
135.022500 96.000000
137.018800 62.000000
137.045100 54.000000
137.981400 70.000000
140.050200 66.000000
141.070200 172.000000
142.059300 52.000000
143.029800 76.000000
145.028000 1370.000000
145.066100 86.000000
146.067400 50.000000
147.059900 80.000000
150.078300 72.000000
153.017700 17566.000000
154.021000 1316.000000
155.021300 116.000000
155.048500 204.000000
156.052400 48.000000
157.064100 108.000000
157.986900 58.000000
159.041600 120.000000
159.091700 66.000000
161.006700 92.000000
163.038500 1480.000000
164.005900 54.000000
164.041400 118.000000
167.032700 44.000000
169.025800 62.000000
169.065200 676.000000
170.068100 114.000000
171.028700 1470.000000
172.030900 148.000000
173.058800 344.000000
175.070500 56.000000
182.034500 54.000000
183.045400 74.000000
185.059900 170.000000
186.034900 50.000000
187.039300 414.000000
188.042900 44.000000
191.073700 58.000000
191.986100 52.000000
196.064100 58.000000
197.059000 788.000000
198.061800 94.000000
200.049100 106.000000
201.053700 138.000000
202.060800 202.000000
203.033900 64.000000
203.070500 196.000000
205.048200 116.000000
206.044500 64.000000
207.067900 94.000000
211.037200 100.000000
215.070300 186.000000
216.990600 78.000000
223.021800 50.000000
225.054400 1162.000000
226.058500 294.000000
228.985700 80.000000
229.049300 874.000000
230.007600 44.000000
230.052700 186.000000
231.052700 72.000000
233.019200 48.000000
235.037600 140.000000
235.085700 44.000000
242.058700 120.000000
243.065900 1894.000000
244.996300 122.000000
247.059500 76.000000
250.025300 116.000000
252.039100 94.000000
253.050400 720.000000
254.053200 94.000000
257.019600 86.000000
262.015400 122.000000
263.995300 50.000000
265.994200 66.000000
267.986400 98.000000
271.060200 43772.000000
274.022400 46.000000

