>compound RP78928451
>parentmass 216.12299999999996
>ionization [M+H]+
>formula C10H17NO4
>rt 158.640000
>profile qtof
#smiles_iso CCCC(CC(=O)NC1CCOC1=O)O
#smiles_can CCCC(CC(=O)NC1CCOC1=O)O
#inchikey CRCIHGGZGGATGM-UHFFFAOYSA-N
#pubchem_id 11579405
#mb_accession RP021401,RP021402,RP021403

>ms2peaks
73.064200 1388.000000
74.023000 2010.000000
84.043900 1238.000000
85.027100 180.000000
97.064500 5416.000000
98.068200 564.000000
102.054500 149760.000000
104.058800 648.000000
114.089000 190.000000
115.075100 686.000000
170.117700 1124.000000
180.102000 390.000000
188.129300 422.000000
198.111900 17964.000000
199.115300 1396.000000
216.122500 50432.000000
218.125800 282.000000

>ms2peaks
55.016800 328.000000
73.063900 8384.000000
84.044100 7768.000000
85.027800 1028.000000
97.064400 6468.000000
102.054700 71880.000000
114.090900 94.000000
115.075700 216.000000
152.105400 172.000000
170.117000 362.000000
180.100400 706.000000
198.112500 654.000000
216.121600 90.000000

>ms2peaks
54.046300 36.000000
55.016600 334.000000
55.075300 122.000000
61.016000 78.000000
67.017500 44.000000
68.057900 52.000000
71.047600 66.000000
72.007300 148.000000
73.063900 3464.000000
74.059300 13344.000000
75.043500 56.000000
76.026100 40.000000
76.063300 42.000000
79.053700 274.000000
84.043800 5484.000000
85.027900 1832.000000
95.049200 38.000000
96.080500 46.000000
97.065200 158.000000
102.054700 3380.000000
104.059000 36.000000

