>compound RP79690370
>parentmass 516.299
>ionization [M+H]+
>formula C26H45NO7S
>rt 212.940000
>profile qtof
#smiles_iso C[C@H](CCC(=O)NCCS(=O)(=O)O)C1CC[C@@H]2[C@@]1(CC[C@H]3[C@H]2[C@@H]([C@H]([C@H]4[C@@]3(CC[C@H](C4)O)C)O)O)C
#smiles_can CC(CCC(=O)NCCS(=O)(=O)O)C1CCC2C1(CCC3C2C(C(C4C3(CCC(C4)O)C)O)O)C
#inchikey XSOLDPYUICCHJX-HTWZWKQOSA-N
#pubchem_id 10436568
#mb_accession RP006501,RP006502,RP006503

>ms2peaks
337.251700 142.000000
355.263600 200.000000
427.338800 150.000000
462.267600 1902.000000
463.250600 146.000000
463.271900 412.000000
479.186800 144.000000
479.235800 150.000000
479.247200 174.000000
479.270300 288.000000
479.289300 140.000000
479.318400 296.000000
480.277700 138068.000000
481.280700 40900.000000
482.279500 8756.000000
483.278500 1208.000000
498.288100 12262.000000
499.292000 3122.000000
500.290600 882.000000
501.296000 250.000000
514.290800 142.000000
515.277100 248.000000
516.298800 53140.000000
518.301500 3048.000000
519.300200 522.000000

>ms2peaks
126.022800 798.000000
208.063300 314.000000
241.193100 158.000000
291.333900 160.000000
300.129500 182.000000
315.147200 150.000000
319.242100 496.000000
320.243500 228.000000
337.252800 6094.000000
338.255300 1204.000000
355.263200 7442.000000
356.266800 2136.000000
357.271200 218.000000
368.182400 170.000000
434.993800 172.000000
450.268600 486.000000
452.286500 186.000000
462.267100 31876.000000
463.270700 8166.000000
464.270800 1308.000000
465.276500 198.000000
479.223300 166.000000
479.275600 356.000000
479.297100 316.000000
479.332600 200.000000
480.277900 138068.000000
481.281000 47082.000000
482.281000 9740.000000
483.281900 1382.000000
484.282600 222.000000
498.286800 2756.000000
499.293800 874.000000

>ms2peaks
48.093800 68.000000
51.268400 38.000000
55.017500 40.000000
55.054000 50.000000
56.083100 44.000000
56.979900 50.000000
59.076800 92.000000
61.003300 44.000000
61.104000 46.000000
63.198200 80.000000
64.128100 44.000000
64.992400 110.000000
67.053600 358.000000
68.016700 48.000000
71.070200 70.000000
71.084900 50.000000
73.016000 40.000000
73.027000 46.000000
73.216700 50.000000
74.059700 46.000000
74.317300 42.000000
76.034000 70.000000
76.357700 50.000000
78.130900 74.000000
78.328800 70.000000
81.069600 1424.000000
82.042900 56.000000
83.048100 106.000000
83.086300 166.000000
83.152000 38.000000
84.003400 50.000000
85.064200 824.000000
86.287300 50.000000
88.035900 64.000000
88.087200 48.000000
88.125200 102.000000
88.206500 50.000000
89.080900 56.000000
89.982900 38.000000
90.011200 36.000000
90.046200 74.000000
90.972500 68.000000
91.002300 42.000000
91.044600 90.000000
91.054900 232.000000
91.974600 40.000000
93.069100 570.000000
94.026300 36.000000
94.089700 40.000000
95.048600 126.000000
95.084700 982.000000
96.101600 70.000000
96.138400 48.000000
97.101900 130.000000
98.039900 60.000000
98.095700 48.000000
98.116800 62.000000
99.081000 154.000000
101.105300 128.000000
102.016300 40.000000
102.052000 62.000000
102.282400 54.000000
103.074100 38.000000
104.016400 44.000000
104.118000 146.000000
104.163600 66.000000
105.017000 60.000000
105.070000 774.000000
106.073300 90.000000
106.313300 52.000000
107.085500 582.000000
108.012300 174.000000
108.067400 78.000000
108.142400 38.000000
108.159500 60.000000
109.055000 110.000000
109.084500 36.000000
109.100600 628.000000
109.237500 94.000000
109.995200 46.000000
110.058100 78.000000
111.147600 78.000000
112.080100 138.000000
112.209600 88.000000
112.231000 60.000000
112.977400 48.000000
113.008500 56.000000
113.047000 66.000000
113.084100 42.000000
113.101000 68.000000
113.177400 42.000000
113.214600 62.000000
113.291800 48.000000
114.985500 38.000000
115.133300 44.000000
115.206300 64.000000
115.248300 50.000000
116.291700 48.000000
116.981500 94.000000
117.029300 48.000000
117.068200 106.000000
117.975600 58.000000
118.172400 60.000000
118.229700 60.000000
118.990800 40.000000
119.068700 68.000000
119.086600 244.000000
119.151000 80.000000
119.294600 64.000000
121.101800 118.000000
122.017900 44.000000
122.122000 50.000000
122.139500 58.000000
122.156900 62.000000
123.081600 184.000000
123.116900 206.000000
123.130000 44.000000
123.964700 44.000000
123.983400 36.000000
124.058500 58.000000
124.118400 44.000000
124.248800 38.000000
125.013000 40.000000
125.097000 80.000000
126.021900 6002.000000
127.027500 90.000000
127.073300 36.000000
127.160500 76.000000
127.999800 42.000000
128.018100 146.000000
128.148100 42.000000
129.126600 38.000000
129.205500 40.000000
130.002300 80.000000
130.058500 44.000000
130.125600 72.000000
131.086500 212.000000
131.127400 46.000000
132.012500 62.000000
132.281000 52.000000
132.310200 46.000000
133.101800 246.000000
133.994000 64.000000
135.105600 64.000000
135.116400 136.000000
135.240100 38.000000
135.317300 66.000000
136.202500 54.000000
136.209300 52.000000
137.054600 40.000000
137.073100 56.000000
137.080400 50.000000
137.099800 60.000000
137.124700 46.000000
137.965000 38.000000
138.077900 40.000000
138.127300 94.000000
139.029500 42.000000
139.086500 50.000000
139.254500 42.000000
139.957100 50.000000
139.993400 38.000000
140.004600 36.000000
140.182600 52.000000
140.239100 58.000000
140.273100 68.000000
141.072200 52.000000
141.096900 58.000000
141.141300 56.000000
141.975100 44.000000
142.199300 36.000000
142.220600 44.000000
142.360800 38.000000
142.951600 88.000000
142.965800 60.000000
143.041900 60.000000
143.062500 46.000000
143.084400 192.000000
143.244300 56.000000
144.019500 38.000000
145.079100 48.000000
145.100500 706.000000
145.147500 50.000000
146.002700 68.000000
146.017200 50.000000
146.103300 90.000000
146.973700 58.000000
147.066400 58.000000
147.117800 460.000000
147.158500 46.000000
148.084400 66.000000
148.119200 98.000000
149.035100 40.000000
149.063900 40.000000
149.097300 58.000000
149.132000 328.000000
149.201900 44.000000
149.269100 84.000000
149.314500 72.000000
149.975100 62.000000
150.044400 42.000000
150.134700 76.000000
151.007100 46.000000
151.095400 52.000000
151.110400 72.000000
151.118900 124.000000
151.313000 42.000000
151.985300 66.000000
152.087600 48.000000
152.113200 58.000000
152.148100 52.000000
152.160000 50.000000
152.317000 44.000000
154.222000 36.000000
154.236700 44.000000
154.299400 36.000000
155.000100 74.000000
155.025500 40.000000
155.087400 80.000000
155.950700 66.000000
156.041900 86.000000
156.090100 114.000000
157.042800 56.000000
157.063600 36.000000
157.100300 584.000000
157.227400 42.000000
158.107700 140.000000
158.224900 54.000000
159.116700 1784.000000
160.119300 396.000000
160.202000 36.000000
160.269300 46.000000
161.095100 364.000000
161.132300 2238.000000
162.135200 246.000000
162.161000 46.000000
162.227300 88.000000
163.025100 96.000000
163.111300 844.000000
163.125100 92.000000
163.148500 140.000000
163.167700 70.000000
163.970000 82.000000
164.036700 108.000000
164.053100 40.000000
164.066500 40.000000
164.154000 86.000000
165.028400 52.000000
165.097600 52.000000
165.125500 98.000000
165.283100 94.000000
166.052300 44.000000
166.109000 92.000000
166.187100 78.000000
167.990100 60.000000
168.015700 60.000000
168.046900 38.000000
168.089300 66.000000
168.347100 44.000000
169.101000 236.000000
169.346400 40.000000
169.995700 38.000000
170.115900 50.000000
170.990100 40.000000
171.077500 96.000000
171.115900 398.000000
171.272600 82.000000
171.996500 36.000000
172.029300 48.000000
172.105200 50.000000
172.122100 96.000000
172.307400 46.000000
172.320100 72.000000
173.131600 1252.000000
173.984800 144.000000
174.134600 250.000000
174.999800 56.000000
175.111300 710.000000
175.147800 1044.000000
175.249500 56.000000
175.329200 112.000000
176.062000 56.000000
176.152600 122.000000
177.006200 42.000000
177.126400 678.000000
177.152400 54.000000
177.160200 48.000000
177.336300 44.000000
177.956500 98.000000
178.042100 76.000000
178.055800 36.000000
178.129900 124.000000
179.057400 66.000000
179.144400 130.000000
180.032600 46.000000
180.144400 84.000000
180.197600 72.000000
180.232400 38.000000
180.287300 68.000000
181.004000 48.000000
181.011100 56.000000
181.058100 40.000000
181.102200 98.000000
181.120000 48.000000
181.142800 68.000000
182.034200 84.000000
182.984000 114.000000
183.116000 246.000000
183.163400 40.000000
184.120000 70.000000
185.096600 84.000000
185.132200 774.000000
185.194900 48.000000
185.997700 36.000000
186.089800 92.000000
186.137500 126.000000
186.191600 38.000000
186.319500 62.000000
187.110300 178.000000
187.133100 82.000000
187.147200 498.000000
187.191700 64.000000
187.270700 62.000000
187.966900 36.000000
187.991800 50.000000
188.025100 44.000000
188.100700 70.000000
188.115300 48.000000
188.123500 46.000000
188.302300 40.000000
188.980800 52.000000
189.127400 524.000000
189.148300 70.000000
189.162800 208.000000
189.215300 72.000000
189.261900 40.000000
189.955800 96.000000
190.057300 52.000000
190.134800 96.000000
190.168300 54.000000
190.358100 60.000000
191.028300 46.000000
191.099100 56.000000
191.142600 638.000000
191.178500 44.000000
191.261600 52.000000
191.314500 44.000000
192.035000 44.000000
192.091400 38.000000
192.229400 78.000000
193.102200 102.000000
193.155300 76.000000
193.209400 46.000000
194.117900 44.000000
194.157400 54.000000
195.113900 196.000000
195.231000 90.000000
195.969800 44.000000
196.113200 76.000000
196.130300 76.000000
197.131900 434.000000
197.235200 54.000000
197.252000 46.000000
198.050500 40.000000
198.130300 94.000000
198.164200 46.000000
198.202900 38.000000
198.213900 36.000000
199.148400 2164.000000
200.042700 38.000000
200.066800 86.000000
200.153500 134.000000
200.275900 78.000000
200.999200 50.000000
201.125900 264.000000
201.163500 586.000000
201.306500 54.000000
202.130500 52.000000
202.167800 64.000000
202.196300 50.000000
203.068200 38.000000
203.141100 320.000000
203.176800 46.000000
203.185900 44.000000
203.988000 58.000000
204.081100 50.000000
204.147000 60.000000
204.181700 98.000000
204.208400 54.000000
204.944900 62.000000
205.121300 60.000000
205.313500 60.000000
206.048600 152.000000
206.160100 40.000000
207.064000 42.000000
207.115100 48.000000
207.174500 72.000000
207.240600 48.000000
207.277300 40.000000
207.316200 46.000000
208.063300 3604.000000
209.066200 250.000000
209.088900 50.000000
209.132800 922.000000
209.174100 62.000000
209.221800 48.000000
210.061800 126.000000
210.133500 140.000000
211.068300 42.000000
211.113700 72.000000
211.147700 812.000000
212.098300 36.000000
212.151600 92.000000
212.222800 36.000000
212.247000 70.000000
212.281400 50.000000
212.320700 60.000000
213.127400 582.000000
213.163300 1602.000000
214.005100 36.000000
214.051800 68.000000
214.133300 62.000000
214.165900 254.000000
214.308900 72.000000
214.359900 58.000000
214.983500 64.000000
215.144000 564.000000
215.167200 68.000000
215.178400 882.000000
216.003000 50.000000
216.143200 164.000000
216.180500 104.000000
216.285600 64.000000
217.159100 462.000000
217.179500 56.000000
217.212500 76.000000
218.015100 44.000000
218.038400 56.000000
218.157100 128.000000
218.266800 44.000000
218.323100 36.000000
218.945800 112.000000
218.956700 38.000000
219.038000 72.000000
219.152800 60.000000
219.171000 42.000000
219.219100 60.000000
219.278800 36.000000
219.956700 40.000000
220.016000 58.000000
221.117100 56.000000
221.136000 36.000000
222.078800 216.000000
223.088800 94.000000
223.148000 798.000000
224.151800 138.000000
224.163300 78.000000
224.238100 68.000000
225.163500 664.000000
225.264500 84.000000
225.288500 38.000000
226.030800 38.000000
226.041900 52.000000
226.168000 102.000000
226.237800 50.000000
226.290700 46.000000
227.142600 1170.000000
227.161200 66.000000
227.178800 1220.000000
227.286900 90.000000
227.963100 74.000000
228.147200 94.000000
228.183500 114.000000
228.227500 38.000000
228.246400 50.000000
229.159500 714.000000
229.191700 66.000000
229.979200 74.000000
230.053600 46.000000
230.084000 74.000000
230.164700 114.000000
230.256500 58.000000
231.005300 56.000000
231.022000 36.000000
231.160800 40.000000
231.174600 276.000000
231.215300 46.000000
232.001100 42.000000
232.144100 70.000000
232.175700 76.000000
232.277000 66.000000
233.028200 90.000000
233.258100 68.000000
233.961000 42.000000
234.078500 166.000000
235.148900 142.000000
236.045300 62.000000
236.091500 52.000000
236.230100 50.000000
237.149400 42.000000
237.163400 664.000000
237.189000 48.000000
237.276600 56.000000
237.956500 54.000000
238.129600 36.000000
238.169200 244.000000
238.251200 46.000000
238.978900 36.000000
239.179400 464.000000
239.231600 60.000000
240.011600 44.000000
240.083200 40.000000
240.183400 106.000000
240.211500 40.000000
240.969800 70.000000
241.122700 124.000000
241.158900 1380.000000
241.195200 944.000000
242.160400 128.000000
242.199400 226.000000
243.118100 88.000000
243.174300 470.000000
244.077000 56.000000
244.091500 38.000000
244.126800 58.000000
244.173700 104.000000
244.247500 70.000000
245.153400 100.000000
245.191100 78.000000
245.269400 58.000000
245.958100 50.000000
246.077600 46.000000
246.086100 48.000000
246.120600 64.000000
246.160200 42.000000
246.335600 78.000000
247.155400 42.000000
248.092900 190.000000
248.176700 68.000000
248.251100 50.000000
249.041600 74.000000
249.163600 210.000000
249.182300 68.000000
249.995500 44.000000
250.101700 40.000000
250.116000 104.000000
250.166300 152.000000
250.298900 54.000000
251.181500 194.000000
251.254700 42.000000
252.070300 40.000000
252.189900 100.000000
252.965400 36.000000
253.160900 160.000000
253.183500 108.000000
253.194800 304.000000
253.939700 66.000000
254.159500 52.000000
254.205400 168.000000
255.174300 478.000000
255.209200 262.000000
255.264000 38.000000
255.952900 84.000000
256.177700 142.000000
256.222400 70.000000
257.004500 90.000000
257.190600 348.000000
257.241400 40.000000
257.339100 38.000000
258.191400 96.000000
259.169600 44.000000
259.203900 48.000000
260.054700 36.000000
260.096800 112.000000
260.167100 40.000000
260.253400 42.000000
260.964700 64.000000
261.098900 58.000000
262.024900 58.000000
262.109200 324.000000
262.967100 44.000000
263.113500 110.000000
263.165200 102.000000
263.178500 696.000000
264.126000 68.000000
264.182100 70.000000
265.049300 50.000000
265.179900 44.000000
265.193800 62.000000
265.286200 40.000000
267.150300 60.000000
267.172900 198.000000
267.208700 274.000000
268.178600 38.000000
268.360000 40.000000
269.130200 56.000000
269.192800 176.000000
269.223300 36.000000
270.194300 48.000000
270.247000 44.000000
271.210700 56.000000
271.296000 36.000000
272.170400 38.000000
272.206600 52.000000
272.248600 40.000000
273.154200 50.000000
273.324300 98.000000
274.111600 400.000000
274.324300 40.000000
275.111600 124.000000
275.153000 50.000000
276.127300 164.000000
276.182800 60.000000
277.196200 430.000000
277.309800 38.000000
277.348700 38.000000
278.042300 68.000000
278.133400 58.000000
278.195800 130.000000
279.127500 50.000000
279.150400 36.000000
279.212000 126.000000
279.992400 98.000000
280.142500 40.000000
280.339500 38.000000
281.003200 48.000000
281.189800 428.000000
281.223100 138.000000
282.193800 122.000000
282.226600 92.000000
283.209000 108.000000
283.240600 66.000000
283.934300 42.000000
284.203800 56.000000
284.221400 76.000000
285.114700 42.000000
285.186900 40.000000
286.113300 84.000000
288.104000 106.000000
288.127000 720.000000
288.252200 66.000000
288.289400 44.000000
289.131000 192.000000
289.174000 90.000000
290.139100 52.000000
290.331200 60.000000
290.351800 48.000000
291.043700 42.000000
291.212400 262.000000
292.193200 38.000000
292.211800 70.000000
292.222800 62.000000
292.236600 42.000000
293.227400 302.000000
294.228600 68.000000
294.264200 42.000000
295.207600 380.000000
295.241700 990.000000
296.208500 300.000000
296.243000 126.000000
297.226900 60.000000
298.110300 92.000000
298.187800 38.000000
298.227700 54.000000
298.297400 48.000000
299.205300 90.000000
300.127900 860.000000
301.130600 240.000000
301.151400 84.000000
301.313200 62.000000
302.112100 100.000000
302.143400 246.000000
303.025100 68.000000
303.144400 84.000000
304.146600 68.000000
304.947000 46.000000
306.106100 38.000000
306.156900 38.000000
306.967600 42.000000
307.003500 62.000000
307.037700 42.000000
307.188700 38.000000
307.242200 308.000000
307.279500 56.000000
307.950300 40.000000
308.136100 52.000000
308.247900 130.000000
309.128100 102.000000
309.219200 192.000000
309.257500 1258.000000
310.219700 84.000000
310.262100 242.000000
311.222200 90.000000
312.176100 48.000000
312.316900 46.000000
313.255400 40.000000
314.053300 54.000000
314.143000 902.000000
315.143300 42.000000
315.158000 40.000000
316.156500 114.000000
317.215700 78.000000
318.057800 38.000000
319.242400 7494.000000
320.245300 1928.000000
321.050800 44.000000
321.227500 36.000000
321.248400 188.000000
321.287900 48.000000
322.189600 50.000000
322.227500 60.000000
322.968500 42.000000
325.253100 702.000000
326.143900 152.000000
326.251800 102.000000
326.263400 82.000000
326.968200 70.000000
327.045800 40.000000
327.236400 36.000000
327.266600 214.000000
328.156400 306.000000
328.288200 48.000000
329.063400 40.000000
330.036500 38.000000
334.018300 44.000000
334.150800 84.000000
334.164900 60.000000
334.256200 36.000000
335.238800 114.000000
336.238600 50.000000
337.252800 18716.000000
338.256500 4658.000000
339.074800 40.000000
339.137400 54.000000
339.259700 278.000000
340.156700 110.000000
340.194000 74.000000
340.264600 82.000000
341.166400 64.000000
342.174100 112.000000
343.040300 36.000000
344.124700 42.000000
344.275100 48.000000
348.356900 88.000000
349.979800 114.000000
351.194200 86.000000
351.311500 54.000000
352.038700 46.000000
352.157100 54.000000
352.198300 46.000000
353.160900 46.000000
353.174500 72.000000
353.966900 84.000000
354.170600 180.000000
355.263500 2764.000000
356.184700 96.000000
356.266600 596.000000
357.029000 58.000000
357.132900 60.000000
357.262600 98.000000
357.278600 42.000000
366.173500 98.000000
367.170800 40.000000
368.193800 84.000000
369.192600 46.000000
370.245400 40.000000
370.330600 38.000000
371.251400 48.000000
373.060000 66.000000
376.218500 46.000000
378.300200 50.000000
379.080100 66.000000
380.186600 36.000000
382.204900 114.000000
384.210500 74.000000
384.348800 46.000000
387.028600 40.000000
388.114500 36.000000
392.186000 88.000000
394.204500 48.000000
396.009000 112.000000
396.222000 92.000000
397.216400 56.000000
398.007100 38.000000
403.347300 42.000000
406.209000 54.000000
408.196600 42.000000
408.229100 54.000000
410.104900 56.000000
419.125100 64.000000
420.218100 48.000000
422.061500 48.000000
433.327900 48.000000
435.245500 58.000000
444.253200 124.000000
444.293600 42.000000
444.339600 72.000000
445.259100 110.000000
446.101900 40.000000
446.263700 44.000000
450.172600 68.000000
450.267400 324.000000
451.270900 200.000000
452.259800 68.000000
453.186500 44.000000
453.273900 52.000000
453.287500 50.000000
454.162900 58.000000
455.335500 38.000000
462.267500 5872.000000
463.052500 68.000000
463.270600 1324.000000
464.241600 40.000000
464.269000 396.000000
465.047000 42.000000
465.229300 50.000000
465.264100 78.000000
473.300400 38.000000
480.278300 338.000000
481.270900 108.000000
481.286300 212.000000
483.267400 48.000000
496.208700 46.000000
498.271100 44.000000
512.294000 44.000000
521.226600 46.000000
536.237400 52.000000
552.237700 56.000000

