>compound RP79359147
>parentmass 391.2843
>ionization [M+H]+
>formula C24H38O4
>rt 303.240000
>profile qtof
#smiles_iso C[C@H](CCC(=O)O)[C@H]1CC[C@@H]2[C@@]1(C(=O)C[C@H]3[C@H]2CC[C@H]4[C@@]3(CC[C@H](C4)O)C)C
#smiles_can CC(CCC(=O)O)C1CCC2C1(C(=O)CC3C2CCC4C3(CCC(C4)O)C)C
#inchikey CVNYHSDFZXHMMJ-VPUMZWJWSA-N
#pubchem_id 3080612
#mb_accession RP008101,RP008102,RP008103

>ms2peaks
309.257700 19674.000000
310.261400 2004.000000
319.242300 650.000000
327.268900 644.000000
337.252900 11186.000000
338.255100 1442.000000
355.263200 65498.000000
356.266500 10752.000000
373.273700 312094.000000
374.277300 78122.000000
375.280400 7466.000000
376.282200 572.000000
391.284300 449556.000000
393.291100 11504.000000

>ms2peaks
145.101100 3490.000000
146.104900 432.000000
147.116800 876.000000
149.131800 2116.000000
157.100600 244.000000
159.117300 1018.000000
161.131600 1266.000000
162.134900 296.000000
163.147800 1330.000000
164.151800 222.000000
171.114500 330.000000
173.131800 368.000000
175.148600 376.000000
177.164800 250.000000
179.104900 224.000000
181.122700 238.000000
185.131800 648.000000
187.147700 492.000000
189.162800 404.000000
191.105100 496.000000
193.122600 1206.000000
199.148200 1940.000000
201.163800 2298.000000
202.166000 340.000000
203.179800 540.000000
205.121500 692.000000
207.137400 286.000000
209.133100 514.000000
211.149600 496.000000
213.163300 1982.000000
214.165700 264.000000
215.179200 6698.000000
216.183400 730.000000
219.138900 780.000000
223.149900 568.000000
225.163500 462.000000
227.143500 1150.000000
227.178800 1780.000000
228.182900 418.000000
229.158700 1884.000000
229.195000 270.000000
231.138800 250.000000
231.174000 404.000000
233.154300 836.000000
235.168600 336.000000
237.163500 418.000000
239.178200 358.000000
241.160600 402.000000
241.195800 762.000000
243.175000 422.000000
243.211100 422.000000
245.153400 5910.000000
246.158700 714.000000
247.167800 1628.000000
248.172800 450.000000
253.197000 328.000000
255.173800 2846.000000
255.211100 500.000000
256.176800 596.000000
259.169000 2984.000000
260.173800 586.000000
261.186500 1774.000000
262.187200 238.000000
263.006300 244.000000
273.186000 720.000000
274.187600 376.000000
279.209500 554.000000
281.189300 414.000000
293.223700 332.000000
295.205200 740.000000
295.243500 512.000000
297.222400 514.000000
299.201800 480.000000
309.257500 200864.000000
309.278400 12302.000000
310.261000 48944.000000
313.216700 492.000000
319.242000 8738.000000
320.245400 1612.000000
321.249300 286.000000
327.267600 6540.000000
328.271400 1152.000000
337.252500 63114.000000
338.255300 13438.000000
355.263100 218738.000000
355.286500 13206.000000
356.266500 57372.000000
357.269600 4278.000000
373.273500 130654.000000
374.277300 40784.000000
375.280200 3144.000000
376.282700 276.000000
391.284300 6668.000000

>ms2peaks
48.244500 40.000000
49.252800 54.000000
49.999500 72.000000
51.994700 42.000000
52.039000 70.000000
53.070500 56.000000
53.096000 64.000000
54.046200 56.000000
55.075600 58.000000
56.061600 90.000000
62.047600 82.000000
62.060200 46.000000
64.124400 84.000000
66.042600 64.000000
66.198000 38.000000
71.073200 38.000000
72.080700 40.000000
73.051600 68.000000
73.065000 88.000000
75.011000 56.000000
78.006700 70.000000
78.033900 66.000000
79.026600 58.000000
79.974600 58.000000
81.184600 36.000000
82.041400 40.000000
82.074300 52.000000
82.193000 94.000000
85.986500 102.000000
88.112600 70.000000
89.026300 66.000000
89.154400 58.000000
90.078300 40.000000
90.090800 64.000000
90.161400 40.000000
91.099300 42.000000
91.973500 64.000000
92.037000 60.000000
92.270300 54.000000
93.033300 48.000000
94.286200 92.000000
95.106800 108.000000
97.036800 62.000000
97.217100 40.000000
99.022700 48.000000
99.102100 38.000000
100.038800 106.000000
100.111500 50.000000
101.010100 38.000000
101.212100 38.000000
101.268500 82.000000
102.046700 38.000000
102.102900 46.000000
104.177300 38.000000
105.221100 84.000000
107.049900 40.000000
107.069300 84.000000
108.135600 58.000000
108.243800 42.000000
109.038900 78.000000
109.075300 98.000000
109.158700 46.000000
109.195800 38.000000
109.237300 128.000000
110.022800 38.000000
110.056300 42.000000
110.166100 46.000000
111.022600 76.000000
111.304100 72.000000
112.018000 50.000000
112.047200 90.000000
114.032700 36.000000
114.039100 38.000000
114.046800 64.000000
114.077900 38.000000
114.125100 72.000000
114.275700 68.000000
115.014300 76.000000
115.227000 62.000000
116.070200 60.000000
116.981000 50.000000
116.996800 52.000000
117.137500 82.000000
117.257500 88.000000
119.071200 60.000000
119.081600 68.000000
120.028900 66.000000
120.045600 36.000000
120.080200 36.000000
121.097400 50.000000
121.290000 110.000000
124.002600 48.000000
124.074800 54.000000
125.037500 104.000000
125.091400 48.000000
125.116900 50.000000
126.042600 90.000000
126.076200 50.000000
126.124700 96.000000
127.001700 42.000000
127.026200 94.000000
127.075400 108.000000
127.998900 50.000000
128.069600 48.000000
128.144100 100.000000
128.155300 56.000000
128.249900 90.000000
129.077300 86.000000
129.205000 54.000000
129.221100 48.000000
129.992100 54.000000
130.026500 48.000000
130.049400 60.000000
130.098800 86.000000
130.109500 90.000000
130.134000 46.000000
131.034400 64.000000
131.067400 94.000000
134.003100 60.000000
134.056700 54.000000
134.080400 94.000000
134.109700 76.000000
135.022400 78.000000
135.064100 42.000000
135.117200 48.000000
135.150000 46.000000
135.252600 68.000000
136.006300 92.000000
136.095600 60.000000
136.145800 150.000000
137.094900 44.000000
138.066800 82.000000
138.075000 52.000000
138.196900 56.000000
139.063000 38.000000
139.113000 58.000000
140.020600 48.000000
140.094300 36.000000
141.069000 128.000000
141.220800 48.000000
142.017200 76.000000
142.063200 64.000000
142.099400 78.000000
142.109000 58.000000
142.147100 50.000000
142.212800 40.000000
143.085100 1368.000000
144.044200 56.000000
144.088200 374.000000
145.100900 17234.000000
146.104100 1936.000000
147.080800 258.000000
147.117000 3654.000000
148.062400 52.000000
148.073700 64.000000
148.119400 576.000000
148.165700 36.000000
148.275900 44.000000
149.095200 252.000000
149.132100 4884.000000
150.007400 36.000000
150.038700 50.000000
150.054500 56.000000
150.066700 60.000000
150.136300 676.000000
150.198100 40.000000
151.001100 90.000000
151.074600 54.000000
151.112300 174.000000
151.996600 40.000000
152.026800 170.000000
152.049400 48.000000
152.079700 114.000000
152.118300 62.000000
152.981500 84.000000
153.053800 36.000000
153.069500 228.000000
153.088400 46.000000
153.242400 48.000000
154.040200 54.000000
154.076500 62.000000
154.170500 54.000000
155.046200 52.000000
155.058300 62.000000
155.084600 690.000000
155.118800 50.000000
155.165000 60.000000
155.983600 84.000000
156.069700 44.000000
156.091800 336.000000
157.100900 5168.000000
158.000500 64.000000
158.021800 74.000000
158.104000 400.000000
158.153100 38.000000
159.116500 8414.000000
160.002100 52.000000
160.022900 70.000000
160.119600 736.000000
161.131900 4024.000000
161.998400 80.000000
162.032100 82.000000
162.067400 50.000000
162.100800 74.000000
162.135700 558.000000
163.072800 62.000000
163.111700 208.000000
163.148200 924.000000
163.997700 118.000000
164.045700 100.000000
164.116500 156.000000
164.152500 226.000000
164.998600 68.000000
165.066200 88.000000
165.069100 84.000000
165.091300 100.000000
165.124000 90.000000
165.162800 62.000000
166.061200 42.000000
166.157500 66.000000
166.249200 44.000000
167.001300 128.000000
167.085100 300.000000
167.107400 124.000000
167.139100 44.000000
167.980600 74.000000
168.090400 74.000000
168.110400 50.000000
169.101100 1254.000000
170.188000 54.000000
171.116300 4238.000000
172.019700 62.000000
172.030000 76.000000
172.119500 486.000000
172.167000 52.000000
173.096200 454.000000
173.132500 3994.000000
174.017600 52.000000
174.111500 70.000000
174.135500 556.000000
174.277600 78.000000
175.075200 108.000000
175.112500 380.000000
175.147700 1588.000000
175.974800 92.000000
176.037800 48.000000
176.046600 66.000000
176.084500 40.000000
176.115300 46.000000
176.141000 40.000000
177.091300 212.000000
177.126000 230.000000
178.005400 48.000000
178.093600 64.000000
178.166100 64.000000
179.022200 48.000000
179.085200 146.000000
179.108400 118.000000
179.141700 50.000000
179.979200 36.000000
180.006100 46.000000
180.092100 138.000000
180.108900 102.000000
181.003600 36.000000
181.101000 566.000000
181.121200 270.000000
182.067600 36.000000
182.106300 184.000000
182.124600 64.000000
182.189900 66.000000
183.116100 2198.000000
183.990400 62.000000
184.063600 78.000000
184.123000 444.000000
185.095000 622.000000
185.132100 5794.000000
186.044700 50.000000
186.115900 54.000000
186.135900 622.000000
187.113100 504.000000
187.147300 3828.000000
188.050200 64.000000
188.118100 216.000000
188.150900 656.000000
188.165500 112.000000
188.176800 64.000000
189.030300 48.000000
189.063500 74.000000
189.088200 134.000000
189.124600 278.000000
189.163500 756.000000
190.016300 44.000000
190.129700 48.000000
190.168500 92.000000
190.995600 48.000000
191.067700 108.000000
191.106200 532.000000
191.130300 46.000000
191.142400 162.000000
191.180200 62.000000
192.006000 36.000000
192.113000 64.000000
192.172700 70.000000
193.101100 186.000000
193.122000 288.000000
193.156200 78.000000
193.216200 48.000000
194.011100 36.000000
194.106800 180.000000
194.124500 98.000000
194.139900 72.000000
195.101100 38.000000
195.116800 744.000000
195.138800 154.000000
196.032600 72.000000
196.049500 50.000000
196.123200 276.000000
197.132700 1554.000000
197.246100 94.000000
198.137400 474.000000
198.182700 38.000000
198.219000 42.000000
199.147700 19166.000000
200.151700 2114.000000
200.251400 112.000000
201.163600 11234.000000
202.132400 122.000000
202.166700 1192.000000
203.006800 50.000000
203.107800 144.000000
203.142200 344.000000
203.179600 320.000000
203.235900 50.000000
203.979300 40.000000
204.146300 130.000000
204.206400 96.000000
205.123100 276.000000
205.156600 84.000000
205.192900 66.000000
205.985900 36.000000
206.102500 46.000000
206.125900 54.000000
206.155800 44.000000
206.261800 60.000000
207.066900 58.000000
207.118400 350.000000
207.134000 180.000000
207.207100 50.000000
207.243900 94.000000
208.130100 122.000000
209.132500 3284.000000
209.150600 250.000000
210.009400 54.000000
210.098800 46.000000
210.135700 414.000000
211.085000 122.000000
211.147800 1724.000000
212.034800 92.000000
212.059700 50.000000
212.120600 138.000000
212.151400 214.000000
213.163600 13156.000000
214.132500 102.000000
214.167400 1970.000000
215.178900 9082.000000
215.981500 124.000000
216.182800 1114.000000
216.245800 94.000000
217.116200 44.000000
217.156400 290.000000
217.193500 240.000000
217.241600 58.000000
219.028500 44.000000
219.067900 94.000000
219.116200 42.000000
219.138600 242.000000
219.219000 42.000000
219.244200 40.000000
219.267000 44.000000
219.289300 94.000000
219.978400 50.000000
220.122600 102.000000
220.178100 64.000000
220.216000 54.000000
221.029900 36.000000
221.134300 146.000000
221.154100 122.000000
221.256900 52.000000
222.140200 58.000000
223.148100 1186.000000
223.282300 88.000000
224.152000 98.000000
225.164600 2328.000000
226.135300 48.000000
226.168000 388.000000
227.143100 2938.000000
227.179200 6966.000000
228.044000 74.000000
228.146600 358.000000
228.182500 1394.000000
229.122200 58.000000
229.159700 778.000000
229.194600 464.000000
229.228700 52.000000
229.995400 54.000000
230.162800 156.000000
230.199300 106.000000
230.222600 36.000000
231.139400 272.000000
231.175100 364.000000
232.059900 36.000000
232.142700 84.000000
233.080700 36.000000
233.111400 46.000000
233.155700 188.000000
233.190000 116.000000
233.235700 106.000000
234.136000 132.000000
234.146000 86.000000
234.223100 38.000000
235.002700 44.000000
235.147900 314.000000
235.168400 166.000000
235.199700 76.000000
236.147300 42.000000
236.156500 84.000000
237.164400 1322.000000
237.183600 122.000000
238.131200 96.000000
238.166800 136.000000
239.179500 1772.000000
240.108600 54.000000
240.160700 52.000000
240.185500 648.000000
240.245800 40.000000
241.015400 68.000000
241.158800 726.000000
241.194500 1344.000000
242.163900 348.000000
242.199600 392.000000
242.243800 50.000000
243.136400 134.000000
243.175500 698.000000
243.211100 218.000000
244.064900 70.000000
244.139500 114.000000
244.180400 148.000000
244.219700 158.000000
245.153600 1636.000000
246.157100 476.000000
246.206200 38.000000
247.122300 54.000000
247.132700 60.000000
247.169100 524.000000
247.242000 46.000000
248.038200 38.000000
248.174200 226.000000
248.189300 58.000000
248.221900 46.000000
249.125600 150.000000
249.163700 272.000000
249.217500 76.000000
250.172200 106.000000
250.240000 40.000000
251.178800 426.000000
251.246000 54.000000
252.182500 286.000000
252.230200 62.000000
253.195600 1018.000000
254.201800 566.000000
255.040200 56.000000
255.159100 80.000000
255.174700 910.000000
255.210100 582.000000
256.082300 36.000000
256.178700 246.000000
256.214400 132.000000
257.026900 80.000000
257.151800 120.000000
257.190400 188.000000
257.980200 68.000000
258.009000 68.000000
258.221600 42.000000
258.281000 44.000000
259.146400 112.000000
259.168800 948.000000
259.204200 104.000000
259.237000 130.000000
261.184400 1028.000000
261.999100 76.000000
262.169500 72.000000
262.985100 40.000000
263.094300 40.000000
263.180100 542.000000
264.184900 162.000000
265.193600 350.000000
266.198100 244.000000
267.027100 60.000000
267.171800 172.000000
267.209200 668.000000
268.166600 64.000000
268.214700 206.000000
268.985200 38.000000
269.152100 42.000000
269.189000 320.000000
269.227600 156.000000
269.981400 42.000000
270.136700 44.000000
270.192200 70.000000
271.129800 36.000000
271.171600 96.000000
272.210600 90.000000
273.063200 52.000000
273.181800 252.000000
274.192500 196.000000
275.178500 106.000000
275.199000 120.000000
277.194900 600.000000
278.202900 212.000000
279.210700 728.000000
279.252000 44.000000
280.081800 48.000000
280.213700 234.000000
281.019100 48.000000
281.190000 592.000000
281.225200 354.000000
282.049500 42.000000
282.183500 56.000000
282.196300 60.000000
282.231800 202.000000
283.039000 48.000000
283.171800 38.000000
283.204000 120.000000
283.227200 88.000000
283.242000 80.000000
284.209000 82.000000
285.182700 240.000000
285.280900 74.000000
286.190700 52.000000
287.095900 40.000000
287.145800 44.000000
287.199900 162.000000
288.205500 96.000000
289.259100 40.000000
290.098000 44.000000
290.201400 36.000000
291.212900 82.000000
292.215000 120.000000
293.000400 78.000000
293.178600 60.000000
293.226500 1096.000000
293.979900 90.000000
294.196600 36.000000
294.231300 576.000000
294.265200 36.000000
295.121400 60.000000
295.207300 532.000000
295.241400 626.000000
296.020300 48.000000
296.125900 54.000000
296.208400 232.000000
296.245800 108.000000
297.021600 48.000000
297.222700 412.000000
297.251900 58.000000
298.226700 144.000000
298.986700 56.000000
299.119300 68.000000
299.178000 42.000000
299.201100 362.000000
299.218900 46.000000
300.205600 216.000000
301.060800 92.000000
301.212400 258.000000
301.249600 50.000000
302.224700 92.000000
303.214600 74.000000
303.263600 48.000000
304.213100 74.000000
304.222100 102.000000
305.220800 62.000000
306.216200 72.000000
307.166700 38.000000
307.208600 40.000000
307.237700 64.000000
307.985200 102.000000
308.223400 90.000000
309.257500 23252.000000
310.261100 4762.000000
311.077300 40.000000
311.091900 50.000000
311.133000 40.000000
311.212500 44.000000
311.223600 82.000000
311.268600 404.000000
312.267000 60.000000
313.148000 90.000000
313.210900 176.000000
313.236600 38.000000
314.138000 40.000000
314.221000 150.000000
316.227800 112.000000
317.225300 44.000000
319.242200 1708.000000
319.282400 86.000000
320.245400 372.000000
320.981100 64.000000
321.251600 166.000000
321.990700 56.000000
322.227200 40.000000
325.259000 66.000000
326.221600 92.000000
327.143800 58.000000
327.232100 52.000000
327.268000 472.000000
328.268800 90.000000
329.013700 68.000000
329.266700 44.000000
329.283100 60.000000
333.009700 36.000000
337.252200 2358.000000
338.257000 312.000000
339.010200 48.000000
339.262200 92.000000
343.190500 38.000000
345.276100 44.000000
347.291000 38.000000
355.262800 3044.000000
356.035200 38.000000
356.093900 42.000000
356.265900 708.000000
373.277400 112.000000
374.276900 70.000000

