>compound RP81833871
>parentmass 336.1666
>ionization [M+H]+
>formula C15H21N5O4
>rt 188.700000
>profile qtof
#smiles_iso CC(=CCNC1=C2C(=NC=N1)N(C=N2)[C@H]3[C@@H]([C@@H]([C@H](O3)CO)O)O)C
#smiles_can CC(=CCNC1=C2C(=NC=N1)N(C=N2)C3C(C(C(O3)CO)O)O)C
#inchikey USVMJSALORZVDV-SDBHATRESA-N
#pubchem_id 24405
#mb_accession RP030601,RP030602,RP030603

>ms2peaks
136.062000 2680.000000
148.061400 10346.000000
204.124200 130050.000000
205.127000 9196.000000
280.104700 2078.000000
336.166900 1294858.000000
338.172600 25568.000000

>ms2peaks
73.027700 676.000000
85.027800 668.000000
115.039300 986.000000
133.050100 944.000000
136.062000 75118.000000
137.064800 3662.000000
148.061600 165482.000000
149.064500 9156.000000
204.123900 660162.000000
205.127100 83090.000000
206.130400 1994.000000
268.104300 2106.000000
280.104800 3210.000000
336.167000 237334.000000
338.172100 3868.000000

>ms2peaks
55.016900 924.000000
57.032500 3788.000000
59.048100 324.000000
61.027400 1626.000000
71.012000 5312.000000
73.027500 4442.000000
85.028000 5586.000000
87.043300 604.000000
94.039800 2564.000000
97.027700 1446.000000
103.039800 404.000000
115.039200 450.000000
119.035300 4344.000000
121.051200 1208.000000
136.062100 247396.000000
137.064900 13560.000000
138.067900 290.000000
148.061600 142090.000000
149.064400 10400.000000
178.072100 296.000000
204.124100 26610.000000
205.127700 2534.000000

