>compound RP81022974
>parentmass 197.08080000000004
>ionization [M+H]+
>formula C10H12O4
>rt 244.320000
>profile qtof
#smiles_iso CCOC(=O)C1=CC(=C(C=C1)O)OC
#smiles_can CCOC(=O)C1=CC(=C(C=C1)O)OC
#inchikey MWAYRGBWOVHDDZ-UHFFFAOYSA-N
#pubchem_id 12038
#mb_accession RP017701,RP017702,RP017703

>ms2peaks
91.055100 508.000000
93.032800 52596.000000
93.069200 7790.000000
94.036400 1684.000000
94.073600 406.000000
97.064600 370.000000
107.048600 912.000000
110.035900 5488.000000
111.043400 5700.000000
121.064600 26800.000000
122.068100 1986.000000
125.059700 115574.000000
126.062500 6464.000000
151.038300 27288.000000
152.041700 1840.000000
153.090900 666.000000
168.040800 1114.000000
169.048700 325658.000000
171.053600 2254.000000
181.047900 360.000000
196.072300 1694.000000
197.080100 273068.000000
199.085700 1940.000000

>ms2peaks
81.032800 708.000000
93.032700 646568.000000
97.064000 2646.000000
103.053600 2154.000000
107.048800 4132.000000
109.028300 1300.000000
110.035900 47632.000000
111.043700 85958.000000
112.047000 4288.000000
121.064500 4482.000000
123.044000 1106.000000
125.059700 107640.000000
126.062700 6724.000000
151.038300 47948.000000
152.041500 3418.000000
168.040900 730.000000
169.048700 39650.000000
197.081000 1164.000000

>ms2peaks
54.045900 180.000000
55.053700 96.000000
57.090700 88.000000
58.062000 66.000000
59.012300 134.000000
60.008100 100.000000
61.085700 66.000000
62.014500 328.000000
62.059900 90.000000
63.010500 148.000000
64.052200 196.000000
64.099900 168.000000
71.012800 224.000000
71.049200 154.000000
79.053500 1396.000000
81.032700 22774.000000
82.040600 5280.000000
83.044600 252.000000
91.053400 2718.000000
92.025600 2430.000000
92.036100 166.000000
92.057700 252.000000
93.033000 64196.000000
94.036600 4110.000000
95.048800 11130.000000
96.016500 108.000000
97.027700 1144.000000
97.065000 360.000000
102.046400 70.000000
103.054600 708.000000
104.057500 140.000000
105.033400 146.000000
105.044500 2212.000000
106.064300 88.000000
107.012100 144.000000
107.049000 204.000000
108.020200 13270.000000
109.027800 5582.000000
110.036000 24772.000000
111.043600 10516.000000
112.046900 774.000000
121.029000 144.000000
123.044000 634.000000
124.050700 1084.000000
125.023900 332.000000
125.059700 496.000000
126.062800 72.000000
136.015800 460.000000
137.022500 158.000000
138.020200 86.000000
141.055100 552.000000
151.038900 4478.000000
151.049700 3118.000000
152.042600 344.000000
153.055400 84.000000
154.025700 450.000000

