>compound RP82127390
>parentmass 259.0925
>ionization [M+H]+
>formula C10H14N2O6
>rt 48.360000
>profile qtof
#smiles_iso CC1=CN(C(=O)NC1=O)[C@H]2[C@@H]([C@@H]([C@H](O2)CO)O)O
#smiles_can CC1=CN(C(=O)NC1=O)C2C(C(C(O2)CO)O)O
#inchikey DWRXFEITVBNRMK-JXOAFFINSA-N
#pubchem_id 445408
#mb_accession RP032001,RP032002,RP032003

>ms2peaks
73.027000 98.000000
85.027600 158.000000
87.044800 74.000000
97.026300 44.000000
127.049800 2398.000000
128.054700 90.000000
129.051300 40.000000
133.049400 230.000000
174.077900 56.000000
193.061400 44.000000
197.995300 38.000000
223.067500 104.000000
224.079100 42.000000
243.071300 42.000000
256.991700 40.000000
259.092200 2246.000000
261.097600 84.000000

>ms2peaks
55.016500 92.000000
57.033100 124.000000
59.048700 48.000000
65.010300 110.000000
69.033400 218.000000
71.012900 44.000000
73.028200 276.000000
85.027600 258.000000
93.044200 64.000000
97.027500 170.000000
98.036900 42.000000
127.049600 2566.000000
133.046800 52.000000
173.994400 36.000000
224.075200 70.000000

>ms2peaks
54.031500 40.000000
69.032800 332.000000
69.070000 40.000000
71.011500 172.000000
73.027800 238.000000
81.045500 48.000000
82.028600 264.000000
82.049300 42.000000
84.044000 656.000000
85.027700 154.000000
87.044500 38.000000
97.027900 82.000000
109.036700 84.000000
110.023700 940.000000
127.050000 1088.000000

