>compound RP82065697
>parentmass 162.1125
>ionization [M+H]+
>formula C7H15NO3
>rt 35.400000
>profile qtof
#smiles_iso C[N+](C)(C)CC(CC(=O)[O-])O
#smiles_can C[N+](C)(C)CC(CC(=O)[O-])O
#inchikey PHIQHXFUZVPYII-UHFFFAOYSA-N
#pubchem_id 288
#mb_accession RP022201,RP022202,RP022203

>ms2peaks
85.027800 15214.000000
102.091200 15102.000000
103.038700 65880.000000
162.111800 986220.000000

>ms2peaks
57.032500 12386.000000
61.027400 1998.000000
85.027600 332476.000000
87.032100 1334.000000
102.091100 141552.000000
103.038700 444380.000000
121.050300 784.000000
162.112100 140302.000000
164.117000 902.000000

>ms2peaks
46.122400 44.000000
48.044300 54.000000
48.055300 36.000000
54.008500 76.000000
55.063000 38.000000
57.032500 13076.000000
61.027400 2702.000000
66.009400 48.000000
67.016300 52.000000
70.064600 174.000000
71.012700 76.000000
71.072500 92.000000
73.028500 114.000000
73.088100 296.000000
84.044500 72.000000
84.080800 364.000000
85.027900 25898.000000
87.067900 144.000000
87.089400 56.000000
100.111800 70.000000
102.090900 10448.000000
103.038700 2338.000000
103.986000 36.000000
105.044200 112.000000
105.079400 42.000000

