>compound RP82581211
>parentmass 505.1763
>ionization [M+H]+
>formula C18H32O16
>rt 34.560000
>profile qtof
#smiles_iso C([C@@H]1[C@H]([C@@H]([C@H]([C@H](O1)O[C@H]2[C@@H]([C@H](O[C@@]2(CO)O[C@@H]3[C@@H]([C@H]([C@@H]([C@H](O3)CO)O)O)O)CO)O)O)O)O)O
#smiles_can C(C1C(C(C(C(O1)OC2C(C(OC2(CO)OC3C(C(C(C(O3)CO)O)O)O)CO)O)O)O)O)O
#inchikey QWIZNVHXZXRPDR-WSCXOGSTSA-N
#pubchem_id 92817
#mb_accession RP023101,RP023102,RP023103

>ms2
85.028700 60.000000
163.058700 40.000000
170.186700 46.000000
181.968500 42.000000
259.082200 48.000000
260.079900 58.000000
268.101100 40.000000
289.089500 82.000000
289.115000 36.000000
307.129200 38.000000
314.161100 38.000000
325.080800 74.000000
325.112800 778.000000
325.135600 74.000000
326.117200 64.000000
327.114600 106.000000
329.077900 36.000000
343.119300 66.000000
347.136600 40.000000
487.160100 168.000000
488.168800 96.000000
507.176000 50.000000

>ms2
145.049700 114.000000
146.052500 106.000000
163.059400 236.000000
205.109900 38.000000
289.092600 54.000000
307.105500 56.000000
308.108600 42.000000

>ms2
85.027800 268.000000
127.038700 70.000000
145.050200 40.000000
289.090800 64.000000

