>compound RP82841428
>parentmass 298.2741
>ionization [M+H]+
>formula C18H35NO2
>rt 375.660000
>profile qtof
#smiles_iso CCCCCC/C=C\CCCCCCCC(=O)NCCO
#smiles_can CCCCCCC=CCCCCCCCC(=O)NCCO
#inchikey WFRLANWAASSSFV-FPLPWBNLSA-N
#pubchem_id 9835868
#mb_accession RP002701,RP002702,RP002703

>ms2peaks
219.211500 1120.000000
237.222000 936.000000
280.263400 2610.000000
281.247900 15702.000000
298.274000 757560.000000

>ms2peaks
46.052300 96.000000
48.187500 152.000000
53.047000 114.000000
53.153900 70.000000
53.997400 78.000000
57.033100 214.000000
58.041000 80.000000
58.077900 132.000000
58.122800 72.000000
58.229000 174.000000
59.106200 86.000000
60.045000 256.000000
64.063100 872.000000
71.048200 1028.000000
71.084900 2486.000000
73.027500 238.000000
79.053900 2214.000000
80.057900 84.000000
80.070400 62.000000
81.069300 13556.000000
83.085100 16072.000000
85.051400 76.000000
85.064200 1114.000000
85.100700 1298.000000
87.080000 146.000000
88.038800 906.000000
91.053700 192.000000
91.075400 74.000000
93.069600 2712.000000
94.073400 98.000000
95.085200 7836.000000
96.079900 76.000000
96.089200 566.000000
97.064800 1598.000000
97.100700 7372.000000
99.045000 170.000000
99.079900 762.000000
100.074900 76.000000
100.111300 98.000000
101.096400 144.000000
107.085200 1540.000000
109.101500 2366.000000
110.059800 64.000000
111.080200 548.000000
111.117000 2202.000000
113.096300 328.000000
119.085500 78.000000
119.129500 88.000000
121.101300 3070.000000
122.104600 292.000000
123.116400 954.000000
124.120400 180.000000
125.095900 218.000000
125.131400 132.000000
127.111300 142.000000
129.125100 62.000000
135.116700 1292.000000
136.119700 224.000000
137.132000 348.000000
139.112200 314.000000
140.117600 98.000000
141.089300 110.000000
141.128300 68.000000
149.047100 118.000000
149.132400 952.000000
150.136300 82.000000
151.148300 220.000000
153.128500 404.000000
158.116600 94.000000
160.083200 76.000000
163.148100 486.000000
164.152300 120.000000
165.125700 78.000000
167.140300 122.000000
170.016200 68.000000
170.047700 80.000000
171.173800 70.000000
173.048100 64.000000
175.012900 64.000000
177.163700 534.000000
178.166700 96.000000
179.061100 150.000000
179.093400 66.000000
179.179300 96.000000
181.140300 96.000000
183.138500 88.000000
186.149600 142.000000
188.023500 102.000000
190.171600 62.000000
191.070300 70.000000
192.241800 70.000000
192.281900 70.000000
193.194000 108.000000
197.085000 76.000000
199.001200 92.000000
206.014100 124.000000
207.043400 74.000000
212.043800 124.000000
212.239300 106.000000
214.211700 70.000000
215.212700 74.000000
217.194800 74.000000
219.211100 4314.000000
220.200900 62.000000
220.214100 710.000000
221.190800 64.000000
225.230900 98.000000
228.279100 82.000000
229.153200 64.000000
229.239400 64.000000
230.128200 68.000000
231.056400 70.000000
232.212400 96.000000
232.251200 140.000000
236.270400 82.000000
237.221100 5852.000000
238.116600 64.000000
238.223800 804.000000
239.188100 66.000000
240.187500 66.000000
242.259600 80.000000
246.210800 62.000000
248.048800 80.000000
252.257500 66.000000
253.094900 68.000000
255.125800 66.000000
255.232000 64.000000
256.262900 78.000000
260.219900 72.000000
263.009300 90.000000
264.239800 62.000000
267.181200 68.000000
267.280500 88.000000
279.251500 72.000000
280.263800 23060.000000
281.247600 58008.000000
284.080500 64.000000
298.274400 60008.000000

>ms2peaks
47.179200 56.000000
48.268500 66.000000
50.096500 70.000000
57.032300 558.000000
58.192400 38.000000
59.047800 88.000000
59.093700 42.000000
60.232300 64.000000
61.002800 54.000000
61.063700 86.000000
70.028100 2114.000000
71.048300 808.000000
73.027900 320.000000
73.065100 180.000000
77.038200 718.000000
79.053600 20204.000000
81.069300 24852.000000
82.064700 104.000000
83.048400 914.000000
83.085100 18254.000000
85.052200 456.000000
85.065100 250.000000
86.059500 220.000000
86.153900 36.000000
88.039400 128.000000
91.053700 1930.000000
92.037000 88.000000
93.069700 10660.000000
93.993200 40.000000
94.073300 352.000000
95.047600 502.000000
95.085100 8862.000000
96.089300 644.000000
97.064500 1102.000000
97.101200 3290.000000
98.059800 1272.000000
99.043600 344.000000
99.063400 90.000000
99.080400 136.000000
105.045100 336.000000
105.070300 352.000000
107.085400 1614.000000
109.064900 74.000000
109.100500 984.000000
110.105000 88.000000
119.057300 74.000000
120.057700 46.000000
121.100500 780.000000
127.073700 46.000000
135.117500 368.000000
136.119800 52.000000
147.115700 54.000000
150.136200 68.000000
151.148900 42.000000
154.122300 54.000000
155.081100 40.000000
161.132000 42.000000
175.145700 42.000000
183.103200 108.000000
196.016600 58.000000
214.217100 70.000000
238.214300 56.000000
243.005700 68.000000
252.267900 52.000000
280.216300 86.000000
280.263700 1020.000000
281.248800 138.000000
281.269000 138.000000
282.289100 40.000000

