>compound RP83546121
>parentmass 150.0583
>ionization [M+H]+
>formula C5H11NO2S
>rt 41.880000
>profile qtof
#smiles_iso CSCC[C@@H](C(=O)O)N
#smiles_can CSCCC(C(=O)O)N
#inchikey FFEARJCKVFRZRR-BYPYZUCNSA-N
#pubchem_id 6137
#mb_accession RP001901,RP001902,RP001903

>ms2
74.023000 3260.000000
74.059500 8816.000000
74.989000 282.000000
75.025700 434.000000
84.044000 2536.000000
85.028200 1256.000000
87.026000 3560.000000
89.021500 192.000000
102.054900 29366.000000
103.058100 1136.000000
104.052700 189308.000000
105.035900 742.000000
107.052400 420.000000
133.031800 36896.000000
150.058200 50106.000000
153.057200 332.000000

>ms2
48.055400 60.000000
49.028200 42.000000
52.075400 52.000000
54.049600 56.000000
55.044700 62.000000
57.032500 734.000000
58.028500 76.000000
58.052300 110.000000
64.009200 198.000000
68.979800 36.000000
70.995400 116.000000
72.002300 324.000000
74.023000 28896.000000
74.059500 21454.000000
74.989500 1346.000000
75.025700 1970.000000
75.961500 48.000000
77.005200 1250.000000
77.022200 108.000000
78.007900 50.000000
78.985000 82.000000
84.043800 9856.000000
85.010600 1200.000000
85.028100 6994.000000
87.025800 27332.000000
89.021400 996.000000
89.041400 380.000000
90.036500 274.000000
91.021100 510.000000
101.046300 278.000000
102.054700 16370.000000
103.058200 764.000000
104.052600 27832.000000
105.000000 978.000000
105.036700 962.000000
105.055600 1400.000000
106.003600 86.000000
115.020800 124.000000
116.025200 64.000000
133.031400 5116.000000
150.058900 412.000000

>ms2
53.029000 94.000000
54.033300 144.000000
57.033300 72.000000
59.990200 88.000000
60.067700 50.000000
64.008600 76.000000
66.034000 42.000000
67.041600 50.000000
68.024700 66.000000
70.994400 2216.000000
74.023100 4502.000000
74.059800 238.000000
74.989900 284.000000
75.000900 54.000000
77.006100 180.000000
84.044500 648.000000
85.027800 162.000000
86.989700 80.000000
87.025600 834.000000
102.054500 272.000000
104.052700 118.000000

