>compound RP84137366
>parentmass 270.17
>ionization [M+H]+
>formula C14H23NO4
>rt 276.420000
>profile qtof
#smiles_iso CCCCCCCC(=O)CC(=O)NC1CCOC1=O
#smiles_can CCCCCCCC(=O)CC(=O)NC1CCOC1=O
#inchikey KYGIKEQVUKTKRR-UHFFFAOYSA-N
#pubchem_id 11680589
#mb_accession RP021001,RP021002,RP021003

>ms2
74.059400 13174.000000
84.044100 1608.000000
98.059900 6674.000000
102.054600 225812.000000
127.111500 3978.000000
169.121700 92574.000000
170.125400 7136.000000
210.148600 480.000000
212.164100 11058.000000
213.167000 722.000000
224.164300 6122.000000
225.167200 726.000000
228.158900 6482.000000
229.163800 642.000000
242.174600 33322.000000
252.158900 7444.000000
253.162100 856.000000
270.169600 316938.000000
272.175700 4092.000000

>ms2
59.047900 450.000000
67.053600 5602.000000
68.996500 352.000000
69.070000 246.000000
70.028300 766.000000
71.012000 3660.000000
71.048300 332.000000
81.033100 288.000000
83.048500 176.000000
83.084900 850.000000
84.043900 8010.000000
85.027900 1216.000000
85.064000 300.000000
97.100900 214.000000
98.059800 17796.000000
99.044200 486.000000
99.078600 180.000000
102.054600 171962.000000
109.101100 4626.000000
113.059700 630.000000
123.116400 190.000000
126.054100 494.000000
127.111400 23288.000000
169.121700 102804.000000
170.125100 9516.000000
200.164200 602.000000
210.148400 1848.000000
212.164100 9876.000000
213.166600 746.000000
224.164900 4016.000000
225.168400 460.000000
228.159900 1782.000000
242.175400 1678.000000
252.159100 2058.000000
270.169900 2680.000000

>ms2
45.091100 66.000000
53.038200 138.000000
59.048300 490.000000
68.996500 5456.000000
69.032800 360.000000
69.069400 1674.000000
71.012100 18600.000000
71.048500 1380.000000
74.023100 39774.000000
74.059500 60212.000000
81.032600 894.000000
81.069300 4512.000000
82.064900 76.000000
82.072900 320.000000
83.049100 518.000000
83.085200 1378.000000
84.043800 12184.000000
85.028200 3474.000000
85.063900 448.000000
91.054500 124.000000
95.047900 192.000000
97.063600 140.000000
97.100400 70.000000
98.060600 856.000000
99.043700 1432.000000
99.063100 88.000000
102.054600 14804.000000
104.057700 112.000000
105.068900 92.000000
109.100700 1228.000000
110.104800 156.000000
111.045100 66.000000
111.080300 64.000000
113.059600 1078.000000
127.110800 312.000000
169.122100 4980.000000
170.126000 438.000000
210.148500 62.000000

