>compound RP84608337
>parentmass 225.0757
>ionization [M+H]+
>formula C11H12O5
>rt 189.360000
>profile qtof
#smiles_iso COC1=CC(=CC(=C1O)OC)/C=C/C(=O)O
#smiles_can COC1=CC(=CC(=C1O)OC)C=CC(=O)O
#inchikey PCMORTLOPMLEFB-ONEGZZNKSA-N
#pubchem_id 637775
#mb_accession RP017401,RP017402,RP017403

>ms2peaks
119.048100 522.000000
147.043700 2108.000000
149.059600 508.000000
155.070800 436.000000
175.038500 36850.000000
176.042000 2376.000000
181.086300 878.000000
183.065100 6230.000000
184.067700 462.000000
192.041200 2192.000000
193.049400 2042.000000
207.064500 341128.000000
208.068200 41018.000000
209.043600 1042.000000
223.059200 1242.000000
224.067400 4580.000000
225.075300 49698.000000

>ms2peaks
67.054100 88.000000
71.999000 108.000000
75.022700 98.000000
77.038000 808.000000
78.042700 188.000000
79.054000 618.000000
81.069600 132.000000
83.081300 116.000000
89.010100 130.000000
89.038700 108.000000
91.053900 20064.000000
92.057700 860.000000
93.034200 274.000000
93.069700 878.000000
94.073900 208.000000
95.048600 1788.000000
95.060300 142.000000
96.032700 128.000000
96.052500 252.000000
97.100800 98.000000
99.009600 102.000000
101.037800 140.000000
103.053700 2404.000000
105.029700 120.000000
105.045700 112.000000
105.070700 182.000000
106.042300 100.000000
107.048600 406.000000
115.038700 124.000000
118.041800 440.000000
119.049100 26404.000000
120.052800 1916.000000
121.029400 138.000000
121.064100 768.000000
121.085800 134.000000
122.067900 140.000000
123.042900 2768.000000
123.987700 134.000000
124.048700 352.000000
126.068500 94.000000
127.027500 104.000000
127.042200 104.000000
129.033800 184.000000
131.000500 100.000000
131.048600 202.000000
132.021600 192.000000
133.029600 274.000000
134.032200 128.000000
140.046900 238.000000
145.025700 118.000000
146.035200 398.000000
147.043600 26864.000000
148.047100 2656.000000
149.022500 1074.000000
149.058700 406.000000
151.029400 114.000000
151.075700 100.000000
155.069900 1684.000000
156.072900 124.000000
157.039600 826.000000
159.018700 116.000000
159.032600 106.000000
160.015000 126.000000
161.020400 198.000000
162.030300 230.000000
163.038400 566.000000
163.074400 116.000000
164.046200 2204.000000
166.026500 88.000000
166.059800 122.000000
167.071300 156.000000
168.050900 90.000000
169.001400 88.000000
173.022700 146.000000
174.029600 780.000000
175.038400 86722.000000
176.042000 8704.000000
177.017000 862.000000
179.070100 3700.000000
180.073100 238.000000
181.048200 224.000000
181.085000 232.000000
183.065300 2796.000000
184.067900 206.000000
191.032600 118.000000
192.041100 39202.000000
193.046500 2944.000000
194.044600 284.000000
195.053300 126.000000
207.064800 70294.000000
208.068200 7256.000000
209.043500 862.000000
209.069000 806.000000
224.067900 1950.000000

>ms2peaks
53.038200 272.000000
62.014900 368.000000
66.041800 3120.000000
76.030200 12060.000000
77.037900 16634.000000
79.017400 746.000000
79.053500 10184.000000
80.061500 3968.000000
81.032900 820.000000
81.065200 242.000000
82.040800 416.000000
88.030600 290.000000
89.038100 21684.000000
90.046000 11038.000000
91.053700 130736.000000
92.025500 708.000000
92.057300 7186.000000
93.033300 5268.000000
94.040700 1580.000000
95.048900 7538.000000
96.052700 384.000000
101.038000 2398.000000
102.045600 620.000000
103.054300 1260.000000
104.025600 4016.000000
105.032800 1940.000000
105.043800 1078.000000
106.040300 592.000000
107.048800 3062.000000
108.021000 144.000000
108.056900 1224.000000
109.028000 136.000000
110.036300 456.000000
111.044100 220.000000
117.033300 1678.000000
118.041400 7652.000000
119.048800 9278.000000
120.052500 696.000000
121.028600 3604.000000
123.043100 478.000000
125.022100 294.000000
129.044200 634.000000
132.020300 1082.000000
133.029300 350.000000
134.036400 528.000000
135.043900 1448.000000
136.053000 434.000000
138.030500 192.000000
140.046800 272.000000
145.027400 276.000000
146.035000 584.000000
147.007400 152.000000
147.044000 2310.000000
148.047500 274.000000
149.022600 11456.000000
150.027600 1174.000000
153.053800 224.000000
157.039900 212.000000
162.031300 416.000000
163.038200 1086.000000
164.046800 1672.000000
173.022200 166.000000
174.030500 178.000000
177.018300 1744.000000
178.022000 308.000000
179.070900 440.000000
180.078100 154.000000
191.035600 244.000000
192.041000 992.000000

