>compound RP85573762
>parentmass 246.1448
>ionization [M+H]+
>formula C10H19N3O4
>rt 48.360000
>profile qtof
#smiles_iso CC(C)C[C@@H](C(=O)NCC(=O)NCC(=O)O)N
#smiles_can CC(C)CC(C(=O)NCC(=O)NCC(=O)O)N
#inchikey VWHGTYCRDRBSFI-ZETCQYMHSA-N
#pubchem_id 70910
#mb_accession RP016401,RP016402,RP016403

>ms2
46.135100 52.000000
50.036200 60.000000
52.062600 66.000000
61.075600 70.000000
63.054900 36.000000
67.016900 44.000000
70.004500 36.000000
70.146000 72.000000
73.003300 106.000000
76.018500 56.000000
76.040000 86.000000
77.083600 42.000000
80.092400 44.000000
81.078400 72.000000
81.091600 54.000000
82.135100 56.000000
85.065000 36.000000
86.096100 19204.000000
87.029500 56.000000
87.042700 60.000000
87.099500 1064.000000
94.084600 36.000000
97.120700 38.000000
99.055800 36.000000
99.091700 60.000000
101.140000 42.000000
103.027200 40.000000
105.126000 68.000000
112.052500 64.000000
114.135200 36.000000
117.008400 66.000000
117.101800 56.000000
118.024800 78.000000
119.072900 66.000000
120.099600 106.000000
121.157000 76.000000
123.026500 102.000000
124.140700 48.000000
126.028800 46.000000
126.134500 38.000000
128.022000 38.000000
128.063100 38.000000
128.104300 54.000000
128.981300 36.000000
130.131800 70.000000
130.142000 52.000000
132.060400 52.000000
132.146400 62.000000
133.061500 132.000000
133.088000 72.000000
133.986400 68.000000
134.032300 70.000000
134.993900 56.000000
139.022000 44.000000
139.145000 42.000000
140.024600 36.000000
142.065700 74.000000
143.008300 46.000000
143.114400 96.000000
144.015200 66.000000
144.089700 78.000000
145.098200 36.000000
148.014000 66.000000
148.061600 60.000000
149.010200 48.000000
149.117000 36.000000
155.029800 92.000000
155.077900 64.000000
157.056600 38.000000
157.083200 50.000000
157.156100 42.000000
158.037400 40.000000
160.011100 38.000000
160.095500 80.000000
161.057800 36.000000
162.018600 50.000000
163.001900 42.000000
163.072800 46.000000
164.055800 52.000000
165.054600 56.000000
166.068600 80.000000
168.112400 46.000000
171.112400 12754.000000
172.116600 810.000000
172.141700 56.000000
173.117400 72.000000
175.121400 50.000000
175.154400 42.000000
176.034600 38.000000
178.045500 54.000000
178.143900 78.000000
180.133700 66.000000
184.021700 50.000000
190.049100 66.000000
193.138400 48.000000
198.118100 54.000000
200.161500 54.000000
201.123400 854.000000
208.025100 40.000000
208.095700 110.000000
211.031900 68.000000
211.106800 74.000000
215.009600 76.000000
218.147400 398.000000
223.036900 42.000000
228.132700 222.000000
230.113700 48.000000
240.097700 66.000000
246.144900 33006.000000
248.150100 232.000000

>ms2
52.015900 44.000000
69.069900 164.000000
76.038400 764.000000
86.096100 41508.000000
92.156000 42.000000
98.096800 92.000000
119.068800 42.000000
128.049500 58.000000
133.061700 312.000000
143.117400 394.000000
171.111500 1288.000000
172.118200 104.000000
252.037500 62.000000

>ms2
55.016700 46.000000
76.039200 618.000000
84.055400 46.000000
86.096100 6152.000000
87.053100 70.000000
87.099500 326.000000
163.996600 38.000000

