>compound RP86644222
>parentmass 375.28939999999994
>ionization [M+H]+
>formula C24H38O3
>rt 372.660000
>profile qtof
#smiles_iso CC(CCC(=O)O)C1CCC2C1(CCC3C2CCC4C3(CCC(=O)C4)C)C
#smiles_can CC(CCC(=O)O)C1CCC2C1(CCC3C2CCC4C3(CCC(=O)C4)C)C
#inchikey KIQFUORWRVZTHT-UHFFFAOYSA-N
#pubchem_id 543448
#mb_accession RP007601,RP007602,RP007603

>ms2peaks
69.008300 40.000000
75.138200 42.000000
85.064700 78.000000
102.126700 46.000000
107.085900 68.000000
110.001900 56.000000
113.091500 48.000000
115.299500 52.000000
120.068000 38.000000
121.098200 40.000000
122.022900 56.000000
123.053800 48.000000
134.295700 44.000000
140.115400 58.000000
143.129500 48.000000
149.131100 42.000000
152.020600 86.000000
154.134200 46.000000
156.209400 36.000000
158.118600 38.000000
161.132800 114.000000
162.173200 74.000000
166.076800 50.000000
167.105500 46.000000
168.065100 44.000000
169.059400 42.000000
169.123700 110.000000
171.105400 94.000000
175.024900 56.000000
175.112800 36.000000
175.145700 68.000000
178.106100 40.000000
180.162300 120.000000
181.119200 38.000000
182.032400 38.000000
187.145600 56.000000
187.155300 50.000000
189.113400 66.000000
198.210500 60.000000
199.050700 40.000000
199.227500 74.000000
201.138300 36.000000
201.164500 104.000000
201.197000 76.000000
202.038200 54.000000
202.172200 80.000000
202.242300 40.000000
203.143200 62.000000
203.181300 76.000000
204.126900 48.000000
207.137500 144.000000
208.143000 46.000000
208.184100 60.000000
209.102700 36.000000
209.212100 38.000000
213.110600 42.000000
214.267100 38.000000
215.093500 54.000000
215.180300 72.000000
219.007100 56.000000
219.170700 82.000000
221.154100 62.000000
224.025500 110.000000
227.021200 50.000000
227.143200 82.000000
229.154700 102.000000
229.168700 52.000000
229.182400 36.000000
229.194800 44.000000
231.212900 48.000000
233.185300 56.000000
234.187400 46.000000
235.171000 80.000000
237.185300 214.000000
243.172800 36.000000
243.211700 108.000000
244.004800 38.000000
245.002800 42.000000
247.168400 104.000000
248.082300 56.000000
250.096300 42.000000
250.217800 48.000000
250.262400 38.000000
255.175700 54.000000
256.119500 40.000000
257.227700 82.000000
259.190500 64.000000
261.090100 74.000000
261.137300 42.000000
271.108000 48.000000
271.312200 44.000000
272.092600 50.000000
272.162900 38.000000
273.080700 40.000000
273.998600 58.000000
274.017100 44.000000
275.197800 80.000000
275.231600 36.000000
277.087300 50.000000
280.154400 42.000000
285.123200 62.000000
286.285400 76.000000
288.091000 58.000000
290.203200 118.000000
292.107500 56.000000
294.111200 44.000000
294.136100 56.000000
294.240700 54.000000
295.248200 44.000000
297.060200 38.000000
298.038900 38.000000
298.237000 42.000000
299.056500 48.000000
301.216000 74.000000
302.201700 70.000000
303.150500 62.000000
306.181600 44.000000
307.075600 48.000000
309.008300 56.000000
313.202300 58.000000
313.276800 52.000000
314.167300 44.000000
314.178900 56.000000
314.223600 52.000000
316.074100 36.000000
317.267700 36.000000
318.155700 58.000000
319.245000 54.000000
319.294900 36.000000
321.039900 68.000000
321.065900 44.000000
321.223100 50.000000
321.259800 296.000000
322.132400 40.000000
322.261100 44.000000
323.226200 38.000000
324.215200 36.000000
325.120900 70.000000
327.136800 54.000000
327.270900 64.000000
329.011300 58.000000
330.089600 46.000000
330.221900 62.000000
331.028000 42.000000
331.215800 80.000000
332.012800 54.000000
333.039700 46.000000
334.205400 38.000000
335.247100 46.000000
335.998300 98.000000
337.188700 44.000000
339.268300 5442.000000
340.272400 1212.000000
341.277800 100.000000
344.255000 36.000000
345.264700 102.000000
349.022300 48.000000
356.281100 74.000000
357.278800 30996.000000
358.282400 7176.000000
359.042200 40.000000
359.060800 56.000000
362.241600 36.000000
364.217400 44.000000
371.138900 96.000000
371.278800 44.000000
375.289800 14954.000000
377.293200 420.000000

>ms2peaks
68.176800 68.000000
69.065800 36.000000
81.069800 350.000000
83.295000 38.000000
85.065400 158.000000
93.070700 128.000000
94.073100 68.000000
95.044300 50.000000
101.060500 100.000000
104.234800 54.000000
105.992000 50.000000
106.012800 64.000000
107.085100 96.000000
108.028400 44.000000
109.074100 50.000000
110.130700 38.000000
111.077000 74.000000
120.150900 66.000000
121.102200 200.000000
122.024700 38.000000
128.214400 40.000000
133.101500 128.000000
135.116900 168.000000
136.018500 38.000000
138.078800 36.000000
141.066100 42.000000
145.101100 70.000000
147.116800 376.000000
148.006300 60.000000
148.119900 74.000000
149.097300 68.000000
149.132400 266.000000
150.139400 46.000000
153.091500 76.000000
153.126400 56.000000
153.138400 76.000000
155.105700 58.000000
159.117500 102.000000
161.132500 986.000000
162.137800 112.000000
163.111800 118.000000
167.025500 80.000000
167.105700 122.000000
167.139700 40.000000
168.019100 38.000000
168.089600 80.000000
168.176200 62.000000
170.045800 48.000000
170.108100 50.000000
170.297400 58.000000
171.101400 58.000000
171.197100 46.000000
173.132800 198.000000
175.148100 780.000000
176.153600 38.000000
178.111500 36.000000
178.130400 48.000000
178.168300 46.000000
179.108200 60.000000
179.143600 48.000000
179.993700 48.000000
181.123100 342.000000
182.126100 66.000000
184.141300 36.000000
185.132900 84.000000
187.145300 150.000000
189.163200 388.000000
190.168500 42.000000
191.143500 98.000000
192.017900 48.000000
193.015200 74.000000
193.122400 38.000000
195.138100 564.000000
201.163200 286.000000
202.065400 42.000000
203.142000 136.000000
203.177600 98.000000
205.159800 96.000000
206.161600 48.000000
207.018700 124.000000
207.137600 394.000000
208.140200 94.000000
209.154800 230.000000
210.127000 96.000000
211.144900 78.000000
212.062800 72.000000
213.126700 60.000000
213.163100 86.000000
213.181500 60.000000
214.191700 38.000000
215.178400 336.000000
216.185500 46.000000
217.120000 38.000000
217.158800 130.000000
217.193400 166.000000
218.096600 40.000000
219.174100 178.000000
220.176800 144.000000
221.153200 288.000000
221.996700 40.000000
222.160000 46.000000
223.049000 68.000000
223.072700 44.000000
223.169700 98.000000
224.174300 80.000000
225.162300 114.000000
227.180000 48.000000
229.159000 624.000000
229.196000 228.000000
229.277200 42.000000
230.162800 72.000000
230.198000 38.000000
231.172400 174.000000
232.178100 36.000000
233.161500 42.000000
235.171100 338.000000
236.026400 38.000000
236.081600 64.000000
236.139100 44.000000
236.172400 62.000000
237.187100 194.000000
238.187700 46.000000
238.199400 46.000000
239.175900 78.000000
240.055600 44.000000
243.127800 44.000000
243.173500 190.000000
243.211300 196.000000
244.202300 66.000000
244.216000 108.000000
246.208200 86.000000
247.003000 74.000000
247.169700 378.000000
248.174500 52.000000
249.182900 246.000000
251.176200 60.000000
253.064400 48.000000
257.189100 96.000000
257.225900 136.000000
261.183900 488.000000
262.186400 152.000000
262.296700 66.000000
264.014000 42.000000
264.202600 80.000000
267.208500 60.000000
269.072900 36.000000
269.200000 76.000000
269.224700 86.000000
270.232600 40.000000
270.301700 56.000000
271.201700 78.000000
275.200300 412.000000
279.118900 38.000000
283.239100 74.000000
284.146100 44.000000
285.157700 60.000000
291.006500 38.000000
291.231100 56.000000
292.297900 50.000000
293.047400 36.000000
295.241000 38.000000
297.219000 42.000000
297.257000 80.000000
301.211700 42.000000
302.219100 68.000000
303.145700 36.000000
304.135700 120.000000
305.254800 106.000000
306.186300 64.000000
312.111000 38.000000
316.158800 58.000000
321.259200 804.000000
322.260500 348.000000
323.260500 38.000000
328.192600 58.000000
338.262300 40.000000
339.268100 4326.000000
340.273000 1074.000000
343.217500 70.000000
357.278600 14620.000000
358.282600 3736.000000
359.172600 50.000000
360.268600 36.000000
361.165900 50.000000
361.274000 54.000000
372.280500 76.000000
375.288100 248.000000

>ms2peaks
55.053700 164.000000
60.080200 46.000000
67.053700 1968.000000
71.049000 80.000000
71.085100 44.000000
77.038000 68.000000
79.053700 686.000000
80.058000 110.000000
81.069600 2094.000000
83.049400 230.000000
83.085100 276.000000
85.051400 60.000000
85.064300 350.000000
91.053800 232.000000
92.058600 68.000000
93.069500 1166.000000
95.085400 1310.000000
97.100600 82.000000
99.044400 130.000000
101.033800 74.000000
101.060100 78.000000
106.074100 190.000000
107.085400 658.000000
109.064700 56.000000
109.100900 438.000000
115.075000 56.000000
117.066000 36.000000
119.084800 522.000000
121.100600 192.000000
133.101000 188.000000
135.117500 320.000000
136.018400 58.000000
136.119700 122.000000
143.084300 70.000000
145.100200 198.000000
147.117100 626.000000
148.120700 154.000000
149.131400 486.000000
151.113200 80.000000
156.094800 46.000000
156.102000 58.000000
157.100800 70.000000
159.116300 388.000000
160.121700 52.000000
161.095000 50.000000
161.132200 1000.000000
162.006500 44.000000
162.137100 84.000000
163.112500 74.000000
163.147600 122.000000
169.100900 168.000000
170.106400 70.000000
171.115500 144.000000
173.131800 208.000000
175.109400 36.000000
175.148400 362.000000
177.091600 46.000000
177.127500 234.000000
178.096200 52.000000
178.132300 38.000000
179.105800 62.000000
183.008000 42.000000
183.115900 136.000000
185.133700 186.000000
188.151600 48.000000
189.005800 38.000000
189.122800 68.000000
189.162000 56.000000
191.144500 44.000000
193.120200 40.000000
195.139900 44.000000
199.143800 36.000000
201.125500 56.000000
201.163000 430.000000
202.166100 42.000000
203.141000 42.000000
204.185500 38.000000
205.158300 82.000000
210.157500 56.000000
211.146400 136.000000
213.164200 176.000000
215.140000 94.000000
215.180000 200.000000
216.183300 78.000000
220.182500 40.000000
221.154000 36.000000
225.162700 100.000000
227.177400 114.000000
229.191400 52.000000
239.181300 96.000000
241.195400 74.000000
241.237600 48.000000
243.209700 96.000000
257.227400 36.000000
261.181800 50.000000
265.196400 116.000000
269.214100 38.000000
269.227100 118.000000
270.233300 48.000000
275.202100 48.000000
279.212300 76.000000
289.212600 42.000000
297.077300 50.000000
297.215800 60.000000
299.234000 74.000000
301.222500 66.000000
316.234500 50.000000
319.244900 50.000000
321.255200 96.000000
322.259900 60.000000
338.011700 40.000000
358.285300 98.000000

