>compound RP87667938
>parentmass 454.2928
>ionization [M+H]+
>formula C21H44NO7P
>rt 304.620000
>profile qtof
#smiles_iso CCCCCCCCCCCCC(=O)OC[C@H](COP(=O)([O-])OCC[N+](C)(C)C)O
#smiles_can CCCCCCCCCCCCC(=O)OCC(COP(=O)([O-])OCC[N+](C)(C)C)O
#inchikey WNRCJJWBAXNAPE-HXUWFJFHSA-N
#pubchem_id 24779450
#mb_accession RP026301,RP026302,RP026303

>ms2peaks
104.106500 13922.000000
184.072500 3952.000000
436.281800 10894.000000
437.287200 1278.000000
454.292500 810828.000000
456.298500 32464.000000

>ms2peaks
86.095800 6364.000000
104.106500 231744.000000
184.072500 122948.000000
185.076400 3768.000000
186.077400 532.000000
258.110200 1700.000000
271.227000 1456.000000
377.208000 752.000000
436.282400 66616.000000
437.285400 13822.000000
438.289300 1330.000000
454.292600 458178.000000
456.299100 16554.000000

>ms2peaks
55.054600 290.000000
57.032500 784.000000
61.077400 216.000000
69.069500 1114.000000
81.069200 2704.000000
83.085000 1412.000000
85.064400 214.000000
85.100400 3412.000000
86.095800 145134.000000
89.059100 386.000000
95.085300 3982.000000
97.101100 1286.000000
98.983700 1000.000000
99.115900 454.000000
103.075600 302.000000
104.106700 196670.000000
106.111000 506.000000
109.100700 1518.000000
111.116900 208.000000
123.117100 258.000000
124.999600 11990.000000
163.015100 826.000000
166.061800 3166.000000
181.026700 484.000000
184.072600 180896.000000
185.076100 9950.000000
186.076900 742.000000
197.190400 730.000000
199.034800 340.000000
215.199500 350.000000
240.099400 310.000000
258.110000 1068.000000
271.226100 14248.000000
272.229900 2516.000000
273.233700 212.000000
377.208000 868.000000
378.211900 266.000000
436.283100 1668.000000
437.283600 236.000000
454.292500 280.000000

