>compound RP87431657
>parentmass 120.0655
>ionization [M+H]+
>formula C4H9NO3
>rt 36.060000
>profile qtof
#smiles_iso C[C@@H]([C@H](C(=O)O)N)O
#smiles_can CC(C(C(=O)O)N)O
#inchikey AYFVYJQAPQTCCC-STHAYSLISA-N
#pubchem_id 69435
#mb_accession RP001001,RP001002,RP001003

>ms2
57.033100 466.000000
58.064600 382.000000
74.059400 177436.000000
76.063700 302.000000
84.044200 4874.000000
102.054700 26206.000000
120.065300 10224.000000

>ms2
58.028400 116.000000
74.059500 58582.000000
75.044600 146.000000
76.039000 142.000000
76.063800 128.000000
84.044300 1934.000000
85.028200 118.000000
102.054100 1176.000000

>ms2
54.033800 56.000000
58.064700 338.000000
68.024200 48.000000
68.996700 140.000000
69.031800 98.000000
70.003600 54.000000
71.012500 36.000000

