>compound RP87150782
>parentmass 123.0553
>ionization [M+H]+
>formula C6H6N2O
>rt 41.880000
>profile qtof
#smiles_iso C1=CC(=CN=C1)C(=O)N
#smiles_can C1=CC(=CN=C1)C(=O)N
#inchikey DFPAKSUCGFBDDF-UHFFFAOYSA-N
#pubchem_id 936
#mb_accession RP022301,RP022302,RP022303

>ms2
80.048900 21970.000000
96.044000 2276.000000
106.028200 1054.000000
123.055300 348148.000000

>ms2
68.048900 2884.000000
78.033200 101416.000000
79.038100 3340.000000
80.048800 605970.000000
95.060300 1978.000000
96.044100 58718.000000
105.044600 2030.000000
106.028900 11446.000000
123.055400 127768.000000

>ms2
70.029400 198.000000
78.033300 72484.000000
80.048900 157226.000000
95.060100 166.000000
96.044200 25382.000000
105.044600 358.000000
111.031400 200.000000
123.054800 290.000000

