>compound RP88943176
>parentmass 348.2897
>ionization [M+H]+
>formula C22H37NO2
>rt 383.400000
>profile qtof
#smiles_iso CCCCC/C=C\C/C=C\C/C=C\C/C=C\CCCC(=O)NCCO
#smiles_can CCCCCC=CCC=CCC=CCC=CCCCC(=O)NCCO
#inchikey LGEQQWMQCRIYKG-DOFZRALJSA-N
#pubchem_id 5281969
#mb_accession RP004101,RP004102,RP004103

>ms2
61.015500 58.000000
62.059800 5562.000000
95.084700 78.000000
97.100800 46.000000
100.112400 88.000000
105.070400 44.000000
109.101200 48.000000
113.048200 36.000000
141.088700 68.000000
142.060600 44.000000
142.153700 38.000000
144.100600 152.000000
149.095000 44.000000
158.104000 52.000000
163.049800 38.000000
163.110000 146.000000
163.148100 154.000000
165.115800 56.000000
168.233000 54.000000
170.118500 98.000000
170.149300 54.000000
171.116000 92.000000
171.257300 50.000000
171.291600 36.000000
172.132900 58.000000
173.057400 38.000000
173.132500 102.000000
177.126000 86.000000
177.161000 168.000000
177.258800 38.000000
178.153500 50.000000
179.092700 44.000000
180.148600 40.000000
182.160800 44.000000
184.032100 68.000000
184.050200 70.000000
184.134400 82.000000
185.131500 44.000000
187.005500 44.000000
187.098100 56.000000
187.144800 44.000000
189.127100 48.000000
189.164600 228.000000
190.167700 68.000000
191.181100 112.000000
194.009200 40.000000
194.082200 62.000000
196.109700 54.000000
196.132800 164.000000
197.133200 50.000000
197.165400 46.000000
198.149400 102.000000
199.147900 82.000000
201.163600 82.000000
202.073200 46.000000
203.143200 94.000000
203.178900 942.000000
204.150700 62.000000
204.163400 36.000000
205.196800 110.000000
206.011500 56.000000
208.182600 46.000000
209.164300 80.000000
210.140500 50.000000
210.172500 40.000000
212.164100 358.000000
213.018400 54.000000
213.183600 38.000000
217.160600 48.000000
222.147800 46.000000
224.163300 134.000000
224.272900 46.000000
225.163700 46.000000
228.193900 46.000000
234.197300 60.000000
234.223200 56.000000
236.164200 150.000000
237.171100 50.000000
238.205700 88.000000
238.267200 62.000000
240.082400 52.000000
240.195500 62.000000
241.061700 46.000000
243.208800 58.000000
245.225500 678.000000
246.229900 42.000000
247.018200 48.000000
247.051400 50.000000
248.152800 38.000000
249.277300 58.000000
250.182200 132.000000
251.085700 42.000000
251.167300 38.000000
251.218100 60.000000
252.139200 66.000000
252.205000 38.000000
253.072500 94.000000
254.211200 106.000000
255.250900 50.000000
259.061600 42.000000
259.240600 324.000000
262.168600 40.000000
265.252300 76.000000
269.225400 1116.000000
272.280400 46.000000
273.128400 62.000000
274.108400 40.000000
275.142000 50.000000
277.142400 40.000000
278.072200 42.000000
279.207800 74.000000
279.218400 60.000000
282.243000 46.000000
283.129200 38.000000
287.237400 3392.000000
288.241500 440.000000
288.282100 96.000000
289.060300 106.000000
289.240400 94.000000
294.033200 44.000000
295.205000 58.000000
304.135600 70.000000
304.296900 54.000000
305.256500 52.000000
306.251800 60.000000
308.109400 66.000000
314.267800 50.000000
319.165700 52.000000
320.297600 46.000000
324.251800 52.000000
330.277900 280.000000
330.301700 66.000000
331.271900 144.000000
334.154000 78.000000
335.058200 44.000000
346.129600 36.000000
347.177800 58.000000
348.290100 31630.000000
350.254600 52.000000
350.295400 334.000000
351.172100 66.000000

>ms2
57.070100 106.000000
62.059700 10722.000000
63.007100 60.000000
63.067300 102.000000
67.053900 728.000000
68.057900 82.000000
69.031900 70.000000
69.070100 592.000000
70.028900 86.000000
71.047900 56.000000
71.085600 136.000000
77.022800 36.000000
79.053600 324.000000
81.069800 734.000000
82.073800 102.000000
83.086200 194.000000
84.052200 60.000000
85.064900 46.000000
85.102000 170.000000
85.146200 52.000000
91.054300 268.000000
92.095300 100.000000
93.069500 370.000000
95.086000 370.000000
97.064800 52.000000
97.101800 68.000000
105.069400 154.000000
107.086000 52.000000
109.101100 200.000000
109.121700 56.000000
119.085700 78.000000
120.092800 36.000000
121.100800 202.000000
127.016000 44.000000
130.003500 38.000000
131.084200 72.000000
136.226000 66.000000
143.084800 68.000000
144.100800 42.000000
145.100100 94.000000
148.120800 48.000000
149.093600 178.000000
151.111200 50.000000
157.100900 166.000000
158.105800 52.000000
159.115400 72.000000
161.095800 148.000000
163.110300 134.000000
163.148100 162.000000
164.118800 44.000000
166.027600 108.000000
170.249300 68.000000
171.116800 400.000000
172.121800 148.000000
173.133900 54.000000
174.137800 44.000000
175.110300 200.000000
175.146600 384.000000
176.118000 80.000000
177.128700 98.000000
177.163400 160.000000
184.134000 66.000000
185.132400 334.000000
186.137400 94.000000
187.148400 74.000000
189.127900 124.000000
189.164100 266.000000
189.279700 46.000000
190.129900 58.000000
191.180100 252.000000
199.109700 36.000000
199.148900 156.000000
200.151800 178.000000
203.142600 112.000000
203.178600 1564.000000
204.182300 220.000000
205.157300 92.000000
210.149300 52.000000
212.163100 88.000000
213.161100 84.000000
215.000800 42.000000
217.155600 42.000000
217.193800 58.000000
222.149400 40.000000
224.164200 48.000000
225.136900 46.000000
226.180300 68.000000
227.093100 48.000000
227.178400 82.000000
232.082600 38.000000
243.004400 62.000000
243.193500 60.000000
243.211600 212.000000
244.213100 138.000000
245.226100 910.000000
246.231900 136.000000
247.218400 40.000000
259.201600 82.000000
259.243800 206.000000
269.187000 58.000000
269.225200 892.000000
270.228000 168.000000
278.208900 54.000000
284.178300 46.000000
287.235900 918.000000
288.044800 40.000000
288.240000 334.000000
289.246500 102.000000
308.102000 40.000000
330.278200 382.000000
331.280000 80.000000
348.290000 754.000000

>ms2
55.054000 260.000000
60.044100 108.000000
62.059800 4118.000000
65.038200 148.000000
66.291900 40.000000
67.053900 2488.000000
69.033600 40.000000
69.070000 654.000000
70.028100 412.000000
77.038100 118.000000
79.053600 1740.000000
80.057700 212.000000
81.069800 1362.000000
82.064700 46.000000
82.073300 154.000000
83.048900 176.000000
83.085700 138.000000
88.038700 80.000000
91.013900 66.000000
91.053800 1188.000000
93.070100 438.000000
95.048400 54.000000
95.085300 500.000000
103.054400 74.000000
105.069600 240.000000
119.084700 58.000000
120.092600 62.000000
131.085200 104.000000
133.099900 96.000000
143.084800 100.000000
145.085700 66.000000
145.100500 44.000000
146.103700 86.000000
147.081300 70.000000
147.118200 86.000000
149.095300 60.000000
157.101000 120.000000
159.115500 62.000000
160.126200 54.000000
161.132100 122.000000
166.004800 42.000000
166.122800 36.000000
172.123600 46.000000
192.136100 44.000000

