>compound RP89787887
>parentmass 183.0652
>ionization [M+H]+
>formula C9H10O4
>rt 170.640000
>profile qtof
#smiles_iso COC1=C(C=CC(=C1)CC(=O)O)O
#smiles_can COC1=C(C=CC(=C1)CC(=O)O)O
#inchikey QRMZSPFSDQBLIX-UHFFFAOYSA-N
#pubchem_id 1738
#mb_accession RP018201,RP018202,RP018203

>ms2
63.068300 68.000000
64.018300 54.000000
64.063000 58.000000
72.080700 144.000000
73.028100 50.000000
78.005700 42.000000
79.054900 58.000000
82.077000 50.000000
91.989100 50.000000
93.034200 44.000000
96.991200 36.000000
103.002200 64.000000
107.048600 118.000000
109.028300 44.000000
118.984300 38.000000
119.037100 36.000000
122.031300 38.000000
123.039500 108.000000
126.078200 64.000000
130.986200 56.000000
132.021600 52.000000
132.032700 58.000000
135.080400 50.000000
137.060000 28522.000000
138.063100 3096.000000
151.003000 42.000000
153.054100 112.000000
179.992800 102.000000
181.048300 236.000000
182.057400 4706.000000
183.064400 1768.000000

>ms2
77.038400 220.000000
78.046200 78.000000
81.069300 316.000000
85.060100 68.000000
91.053800 586.000000
93.034200 152.000000
94.040500 1654.000000
97.061300 86.000000
100.023400 58.000000
105.034100 150.000000
105.045100 72.000000
107.071300 50.000000
109.028000 1270.000000
109.065000 238.000000
115.004300 50.000000
117.033600 58.000000
122.036200 2382.000000
123.039700 86.000000
136.047400 36.000000
137.059500 30740.000000
138.062200 2498.000000
151.039700 38.000000
182.056900 156.000000

>ms2
45.044700 72.000000
53.012900 84.000000
76.031400 106.000000
79.017300 242.000000
79.053600 3180.000000
81.032700 5744.000000
81.069900 822.000000
85.027600 88.000000
91.054300 1632.000000
93.033500 592.000000
94.040800 58768.000000
97.027800 60.000000
105.044100 446.000000
107.049300 536.000000
109.027900 922.000000
112.051700 64.000000
122.035900 6564.000000
123.039400 730.000000
135.040900 164.000000
137.059200 3276.000000
138.062600 438.000000

