>compound RP89575535
>parentmass 95.0491
>ionization [M+H]+
>formula C6H6O
>rt 195.840000
>profile qtof
#smiles_iso C1=CC=C(C=C1)O
#smiles_can C1=CC=C(C=C1)O
#inchikey ISWSIDIOOBJBQZ-UHFFFAOYSA-N
#pubchem_id 996
#mb_accession RP022501,RP022502,RP022503

>ms2
95.048500 1724.000000
97.028100 42.000000
105.044600 120.000000

>ms2
55.017500 52.000000
78.041900 58.000000
95.048500 418.000000
105.045600 156.000000

>ms2
50.015200 54.000000

