>compound RP89398573
>parentmass 282.1197
>ionization [M+H]+
>formula C11H15N5O4
>rt 61.380000
>profile qtof
#smiles_iso CNC1=C2C(=NC=N1)N(C=N2)[C@H]3[C@@H]([C@@H]([C@H](O3)CO)O)O
#smiles_can CNC1=C2C(=NC=N1)N(C=N2)C3C(C(C(O3)CO)O)O
#inchikey VQAYFKKCNSOZKM-IOSLPCCCSA-N
#pubchem_id 102175
#mb_accession RP030701,RP030702,RP030703

>ms2peaks
96.078600 194.000000
149.021300 170.000000
150.077000 28978.000000
151.081100 1214.000000
223.009000 190.000000
282.119600 165202.000000

>ms2peaks
57.032500 244.000000
61.027200 182.000000
70.999600 102.000000
73.027400 196.000000
76.003400 134.000000
85.027400 562.000000
87.042400 150.000000
106.996300 122.000000
125.035600 180.000000
144.006600 132.000000
148.061500 378.000000
149.137900 102.000000
150.076800 98130.000000
152.081100 180.000000
192.088600 142.000000
282.119500 12848.000000

>ms2peaks
54.008900 64.000000
55.016400 300.000000
57.032300 646.000000
59.048000 150.000000
61.026900 326.000000
64.111700 60.000000
64.124600 66.000000
68.997700 126.000000
69.032000 1056.000000
71.011600 1146.000000
71.022700 118.000000
73.027500 760.000000
74.072300 62.000000
79.028500 146.000000
81.125800 76.000000
85.027600 650.000000
87.005900 56.000000
87.041700 64.000000
88.051000 68.000000
92.000900 66.000000
94.039400 4196.000000
96.055700 478.000000
97.027500 330.000000
97.061100 58.000000
98.031700 142.000000
99.079200 56.000000
100.023100 66.000000
105.032300 106.000000
106.040300 198.000000
108.043400 100.000000
109.037300 80.000000
109.049500 178.000000
109.999700 62.000000
112.050900 294.000000
115.035600 64.000000
118.121700 56.000000
119.036800 116.000000
119.056100 132.000000
121.050800 226.000000
122.093100 66.000000
123.066600 380.000000
124.069800 150.000000
126.076000 56.000000
128.021500 64.000000
129.097700 58.000000
133.050000 386.000000
135.053600 286.000000
142.004600 56.000000
144.084500 88.000000
145.109500 60.000000
146.005300 78.000000
146.100000 106.000000
146.991700 86.000000
148.001700 88.000000
148.062100 530.000000
149.030100 68.000000
150.077200 55852.000000
151.080300 3222.000000
153.084600 58.000000
192.086900 106.000000

