>compound RP89121890
>parentmass 442.147
>ionization [M+H]+
>formula C19H19N7O6
>rt 148.680000
>profile qtof
#smiles_iso C1=CC(=CC=C1C(=O)N[C@@H](CCC(=O)O)C(=O)O)NCC2=CN=C3C(=N2)C(=O)N=C(N3)N
#smiles_can C1=CC(=CC=C1C(=O)NC(CCC(=O)O)C(=O)O)NCC2=CN=C3C(=N2)C(=O)N=C(N3)N
#inchikey OVBPIULPVIDEAO-LBPRGKRZSA-N
#pubchem_id 6037
#mb_accession RP013401,RP013402,RP013403

>ms2
58.110300 88.000000
78.127100 76.000000
98.073400 94.000000
111.987200 74.000000
157.115300 74.000000
169.087200 94.000000
186.060200 94.000000
186.085600 74.000000
205.051700 94.000000
215.075900 92.000000
217.998700 122.000000
229.046900 92.000000
237.063800 82.000000
246.154300 86.000000
251.987500 88.000000
254.109100 80.000000
261.043300 90.000000
269.112000 118.000000
280.980300 80.000000
293.086000 170.000000
295.093700 73514.000000
296.096600 10980.000000
297.099500 720.000000
313.104500 2898.000000
314.106800 510.000000
318.092700 78.000000
340.999300 80.000000
345.151500 82.000000
420.002600 86.000000
424.135000 88.000000
440.131400 658.000000
441.134800 262.000000
442.146700 52470.000000
444.152200 1230.000000

>ms2
120.044400 212.000000
152.078400 118.000000
176.056300 392.000000
190.110300 122.000000
269.115500 140.000000
293.078400 770.000000
295.093700 116656.000000
296.097200 17512.000000
297.099700 1138.000000
311.090100 156.000000
313.104600 4766.000000
314.108200 840.000000
440.130200 146.000000
442.147100 490.000000

>ms2
85.028100 74.000000
97.051500 64.000000
106.000100 84.000000
106.064800 76.000000
107.066800 68.000000
108.055100 394.000000
110.046800 76.000000
120.044100 3212.000000
121.047600 160.000000
121.106500 62.000000
123.988400 76.000000
124.015500 72.000000
126.150000 62.000000
132.065400 76.000000
143.033800 66.000000
143.072200 90.000000
148.061700 190.000000
148.152900 80.000000
149.105000 64.000000
154.062300 64.000000
158.151100 106.000000
163.067700 148.000000
165.054400 66.000000
165.063100 66.000000
166.019700 66.000000
172.032800 68.000000
176.056400 15736.000000
177.019300 76.000000
177.028900 78.000000
177.060000 1210.000000
179.081700 94.000000
182.026300 66.000000
185.047900 64.000000
190.035400 66.000000
193.157400 70.000000
197.035800 66.000000
197.079000 62.000000
206.111400 64.000000
209.111500 66.000000
210.176700 62.000000
216.017000 62.000000
229.153200 70.000000
233.052000 70.000000
235.041800 64.000000
236.113500 74.000000
248.028300 62.000000
248.144400 84.000000
250.073000 160.000000
250.138500 80.000000
251.072300 62.000000
252.083400 94.000000
253.090300 66.000000
254.016700 80.000000
260.082800 102.000000
263.116800 100.000000
264.153900 90.000000
265.082600 132.000000
266.089700 86.000000
267.098200 150.000000
267.110100 76.000000
276.086500 82.000000
280.094000 86.000000
280.139200 80.000000
281.120400 90.000000
285.987800 78.000000
290.063600 62.000000
290.096400 72.000000
293.078100 912.000000
293.103500 68.000000
294.078100 82.000000
295.093700 60520.000000
296.096500 9806.000000
297.051900 72.000000
297.080900 134.000000
297.100300 530.000000
297.129300 86.000000
311.087000 124.000000
313.104500 4590.000000
314.109500 682.000000
355.148800 120.000000

