>compound RP90336901
>parentmass 331.2115
>ionization [M+H]+
>formula C17H30O6
>rt 238.260000
>profile qtof
#smiles_iso CC1C(CC(C(O1)OC(C)CCCCCC/C=C/C(=O)O)O)O
#smiles_can CC1C(CC(C(O1)OC(C)CCCCCCC=CC(=O)O)O)O
#inchikey NEVPBIQTDNVVMK-CSKARUKUSA-N
#pubchem_id 86289688
#mb_accession RP010201,RP010202,RP010203

>ms2
69.070500 138.000000
81.069500 4294.000000
94.062500 150.000000
95.085600 1128.000000
105.069100 140.000000
123.117500 492.000000
123.989900 124.000000
131.118100 114.000000
137.132000 2248.000000
138.135400 142.000000
140.981800 106.000000
147.116400 1310.000000
148.120100 116.000000
150.032000 122.000000
165.126900 20178.000000
166.130300 1498.000000
173.993500 122.000000
181.071100 124.000000
183.137300 57932.000000
184.140300 5738.000000
201.148000 102978.000000
203.153900 1006.000000
204.155500 152.000000
224.161400 140.000000
313.198100 340.000000
331.210100 170.000000

>ms2
53.190300 44.000000
57.033300 88.000000
57.069500 64.000000
64.987300 50.000000
67.989500 44.000000
69.032900 76.000000
69.069300 1504.000000
73.028400 96.000000
73.064600 334.000000
79.054100 260.000000
81.069400 43626.000000
85.064000 682.000000
91.168400 48.000000
94.073900 56.000000
95.085200 11372.000000
96.029800 58.000000
96.089100 640.000000
97.064500 124.000000
97.101600 194.000000
98.007600 60.000000
98.020900 116.000000
98.073500 82.000000
101.059500 90.000000
105.069100 532.000000
105.220500 62.000000
106.049200 46.000000
106.073100 194.000000
107.084900 306.000000
108.064500 92.000000
109.064500 264.000000
109.100700 336.000000
111.080300 96.000000
113.059200 204.000000
119.085600 140.000000
122.104200 122.000000
123.079600 100.000000
123.116400 1648.000000
124.120400 208.000000
127.074600 106.000000
128.095100 88.000000
132.016300 72.000000
133.013100 48.000000
133.165600 72.000000
137.131300 11320.000000
138.040200 68.000000
138.135500 1228.000000
139.136900 90.000000
141.087500 62.000000
143.030600 48.000000
147.116400 3714.000000
148.062200 50.000000
148.119300 224.000000
152.014500 78.000000
155.143300 214.000000
165.126700 20338.000000
166.129900 2530.000000
167.130700 82.000000
168.078000 54.000000
169.153400 58.000000
183.136900 18670.000000
184.140300 2072.000000
201.147500 3668.000000
295.192300 68.000000
313.197900 54.000000
314.203800 60.000000

>ms2
53.038100 190.000000
55.017500 384.000000
55.053800 2190.000000
65.038000 810.000000
67.053700 42516.000000
69.069400 12084.000000
73.028000 2016.000000
77.038500 128.000000
79.053600 2952.000000
80.057500 170.000000
81.069400 82294.000000
83.048700 4514.000000
83.085300 672.000000
85.064200 2474.000000
91.055000 950.000000
93.069600 778.000000
94.073700 100.000000
95.085200 33148.000000
97.065100 174.000000
99.043700 280.000000
101.059600 88.000000
105.069400 600.000000
106.073100 102.000000
107.085900 364.000000
109.065400 440.000000
109.101500 524.000000
111.080100 174.000000
113.059700 696.000000
121.100500 328.000000
122.104900 106.000000
123.117100 534.000000
131.070000 154.000000
137.131900 1756.000000
144.094200 86.000000
147.116700 552.000000
148.120700 144.000000
165.127500 1844.000000
166.130000 276.000000
183.137900 2640.000000
184.140700 356.000000
201.148200 1780.000000

