>compound RP90448908
>parentmass 430.3316
>ionization [M+H]+
>formula C27H43NO3
>rt 431.580000
>profile qtof
#smiles_iso CCCCCCCC/C=C\CCCCCCCC(=O)N[C@@H](CC1=CC=CC=C1)C(=O)O
#smiles_can CCCCCCCCC=CCCCCCCCC(=O)NC(CC1=CC=CC=C1)C(=O)O
#inchikey UWKNPULCJWBBDD-JRUKXMRZSA-N
#pubchem_id 52922059
#mb_accession RP029901,RP029902,RP029903

>ms2peaks
120.081200 960.000000
166.085700 17828.000000
167.089900 954.000000
361.198300 192.000000
384.326700 1614.000000
385.331800 380.000000
412.322100 1346.000000
413.322300 266.000000
429.319800 348.000000
430.332000 183580.000000

>ms2peaks
46.065100 94.000000
49.145600 88.000000
57.020800 90.000000
58.347400 90.000000
64.016000 92.000000
69.069800 424.000000
73.203700 92.000000
80.213600 112.000000
81.069200 762.000000
83.085200 196.000000
93.069000 140.000000
95.086200 198.000000
97.100300 318.000000
103.053500 108.000000
105.162800 94.000000
107.048000 132.000000
108.187500 102.000000
109.102100 146.000000
112.322100 102.000000
114.006700 100.000000
117.006200 108.000000
120.080600 11752.000000
121.083800 1098.000000
127.156800 88.000000
130.012800 120.000000
135.117100 202.000000
140.094500 106.000000
148.313600 94.000000
149.058700 152.000000
149.070900 216.000000
151.147800 132.000000
153.162500 94.000000
166.085500 87182.000000
167.088700 7964.000000
168.092700 428.000000
247.241700 622.000000
265.253300 1428.000000
266.254900 468.000000
364.013600 90.000000
384.325600 4080.000000
385.330400 1114.000000
412.320100 530.000000
413.323400 230.000000
414.322700 90.000000
426.288300 416.000000
427.294700 262.000000
429.320300 354.000000
430.331400 12192.000000
432.337100 548.000000

>ms2peaks
47.167300 58.000000
54.327800 82.000000
64.052200 68.000000
71.048400 90.000000
78.091000 50.000000
79.053700 956.000000
81.069300 2066.000000
83.085100 2462.000000
85.063300 214.000000
85.101100 168.000000
86.000600 36.000000
86.341200 36.000000
87.088900 52.000000
88.987200 60.000000
91.053900 494.000000
92.050100 48.000000
93.069200 1536.000000
94.073500 92.000000
95.085300 1434.000000
97.064500 90.000000
97.100800 566.000000
98.071400 46.000000
99.080500 130.000000
103.054300 1404.000000
105.044000 56.000000
105.070700 52.000000
106.135200 46.000000
107.049000 328.000000
107.085300 364.000000
109.064000 50.000000
109.101400 252.000000
111.079800 98.000000
113.235900 64.000000
115.155900 72.000000
115.226700 38.000000
120.080700 31754.000000
121.084100 1914.000000
121.101200 334.000000
122.094300 80.000000
123.136800 42.000000
125.129500 66.000000
131.032400 56.000000
131.049100 278.000000
135.116400 80.000000
135.173700 82.000000
136.051800 46.000000
136.120100 54.000000
139.990300 38.000000
140.001500 62.000000
144.093900 42.000000
149.002100 38.000000
149.059100 554.000000
149.152700 42.000000
150.068600 40.000000
151.096200 48.000000
153.033100 56.000000
159.063400 52.000000
161.319200 124.000000
165.266100 64.000000
165.278200 62.000000
166.085700 7346.000000
190.085900 38.000000
248.244500 68.000000
260.239100 44.000000

