>compound RP90303135
>parentmass 197.07090000000002
>ionization [M+H]+
>formula C12H8N2O
>rt 220.980000
>profile qtof
#smiles_iso C1=CC=C2C(=C1)N=C3C=CC(=CC3=N2)O
#smiles_can C1=CC=C2C(=C1)N=C3C=CC(=CC3=N2)O
#inchikey RETSEGNZNUBJRB-UHFFFAOYSA-N
#pubchem_id 135441800
#mb_accession RP018501,RP018502,RP018503

>ms2
168.068100 4520.000000
169.075400 13232.000000
197.070700 1499992.000000

>ms2
168.067700 34958.000000
169.075400 127362.000000
179.059900 9442.000000
197.070400 1423188.000000

>ms2
55.016700 1272.000000
69.032600 1174.000000
75.022300 7158.000000
78.033100 37382.000000
79.040900 22460.000000
80.012300 4806.000000
80.045600 1296.000000
81.032500 1154.000000
86.002800 322.000000
89.038200 5096.000000
90.033500 3094.000000
91.053600 9548.000000
92.049000 16916.000000
93.033000 4102.000000
94.027600 338.000000
95.048700 72130.000000
96.044000 9450.000000
97.052600 316.000000
101.038400 544.000000
102.033600 8846.000000
103.041400 1490.000000
104.049300 1668.000000
105.044500 24276.000000
106.048100 1418.000000
110.059000 386.000000
111.044100 3202.000000
113.038300 318.000000
114.033400 484.000000
114.045900 2430.000000
115.054200 78970.000000
116.049600 14986.000000
117.057100 6104.000000
118.064900 3036.000000
119.060700 3572.000000
120.044400 4128.000000
121.039600 1362.000000
125.038800 2828.000000
128.049100 4940.000000
129.044600 10650.000000
130.040000 9390.000000
132.055700 482.000000
134.061200 956.000000
140.049600 5928.000000
141.057300 6768.000000
142.052700 2368.000000
142.065000 9848.000000
143.060800 5614.000000
144.044000 688.000000
144.062900 786.000000
145.039200 380.000000
147.055200 386.000000
151.040500 376.000000
152.049000 13078.000000
153.044400 5928.000000
154.047100 464.000000
154.064900 422.000000
155.060300 846.000000
166.052700 956.000000
167.060000 9154.000000
168.067600 297316.000000
169.075300 267926.000000
170.059700 3462.000000
171.054500 1016.000000
179.059900 29326.000000
180.063500 2744.000000
185.069700 400.000000
195.055000 892.000000
196.062900 4030.000000
197.070600 102454.000000
199.075700 620.000000

