>compound RP91823444
>parentmass 391.2843
>ionization [M+H]+
>formula C24H38O4
>rt 298.320000
>profile qtof
#smiles_iso C[C@H](CCC(=O)O)[C@H]1CC[C@@H]2[C@@]1(CC[C@H]3[C@H]2C(=O)C[C@H]4[C@@]3(CC[C@H](C4)O)C)C
#smiles_can CC(CCC(=O)O)C1CCC2C1(CCC3C2C(=O)CC4C3(CCC(C4)O)C)C
#inchikey DXOCDBGWDZAYRQ-AURDAFMXSA-N
#pubchem_id 444262
#mb_accession RP008001,RP008002,RP008003

>ms2
165.122700 256.000000
191.142300 240.000000
247.167900 408.000000
319.242900 622.000000
320.243100 252.000000
327.265000 272.000000
337.251900 12946.000000
338.256000 2256.000000
355.262700 95144.000000
356.266100 21890.000000
357.269800 2166.000000
358.272600 258.000000
373.273400 210264.000000
374.276900 59632.000000
375.279900 5902.000000
376.281700 540.000000
391.284100 151672.000000
393.291300 4496.000000

>ms2
79.053900 310.000000
85.064100 584.000000
93.069100 588.000000
95.085200 1738.000000
99.044200 322.000000
101.059500 952.000000
105.069800 504.000000
107.085500 856.000000
109.100500 766.000000
111.080900 398.000000
121.101300 398.000000
123.080400 380.000000
125.096400 238.000000
131.085500 420.000000
135.116100 358.000000
137.096700 250.000000
145.100900 646.000000
149.132700 582.000000
151.110800 428.000000
157.100700 256.000000
159.066100 184.000000
159.116100 2638.000000
160.120400 228.000000
161.132000 534.000000
163.111100 244.000000
165.126700 1186.000000
167.106100 254.000000
173.132400 1128.000000
175.110700 344.000000
175.146700 758.000000
181.121400 908.000000
185.132500 696.000000
187.148400 374.000000
189.164400 260.000000
191.108400 224.000000
191.143000 1456.000000
193.121400 484.000000
195.117400 206.000000
195.137800 530.000000
197.132300 310.000000
199.147700 2036.000000
201.163500 418.000000
203.142100 552.000000
203.181100 288.000000
204.144900 210.000000
205.122900 472.000000
207.137500 1154.000000
208.139800 302.000000
209.132000 564.000000
211.146100 314.000000
213.163700 2112.000000
214.167900 234.000000
215.177300 752.000000
217.157800 654.000000
221.153600 404.000000
223.148100 564.000000
225.163800 378.000000
227.142900 1298.000000
227.179000 1936.000000
228.145400 334.000000
228.182900 298.000000
229.158200 628.000000
230.164900 278.000000
231.173600 476.000000
232.177800 190.000000
233.153000 232.000000
235.169300 278.000000
237.163500 444.000000
241.158300 1530.000000
241.195200 1454.000000
242.161500 360.000000
243.173700 616.000000
245.154600 582.000000
245.188900 1304.000000
246.191500 276.000000
247.168700 2998.000000
248.172400 520.000000
249.186900 244.000000
253.194200 256.000000
255.174400 418.000000
255.209900 686.000000
256.216800 196.000000
259.169700 1562.000000
259.206400 286.000000
260.174500 312.000000
261.184500 1364.000000
263.180200 266.000000
273.185600 598.000000
274.188400 250.000000
275.201100 480.000000
281.186200 306.000000
287.201300 394.000000
289.213500 256.000000
293.224800 382.000000
295.205900 338.000000
295.242700 564.000000
296.245600 198.000000
299.200100 436.000000
301.215800 194.000000
309.222600 614.000000
309.259400 1286.000000
310.263900 302.000000
313.212500 226.000000
319.242200 9700.000000
320.245800 1968.000000
321.249500 228.000000
327.268800 1126.000000
328.272400 230.000000
337.252400 73784.000000
338.255600 18882.000000
355.263100 181912.000000
356.266300 56426.000000
358.273000 268.000000
373.273400 69074.000000
374.277400 19050.000000
376.281200 218.000000
391.283600 912.000000

>ms2
49.007700 96.000000
63.174700 50.000000
68.010000 36.000000
71.085700 60.000000
72.171600 40.000000
73.028100 62.000000
74.072000 44.000000
77.038200 704.000000
77.211800 46.000000
78.042200 50.000000
78.234000 40.000000
79.053700 5838.000000
79.988700 42.000000
81.069400 19354.000000
83.048600 2328.000000
83.084900 4466.000000
84.052200 254.000000
84.172300 40.000000
85.064200 4008.000000
87.068500 64.000000
89.001400 44.000000
89.997400 38.000000
91.053900 3788.000000
92.057200 506.000000
93.069500 10436.000000
94.014300 36.000000
94.036600 42.000000
94.072900 460.000000
94.214300 50.000000
95.048600 996.000000
95.085200 15442.000000
96.041900 62.000000
96.088400 1208.000000
97.064300 1568.000000
97.100700 774.000000
98.036100 68.000000
99.043700 1728.000000
99.080500 174.000000
100.048300 102.000000
100.260400 68.000000
101.059200 1892.000000
103.054500 66.000000
105.069700 7200.000000
106.072700 438.000000
106.229600 50.000000
107.048900 382.000000
107.085100 7528.000000
108.088800 400.000000
109.064200 1774.000000
109.101200 4384.000000
110.047500 42.000000
110.069200 154.000000
110.104400 688.000000
111.080700 1234.000000
112.112000 42.000000
113.096700 42.000000
115.014700 78.000000
115.061700 90.000000
115.075300 96.000000
116.062700 86.000000
118.073800 102.000000
119.058500 180.000000
119.085300 3084.000000
120.088600 282.000000
121.064700 522.000000
121.100300 2962.000000
122.105400 290.000000
123.032700 36.000000
123.080700 688.000000
123.116900 414.000000
123.137400 40.000000
123.232800 96.000000
125.038400 60.000000
125.095500 336.000000
126.100300 36.000000
127.075400 478.000000
129.069900 282.000000
130.013400 64.000000
130.077400 130.000000
131.085300 1380.000000
132.089500 252.000000
132.244500 38.000000
133.100500 1480.000000
133.123200 96.000000
134.177400 42.000000
135.041100 56.000000
135.079400 384.000000
135.117200 910.000000
136.018200 36.000000
136.120500 80.000000
136.155900 54.000000
136.182100 36.000000
137.054600 46.000000
137.096500 480.000000
137.131500 48.000000
139.038200 66.000000
139.112600 70.000000
140.043400 104.000000
140.176500 42.000000
140.995700 44.000000
141.086200 70.000000
141.277600 78.000000
143.085500 904.000000
143.221100 46.000000
144.051600 46.000000
144.088500 406.000000
145.101100 2836.000000
146.104200 338.000000
147.080600 418.000000
147.116800 2558.000000
148.012800 78.000000
148.022600 124.000000
148.120300 384.000000
149.059100 58.000000
149.096100 390.000000
149.131800 884.000000
149.246700 46.000000
149.997600 48.000000
151.050900 54.000000
151.071800 52.000000
151.111600 712.000000
151.168800 40.000000
152.048900 72.000000
152.197700 58.000000
153.041400 50.000000
153.052000 54.000000
153.066900 44.000000
153.092200 176.000000
154.193100 80.000000
154.265700 86.000000
154.985700 114.000000
155.025500 86.000000
155.085100 700.000000
156.031200 118.000000
156.067300 38.000000
156.090200 256.000000
157.100700 2904.000000
158.035900 42.000000
158.104400 368.000000
159.116500 6490.000000
160.006600 42.000000
160.087100 66.000000
160.120400 740.000000
161.095100 524.000000
161.132200 3118.000000
162.101300 96.000000
162.137500 336.000000
163.018600 76.000000
163.111000 1056.000000
163.148000 162.000000
164.106700 66.000000
164.116800 152.000000
165.070900 156.000000
165.092200 78.000000
165.126900 1250.000000
165.988500 46.000000
166.072200 62.000000
166.093400 84.000000
166.131300 120.000000
167.084200 136.000000
167.107300 102.000000
168.068700 50.000000
168.090300 112.000000
169.022900 42.000000
169.100600 726.000000
169.143900 50.000000
169.181700 62.000000
170.013900 78.000000
170.106000 186.000000
171.079100 264.000000
171.116100 1860.000000
173.132200 4058.000000
174.099900 40.000000
174.135500 532.000000
175.111000 968.000000
175.148000 1142.000000
176.152800 178.000000
176.164400 88.000000
176.201000 54.000000
177.089300 110.000000
177.127100 974.000000
178.076500 44.000000
178.129900 64.000000
179.008300 52.000000
179.058600 54.000000
179.085300 66.000000
179.103500 80.000000
180.090700 68.000000
181.003400 36.000000
181.100300 440.000000
181.121700 190.000000
182.106700 100.000000
182.124700 66.000000
183.116000 1110.000000
184.075500 44.000000
184.122000 188.000000
184.168400 42.000000
185.096000 242.000000
185.132200 3660.000000
186.066400 56.000000
186.077600 114.000000
186.090700 64.000000
186.104200 62.000000
186.136800 494.000000
187.148200 1866.000000
187.974800 104.000000
188.114200 68.000000
188.150700 268.000000
188.189700 38.000000
189.126800 1020.000000
190.132800 144.000000
190.168300 116.000000
191.007600 52.000000
191.033500 62.000000
191.142600 878.000000
192.082500 40.000000
193.077500 64.000000
193.102300 48.000000
193.122000 208.000000
194.090600 48.000000
194.105300 56.000000
194.113800 74.000000
195.117000 844.000000
195.136800 198.000000
196.158400 50.000000
197.095600 76.000000
197.131900 1288.000000
198.091900 54.000000
198.137300 226.000000
199.147400 6270.000000
200.117000 114.000000
200.150900 1004.000000
200.238500 70.000000
201.127300 308.000000
201.163200 1204.000000
202.130900 90.000000
202.168600 162.000000
203.142300 1214.000000
203.178700 252.000000
204.148200 198.000000
204.162100 50.000000
205.122100 200.000000
205.158900 116.000000
206.022400 38.000000
206.126900 52.000000
207.118000 82.000000
207.137100 578.000000
207.158300 42.000000
207.181300 48.000000
208.108600 88.000000
208.125300 194.000000
208.182100 42.000000
209.131200 2206.000000
210.135900 270.000000
211.147700 1858.000000
212.118100 124.000000
212.150100 386.000000
213.126800 394.000000
213.163300 4458.000000
214.049300 52.000000
214.167100 694.000000
215.142500 586.000000
215.179200 1070.000000
216.145900 118.000000
216.181800 190.000000
217.158200 1472.000000
217.195300 104.000000
220.123500 40.000000
220.141800 60.000000
221.118300 58.000000
221.133200 122.000000
221.154200 108.000000
222.144600 36.000000
222.220200 56.000000
223.147000 2580.000000
224.150700 550.000000
224.172200 42.000000
225.150700 96.000000
225.163700 1596.000000
226.093800 36.000000
226.148400 38.000000
226.166200 398.000000
227.142800 2156.000000
227.178700 2420.000000
228.054500 70.000000
228.148000 376.000000
228.182100 572.000000
229.159300 1102.000000
229.192800 152.000000
230.161800 290.000000
231.042500 58.000000
231.173600 816.000000
232.121300 76.000000
232.177000 164.000000
232.237700 38.000000
233.068300 74.000000
233.152800 210.000000
235.147000 272.000000
235.168600 256.000000
236.145200 68.000000
236.171200 52.000000
237.163200 1074.000000
238.145300 76.000000
238.169900 248.000000
238.248700 38.000000
239.140500 76.000000
239.179000 1338.000000
240.181600 400.000000
240.244700 40.000000
241.158300 1826.000000
241.193500 1040.000000
241.213400 122.000000
242.102000 38.000000
242.163100 622.000000
242.197500 204.000000
242.222500 42.000000
243.108200 52.000000
243.173700 980.000000
245.152900 516.000000
245.189000 872.000000
245.225500 46.000000
246.156900 170.000000
246.194900 156.000000
246.300500 40.000000
247.168300 1036.000000
247.202500 118.000000
248.154300 120.000000
248.171500 192.000000
248.215300 90.000000
249.165100 484.000000
250.163900 140.000000
251.143500 46.000000
251.179300 670.000000
252.186800 124.000000
253.145400 66.000000
254.202200 1378.000000
255.001500 80.000000
255.174000 526.000000
255.209200 690.000000
256.179100 228.000000
256.212100 126.000000
257.153000 94.000000
257.189300 446.000000
257.212300 40.000000
258.197100 54.000000
259.083800 42.000000
259.168800 620.000000
259.207900 86.000000
260.131800 38.000000
260.171900 66.000000
260.247000 38.000000
261.141100 118.000000
261.163700 82.000000
261.186400 550.000000
262.188500 70.000000
263.179900 1078.000000
263.199500 90.000000
264.184400 290.000000
265.191900 290.000000
266.194300 44.000000
267.174600 150.000000
267.208500 108.000000
268.181400 98.000000
268.213300 56.000000
269.130100 50.000000
269.190800 306.000000
269.226400 50.000000
270.130000 44.000000
270.194600 96.000000
270.265000 44.000000
271.065000 38.000000
271.206100 90.000000
272.214500 46.000000
273.183800 304.000000
274.189700 304.000000
275.011700 62.000000
275.179200 50.000000
276.203700 44.000000
277.011000 36.000000
277.160700 56.000000
277.195300 432.000000
278.195000 92.000000
279.208900 162.000000
280.180600 46.000000
280.214800 182.000000
281.105900 60.000000
282.193000 48.000000
282.233400 58.000000
283.194200 108.000000
283.273400 50.000000
284.163900 56.000000
284.188300 36.000000
287.201100 204.000000
289.195500 84.000000
289.218200 82.000000
290.201600 72.000000
291.095200 56.000000
291.210900 134.000000
292.217200 62.000000
293.134900 46.000000
293.189300 38.000000
293.227300 150.000000
293.246700 36.000000
294.192500 62.000000
294.229000 122.000000
295.205700 506.000000
295.241200 604.000000
295.976900 48.000000
296.211000 128.000000
296.241000 162.000000
297.088100 56.000000
297.221500 124.000000
299.238700 50.000000
299.263300 44.000000
300.210700 152.000000
300.241000 66.000000
301.213500 134.000000
303.208800 38.000000
304.216500 192.000000
304.236100 44.000000
305.256800 42.000000
306.008400 44.000000
307.135300 48.000000
308.176200 60.000000
309.219900 456.000000
309.257600 714.000000
310.227400 134.000000
310.263100 152.000000
311.263500 46.000000
312.274000 64.000000
312.991000 60.000000
313.059500 36.000000
313.214100 138.000000
313.255600 142.000000
314.205400 46.000000
314.222000 68.000000
317.049100 36.000000
317.226600 90.000000
318.127300 46.000000
318.190700 44.000000
319.242200 3878.000000
320.245100 940.000000
320.266400 96.000000
321.248800 128.000000
322.224700 106.000000
325.063400 36.000000
326.223100 40.000000
327.230400 154.000000
329.240600 56.000000
335.082500 48.000000
337.252400 5230.000000
338.255400 1030.000000
339.245700 66.000000
340.237900 62.000000
341.242300 36.000000
345.277800 58.000000
353.242700 96.000000
355.262400 3542.000000
356.266500 1098.000000
357.268900 242.000000
373.269400 44.000000
373.281000 64.000000
380.076000 48.000000

