>compound RP92906123
>parentmass 161.0808
>ionization [M+H]+
>formula C7H12O4
>rt 162.660000
>profile qtof
#smiles_iso CC(CCC(=O)O)CC(=O)O
#smiles_can CC(CCC(=O)O)CC(=O)O
#inchikey SYEOWUNSTUDKGM-UHFFFAOYSA-N
#pubchem_id 12292
#mb_accession RP015801,RP015802,RP015803

>ms2peaks
64.063000 56.000000
71.048600 36.000000
75.055000 36.000000
81.069300 72.000000
91.051000 38.000000
115.074900 3024.000000
116.043900 92.000000
125.059300 2718.000000
126.063600 164.000000
127.063600 40.000000
143.069800 5380.000000
144.074100 306.000000
161.080200 4656.000000

>ms2peaks
67.053800 212.000000
71.048600 68.000000
71.084900 48.000000
80.058800 36.000000
81.007600 72.000000
81.069600 330.000000
97.064400 4390.000000
98.067800 336.000000
105.045700 64.000000
107.001000 48.000000
107.048300 52.000000
115.075400 1124.000000
125.059000 368.000000
126.064100 46.000000
143.069100 502.000000

>ms2peaks
55.017700 164.000000
59.049400 86.000000
95.048500 40.000000
97.028400 42.000000
97.064200 146.000000

