>compound RP92308121
>parentmass 244.1543
>ionization [M+H]+
>formula C12H21NO4
>rt 214.500000
>profile qtof
#smiles_iso CCCCCC(CC(=O)NC1CCOC1=O)O
#smiles_can CCCCCC(CC(=O)NC1CCOC1=O)O
#inchikey XCZVBYOXRSFQBH-UHFFFAOYSA-N
#pubchem_id 11586792
#mb_accession RP021501,RP021502,RP021503

>ms2
69.032200 816.000000
85.027200 462.000000
97.100800 9708.000000
102.054500 433118.000000
125.095900 7634.000000
126.099900 704.000000
198.149000 1454.000000
208.133100 890.000000
216.158200 646.000000
226.143500 63198.000000
227.146700 6898.000000
244.154200 126104.000000
246.159100 1212.000000

>ms2
55.016200 928.000000
59.047400 1030.000000
69.032400 5738.000000
75.055700 468.000000
80.057500 414.000000
83.048600 2438.000000
83.084800 30066.000000
84.043600 21884.000000
85.027400 2708.000000
85.064600 322.000000
97.100700 70036.000000
101.095400 634.000000
102.054500 272666.000000
107.085500 4520.000000
125.096000 9256.000000
126.099900 684.000000
142.121300 306.000000
180.137400 296.000000
198.149200 1102.000000
208.133000 1518.000000
226.143200 2408.000000
227.146500 354.000000
244.153100 350.000000

>ms2
54.033700 52.000000
55.016800 2594.000000
57.032300 274.000000
59.048000 610.000000
63.161500 86.000000
69.032300 1412.000000
71.048800 104.000000
71.086200 38.000000
76.108700 54.000000
76.986300 42.000000
80.049000 40.000000
81.069100 10108.000000
82.064700 136.000000
82.120700 40.000000
83.048200 1608.000000
83.084700 8834.000000
84.043600 23674.000000
85.027800 4512.000000
87.044100 98.000000
91.053700 1504.000000
94.065300 204.000000
95.048200 298.000000
95.084900 278.000000
97.101000 3236.000000
100.039100 202.000000
101.056500 46.000000
101.093900 206.000000
102.054700 16680.000000
103.037000 48.000000
105.069800 372.000000
107.085100 424.000000
108.081500 38.000000
110.022000 114.000000
110.094800 54.000000
119.060800 118.000000
125.094500 250.000000
129.993000 52.000000
150.126000 60.000000
208.130000 64.000000

