>compound RP92547600
>parentmass 98.9842
>ionization [M+H]+
>formula H3O4P
>rt 39.480000
>profile qtof
#smiles_iso OP(=O)(O)O
#smiles_can OP(=O)(O)O
#inchikey NBIIXXVUZAFLBC-UHFFFAOYSA-N
#pubchem_id 1004
#mb_accession RP022401,RP022402,RP022403

>ms2peaks
80.973600 330.000000
98.983800 7048.000000

>ms2peaks
62.962900 332.000000
80.973100 990.000000
98.984000 5814.000000

>ms2peaks
98.983700 2064.000000

