>compound RP93281248
>parentmass 484.2177
>ionization [M+H]+
>formula C23H33NO10
>rt 186.300000
>profile qtof
#smiles_iso CC1[C@@H](CC([C@@H](O1)OC(C)CCC(=O)O)O)OC(=O)CCC(=O)NC[C@@H](C2=CC=C(C=C2)O)O
#smiles_can CC1C(CC(C(O1)OC(C)CCC(=O)O)O)OC(=O)CCC(=O)NCC(C2=CC=C(C=C2)O)O
#inchikey YHQWACJRIRKIAL-QYURMBASSA-N
#pubchem_id 134160316
#mb_accession RP009401,RP009402,RP009403

>ms2peaks
105.989900 38.000000
113.213800 42.000000
116.125200 56.000000
117.136300 40.000000
126.145700 68.000000
127.082500 38.000000
132.077000 36.000000
134.065500 64.000000
137.190100 68.000000
139.204700 52.000000
142.049400 52.000000
143.089300 40.000000
143.166000 46.000000
144.081200 48.000000
151.241100 44.000000
153.026400 42.000000
153.974100 44.000000
163.098100 40.000000
164.031600 102.000000
166.251000 48.000000
168.080600 68.000000
168.126700 98.000000
169.042200 38.000000
172.035600 36.000000
173.217300 42.000000
175.174700 96.000000
175.988900 40.000000
177.091000 36.000000
177.962600 40.000000
178.022800 74.000000
178.157300 44.000000
185.043400 56.000000
185.165100 52.000000
186.103900 36.000000
186.135300 38.000000
187.977400 52.000000
188.234300 42.000000
196.107500 36.000000
196.146100 94.000000
196.988300 40.000000
198.030800 64.000000
198.048100 44.000000
200.018000 62.000000
200.064500 62.000000
201.032800 64.000000
207.202500 42.000000
208.028700 46.000000
211.092300 90.000000
213.078000 58.000000
213.987600 38.000000
214.052100 40.000000
214.144700 40.000000
214.998900 36.000000
216.963400 42.000000
217.262800 80.000000
217.950900 66.000000
218.081300 254.000000
221.134600 42.000000
222.012000 44.000000
222.139500 42.000000
224.990600 84.000000
225.131800 58.000000
225.176200 48.000000
225.222200 72.000000
228.135900 42.000000
229.125900 44.000000
234.038100 36.000000
234.186900 38.000000
234.226200 100.000000
235.115200 76.000000
235.240700 48.000000
236.092800 230.000000
236.127000 84.000000
239.247600 52.000000
240.022000 36.000000
241.112400 46.000000
242.994600 44.000000
243.105100 40.000000
244.186500 38.000000
245.951500 40.000000
247.154600 42.000000
248.096300 60.000000
250.052900 42.000000
250.965700 42.000000
251.009900 98.000000
251.057000 50.000000
251.153300 62.000000
252.132700 110.000000
254.100900 50.000000
256.977600 78.000000
258.160500 62.000000
258.992500 90.000000
259.993000 102.000000
260.109300 56.000000
260.191400 38.000000
262.088600 54.000000
264.087500 102.000000
264.146900 56.000000
265.963500 36.000000
268.002200 46.000000
272.090900 58.000000
272.982200 68.000000
274.131400 46.000000
275.155200 44.000000
276.140200 52.000000
280.003100 64.000000
282.985400 46.000000
284.083000 42.000000
287.004500 46.000000
287.103300 52.000000
287.118800 40.000000
288.046000 44.000000
288.131600 84.000000
288.163800 66.000000
288.955500 60.000000
289.045700 82.000000
290.051500 36.000000
290.137200 54.000000
292.107900 36.000000
295.103700 50.000000
295.179800 38.000000
297.179000 78.000000
298.061300 44.000000
298.095800 56.000000
300.095200 98.000000
301.106800 46.000000
301.178800 40.000000
302.123600 114.000000
303.226500 82.000000
304.194100 56.000000
306.025200 42.000000
306.079100 74.000000
308.030300 50.000000
308.053200 62.000000
308.167100 96.000000
309.008800 52.000000
310.214600 46.000000
311.250900 66.000000
311.952100 52.000000
313.090500 38.000000
314.159300 52.000000
316.207200 70.000000
317.191700 42.000000
318.100300 48.000000
321.053400 38.000000
322.046200 44.000000
322.170100 74.000000
323.014200 48.000000
323.187500 44.000000
324.146600 42.000000
324.969800 40.000000
325.984000 68.000000
326.039400 46.000000
327.997500 36.000000
331.132700 36.000000
333.021900 64.000000
334.159700 40.000000
336.112200 44.000000
337.200100 68.000000
338.148300 44.000000
339.133500 44.000000
344.080300 46.000000
345.142600 44.000000
345.991200 40.000000
348.143700 29172.000000
349.148300 5144.000000
350.068000 70.000000
350.121200 38.000000
350.152100 632.000000
351.152700 114.000000
352.124100 104.000000
352.149100 58.000000
355.028300 48.000000
360.200800 36.000000
361.086200 44.000000
362.195200 46.000000
364.067800 40.000000
365.077700 72.000000
366.154900 16634.000000
367.158800 3850.000000
368.012200 38.000000
368.042400 36.000000
368.113600 46.000000
368.159400 444.000000
369.024900 60.000000
369.166500 108.000000
369.223400 40.000000
372.130500 46.000000
376.187200 40.000000
380.257400 42.000000
383.000100 58.000000
383.192100 70.000000
384.217100 58.000000
386.221800 46.000000
388.068500 44.000000
394.040700 44.000000
398.986900 36.000000
404.125600 38.000000
408.114100 60.000000
408.158500 48.000000
422.002500 52.000000
428.975100 56.000000
432.081400 54.000000
444.995000 40.000000
447.955600 38.000000
453.120400 40.000000
453.962300 56.000000
453.980100 40.000000
455.171100 40.000000
459.178000 36.000000
461.196700 44.000000
462.070700 46.000000
463.052300 60.000000
465.033800 76.000000
466.207200 14388.000000
467.211800 4524.000000
468.005700 36.000000
468.215400 534.000000
469.222500 124.000000
470.198600 60.000000
470.994800 42.000000
480.196800 40.000000
484.217600 1060.000000

>ms2peaks
79.041400 56.000000
95.044400 50.000000
95.999000 52.000000
98.092900 44.000000
101.059300 92.000000
102.029700 56.000000
108.021000 64.000000
113.058600 52.000000
114.146600 46.000000
115.124000 52.000000
118.159600 78.000000
119.238000 52.000000
132.019300 54.000000
134.047700 44.000000
136.073600 216.000000
139.025300 100.000000
139.110200 54.000000
141.078400 48.000000
143.143200 44.000000
143.149800 46.000000
144.214100 92.000000
146.045600 66.000000
148.009100 56.000000
152.000000 64.000000
153.046000 86.000000
153.963100 50.000000
153.987300 48.000000
155.067800 94.000000
158.110100 58.000000
159.006600 44.000000
159.202000 72.000000
162.011800 56.000000
162.045700 52.000000
162.972200 46.000000
163.082400 58.000000
164.016300 58.000000
167.073400 46.000000
168.118700 44.000000
168.962800 52.000000
170.065900 58.000000
171.078700 56.000000
173.093900 84.000000
174.220300 62.000000
176.127300 48.000000
180.062900 60.000000
180.170300 54.000000
183.137900 48.000000
184.091700 54.000000
184.102000 50.000000
184.995700 128.000000
188.040800 54.000000
188.114000 76.000000
188.148200 46.000000
190.087000 106.000000
190.123000 204.000000
193.093600 56.000000
193.105000 104.000000
195.042200 94.000000
196.061500 56.000000
197.146100 62.000000
200.002900 60.000000
200.069000 56.000000
201.018900 58.000000
201.055200 82.000000
201.092400 58.000000
201.144700 58.000000
201.240600 56.000000
203.013900 50.000000
204.025200 64.000000
205.035800 48.000000
206.002000 60.000000
211.135100 46.000000
213.074000 66.000000
213.088200 120.000000
213.173200 46.000000
213.970100 64.000000
214.021800 76.000000
215.077900 82.000000
217.114300 54.000000
218.080900 5436.000000
219.013900 44.000000
219.085800 584.000000
219.103900 64.000000
219.121200 44.000000
220.154300 50.000000
222.240700 48.000000
225.088600 52.000000
226.009800 50.000000
227.051000 72.000000
227.163000 48.000000
228.147400 46.000000
230.120800 78.000000
231.022400 54.000000
231.052700 56.000000
231.074500 54.000000
231.104100 90.000000
232.017500 72.000000
234.199600 44.000000
235.043900 74.000000
236.091500 10370.000000
237.027700 88.000000
237.095900 1356.000000
237.210200 80.000000
238.098700 60.000000
238.116100 52.000000
238.135300 68.000000
240.049200 52.000000
242.102800 44.000000
243.115600 48.000000
248.129600 82.000000
248.176900 64.000000
249.089600 62.000000
250.106300 292.000000
250.189500 44.000000
253.992800 98.000000
254.003300 92.000000
254.100500 182.000000
255.964100 50.000000
256.097900 44.000000
261.080200 68.000000
262.063900 62.000000
263.216000 54.000000
266.098100 66.000000
273.059700 50.000000
273.227600 66.000000
275.971800 70.000000
276.059200 102.000000
277.127200 66.000000
283.987000 168.000000
285.003700 60.000000
287.105800 52.000000
289.132800 44.000000
290.139100 1076.000000
291.139900 142.000000
292.195900 50.000000
292.273200 48.000000
294.111900 46.000000
298.160700 46.000000
299.156800 52.000000
300.158000 66.000000
300.979100 44.000000
301.979600 80.000000
303.199100 82.000000
305.004600 82.000000
307.078500 74.000000
312.124700 116.000000
317.005900 46.000000
317.039700 54.000000
317.197400 70.000000
320.034000 74.000000
320.078100 46.000000
320.151700 128.000000
321.092600 44.000000
325.251000 46.000000
327.039200 48.000000
330.134800 382.000000
331.139900 46.000000
336.986000 82.000000
338.957300 82.000000
339.234300 58.000000
342.150200 44.000000
344.023500 82.000000
347.198200 62.000000
347.212100 88.000000
347.241300 50.000000
348.144000 42538.000000
349.147700 9272.000000
350.117900 118.000000
350.150200 894.000000
350.205000 68.000000
351.127800 54.000000
351.161300 58.000000
352.012500 68.000000
353.138600 48.000000
366.154800 1846.000000
367.000000 44.000000
367.157800 556.000000
368.165600 108.000000
378.054500 52.000000
390.186400 48.000000
456.124300 46.000000
466.207000 1532.000000
467.213400 522.000000
468.213600 108.000000

>ms2peaks
55.038700 46.000000
57.033000 90.000000
57.244600 52.000000
59.047700 36.000000
62.093400 40.000000
67.053800 376.000000
69.031700 52.000000
71.047500 52.000000
72.043800 52.000000
73.027400 108.000000
74.034400 44.000000
78.021500 42.000000
79.050600 56.000000
81.069500 68.000000
83.049700 878.000000
84.052500 42.000000
84.080100 136.000000
84.244400 66.000000
85.064300 436.000000
91.053700 144.000000
94.015800 40.000000
95.049000 360.000000
100.039000 602.000000
101.023400 1036.000000
101.059500 556.000000
105.114100 54.000000
105.241900 48.000000
107.048500 86.000000
112.063600 66.000000
113.059100 392.000000
115.152900 68.000000
116.165500 62.000000
118.086000 64.000000
119.049200 146.000000
120.054600 68.000000
121.163900 46.000000
124.015400 36.000000
125.994800 42.000000
128.006100 66.000000
129.003500 58.000000
130.025100 86.000000
130.156900 36.000000
134.197300 48.000000
135.031800 78.000000
136.075400 2644.000000
137.093300 36.000000
139.970500 36.000000
140.078100 50.000000
143.084500 66.000000
146.023300 36.000000
148.074500 76.000000
153.042700 42.000000
153.066700 42.000000
154.087000 76.000000
154.216300 48.000000
155.071800 98.000000
156.176700 78.000000
157.047500 66.000000
157.195900 64.000000
159.025600 44.000000
162.050300 40.000000
163.182100 44.000000
166.187600 78.000000
167.041600 58.000000
167.979900 92.000000
169.134100 66.000000
172.074500 208.000000
173.059600 180.000000
173.085400 98.000000
173.095800 284.000000
174.057600 98.000000
176.123100 36.000000
176.148100 42.000000
183.099600 42.000000
185.212200 48.000000
186.075600 58.000000
187.070900 58.000000
187.151800 40.000000
190.085700 200.000000
190.122700 1340.000000
191.088300 110.000000
191.128200 300.000000
192.199800 38.000000
194.218100 44.000000
195.086700 46.000000
200.070600 1720.000000
201.052600 248.000000
201.074000 338.000000
201.993300 108.000000
202.056200 76.000000
202.079300 42.000000
203.125200 50.000000
207.959600 62.000000
210.154700 40.000000
213.075600 70.000000
213.088600 58.000000
213.109400 38.000000
218.080800 13900.000000
219.085300 1822.000000
220.042900 58.000000
220.085500 300.000000
220.110800 82.000000
222.161200 48.000000
223.069800 38.000000
236.091300 3954.000000
237.095600 480.000000
237.180000 70.000000
238.096700 142.000000
242.981000 46.000000
246.018000 60.000000
248.130600 40.000000
250.100200 40.000000
253.115300 66.000000
265.117400 42.000000
272.130300 74.000000
290.138500 236.000000
331.129400 58.000000
343.983300 50.000000
348.143700 364.000000
349.146300 114.000000
431.223300 48.000000
436.182600 38.000000

