>compound RP94654269
>parentmass 166.0863
>ionization [M+H]+
>formula C9H11NO2
>rt 84.600000
>profile qtof
#smiles_iso C1=CC=C(C=C1)C[C@@H](C(=O)O)N
#smiles_can C1=CC=C(C=C1)CC(C(=O)O)N
#inchikey COLNVLDHVKWLRT-QMMMGPOBSA-N
#pubchem_id 6140
#mb_accession RP000401,RP000402,RP000403

>ms2peaks
77.038300 304.000000
79.053700 458.000000
93.069400 260.000000
103.054000 1996.000000
104.057600 196.000000
107.049200 1122.000000
120.080700 168254.000000
121.084000 12354.000000
131.048800 1778.000000
148.076000 242.000000
149.059100 2816.000000
166.085600 81098.000000

>ms2peaks
77.038200 1654.000000
79.053800 10420.000000
80.049100 208.000000
91.053700 2558.000000
93.069400 11870.000000
94.064300 248.000000
94.073000 804.000000
95.048500 996.000000
102.046400 192.000000
103.054100 38194.000000
104.057100 2496.000000
105.043700 222.000000
105.070200 368.000000
107.049000 9238.000000
108.052100 660.000000
118.064800 310.000000
120.080700 187882.000000
121.084000 14440.000000
131.048600 1462.000000
166.086700 310.000000

>ms2peaks
51.022400 1708.000000
53.038100 4352.000000
63.022400 164.000000
65.038200 5624.000000
67.053700 342.000000
74.023400 244.000000
75.023400 228.000000
77.038100 142592.000000
78.041700 7674.000000
79.053800 40838.000000
80.049300 2046.000000
80.057300 2150.000000
81.033200 1000.000000
81.053300 206.000000
91.053900 48500.000000
92.049200 544.000000
92.057300 3104.000000
93.057200 954.000000
93.069700 13352.000000
94.064500 838.000000
94.073300 1054.000000
95.048800 39260.000000
96.052300 1980.000000
102.046100 4204.000000
103.054000 123888.000000
104.057200 9096.000000
105.044500 14386.000000
107.048400 496.000000
117.058100 178.000000
118.065000 820.000000
119.073400 948.000000
120.080600 11736.000000
121.084200 1302.000000

