>compound RP94879882
>parentmass 197.07090000000002
>ionization [M+H]+
>formula C12H8N2O
>rt 246.120000
>profile qtof
#smiles_iso C1=CC=C2C(=C1)N=C3C=CC=C(C3=N2)O
#smiles_can C1=CC=C2C(=C1)N=C3C=CC=C(C3=N2)O
#inchikey SVRNCBGWUMMBQB-UHFFFAOYSA-N
#pubchem_id 135412648
#mb_accession RP018601,RP018602,RP018603

>ms2peaks
168.068200 1124.000000
169.076000 9882.000000
179.060400 1726.000000
197.070600 764786.000000

>ms2peaks
152.049200 1502.000000
153.043600 784.000000
168.068000 11836.000000
169.075700 107970.000000
179.060200 24184.000000
180.064100 1770.000000
197.070600 585704.000000

>ms2peaks
61.007100 160.000000
68.997700 138.000000
74.014800 436.000000
75.022300 6316.000000
76.017600 1052.000000
76.026600 624.000000
78.033100 11410.000000
79.041200 7960.000000
80.045000 424.000000
81.032800 388.000000
82.028000 194.000000
89.038400 1632.000000
90.033200 392.000000
90.046700 338.000000
91.054100 1974.000000
92.049000 4924.000000
93.033100 186.000000
95.048900 21096.000000
96.044000 3072.000000
99.022800 474.000000
100.018100 216.000000
101.039100 490.000000
102.033700 6312.000000
104.048700 508.000000
105.044400 6874.000000
106.028300 248.000000
106.048200 490.000000
107.049900 146.000000
114.046700 762.000000
115.054300 18546.000000
116.049900 1798.000000
116.057400 1830.000000
117.057600 562.000000
119.060500 540.000000
120.044000 2242.000000
120.067800 148.000000
125.038500 2584.000000
126.035100 418.000000
126.041900 374.000000
127.054800 214.000000
128.049700 2406.000000
129.045000 3876.000000
130.040000 5222.000000
133.062700 132.000000
135.080300 140.000000
138.054500 150.000000
140.049000 1358.000000
141.057100 1226.000000
142.053200 628.000000
142.065500 1896.000000
143.048600 198.000000
143.061300 624.000000
146.061000 288.000000
147.056100 266.000000
148.049800 136.000000
151.041600 632.000000
152.049300 16392.000000
153.044700 8454.000000
154.047500 838.000000
166.052500 342.000000
167.060300 2360.000000
168.067900 102930.000000
169.075500 130724.000000
170.060000 3870.000000
171.055800 1860.000000
172.062200 156.000000
177.043000 274.000000
178.052900 514.000000
179.060100 36374.000000
180.063200 4806.000000
196.062600 246.000000
197.070800 15966.000000

