>compound RP94271600
>parentmass 298.1146
>ionization [M+H]+
>formula C11H15N5O5
>rt 55.680000
>profile qtof
#smiles_iso CO[C@@H]1[C@@H]([C@H](O[C@H]1N2C=NC3=C2N=C(NC3=O)N)CO)O
#smiles_can COC1C(C(OC1N2C=NC3=C2N=C(NC3=O)N)CO)O
#inchikey OVYNGSFVYRPRCG-KQYNXXCUSA-N
#pubchem_id 135406950
#mb_accession RP031801,RP031802,RP031803

>ms2peaks
53.096100 60.000000
55.989000 80.000000
57.090900 64.000000
71.011500 90.000000
74.083100 70.000000
89.045300 96.000000
92.067900 88.000000
97.063100 68.000000
98.095700 98.000000
99.990900 64.000000
105.058000 106.000000
109.034900 98.000000
109.074100 64.000000
110.020600 76.000000
120.077400 60.000000
135.973900 130.000000
137.095300 86.000000
143.067500 64.000000
145.082100 64.000000
145.128500 86.000000
147.066400 120.000000
148.062700 102.000000
148.132200 74.000000
152.056200 58124.000000
153.059000 2328.000000
154.060600 88.000000
225.106800 106.000000
277.087500 88.000000
296.071400 64.000000
298.115300 11394.000000

>ms2peaks
50.047300 88.000000
57.031900 112.000000
58.098900 80.000000
59.049100 90.000000
67.038500 68.000000
69.032500 392.000000
71.048500 144.000000
71.085300 90.000000
73.028100 66.000000
73.038900 62.000000
74.002900 74.000000
75.043700 100.000000
75.994000 84.000000
76.120100 112.000000
78.089300 72.000000
85.027300 122.000000
87.043800 374.000000
87.065200 62.000000
88.084300 104.000000
94.025900 56.000000
96.031100 68.000000
97.027400 156.000000
97.098000 62.000000
97.132300 60.000000
98.093100 56.000000
101.059400 318.000000
104.056300 114.000000
110.035000 194.000000
112.040100 56.000000
113.034100 108.000000
115.037900 72.000000
121.085600 160.000000
130.040700 80.000000
131.115300 90.000000
138.134300 70.000000
139.107200 104.000000
147.064900 134.000000
148.055300 194.000000
148.086000 58.000000
152.056200 52732.000000
153.058600 2644.000000
154.060400 150.000000

>ms2peaks
54.055200 74.000000
55.016600 220.000000
55.028600 94.000000
57.032400 372.000000
59.048100 314.000000
61.027900 366.000000
69.032800 3078.000000
71.012300 156.000000
71.048800 218.000000
73.027300 92.000000
73.063500 276.000000
74.015000 44.000000
74.109100 116.000000
75.043500 490.000000
80.023900 114.000000
82.041400 136.000000
85.027100 140.000000
87.043900 282.000000
89.119500 40.000000
92.057000 40.000000
93.064300 60.000000
97.028200 140.000000
99.042600 156.000000
101.058600 150.000000
104.094000 44.000000
107.033700 78.000000
109.050700 242.000000
110.034100 1210.000000
110.046300 86.000000
111.019500 54.000000
111.111000 64.000000
112.075500 38.000000
112.125100 48.000000
113.020600 76.000000
115.038900 96.000000
119.999200 40.000000
128.043900 218.000000
128.050200 174.000000
132.085400 156.000000
135.029400 1284.000000
136.029700 50.000000
136.129300 104.000000
137.084100 102.000000
139.052900 40.000000
147.980300 80.000000
149.100500 46.000000
152.056000 18516.000000
153.039600 3842.000000
153.058100 1340.000000
154.042600 194.000000
154.062700 48.000000
181.072900 44.000000

