>compound RP94478210
>parentmass 256.1907
>ionization [M+H]+
>formula C14H25NO3
>rt 306.780000
>profile qtof
#smiles_iso CCCCCCCCCC(=O)NC1CCOC1=O
#smiles_can CCCCCCCCCC(=O)NC1CCOC1=O
#inchikey TZWZKDULKILUPV-UHFFFAOYSA-N
#pubchem_id 11644562
#mb_accession RP020401,RP020402,RP020403

>ms2peaks
81.069200 28582.000000
83.085100 1148.000000
84.043800 1950.000000
85.100500 16296.000000
95.085100 18414.000000
97.101300 692.000000
102.054500 342482.000000
104.059000 1512.000000
137.131700 2804.000000
155.142600 71402.000000
228.195400 23778.000000
238.179900 34996.000000
239.183600 4312.000000
256.190100 382536.000000
258.196000 5262.000000

>ms2peaks
59.048000 358.000000
73.064200 1450.000000
74.023000 11532.000000
79.053700 882.000000
81.069200 116514.000000
83.084900 6458.000000
84.044000 7104.000000
85.100600 147716.000000
87.080000 1138.000000
93.070000 262.000000
95.085100 85276.000000
96.088400 5352.000000
97.101000 1900.000000
99.080500 606.000000
100.075800 220.000000
102.054700 163100.000000
114.054700 378.000000
137.132000 2732.000000
138.135900 344.000000
140.070000 296.000000
155.142600 22184.000000
228.195300 610.000000
238.179800 15644.000000
239.182900 1892.000000
256.190900 1554.000000

>ms2peaks
49.063100 68.000000
58.040900 92.000000
59.048100 242.000000
61.051600 64.000000
66.045700 126.000000
67.053600 32516.000000
70.064500 152.000000
71.084800 60864.000000
73.063300 128.000000
74.023000 36236.000000
74.059300 59462.000000
75.055300 146.000000
76.062400 90.000000
78.046500 156.000000
79.053900 4754.000000
80.057700 274.000000
81.069400 31414.000000
82.065900 200.000000
82.073000 1956.000000
83.072400 68.000000
83.085400 1104.000000
84.043800 11520.000000
85.027900 6804.000000
85.064200 656.000000
85.100600 11018.000000
91.055100 94.000000
93.069800 1188.000000
94.074000 198.000000
95.085100 17656.000000
97.101500 182.000000
100.074800 80.000000
102.054800 10862.000000
110.094300 80.000000
154.158100 82.000000
155.142000 946.000000

