>compound RP95300285
>parentmass 279.2319
>ionization [M+H]+
>formula C18H30O2
>rt 401.460000
>profile qtof
#smiles_iso CCCCC/C=C\C/C=C\C/C=C\CCCCC(=O)O
#smiles_can CCCCCC=CCC=CCC=CCCCCC(=O)O
#inchikey VZCCETWTMQHEPK-QNEBEIHSSA-N
#pubchem_id 5280933
#mb_accession RP014301,RP014302,RP014303

>ms2
80.082900 42.000000
81.069400 298.000000
95.085500 310.000000
96.081300 50.000000
96.991700 38.000000
97.097800 52.000000
99.138300 38.000000
100.112700 54.000000
109.101200 160.000000
111.116300 62.000000
113.227100 36.000000
122.106000 36.000000
125.096700 56.000000
133.170700 64.000000
138.010000 66.000000
147.137800 80.000000
148.182000 78.000000
151.144900 64.000000
151.990200 40.000000
152.132100 40.000000
159.118100 50.000000
161.133600 66.000000
163.108000 70.000000
165.165100 100.000000
170.131700 50.000000
177.127600 150.000000
177.140300 40.000000
177.163900 40.000000
179.144500 248.000000
179.179500 36.000000
180.173600 56.000000
181.157500 84.000000
182.177500 78.000000
184.124600 54.000000
195.137700 312.000000
195.185900 54.000000
196.145100 78.000000
197.027900 44.000000
199.121100 58.000000
201.165100 44.000000
203.235600 44.000000
208.219500 54.000000
209.153400 156.000000
217.188900 66.000000
219.170100 40.000000
219.197000 36.000000
221.131300 104.000000
223.064500 44.000000
225.088900 36.000000
233.116500 46.000000
237.185300 78.000000
237.218200 36.000000
239.189000 38.000000
243.159400 64.000000
243.194400 40.000000
243.211900 362.000000
251.106100 40.000000
253.135300 54.000000
260.019300 36.000000
261.170000 42.000000
261.221400 826.000000
262.226100 338.000000
277.218600 52.000000
279.231700 10136.000000

>ms2
69.069300 182.000000
79.054100 270.000000
81.069400 1118.000000
82.073100 102.000000
93.070300 66.000000
95.084700 548.000000
97.097400 58.000000
102.078000 40.000000
107.086500 100.000000
109.064700 94.000000
109.100900 90.000000
111.081000 48.000000
111.116300 46.000000
121.101200 122.000000
122.104800 36.000000
131.085100 42.000000
141.029100 50.000000
145.102400 164.000000
149.095900 100.000000
149.131600 136.000000
159.115900 158.000000
159.137600 64.000000
161.132200 102.000000
163.144900 110.000000
165.161200 102.000000
167.105000 60.000000
177.124800 174.000000
177.172000 42.000000
179.107000 36.000000
181.100300 36.000000
181.123000 162.000000
191.144000 106.000000
201.159100 36.000000
206.166900 38.000000
209.153700 106.000000
211.157300 88.000000
213.163000 98.000000
219.208600 50.000000
233.224600 62.000000
234.235300 38.000000
243.209300 328.000000
261.218600 130.000000
279.233700 346.000000

>ms2
81.069200 1828.000000
83.085900 42.000000
85.060700 36.000000
87.043800 38.000000
91.053800 146.000000
95.048800 46.000000
109.100800 54.000000
120.088400 74.000000
131.082200 42.000000

