>compound RP95592956
>parentmass 286.2741
>ionization [M+H]+
>formula C17H35NO2
>rt 384.840000
>profile qtof
#smiles_iso CCCCCCCCCCCCCCC(=O)NCCO
#smiles_can CCCCCCCCCCCCCCC(=O)NCCO
#inchikey UHPXXKLAACDXGS-UHFFFAOYSA-N
#pubchem_id 14455157
#mb_accession RP002901,RP002902,RP002903

>ms2
62.059500 162408.000000
225.221900 984.000000
268.263500 1846.000000
269.247200 16820.000000
286.273600 524230.000000

>ms2
57.069500 9246.000000
62.059500 480884.000000
67.053700 3220.000000
69.069600 6098.000000
71.085400 26058.000000
81.069600 6632.000000
83.085300 3642.000000
85.101000 10400.000000
95.085400 7466.000000
96.088700 622.000000
97.100600 1306.000000
99.116100 872.000000
109.101300 2854.000000
123.115900 710.000000
207.210600 492.000000
225.221100 3082.000000
268.263200 16030.000000
269.247300 52230.000000
286.273800 22586.000000

>ms2
53.038500 104.000000
55.054000 1382.000000
57.069500 23522.000000
60.044800 116.000000
62.059600 89676.000000
67.053800 14066.000000
69.069700 4588.000000
71.085200 21328.000000
73.028000 148.000000
79.053900 864.000000
81.069600 6368.000000
83.085300 1744.000000
85.101100 3884.000000
93.069400 328.000000
95.085400 3934.000000
96.088900 266.000000
97.101500 284.000000
107.085200 164.000000
109.100300 640.000000
194.249300 98.000000
268.262500 1190.000000
269.247100 226.000000
269.266400 310.000000

