>compound RP95200177
>parentmass 183.0652
>ionization [M+H]+
>formula C9H10O4
>rt 140.820000
>profile qtof
#smiles_iso CC(C1=CC=C(C=C1)O)(C(=O)O)O
#smiles_can CC(C1=CC=C(C=C1)O)(C(=O)O)O
#inchikey HXIPUYVSSGKLFF-UHFFFAOYSA-N
#pubchem_id 22056978
#mb_accession RP029401,RP029402,RP029403

>ms2
89.995000 60.000000
107.049300 40.000000
119.048400 112.000000
122.032400 50.000000
123.045200 138.000000
137.060200 382.000000
147.043500 128.000000
165.054600 1032.000000
166.058000 104.000000
185.042800 44.000000

>ms2
81.070100 62.000000
91.053900 554.000000
92.058700 92.000000
95.049500 190.000000
107.048600 160.000000
119.049100 552.000000
120.053300 42.000000
123.043500 82.000000
137.059900 52.000000
147.040600 56.000000

>ms2
67.053800 88.000000
91.014000 36.000000
91.053700 616.000000
95.048800 546.000000
103.049900 52.000000

