>compound RP97952709
>parentmass 405.2636
>ionization [M+H]+
>formula C24H36O5
>rt 248.820000
>profile qtof
#smiles_iso C[C@H](CCC(=O)O)[C@H]1CC[C@@H]2[C@@]1(C(=O)C[C@H]3[C@H]2C(=O)C[C@H]4[C@@]3(CC[C@H](C4)O)C)C
#smiles_can CC(CCC(=O)O)C1CCC2C1(C(=O)CC3C2C(=O)CC4C3(CCC(C4)O)C)C
#inchikey MAFJMPFLJJCSTB-FQBQTYDJSA-N
#pubchem_id 3080560
#mb_accession RP026601,RP026602,RP026603

>ms2
243.136100 312.000000
305.226800 1096.000000
309.184600 494.000000
323.236800 3846.000000
324.239000 562.000000
333.220800 570.000000
341.247500 362.000000
351.231600 23242.000000
352.235000 3798.000000
353.238200 282.000000
369.242200 47810.000000
370.245200 9080.000000
371.246900 922.000000
387.252500 276258.000000
388.255800 73180.000000
389.259200 7864.000000
390.265400 460.000000
405.263300 239452.000000
407.269900 7144.000000

>ms2
81.069700 778.000000
85.064800 272.000000
91.054300 218.000000
93.069200 250.000000
95.084700 1136.000000
99.043400 1220.000000
105.069600 268.000000
107.085500 460.000000
109.100700 362.000000
113.059700 198.000000
123.079500 892.000000
145.100900 438.000000
147.116300 548.000000
149.095200 230.000000
155.084300 226.000000
158.094600 170.000000
159.116400 764.000000
161.132300 232.000000
163.110900 170.000000
167.107300 482.000000
171.117300 176.000000
173.093500 268.000000
173.131900 184.000000
175.110200 404.000000
183.116900 550.000000
185.132500 800.000000
189.089900 176.000000
191.105600 248.000000
195.116200 1866.000000
196.119900 188.000000
197.131200 896.000000
198.136300 220.000000
199.147300 884.000000
200.150000 162.000000
203.104900 198.000000
205.121800 274.000000
207.117900 164.000000
209.131600 692.000000
210.133800 230.000000
211.148700 818.000000
213.128900 258.000000
215.143100 328.000000
221.132300 176.000000
223.110300 200.000000
223.146300 754.000000
224.151600 254.000000
225.127100 342.000000
226.135500 188.000000
227.141900 190.000000
229.158300 740.000000
231.135900 296.000000
235.146900 250.000000
237.162300 166.000000
241.120900 820.000000
243.137900 3166.000000
244.141600 510.000000
244.161900 212.000000
245.149400 332.000000
247.167000 334.000000
249.163900 240.000000
251.145100 260.000000
251.180400 544.000000
253.159100 218.000000
255.138300 700.000000
255.256100 210.000000
256.139900 230.000000
257.153500 460.000000
257.189600 286.000000
259.132600 1474.000000
259.169700 160.000000
260.135100 302.000000
263.181300 272.000000
269.152600 1836.000000
269.189300 346.000000
270.157200 374.000000
271.171300 182.000000
271.205000 450.000000
273.159500 166.000000
281.153200 202.000000
281.189900 184.000000
283.169000 406.000000
284.244800 196.000000
289.214600 230.000000
291.174500 624.000000
291.210900 198.000000
293.188100 182.000000
295.169100 310.000000
297.184600 464.000000
301.287300 178.000000
305.225800 21424.000000
306.229700 3760.000000
307.238400 394.000000
309.184700 2752.000000
309.220700 302.000000
310.146100 218.000000
310.188400 448.000000
311.200000 704.000000
312.201700 290.000000
315.210800 1102.000000
316.212400 242.000000
323.236600 53806.000000
324.240000 11316.000000
325.245600 824.000000
329.211900 940.000000
330.214100 192.000000
332.215900 182.000000
333.220800 13544.000000
334.225100 2752.000000
334.253800 184.000000
335.229300 228.000000
341.247700 5432.000000
342.250300 1082.000000
343.252500 160.000000
351.231400 157950.000000
352.235000 45042.000000
354.240100 286.000000
359.254200 316.000000
369.242000 145506.000000
370.245600 39986.000000
371.248500 3692.000000
372.250500 300.000000
387.252600 98828.000000
388.256000 25168.000000
389.257500 2384.000000
390.261400 240.000000
405.263500 3324.000000

>ms2
45.091100 52.000000
47.106200 94.000000
48.031500 64.000000
50.023500 94.000000
51.994100 52.000000
56.036600 62.000000
58.172100 128.000000
62.260100 38.000000
63.067900 70.000000
66.103300 50.000000
68.001000 46.000000
68.025600 38.000000
68.047400 38.000000
69.033300 442.000000
69.069200 1508.000000
70.192200 54.000000
71.085100 132.000000
73.027900 256.000000
73.064300 130.000000
74.000200 64.000000
74.059300 42.000000
74.108400 76.000000
75.232000 100.000000
75.268800 52.000000
75.989800 54.000000
76.027100 76.000000
79.053800 4082.000000
80.010200 38.000000
81.069300 9864.000000
83.048600 1878.000000
83.085000 3038.000000
85.064300 2394.000000
86.011400 112.000000
87.090900 86.000000
87.174600 48.000000
89.071100 38.000000
90.078400 56.000000
91.054000 1776.000000
91.096000 112.000000
92.250100 82.000000
93.069500 10134.000000
93.988800 118.000000
94.005300 102.000000
94.072700 564.000000
94.110900 52.000000
94.213600 54.000000
95.084900 11146.000000
96.016100 90.000000
96.028900 38.000000
96.089300 656.000000
96.208800 76.000000
96.976600 50.000000
97.064000 508.000000
97.215900 68.000000
98.002800 176.000000
98.130500 70.000000
99.043500 1844.000000
99.081300 270.000000
99.978900 106.000000
101.023800 66.000000
101.059600 850.000000
101.284500 76.000000
102.033300 38.000000
102.218300 42.000000
103.038900 42.000000
104.070300 130.000000
105.069300 5090.000000
106.016600 40.000000
106.073800 454.000000
107.085200 8168.000000
108.032000 64.000000
108.056000 60.000000
108.090000 682.000000
108.280800 52.000000
109.065200 638.000000
109.100800 3204.000000
110.103900 226.000000
111.044900 78.000000
111.055200 66.000000
111.066000 40.000000
111.209900 36.000000
113.059000 414.000000
113.096000 92.000000
113.153400 42.000000
114.087700 72.000000
114.234200 68.000000
115.053600 140.000000
116.067700 50.000000
117.042000 42.000000
117.069300 684.000000
117.185500 66.000000
118.017000 156.000000
118.026300 74.000000
118.074200 88.000000
118.111000 40.000000
118.136100 68.000000
119.085000 2310.000000
120.043600 152.000000
121.006700 118.000000
121.064300 694.000000
121.100200 1428.000000
121.142700 126.000000
121.994800 68.000000
122.067800 36.000000
122.082300 56.000000
122.187400 68.000000
122.979100 36.000000
123.080900 506.000000
123.116400 426.000000
123.988500 46.000000
124.005900 80.000000
124.026700 44.000000
125.009100 64.000000
125.059800 56.000000
125.096200 290.000000
125.982300 72.000000
125.990000 124.000000
126.020300 50.000000
126.053000 40.000000
126.067400 36.000000
126.077800 68.000000
126.103200 54.000000
126.139200 42.000000
127.047300 50.000000
127.075700 96.000000
127.974200 40.000000
128.079200 114.000000
129.050100 60.000000
129.070500 332.000000
129.114100 76.000000
129.205600 72.000000
130.111300 54.000000
131.084500 1028.000000
131.991400 80.000000
132.045400 56.000000
133.064600 74.000000
133.100800 1150.000000
133.143700 70.000000
134.021700 38.000000
134.178600 164.000000
134.222800 36.000000
135.017500 46.000000
135.080500 264.000000
135.116300 386.000000
135.138100 52.000000
135.217700 66.000000
135.268800 78.000000
136.083300 40.000000
136.165700 92.000000
137.032500 36.000000
137.054600 62.000000
138.015700 50.000000
139.075400 78.000000
140.012000 50.000000
140.043500 46.000000
140.078700 42.000000
140.141700 60.000000
140.213300 54.000000
141.069000 264.000000
141.263700 78.000000
141.278400 56.000000
142.026600 44.000000
142.077700 266.000000
143.085500 1074.000000
143.237800 80.000000
143.984700 74.000000
144.008600 70.000000
144.209600 96.000000
145.100600 2300.000000
145.997200 44.000000
146.011400 62.000000
146.054000 84.000000
146.104300 204.000000
146.118100 92.000000
146.166300 48.000000
146.204200 38.000000
147.079900 240.000000
147.116700 2152.000000
148.119800 182.000000
149.095600 468.000000
149.132000 264.000000
149.154200 68.000000
150.045600 70.000000
150.054600 48.000000
150.112100 64.000000
150.136500 58.000000
151.006700 86.000000
151.074200 38.000000
151.095500 78.000000
151.179400 50.000000
152.000900 66.000000
152.103100 38.000000
152.269600 104.000000
153.039800 84.000000
153.069400 140.000000
153.091400 134.000000
153.112000 76.000000
153.149600 42.000000
154.034700 42.000000
154.053000 94.000000
154.077500 288.000000
154.094200 38.000000
154.108200 126.000000
154.249000 70.000000
155.022400 164.000000
155.064900 110.000000
155.084500 1402.000000
156.036500 134.000000
156.092600 204.000000
156.193100 38.000000
156.245700 66.000000
157.064800 192.000000
157.100400 3526.000000
158.001500 42.000000
158.032000 46.000000
159.080200 254.000000
159.116300 4264.000000
159.986100 82.000000
160.013900 92.000000
160.024400 42.000000
160.121100 472.000000
160.144800 46.000000
161.080600 62.000000
161.094700 402.000000
161.132200 1230.000000
161.178800 112.000000
162.102400 52.000000
162.134700 50.000000
163.060200 70.000000
163.074800 110.000000
163.111500 1272.000000
164.042200 54.000000
164.982400 40.000000
165.069700 514.000000
165.090800 68.000000
165.114500 70.000000
165.126900 236.000000
166.012800 52.000000
166.076900 206.000000
166.134900 70.000000
166.177400 102.000000
166.192300 48.000000
166.251000 36.000000
167.022200 46.000000
167.046200 110.000000
167.072400 100.000000
167.085500 788.000000
167.106500 46.000000
167.132100 80.000000
168.004700 72.000000
168.019800 70.000000
168.056800 98.000000
168.092200 556.000000
169.100500 3076.000000
169.998300 36.000000
170.104200 394.000000
171.080700 322.000000
171.116500 1894.000000
172.000800 62.000000
172.035600 38.000000
172.080400 122.000000
172.119300 148.000000
172.260700 40.000000
173.054800 82.000000
173.076400 62.000000
173.096600 642.000000
173.118800 122.000000
173.131500 1044.000000
174.137200 314.000000
174.198500 58.000000
174.238700 62.000000
175.018100 74.000000
175.075300 224.000000
175.111400 448.000000
175.144800 132.000000
175.157800 78.000000
175.987000 70.000000
176.082600 42.000000
176.162200 44.000000
176.214200 74.000000
176.256300 78.000000
176.997600 100.000000
177.049600 46.000000
177.071500 122.000000
177.089700 184.000000
177.241600 42.000000
178.066500 40.000000
178.078200 142.000000
178.146800 90.000000
178.191800 64.000000
179.086000 532.000000
179.103800 36.000000
179.141600 140.000000
180.029500 128.000000
180.057300 48.000000
180.094100 232.000000
180.159200 48.000000
180.188200 70.000000
181.012600 116.000000
181.029100 70.000000
181.086000 84.000000
181.100700 1304.000000
181.120600 182.000000
182.058500 36.000000
182.069700 44.000000
182.107800 686.000000
182.203100 46.000000
183.116300 4466.000000
183.986500 58.000000
184.019600 86.000000
184.072600 46.000000
184.119700 432.000000
185.095800 378.000000
185.132100 5206.000000
186.098900 84.000000
186.134400 616.000000
187.018900 70.000000
187.052800 86.000000
187.063800 158.000000
187.075500 118.000000
187.111400 406.000000
187.133900 74.000000
187.147400 688.000000
188.011700 36.000000
188.032000 40.000000
188.055900 116.000000
188.157800 112.000000
188.991600 44.000000
189.057400 60.000000
189.090800 146.000000
189.127100 298.000000
190.039700 42.000000
190.094200 114.000000
191.054800 72.000000
191.090500 80.000000
191.105300 340.000000
191.142100 80.000000
191.174400 72.000000
191.199700 84.000000
192.069300 56.000000
192.091800 158.000000
192.103200 82.000000
192.149300 52.000000
192.194600 40.000000
193.100300 420.000000
193.120400 94.000000
193.180400 58.000000
194.004300 44.000000
194.106800 528.000000
194.127300 88.000000
194.152900 40.000000
195.116700 9414.000000
196.121500 1246.000000
196.178300 102.000000
197.131900 10072.000000
198.135300 1144.000000
199.110900 638.000000
199.147300 3494.000000
200.024000 90.000000
200.115200 98.000000
200.151700 372.000000
200.175700 84.000000
200.189200 54.000000
201.048700 56.000000
201.069800 106.000000
201.092200 186.000000
201.127900 390.000000
201.162800 544.000000
201.205000 64.000000
201.257100 38.000000
201.999000 42.000000
202.041800 90.000000
202.100300 42.000000
202.109800 68.000000
202.167200 152.000000
203.001800 80.000000
203.062200 46.000000
203.106500 270.000000
203.142200 356.000000
203.180600 156.000000
204.005300 82.000000
204.029200 36.000000
204.052900 44.000000
204.243400 64.000000
204.266000 46.000000
205.000400 38.000000
205.025200 72.000000
205.074100 56.000000
205.101100 152.000000
205.120500 340.000000
205.154100 56.000000
205.253000 38.000000
206.064500 74.000000
206.100500 72.000000
206.109700 180.000000
206.129100 146.000000
206.236500 64.000000
207.116100 1182.000000
208.027700 52.000000
208.051800 84.000000
208.082900 72.000000
208.096700 56.000000
208.122600 872.000000
208.146600 44.000000
208.192500 50.000000
209.132200 7886.000000
210.019500 94.000000
210.105900 78.000000
210.137200 1010.000000
211.147500 8122.000000
212.151400 870.000000
213.127600 2198.000000
213.163500 980.000000
214.113900 48.000000
214.129500 228.000000
214.167400 156.000000
214.229400 38.000000
215.102800 148.000000
215.142900 1804.000000
215.165200 94.000000
216.091400 38.000000
216.114400 60.000000
216.147300 188.000000
216.976200 42.000000
216.991100 44.000000
217.101100 66.000000
217.122600 214.000000
217.158300 184.000000
217.205000 40.000000
217.239300 38.000000
218.105400 80.000000
218.119300 46.000000
218.269700 76.000000
218.994600 94.000000
219.039400 60.000000
219.069100 102.000000
219.116800 480.000000
219.135500 166.000000
220.031900 56.000000
220.123600 144.000000
221.011700 78.000000
221.097500 242.000000
221.132700 1504.000000
221.154200 272.000000
222.038600 38.000000
222.137600 458.000000
222.156800 70.000000
223.111200 682.000000
223.147700 7028.000000
224.115500 130.000000
224.151500 1002.000000
225.127800 2536.000000
225.163300 932.000000
226.028600 42.000000
226.084200 74.000000
226.130500 232.000000
226.167200 128.000000
227.142000 1534.000000
227.176700 250.000000
228.031200 86.000000
228.055100 42.000000
228.145600 378.000000
228.166700 68.000000
229.158500 2664.000000
230.163000 342.000000
231.008400 52.000000
231.039400 40.000000
231.117900 202.000000
231.137500 198.000000
231.176100 118.000000
232.011800 46.000000
232.095300 64.000000
232.124800 144.000000
233.002500 38.000000
233.024400 106.000000
233.133000 494.000000
233.153600 216.000000
234.139300 340.000000
234.156000 106.000000
234.175000 40.000000
235.147400 2442.000000
236.092500 72.000000
236.118200 104.000000
236.153000 870.000000
237.126700 516.000000
237.163600 3288.000000
238.127500 234.000000
238.167800 610.000000
239.057700 86.000000
239.091000 60.000000
239.143500 1168.000000
239.179300 438.000000
240.020000 60.000000
240.038100 52.000000
240.128000 54.000000
240.146900 214.000000
240.183400 138.000000
241.121800 1914.000000
241.158300 752.000000
242.083400 58.000000
242.096400 58.000000
242.126000 180.000000
242.160700 108.000000
243.137500 6570.000000
243.991700 72.000000
244.124300 98.000000
244.141100 1064.000000
244.204500 58.000000
245.132200 254.000000
245.153500 428.000000
245.191200 40.000000
245.983700 90.000000
246.030700 62.000000
246.122200 56.000000
246.140300 204.000000
246.159400 158.000000
246.219700 36.000000
247.052400 90.000000
247.064500 46.000000
247.146500 578.000000
247.175900 78.000000
247.192000 82.000000
248.068600 36.000000
248.118700 92.000000
248.153300 342.000000
248.172400 56.000000
248.226100 44.000000
249.163200 3466.000000
250.137100 72.000000
250.170100 1162.000000
251.142000 1190.000000
251.178500 3094.000000
252.087100 54.000000
252.144600 208.000000
252.182500 434.000000
252.230000 50.000000
252.263600 78.000000
253.037000 40.000000
253.058700 66.000000
253.093700 48.000000
253.106800 64.000000
253.158300 472.000000
253.183300 98.000000
253.194700 246.000000
253.203000 164.000000
253.247700 44.000000
254.044200 42.000000
254.161800 250.000000
254.225100 70.000000
255.065900 40.000000
255.118100 84.000000
255.136600 778.000000
255.174300 700.000000
256.140200 90.000000
256.180000 84.000000
257.136000 90.000000
257.153300 1534.000000
257.188500 306.000000
258.029100 122.000000
258.140300 170.000000
258.155000 314.000000
258.171500 42.000000
258.198000 46.000000
259.050000 72.000000
259.091400 124.000000
259.104700 66.000000
259.133000 632.000000
259.167400 212.000000
259.219200 116.000000
259.231400 46.000000
259.990800 96.000000
260.064600 64.000000
260.112300 80.000000
260.135600 134.000000
260.154000 282.000000
260.244900 38.000000
261.127700 40.000000
261.162400 652.000000
261.263900 80.000000
261.978400 82.000000
262.076500 50.000000
262.134400 86.000000
262.152300 40.000000
262.169500 210.000000
263.179000 2684.000000
264.030800 74.000000
264.044300 36.000000
264.145200 72.000000
264.158300 42.000000
264.184100 502.000000
264.214300 42.000000
265.123300 52.000000
265.157300 476.000000
265.195900 512.000000
265.217000 36.000000
265.282500 90.000000
266.010000 36.000000
266.088000 84.000000
266.160500 112.000000
266.189400 44.000000
266.202900 150.000000
266.234700 58.000000
267.080800 64.000000
267.112300 42.000000
267.138100 110.000000
267.173800 638.000000
267.210400 98.000000
268.087900 94.000000
268.180800 366.000000
268.199700 52.000000
269.152700 2048.000000
269.190500 476.000000
269.214500 132.000000
269.286100 138.000000
270.126400 42.000000
270.158300 470.000000
270.191500 74.000000
270.988100 94.000000
271.065500 54.000000
271.148400 150.000000
271.169100 380.000000
272.018300 36.000000
272.153800 104.000000
273.145000 50.000000
273.162500 752.000000
273.182600 104.000000
274.151700 80.000000
274.168400 242.000000
274.188600 38.000000
275.038500 50.000000
275.144500 76.000000
275.158900 42.000000
275.180500 424.000000
276.043300 58.000000
276.156600 98.000000
276.185900 368.000000
276.251000 64.000000
277.159500 530.000000
277.194300 770.000000
278.159500 126.000000
278.201000 432.000000
279.061000 52.000000
279.175300 632.000000
279.210500 574.000000
279.270300 58.000000
279.291300 38.000000
280.061600 36.000000
280.179800 102.000000
280.203500 44.000000
280.215600 40.000000
280.287200 48.000000
281.031100 38.000000
281.099400 40.000000
281.154500 422.000000
281.190100 250.000000
281.224800 240.000000
282.156400 126.000000
282.193800 118.000000
282.232400 64.000000
283.167900 1054.000000
283.187000 106.000000
284.145700 132.000000
284.171800 152.000000
284.283400 58.000000
285.179400 148.000000
286.064500 68.000000
286.122500 48.000000
286.169100 104.000000
286.190500 204.000000
287.126800 58.000000
287.178100 404.000000
288.033200 78.000000
288.123700 58.000000
288.142900 38.000000
288.183900 86.000000
288.238500 36.000000
289.157100 52.000000
289.196000 894.000000
290.079000 70.000000
290.098200 74.000000
290.201400 1036.000000
291.063700 130.000000
291.173900 2030.000000
291.209800 1504.000000
291.972500 48.000000
291.988500 68.000000
292.046200 90.000000
292.111300 52.000000
292.176600 538.000000
292.212500 398.000000
292.276800 42.000000
293.094400 78.000000
293.165900 68.000000
293.189400 1110.000000
293.225500 96.000000
294.104100 38.000000
294.162700 110.000000
294.192700 368.000000
294.221200 62.000000
295.022200 68.000000
295.170700 1122.000000
295.207500 200.000000
295.241600 580.000000
296.029700 52.000000
296.152300 46.000000
296.174500 306.000000
296.210400 124.000000
296.246500 146.000000
297.037600 46.000000
297.052400 64.000000
297.186000 866.000000
297.216100 46.000000
297.278700 48.000000
298.187800 122.000000
299.060200 40.000000
299.133900 52.000000
299.188500 52.000000
299.267200 110.000000
300.187100 442.000000
301.006000 52.000000
301.192000 136.000000
301.275700 46.000000
302.178400 56.000000
303.133300 36.000000
303.168800 44.000000
303.184000 52.000000
303.211100 178.000000
304.039100 36.000000
304.102500 40.000000
304.185000 44.000000
304.217700 48.000000
305.226100 28844.000000
306.229000 5912.000000
307.100400 44.000000
307.157200 40.000000
307.206500 392.000000
307.232600 640.000000
308.029900 48.000000
308.210100 114.000000
309.185300 3118.000000
309.221300 792.000000
309.994300 62.000000
310.189600 606.000000
310.224400 234.000000
311.200600 2394.000000
311.227400 148.000000
312.086000 44.000000
312.204800 472.000000
312.226700 72.000000
313.179000 64.000000
313.201200 36.000000
313.277100 42.000000
314.170500 36.000000
315.210100 1580.000000
316.215000 318.000000
316.237300 40.000000
317.217800 160.000000
318.192900 96.000000
319.202900 74.000000
320.120900 48.000000
320.131100 52.000000
321.019700 46.000000
321.186900 96.000000
321.222000 52.000000
321.255500 38.000000
322.039500 60.000000
322.069800 38.000000
322.100600 42.000000
322.194700 150.000000
323.236500 9522.000000
324.133000 116.000000
324.241200 1940.000000
325.152100 40.000000
325.172000 46.000000
325.214500 172.000000
325.245500 236.000000
326.223400 92.000000
327.198400 70.000000
327.232100 112.000000
327.997500 98.000000
328.234400 46.000000
329.212200 144.000000
331.075300 42.000000
331.210900 38.000000
331.257600 40.000000
332.081300 38.000000
333.220900 5884.000000
334.224900 1812.000000
335.020200 54.000000
335.068300 40.000000
335.225800 106.000000
336.121700 86.000000
336.209000 336.000000
336.261400 38.000000
337.015700 50.000000
337.210900 90.000000
339.249400 62.000000
340.169200 52.000000
340.213700 42.000000
341.008200 50.000000
341.248400 478.000000
341.280900 36.000000
342.224600 56.000000
342.257000 56.000000
343.239400 36.000000
345.998200 40.000000
346.152500 40.000000
348.084500 36.000000
348.227700 54.000000
351.231600 18438.000000
352.234900 3940.000000
353.237300 312.000000
353.259300 54.000000
357.156200 60.000000
359.259100 116.000000
369.242000 15826.000000
370.246000 3316.000000
371.176300 42.000000
371.248800 320.000000
372.253500 58.000000
374.206300 42.000000
379.120200 46.000000
381.135900 44.000000
387.254000 70.000000
388.246400 52.000000
388.258700 78.000000
413.990700 86.000000

