>compound RP98917566
>parentmass 132.1019
>ionization [M+H]+
>formula C6H13NO2
>rt 43.560000
>profile qtof
#smiles_iso CC(C)(C)[C@@H](C(=O)O)N
#smiles_can CC(C)(C)C(C(=O)O)N
#inchikey NPDBDJFLKKQMCM-SCSAIBSYSA-N
#pubchem_id 164608
#mb_accession RP002101,RP002102,RP002103

>ms2peaks
86.095900 697154.000000
132.101700 32670.000000

>ms2peaks
70.064500 5382.000000
71.072400 22980.000000
86.096000 498336.000000

>ms2peaks
57.033800 76.000000
57.070100 166.000000
58.028200 116.000000
59.048300 16780.000000
67.053700 1786.000000
68.057700 118.000000
69.069200 26960.000000
70.064500 62182.000000
71.072400 40220.000000
82.041700 362.000000
83.045100 128.000000
85.028300 246.000000
86.095900 7916.000000

