>compound RP99580146
>parentmass 269.0557
>ionization [M+H]+
>formula C14H8N2O4
>rt 241.080000
>profile qtof
#smiles_iso C1=CC(=C2C(=C1)N=C3C(=N2)C=CC=C3C(=O)O)C(=O)O
#smiles_can C1=CC(=C2C(=C1)N=C3C(=N2)C=CC=C3C(=O)O)C(=O)O
#inchikey MJALVONLCNWZHK-UHFFFAOYSA-N
#pubchem_id 193025
#mb_accession RP018701,RP018702,RP018703

>ms2peaks
67.016700 86.000000
88.986700 94.000000
90.017000 82.000000
121.052200 80.000000
130.027400 100.000000
135.066600 76.000000
143.068500 88.000000
147.022600 78.000000
169.028200 110.000000
169.073200 82.000000
174.002000 96.000000
179.057900 298.000000
180.065500 94.000000
190.997400 94.000000
191.022600 84.000000
200.030200 76.000000
200.983100 152.000000
211.047800 88.000000
214.997500 108.000000
219.018700 76.000000
223.046700 120.000000
245.007300 110.000000
251.045000 13110.000000
252.048300 1520.000000
269.055700 71202.000000

>ms2peaks
49.076300 56.000000
55.062400 50.000000
61.007200 76.000000
71.072600 68.000000
75.007600 38.000000
75.979000 80.000000
81.045100 50.000000
83.020500 106.000000
89.038600 40.000000
91.998600 52.000000
92.036400 52.000000
94.999800 74.000000
95.020600 44.000000
104.070100 58.000000
115.054500 48.000000
118.004000 64.000000
124.074900 50.000000
126.034500 88.000000
131.050100 40.000000
134.057800 82.000000
135.056200 48.000000
136.016600 56.000000
136.998200 52.000000
137.996800 50.000000
139.035500 42.000000
139.048200 44.000000
147.013500 66.000000
148.038200 80.000000
150.045800 44.000000
153.044800 72.000000
154.046700 48.000000
155.023200 68.000000
156.990700 60.000000
166.061000 42.000000
166.995100 38.000000
168.057400 62.000000
174.034100 42.000000
177.064700 58.000000
177.987100 70.000000
178.052300 44.000000
179.060400 1920.000000
180.048800 92.000000
180.064200 202.000000
183.077700 64.000000
184.039600 50.000000
185.005200 38.000000
190.024200 72.000000
191.057900 44.000000
191.986100 44.000000
194.054200 134.000000
195.054000 38.000000
202.052400 42.000000
204.054800 38.000000
207.056200 316.000000
208.058900 46.000000
211.051800 186.000000
212.058500 90.000000
213.063700 46.000000
223.051400 790.000000
224.053700 278.000000
225.064100 86.000000
226.061700 66.000000
230.031800 50.000000
231.066400 44.000000
234.001400 74.000000
239.069600 72.000000
241.061500 150.000000
249.023700 38.000000
251.045200 37388.000000
252.048900 4082.000000
269.056000 32998.000000

>ms2peaks
57.007800 110.000000
59.047700 48.000000
64.030900 52.000000
72.008500 46.000000
80.025100 40.000000
83.011000 44.000000
88.017900 68.000000
89.997400 62.000000
92.025900 42.000000
93.041000 36.000000
95.012100 162.000000
95.049300 56.000000
96.055500 142.000000
97.061200 44.000000
101.024200 56.000000
103.017800 58.000000
110.036900 102.000000
111.979000 60.000000
119.991500 66.000000
122.022300 96.000000
123.069000 52.000000
124.030700 44.000000
126.037700 64.000000
128.981100 36.000000
130.039200 136.000000
130.065200 52.000000
131.067900 42.000000
138.018400 44.000000
142.051400 154.000000
144.042200 68.000000
144.057200 42.000000
147.009400 62.000000
147.053600 84.000000
149.083100 56.000000
150.008300 48.000000
151.011200 64.000000
151.040900 38.000000
152.049400 1716.000000
153.044900 432.000000
154.045100 76.000000
155.057600 216.000000
157.048900 46.000000
159.991300 48.000000
163.073500 56.000000
165.020600 44.000000
166.000100 56.000000
167.055500 38.000000
168.041400 38.000000
168.057800 42.000000
169.036500 82.000000
170.060000 712.000000
171.056800 316.000000
172.007200 38.000000
174.991700 62.000000
177.041800 82.000000
177.062100 46.000000
178.037600 36.000000
178.052000 254.000000
179.059700 22176.000000
180.063200 2008.000000
182.047200 174.000000
183.054100 90.000000
184.062500 58.000000
185.070100 54.000000
186.055700 36.000000
189.045800 46.000000
194.046600 1456.000000
195.055300 120.000000
196.051500 52.000000
197.070600 482.000000
198.041500 52.000000
199.975900 58.000000
206.044300 38.000000
206.054300 56.000000
208.028700 86.000000
211.049100 2574.000000
212.057100 3466.000000
213.059800 338.000000
214.038000 122.000000
222.054100 536.000000
223.051000 430.000000
225.066900 46.000000
226.037400 1912.000000
235.074200 40.000000
241.059300 188.000000
244.047700 1312.000000
245.048000 104.000000
251.046300 396.000000
251.055300 380.000000
252.048400 130.000000
269.054200 714.000000

