>compound RP99217426
>parentmass 400.3421
>ionization [M+H]+
>formula C23H45NO4
>rt 346.860000
>profile qtof
#smiles_iso CCCCCCCCCCCCCCCC(=O)O[C@H](CC(=O)[O-])C[N+](C)(C)C
#smiles_can CCCCCCCCCCCCCCCC(=O)OC(CC(=O)[O-])C[N+](C)(C)C
#inchikey XOMRRQXKHMYMOC-OAQYLSRUSA-N
#pubchem_id 11953816
#mb_accession RP025001,RP025002,RP025003

>ms2
85.027700 8462.000000
341.268000 2996.000000
400.342300 1378174.000000
402.349000 45324.000000

>ms2
71.085000 1130.000000
83.084900 1422.000000
85.027500 422828.000000
87.032300 1186.000000
95.085500 1244.000000
109.101000 1080.000000
144.102200 3438.000000
239.236600 13206.000000
341.268600 81864.000000
341.287000 6052.000000
342.271800 15452.000000
343.275300 1538.000000
400.342000 1014934.000000
402.348500 36258.000000

>ms2
57.032600 9630.000000
71.084900 29498.000000
81.069300 9396.000000
83.085100 6176.000000
84.080400 3256.000000
85.027800 1397998.000000
95.085200 8156.000000
97.101100 2102.000000
109.100600 2586.000000
144.101200 4820.000000

