>compound RP99128809
>parentmass 326.2326
>ionization [M+H]+
>formula C18H31NO4
>rt 355.680000
>profile qtof
#smiles_iso CCCCCCCCCCCC(=O)CC(=O)NC1CCOC1=O
#smiles_can CCCCCCCCCCCC(=O)CC(=O)NC1CCOC1=O
#inchikey YQFJJDSGBAAUPW-UHFFFAOYSA-N
#pubchem_id 11688418
#mb_accession RP021201,RP021202,RP021203

>ms2peaks
74.023000 426.000000
74.059300 1942.000000
84.043800 218.000000
98.059800 1036.000000
102.054800 32666.000000
183.173500 562.000000
225.184500 30838.000000
226.188000 3496.000000
268.227200 2634.000000
269.230700 312.000000
280.226200 1182.000000
281.228700 228.000000
284.221800 1988.000000
285.224400 454.000000
298.237200 7644.000000
300.242900 224.000000
308.222900 1312.000000
326.232200 197746.000000
328.238400 3796.000000

>ms2peaks
68.049100 120.000000
70.028700 450.000000
71.013100 414.000000
71.084900 3210.000000
74.023000 2616.000000
74.059300 28374.000000
76.062900 86.000000
81.069700 1298.000000
83.085000 2374.000000
84.044000 1822.000000
85.027700 204.000000
85.100800 2364.000000
93.041900 76.000000
95.085200 3128.000000
97.052600 94.000000
97.100600 348.000000
98.059800 4154.000000
99.042800 80.000000
99.080500 80.000000
99.116700 468.000000
102.054700 50314.000000
104.058300 296.000000
108.217100 74.000000
109.100900 1280.000000
110.104700 172.000000
113.058000 74.000000
113.133100 130.000000
114.031600 90.000000
118.109600 112.000000
122.128200 86.000000
123.116400 106.000000
124.048800 86.000000
128.049400 76.000000
136.052500 96.000000
136.181500 74.000000
143.130200 74.000000
144.064100 82.000000
148.027500 92.000000
149.133400 108.000000
159.111900 80.000000
161.161900 88.000000
165.162900 418.000000
169.986500 80.000000
171.021300 122.000000
175.074100 98.000000
183.173800 9308.000000
185.992200 104.000000
190.013700 92.000000
190.049400 96.000000
192.053700 88.000000
192.246400 92.000000
199.191200 120.000000
208.194400 74.000000
209.038200 90.000000
212.032600 74.000000
212.159200 114.000000
223.075400 114.000000
224.126200 112.000000
225.184400 73672.000000
226.187900 10420.000000
226.998400 76.000000
227.189700 632.000000
256.226600 386.000000
262.214700 88.000000
266.211400 1310.000000
267.216900 148.000000
268.226500 5852.000000
269.229400 1074.000000
280.226800 1980.000000
281.229900 456.000000
284.221600 1826.000000
285.225700 352.000000
298.236800 1062.000000
308.220800 848.000000
309.227600 258.000000
326.232600 2852.000000
328.234500 120.000000

>ms2peaks
47.023700 66.000000
50.015100 36.000000
51.174300 56.000000
52.075400 74.000000
54.128200 90.000000
65.038000 218.000000
65.177500 38.000000
68.996500 996.000000
70.097900 40.000000
71.012000 7520.000000
71.084800 10600.000000
73.064400 36.000000
74.023000 9568.000000
74.059300 26788.000000
75.091300 36.000000
77.026100 126.000000
79.053600 362.000000
81.033100 570.000000
83.048600 328.000000
83.085100 2002.000000
84.043800 4102.000000
85.027900 1022.000000
85.064900 266.000000
85.100600 2954.000000
87.044600 50.000000
91.053600 66.000000
93.070200 186.000000
93.099400 38.000000
95.085200 4182.000000
96.053500 48.000000
96.089500 170.000000
97.064000 126.000000
97.101200 402.000000
98.059400 624.000000
99.043600 298.000000
99.078500 62.000000
99.117300 128.000000
102.054700 7006.000000
105.066200 70.000000
109.064400 52.000000
109.100700 908.000000
110.105800 148.000000
113.058200 272.000000
123.112500 54.000000
127.074500 110.000000
139.113100 64.000000
141.088400 132.000000
155.107500 54.000000
156.111800 40.000000
161.227300 46.000000
162.100400 82.000000
163.143900 100.000000
165.191900 44.000000
167.014100 40.000000
169.121800 38.000000
177.031400 38.000000
182.048100 40.000000
183.139100 40.000000
183.174800 222.000000
186.221600 266.000000
225.183800 4090.000000
226.188400 678.000000
243.194500 48.000000

