>compound EA00206641
>parentmass 219.1127999999999
>ionization [M+H]+
>formula C12H14N2O2
>rt 324.000000
>profile orbitrap
#smiles_iso CCC1(C(=O)NCNC1=O)C2=CC=CC=C2
#smiles_can CCC1(C(=O)NCNC1=O)C2=CC=CC=C2
#inchikey DQMZLTXERSFNPB-UHFFFAOYSA-N
#pubchem_id 4909
#mb_accession EA019502,EA019503,EA019504,EA019505,EA019506,EA019507,EA019508,EA019509,EA019510,EA019511,EA019512,EA019513

>ms2
91.054100 26513.000000
106.065100 23631.200000
119.085500 74019.500000
145.064800 4975.300000
162.091400 300099.600000
174.091300 94829.400000
190.085800 8515.200000
219.112900 841611.600000

>ms2
91.054200 172583.300000
106.065200 91041.400000
117.069900 25096.900000
119.085500 193815.900000
134.096800 11172.000000
145.064800 16031.600000
162.091400 542465.500000
174.091500 41613.200000
176.107400 2729.700000
219.112900 122187.300000

>ms2
91.054200 349391.500000
106.065000 82446.600000
117.069700 56554.200000
119.085400 105988.400000
131.084900 5443.600000
134.096300 28517.200000
145.064800 10868.300000
162.091200 338226.700000
174.091200 6192.600000
176.107800 4926.400000
219.112200 5520.800000

>ms2
91.054200 391890.500000
106.065100 58580.700000
115.054200 8136.300000
117.069800 109126.700000
119.085400 35940.800000
131.085500 6679.800000
133.051600 2793.600000
134.096300 37917.400000
146.096900 2279.200000
162.091200 90240.200000

>ms2
91.054200 362702.600000
106.065100 44537.500000
115.054100 11769.500000
117.069900 97167.700000
119.086000 10268.100000
131.085600 3684.000000
133.052600 7756.400000
134.096400 33307.400000
146.059900 3426.700000
162.090700 12786.000000

>ms2
91.054200 292950.300000
106.065200 24596.700000
115.054200 25914.900000
117.069800 65767.800000
133.052200 13955.300000
134.096300 16352.500000
146.059600 4186.700000

>ms2
91.054200 12144.600000
106.065200 10696.400000
117.069400 2244.400000
119.085500 35870.700000
162.091300 126983.500000
174.091300 42993.500000
190.086200 4956.000000
219.112800 375305.900000

>ms2
91.054200 74312.000000
106.065100 36074.400000
117.069700 10761.900000
119.085500 82519.600000
134.096300 6741.000000
145.064700 6030.500000
146.096400 2173.600000
162.091300 242151.300000
174.091300 14816.500000
219.112700 52386.700000

>ms2
91.054200 136388.800000
106.065100 34552.400000
115.054200 2472.900000
117.069800 22872.200000
119.085400 38929.000000
134.096300 11625.100000
145.064900 1942.300000
162.091200 141799.700000
174.091000 2567.900000

>ms2
91.054200 160550.700000
106.065100 26070.100000
117.069800 41504.300000
119.085400 11552.000000
134.096400 13834.000000
162.091300 37530.700000

>ms2
91.054200 153307.000000
106.065000 17128.900000
115.054300 4374.100000
117.069800 39764.900000
119.085400 4249.600000
133.051900 2623.200000
134.096400 13204.400000
146.060300 3485.400000

>ms2
91.054200 122562.300000
106.065000 9976.400000
115.054100 10501.800000
117.069800 29295.200000
133.052300 3031.400000
134.096300 3454.400000
146.060100 2938.300000

