>compound EA01335736
>parentmass 294.1965
>ionization [M+H]+
>formula C19H23N3
>rt 924.000000
>profile orbitrap
#smiles_iso CC1=CC(=C(C=C1)N=CN(C)C=NC2=C(C=C(C=C2)C)C)C
#smiles_can CC1=CC(=C(C=C1)N=CN(C)C=NC2=C(C=C(C=C2)C)C)C
#inchikey QXAITBQSYVNQDR-UHFFFAOYSA-N
#pubchem_id 36324
#mb_accession EA010702,EA010703,EA010704,EA010705,EA010706,EA010707,EA010708,EA010709,EA010710,EA010711,EA010712,EA010713

>ms2
163.122800 244778.600000
253.169500 28338.300000
294.196300 138663.900000

>ms2
163.123000 378526.200000
253.170100 27549.100000

>ms2
122.096500 17628.700000
132.080600 10206.000000
163.122900 323362.800000
253.169500 18526.100000

>ms2
105.070000 4399.300000
107.072600 5457.400000
117.056800 5449.900000
122.096400 68794.500000
132.080600 31589.100000
163.122800 148079.900000

>ms2
105.069700 16095.300000
107.072900 30784.600000
117.057200 18332.400000
122.096400 60547.600000
132.080700 33460.400000
163.122800 35094.000000

>ms2
79.054300 4683.900000
105.069800 26897.900000
107.072800 58848.300000
117.057200 24910.100000
122.096400 32573.500000
132.080700 16861.500000

>ms2
163.122900 176937.800000
253.169800 22713.400000
294.196300 95485.000000

>ms2
163.123000 244807.100000
253.169600 16111.000000

>ms2
122.096400 13743.900000
132.080700 6669.200000
163.122900 213179.200000
253.169800 9770.100000

>ms2
107.072900 6811.500000
117.057200 3081.500000
122.096400 40755.800000
132.080600 22805.000000
163.122900 93753.900000
253.169800 2073.500000

>ms2
105.069800 11091.200000
107.072900 18789.900000
117.057200 11103.600000
122.096300 42625.000000
132.080600 17629.400000
163.122800 22661.800000

>ms2
79.054100 3679.200000
105.069800 21633.500000
107.072900 31201.000000
117.057200 14737.600000
122.096400 14757.500000
132.080700 8061.300000
163.123100 2443.700000

