>compound EA02358290
>parentmass 242.14339999999996
>ionization [M+H]+
>formula C10H19N5S
>rt 510.000000
>profile orbitrap
#smiles_iso CCNC1=NC(=NC(=N1)SC)NC(C)(C)C
#smiles_can CCNC1=NC(=NC(=N1)SC)NC(C)(C)C
#inchikey IROINLKCQGIITA-UHFFFAOYSA-N
#pubchem_id 13450
#mb_accession EA030602,EA030603,EA030604,EA030605,EA030606,EA030607,EA030608,EA030609,EA030610,EA030611,EA030612,EA030613

>ms2
186.082700 893273.800000
227.119000 59026.000000
242.143600 28965840.600000

>ms2
186.080900 10693543.200000
242.143700 22398512.000000

>ms2
68.024200 54996.100000
71.060100 107415.800000
74.005700 53543.500000
91.032400 349811.900000
96.055800 114865.800000
113.082100 53493.600000
116.027300 49814.700000
138.077300 170658.000000
144.059200 154152.000000
158.049500 351796.300000
171.056800 54460.000000
186.081000 22245836.400000
242.144000 4286263.900000

>ms2
57.069800 53325.800000
68.024400 738535.200000
71.060400 611810.500000
74.005900 208123.300000
85.051000 193926.600000
91.032600 1901355.000000
96.055700 954391.900000
102.037400 84144.600000
110.046100 80977.400000
113.082300 393348.100000
116.027900 625726.900000
138.077600 1056151.700000
144.059100 894736.700000
158.049700 1034584.200000
171.057700 34498.200000
186.081100 15841377.000000

>ms2
57.069800 67402.900000
68.024300 2168826.400000
71.060400 1289925.100000
74.005900 523777.400000
85.050900 467894.700000
91.032500 2354829.200000
96.055600 1724763.400000
102.037200 108546.300000
110.046100 246352.500000
113.082200 454283.200000
116.027700 1313321.800000
138.077500 1199561.000000
144.059000 1090500.200000
158.049600 940818.300000
171.057600 36036.400000
186.081100 5055297.200000

>ms2
57.070000 59500.100000
68.024400 3094315.800000
71.060500 1308207.200000
74.005900 884951.500000
85.051000 486087.900000
91.032500 1441794.300000
96.055700 1503382.500000
102.037300 51492.600000
110.046200 297481.600000
113.082300 235467.300000
116.027800 1272878.500000
138.077500 513208.300000
144.059100 493367.000000
158.049700 387938.500000
186.081900 946719.600000

>ms2
186.081200 520087.800000
227.120500 32448.900000
242.143500 22447838.100000

>ms2
186.080900 7752844.000000
227.119700 18710.600000
242.143500 15524830.800000

>ms2
57.069800 19520.800000
68.024300 63745.900000
71.060300 73813.700000
74.005700 17912.300000
91.032500 291911.500000
96.055600 83534.000000
113.082200 26488.800000
116.027800 65149.500000
138.077400 122879.600000
144.059100 113483.000000
158.049600 203845.200000
171.057000 41329.500000
186.080800 17101980.200000
242.143400 2940450.500000

>ms2
57.069800 19122.600000
68.024300 501943.100000
71.060400 437615.800000
74.005900 152325.700000
85.050900 122699.000000
91.032500 1380187.000000
96.055600 577131.700000
102.037200 77495.700000
110.046100 49446.800000
113.082200 288801.800000
116.027700 428485.000000
138.077400 670327.900000
140.093500 18255.900000
144.059100 548669.700000
158.049500 777128.100000
171.057200 35967.500000
186.080900 11255242.600000

>ms2
57.069900 29418.900000
68.024300 1395518.600000
71.060400 825306.900000
74.005900 388834.500000
85.050900 338045.300000
91.032500 1581000.300000
96.055700 1212631.500000
102.037200 55817.300000
110.046100 163971.300000
113.082200 293715.100000
116.027700 881343.000000
138.077400 859762.000000
140.092900 21590.800000
144.059000 748087.700000
158.049500 667359.600000
170.049700 14416.500000
171.057500 27001.900000
186.080900 3379372.600000

>ms2
57.069800 29952.800000
68.024300 2034971.900000
71.060400 850055.500000
74.005900 598755.500000
85.050900 346575.600000
91.032400 975111.000000
96.055600 928178.800000
102.037200 19708.200000
110.046100 213688.000000
113.082200 150140.000000
116.027700 854162.000000
138.077400 340029.900000
144.058900 351877.300000
158.049500 257995.100000
170.050000 11401.100000
171.057500 9586.500000
186.080700 486362.800000

