>compound EA03878158
>parentmass 204.99299999999997
>ionization [M+H]+
>formula C7H6Cl2N2O
>rt 498.000000
>profile orbitrap
#smiles_iso C1=CC(=C(C=C1NC(=O)N)Cl)Cl
#smiles_can C1=CC(=C(C=C1NC(=O)N)Cl)Cl
#inchikey CYESCLHCWJKRKM-UHFFFAOYSA-N
#pubchem_id 16854
#mb_accession EA028902,EA028903,EA028904,EA028905,EA028906,EA028907,EA028908,EA028909,EA028910,EA028911,EA028912,EA028913

>ms2peaks
160.978800 13801.400000
187.967200 18415.400000
204.992900 11632684.700000

>ms2peaks
127.018500 1430857.900000
159.971700 434852.100000
161.987300 10275812.400000
187.966600 1322838.100000
195.991900 36776.600000
204.993200 29779426.800000

>ms2peaks
126.010400 38844.000000
127.018400 11852177.800000
159.971700 2510741.300000
161.987200 15969144.000000
187.966500 1992479.800000
195.991200 36324.200000
204.993300 6065815.700000

>ms2peaks
125.002700 31718.000000
126.010500 110875.400000
127.018400 22782520.500000
132.960600 119813.900000
159.971600 3891653.400000
161.987300 7406074.400000
172.966700 109123.300000
187.966600 624755.700000
204.993300 392511.500000

>ms2peaks
84.984000 37278.700000
90.034000 35930.600000
98.999500 43053.500000
123.995200 83611.500000
125.002800 230979.400000
126.010700 119100.000000
127.018500 29457511.200000
132.960800 578533.200000
159.971700 3333364.300000
161.987200 2070786.800000
172.966900 419569.400000
187.966700 104814.900000

>ms2peaks
65.038600 32348.400000
84.983700 39351.700000
86.963100 58145.300000
90.033900 68376.800000
91.041900 68840.100000
92.049600 280451.900000
98.999600 109780.100000
100.007500 306413.400000
108.984000 214196.200000
123.995300 138574.300000
125.002800 555775.300000
126.010100 88858.000000
127.018400 29081954.400000
132.960700 1329954.300000
144.960500 68541.500000
159.971600 1678665.500000
160.979400 42674.800000
161.987100 337587.400000
172.966900 510980.800000

>ms2peaks
161.987300 169778.800000
187.965900 16195.400000
204.993000 11266713.600000

>ms2peaks
127.018400 1012484.500000
159.971700 343152.000000
161.987300 8240945.200000
187.966600 1042307.400000
204.993100 25106045.000000

>ms2peaks
127.018400 9216592.000000
159.971600 2040222.800000
161.987300 12912584.900000
187.966600 1553906.800000
204.993100 4421191.100000

>ms2peaks
126.010600 72677.800000
127.018500 18755517.400000
132.960700 100640.400000
159.971600 3255628.700000
161.987300 5769341.500000
172.966800 92498.300000
187.966600 464055.900000
204.993100 322727.100000

>ms2peaks
90.034000 29123.200000
98.999600 40305.000000
123.995100 62265.300000
125.002800 179379.900000
126.010700 91113.900000
127.018400 25342369.700000
132.960700 492249.900000
159.971600 2889584.500000
161.987300 1670669.800000
172.966900 294874.900000
187.966800 63248.700000

>ms2peaks
65.038600 25036.500000
84.983900 32427.100000
86.963200 43402.300000
90.033900 54879.100000
91.041700 51977.100000
92.049600 196425.000000
98.999800 80013.400000
100.007500 241747.000000
108.984000 159508.000000
123.995000 95815.100000
125.002800 416255.600000
126.010600 70985.800000
127.018500 24754692.400000
132.960800 1087876.800000
144.960800 38903.100000
152.997900 32845.000000
159.971700 1360434.600000
161.987300 307655.200000
172.966900 385150.600000

