>compound EA03890566
>parentmass 192.13830000000004
>ionization [M+H]+
>formula C12H17NO
>rt 516.000000
>profile orbitrap
#smiles_iso CCN(CC)C(=O)C1=CC=CC(=C1)C
#smiles_can CCN(CC)C(=O)C1=CC=CC(=C1)C
#inchikey MMOXZBCLCQITDF-UHFFFAOYSA-N
#pubchem_id 4284
#mb_accession EA021302,EA021303,EA021304,EA021305,EA021306,EA021307,EA021308,EA021309,EA021310,EA021311,EA021312,EA021313

>ms2
119.048600 336227.800000
192.138500 16562430.700000

>ms2
72.044400 81472.100000
91.054300 79617.000000
100.075700 78514.300000
119.049200 2373359.800000
192.138600 14472275.300000

>ms2
65.038500 13766.600000
72.044400 319333.700000
72.081100 35614.700000
91.054200 284823.300000
100.075700 363773.800000
119.049200 8163754.800000
192.138500 6819615.600000

>ms2
65.038600 52954.300000
72.044500 408018.000000
72.080700 30239.200000
91.054300 954666.600000
100.075800 274544.700000
109.064900 94342.600000
118.065100 21561.300000
119.049300 9295045.000000
192.137700 959428.600000

>ms2
65.038500 123722.900000
67.054400 52133.000000
72.044400 265854.300000
91.054300 2612972.500000
93.069600 28517.800000
100.075700 103454.400000
109.064700 309865.000000
118.065400 76251.100000
119.049200 6229649.700000
119.060500 956036.700000

>ms2
55.017700 13659.800000
65.038600 204823.300000
67.054200 53423.400000
72.044500 156447.000000
77.038600 15199.700000
91.054300 4241729.700000
93.070000 20044.600000
95.048900 25723.200000
100.075600 21779.600000
109.064800 375946.100000
118.065200 179038.700000
119.049300 2923570.100000
119.060500 1181809.500000

>ms2
119.049100 221729.700000
176.107200 14645.000000
192.138500 11780410.900000

>ms2
72.044400 45983.300000
91.054200 54441.300000
100.075700 62069.100000
119.049200 1641889.200000
176.106800 18264.500000
192.138400 9513897.900000

>ms2
65.038600 8692.100000
72.044400 229669.000000
72.080800 26903.400000
91.054200 215078.000000
100.075700 232516.900000
109.064900 24731.900000
119.049300 5460099.200000
192.138500 4314314.100000

>ms2
65.038500 32563.200000
67.054200 9211.200000
72.044400 223646.500000
72.080800 11839.000000
77.038600 5959.500000
91.054300 605224.100000
93.070200 7166.600000
100.075700 178095.800000
109.064800 69627.000000
118.065100 14910.900000
119.049200 5686467.900000
192.138400 705770.900000

>ms2
55.017600 5487.900000
65.038600 69106.300000
67.054200 26596.100000
72.044400 165015.300000
72.080800 8976.200000
77.038900 6392.700000
91.054300 1554948.500000
93.069900 12241.200000
95.048800 7292.700000
100.075700 68178.400000
109.064800 174370.100000
118.065200 44844.000000
119.049200 3633182.800000
119.060400 543580.800000
192.138400 69174.600000

>ms2
55.017800 7084.000000
65.038600 82154.400000
67.054200 21661.200000
72.044400 76450.400000
72.080800 4952.000000
77.038600 9355.400000
91.054300 2287202.100000
93.069900 14378.400000
95.049100 7220.500000
100.075700 10658.800000
109.064800 180786.800000
118.065200 87762.100000
119.049200 1520878.400000
119.060400 642889.200000

