>compound EA03485394
>parentmass 320.1405
>ionization [M+H]+
>formula C16H18FN3O3
>rt 264.000000
>profile orbitrap
#smiles_iso CCN1C=C(C(=O)C2=CC(=C(C=C21)N3CCNCC3)F)C(=O)O
#smiles_can CCN1C=C(C(=O)C2=CC(=C(C=C21)N3CCNCC3)F)C(=O)O
#inchikey OGJPXUAPXNRGGI-UHFFFAOYSA-N
#pubchem_id 4539
#mb_accession EA023202,EA023203,EA023204,EA023205,EA023206,EA023207,EA023208,EA023209,EA023210,EA023211,EA023212,EA023213

>ms2peaks
302.130500 563397.300000
320.140500 27517569.100000

>ms2peaks
70.065100 18144.000000
205.076700 22567.500000
219.093000 118929.700000
228.113200 28926.100000
233.108600 1042331.500000
256.144700 388817.800000
274.135800 86798.800000
276.151000 7490967.800000
282.123700 17069.300000
302.130300 9726910.300000
320.140900 12218460.700000

>ms2peaks
58.065200 16329.000000
70.065200 71396.500000
177.082700 16348.300000
192.081700 45690.300000
201.102800 28390.800000
203.061900 84786.100000
204.069600 194808.900000
205.077500 378395.800000
206.085200 119167.600000
207.093000 108828.100000
213.102000 29204.700000
215.098400 53177.600000
219.092900 712358.400000
220.100500 44243.900000
223.062500 13759.000000
226.097900 22161.400000
227.105800 142282.800000
228.113500 118458.200000
231.056100 85386.300000
231.092500 30308.000000
233.108700 4830840.600000
241.120900 36541.400000
247.111800 33209.000000
248.120100 36698.100000
254.128700 28833.900000
256.144600 1004042.200000
259.088100 52283.700000
259.123800 32611.300000
274.098300 44621.000000
274.135300 243969.000000
276.150600 3069004.700000
277.097500 18172.800000
282.123600 491842.700000
300.135700 86946.200000
302.130200 12284522.700000
320.140500 4069193.600000

>ms2peaks
58.065100 10297.300000
70.065200 91170.500000
136.055700 10201.300000
152.074700 21055.900000
159.092800 12684.300000
163.042300 15245.800000
163.066800 44117.600000
164.050800 40036.700000
165.059200 14710.300000
165.082500 101327.700000
172.076000 48810.300000
175.066300 17779.400000
176.074600 108225.600000
177.058100 14759.900000
177.082500 44635.200000
179.061400 62917.200000
179.098500 68631.300000
184.063700 35856.400000
185.071100 131477.500000
185.108400 17769.700000
186.058900 11280.100000
187.066700 48266.900000
188.050800 18182.100000
189.082500 71738.900000
190.065700 60615.100000
190.090200 12097.200000
191.062200 147904.600000
191.098400 30492.000000
193.076800 23332.700000
196.087400 10998.100000
198.069200 48191.200000
198.102900 32491.700000
199.075700 36287.900000
200.082700 12899.400000
201.101600 23065.700000
202.089600 15712.200000
203.061700 486394.300000
204.069600 541749.100000
204.106200 152323.200000
205.077600 1497579.400000
206.085400 184762.800000
207.092900 133000.600000
211.110900 90859.400000
212.082000 40512.800000
212.118200 21773.900000
213.102100 84065.200000
215.098100 63411.200000
216.073300 13945.000000
217.077100 55405.300000
218.085200 156294.400000
219.093100 689994.200000
220.099600 24636.500000
221.072800 19840.500000
223.064300 51795.900000
225.090700 54750.200000
226.097900 193068.900000
226.134300 100961.800000
227.082400 18555.900000
227.106000 101185.000000
228.113200 91443.700000
230.083500 21202.900000
230.128700 21944.200000
231.056600 1767641.800000
233.108700 2934951.400000
239.106200 12428.800000
241.120600 19030.500000
245.072300 54771.900000
245.108400 38843.600000
246.104000 26035.800000
246.141300 48571.300000
248.118400 27582.100000
249.067900 44086.600000
252.075700 21585.100000
253.084700 97438.900000
254.092600 405275.200000
254.128800 179655.000000
256.144800 209527.600000
258.140200 81212.500000
259.087900 110570.400000
272.101800 84772.600000
273.090800 25273.800000
274.098800 372601.700000
274.135300 159083.300000
276.151000 251713.500000
277.097600 14647.300000
282.123900 1670094.200000
292.109200 89988.400000
300.134600 347679.900000
302.130300 6571033.000000
320.140000 1791569.400000

>ms2peaks
56.049500 14142.400000
70.065200 77122.900000
109.044600 12144.500000
116.049600 40443.900000
130.065400 37398.900000
135.048000 46493.400000
136.055900 107741.200000
137.063400 14159.400000
143.060500 26526.200000
143.073300 12965.500000
144.045100 29166.600000
144.056000 12485.700000
144.080900 15116.600000
146.040000 12662.800000
148.055700 98875.800000
149.051100 13553.900000
149.063700 30644.900000
150.072100 35829.400000
151.042800 12654.100000
151.067100 29719.400000
152.074500 181705.400000
155.061000 39920.600000
156.068300 70953.000000
157.075900 73237.900000
158.060000 18773.200000
159.054200 9705.600000
159.092200 23230.000000
160.056200 15914.300000
161.051200 24754.000000
161.064000 36287.100000
162.035400 78798.300000
162.058800 17546.600000
162.071900 30736.800000
163.043200 54103.700000
163.066800 177909.400000
163.079600 10936.600000
164.050700 111505.600000
165.044900 27217.100000
165.058800 35350.900000
165.082500 353897.500000
167.060500 23299.800000
169.076200 35287.800000
170.071100 17181.600000
171.055000 17837.900000
171.091800 133133.400000
172.076200 36231.300000
174.059100 38082.800000
175.066800 107963.500000
176.050200 53856.800000
176.074600 537700.300000
177.058200 62118.200000
177.082300 78295.000000
178.029100 12964.900000
178.053600 64796.200000
178.066700 65777.000000
178.089600 15183.200000
179.061700 176351.300000
179.098300 202801.100000
181.075300 13242.500000
183.091400 40430.300000
184.063300 78220.400000
184.087300 10077.200000
185.071200 264157.100000
185.108800 24143.400000
186.058300 22529.700000
186.101700 9634.700000
187.066700 143399.900000
188.050400 45333.000000
188.074400 12715.200000
189.046500 62898.500000
189.082400 624558.900000
190.065500 114523.000000
190.090100 34440.400000
191.062000 302535.900000
191.097900 66494.800000
192.070100 61324.000000
193.077400 66618.100000
195.033100 25430.300000
196.087000 35636.200000
197.049100 32375.000000
197.070800 17188.700000
197.095700 45647.400000
198.068400 79294.400000
198.102900 118713.700000
201.082500 13037.000000
202.029000 12653.600000
202.054300 18659.000000
202.089300 26259.400000
203.061700 1011194.400000
204.069600 435032.700000
204.106100 403964.000000
205.077600 1391593.900000
206.085100 90438.100000
207.093000 120046.500000
210.102600 46702.500000
211.110800 199461.900000
212.082700 40928.400000
213.101600 56755.700000
215.026000 17085.400000
215.098400 46583.700000
217.041000 56292.500000
217.077200 129679.200000
218.085300 208845.900000
219.057300 21125.700000
219.093000 325523.700000
221.072400 23557.200000
223.063700 78817.600000
224.044800 16842.700000
224.082300 40185.100000
224.119100 11721.200000
225.091100 70927.700000
225.125400 30813.000000
226.061400 84293.300000
226.097700 255459.200000
226.134100 80838.900000
227.081900 20208.700000
228.113300 25859.100000
230.108600 43309.100000
230.128700 17199.800000
231.056700 4515410.100000
232.064500 23225.200000
233.108500 662179.500000
235.052300 12787.000000
238.133100 18960.500000
239.081000 15659.700000
239.104800 17459.000000
243.056300 19229.400000
245.072400 157458.200000
246.139900 24017.600000
249.067400 83058.700000
252.076600 54174.700000
253.085100 81537.500000
254.092500 619244.000000
254.128500 145931.500000
256.133700 15664.200000
258.140100 86606.500000
259.088200 99976.800000
263.081400 33559.800000
272.102100 124204.200000
273.090600 12811.600000
274.098800 276300.100000
282.123600 613896.100000
292.109400 73710.600000
300.134200 137645.900000
302.130600 1186416.900000
320.140700 327735.900000

>ms2peaks
56.049500 17561.100000
58.065300 10621.300000
70.065200 43855.700000
89.038700 21227.400000
92.049400 14849.100000
103.054600 18273.000000
107.028900 9788.000000
109.044900 55692.400000
110.040300 16144.400000
115.054200 31413.800000
116.049700 107403.500000
117.057600 25703.600000
122.040300 52092.000000
128.049400 39763.300000
129.057400 21861.500000
130.065300 113356.600000
131.060500 32960.600000
132.024600 12448.200000
133.045100 17236.900000
134.040200 71202.000000
134.060000 20116.700000
135.048100 170874.700000
136.055900 196104.700000
137.026900 30198.500000
137.051300 21057.300000
137.063500 19623.300000
140.049300 21687.700000
142.065600 22926.600000
143.060700 58072.700000
143.073300 29635.300000
144.044600 31854.100000
144.056100 39383.400000
144.081000 15737.300000
146.039500 27189.400000
147.047600 12577.300000
148.055800 440825.200000
149.051100 46935.500000
149.063500 54949.900000
150.034900 19111.900000
150.059100 36224.900000
150.071500 37088.800000
151.042800 51971.800000
151.067300 29628.200000
152.049900 28566.400000
152.074600 322211.600000
155.060500 129448.000000
156.068400 177361.900000
157.076300 86707.700000
158.060600 27636.800000
159.053900 25300.500000
159.092600 12896.900000
160.043000 17177.500000
160.056200 33666.000000
161.027200 42849.000000
161.051200 96799.300000
161.063900 113453.500000
162.035300 185410.400000
162.058700 63147.400000
162.072000 50836.300000
163.042900 137830.700000
163.066700 187766.600000
163.079600 10956.600000
164.050800 139925.500000
164.074200 12989.200000
165.045000 32050.100000
165.059200 24878.700000
165.082400 190030.000000
167.060200 34615.100000
169.017500 12023.500000
169.076400 63700.900000
170.071500 39613.900000
170.083600 21980.900000
171.055000 27864.000000
171.092000 111918.900000
172.075500 26586.900000
173.050800 39432.400000
174.035200 23308.000000
174.059100 121891.600000
175.030400 21382.100000
175.066900 313674.200000
176.050400 83393.100000
176.074600 724306.900000
177.058500 98328.200000
177.082200 74002.800000
178.029000 13221.900000
178.053900 79251.000000
178.066100 72971.600000
179.061700 163032.100000
179.098200 109812.600000
180.045900 9214.200000
181.076600 10353.500000
182.071300 29244.200000
182.085400 10021.600000
183.055200 15177.900000
183.092300 27414.300000
184.063400 65099.400000
184.087500 9412.900000
185.071200 251235.000000
186.059000 26093.700000
187.066800 204432.800000
188.038900 125517.500000
188.074700 23344.800000
189.046000 101638.000000
189.082500 1531613.900000
190.065600 123656.600000
190.090600 22311.200000
191.061800 270426.800000
191.098000 28778.600000
192.069700 43671.800000
193.077200 34360.600000
195.032900 61337.200000
196.087100 45610.700000
198.068900 63465.300000
198.103100 54946.000000
199.049600 8173.200000
201.082900 23263.800000
202.030400 13484.300000
202.054200 27219.000000
203.061700 1266618.900000
203.098700 156815.300000
204.069500 153047.000000
204.106000 205925.900000
205.077500 659245.700000
206.085600 18008.200000
207.093100 50002.500000
210.065700 17233.900000
210.103100 55882.400000
211.086300 10030.000000
211.110600 102500.300000
212.082600 16191.600000
213.101900 13538.800000
215.025500 33464.600000
215.097500 16225.500000
216.033700 36127.000000
217.041200 93081.500000
217.077300 144137.900000
218.049000 31501.200000
218.085200 95166.300000
219.056300 23281.200000
219.093000 92807.700000
223.062800 43903.900000
224.046100 36815.000000
224.082200 29114.700000
224.118000 8655.600000
225.053400 23009.400000
225.090900 22235.600000
225.125400 9633.900000
226.061400 50801.100000
226.098100 82862.900000
230.109900 30887.900000
231.056700 3704646.900000
233.108800 71938.600000
235.052500 11467.000000
245.072200 107567.400000
249.067200 66960.300000
252.076200 31307.800000
253.084600 17856.900000
254.092600 152681.500000
259.088400 25644.400000
263.082000 10291.300000
272.102000 30078.600000
274.098700 44515.100000
282.123000 46066.900000

>ms2peaks
276.150400 167279.400000
302.130100 321418.500000
320.140500 18291680.500000

>ms2peaks
70.065200 11328.300000
207.093300 14561.500000
219.092900 70157.300000
228.112800 7587.800000
233.108600 711303.700000
256.144600 246030.100000
259.124800 10467.300000
274.135000 59467.400000
276.150900 4775680.400000
302.130100 6197108.600000
320.140600 7489825.700000

>ms2peaks
58.065100 8052.800000
70.065200 37678.900000
185.071300 8775.200000
191.061500 10660.800000
192.069200 10546.200000
192.082400 18890.900000
201.102600 15586.700000
203.061600 52684.600000
204.069500 93580.100000
205.077300 207386.100000
206.085300 76425.200000
207.092900 51565.300000
212.082200 10363.100000
213.102500 19080.400000
215.098000 26896.700000
218.085300 14018.800000
219.093000 405505.200000
220.100800 23310.800000
226.097800 25093.400000
227.105500 88729.400000
228.113300 77044.300000
230.084700 11350.500000
231.056600 50455.600000
231.092900 22931.400000
233.108800 2579328.600000
241.120900 15344.000000
245.108600 16087.900000
247.111800 21381.400000
248.119700 18777.700000
254.092500 13078.700000
254.128300 17638.000000
256.144600 551232.800000
259.088200 29134.800000
259.124400 25814.200000
274.099000 17919.100000
274.135000 128474.200000
276.150900 1770559.700000
282.123700 315480.200000
300.134100 66377.700000
302.129800 7620255.200000
320.140700 2623890.000000

>ms2peaks
56.049400 6308.000000
70.065200 45360.700000
135.047700 7694.700000
136.055600 9881.100000
150.072000 5447.800000
152.074800 9397.000000
156.067600 7300.300000
157.075700 8976.100000
159.092000 7256.300000
161.051000 5487.700000
163.042800 7846.400000
163.066600 28447.300000
164.050700 19006.700000
165.082300 65897.300000
171.091700 21781.400000
172.075700 31960.800000
175.066600 6293.400000
176.051000 11036.200000
176.074500 59406.400000
177.057900 11911.500000
177.082300 32905.800000
178.089900 7362.700000
179.061600 39453.900000
179.073400 4918.900000
179.097900 41528.600000
184.063200 12046.200000
185.070900 75549.100000
185.107100 12234.900000
186.059000 7235.700000
187.066500 35666.500000
188.050600 9827.000000
189.045900 11659.600000
189.082200 40605.100000
190.054000 12748.600000
190.066000 34565.600000
191.061500 84722.700000
191.074300 26797.800000
191.098100 18543.900000
192.069500 38314.500000
192.081700 20530.000000
193.077100 15265.200000
196.087000 5394.000000
197.048800 8835.700000
197.070900 5541.600000
197.094800 11215.200000
197.107500 8356.800000
198.066300 21891.600000
198.079100 11967.400000
198.102600 20318.100000
199.074200 13930.200000
199.086300 10931.800000
200.081100 5457.100000
201.102400 15268.500000
202.053200 9905.500000
202.090400 10506.600000
203.061500 288621.000000
204.069300 301258.000000
204.105900 90695.500000
205.077200 845697.700000
206.084900 94799.800000
207.092800 69873.500000
210.102900 9478.700000
211.110400 58229.800000
212.081900 22629.900000
212.118500 7457.100000
213.089600 7957.400000
213.102300 55388.300000
215.098000 46447.200000
216.069600 11725.600000
217.040300 7359.200000
217.077100 37823.500000
218.085000 102643.200000
219.092800 390509.000000
220.100700 11633.800000
221.071300 7430.100000
223.064100 34174.500000
225.053200 5954.000000
225.102400 7415.700000
225.126200 14808.800000
226.061000 11271.300000
226.097500 116300.700000
226.134000 52132.000000
227.105400 65678.100000
227.116800 12608.200000
228.113200 64968.400000
230.109300 8552.700000
230.129000 13398.800000
231.056500 1080067.800000
232.064000 4618.100000
233.108600 1847513.600000
235.087500 5740.000000
238.060700 4826.600000
239.104800 7638.200000
241.120900 8023.000000
243.057400 6001.800000
245.072500 35466.100000
245.108900 25597.100000
246.104100 16282.200000
246.140100 20393.200000
247.111100 11196.400000
248.119500 14277.100000
249.066500 21568.000000
252.076500 9735.500000
253.084500 56902.700000
254.092500 225492.800000
254.128600 109289.900000
256.144500 121391.000000
258.140100 43078.200000
259.087800 70976.500000
259.124700 8764.500000
263.080900 6996.100000
272.083000 15378.700000
272.102900 46304.100000
273.091200 22883.400000
274.098600 219806.300000
274.134900 114661.500000
276.150700 170780.000000
277.098500 13504.200000
282.123600 961147.500000
292.109100 41485.800000
300.134100 209666.700000
302.130000 3859717.000000
320.140300 1184999.000000

>ms2peaks
56.049500 13466.100000
58.065200 7553.000000
70.065200 38056.100000
109.044800 8013.100000
110.040300 3721.900000
115.054400 5009.500000
116.049500 20827.100000
117.057400 6565.800000
122.040300 6997.200000
128.049600 4866.100000
130.065300 18805.300000
134.040200 8740.400000
135.048000 25450.000000
136.055700 58568.500000
137.026700 6278.500000
137.064000 4847.100000
140.049300 4261.500000
142.064700 10267.000000
143.060400 14198.400000
143.073100 8052.800000
144.044500 16647.000000
144.055600 10639.400000
144.080800 6812.500000
148.055800 50056.400000
149.050800 12140.500000
149.063600 9780.900000
150.058900 7159.400000
150.071600 15261.500000
151.043000 11145.100000
151.066600 17277.100000
152.050300 7541.400000
152.074500 96069.200000
155.060500 20571.800000
156.068200 37465.800000
157.076100 30919.900000
158.060300 12778.800000
159.091900 18885.800000
160.056300 8040.500000
161.051100 15137.000000
161.063600 27422.000000
162.035100 45254.300000
162.059300 10867.700000
162.071600 15090.200000
163.042900 38771.100000
163.066800 103132.300000
163.078700 9644.500000
164.050700 51589.400000
165.046000 11756.400000
165.058500 27435.700000
165.082300 203900.900000
167.060600 9416.800000
169.076100 20987.300000
170.071200 13101.400000
170.083800 7230.600000
171.055400 8755.100000
171.091800 67446.000000
172.055800 4328.400000
172.075900 26027.900000
174.059000 14314.000000
175.066700 60791.000000
176.050900 30152.800000
176.074500 293551.500000
177.046300 7276.300000
177.058600 32693.200000
177.082300 54373.600000
178.029100 7793.000000
178.053800 36984.300000
178.066300 32462.400000
178.089800 12630.200000
179.061600 102337.800000
179.074500 11842.300000
179.098000 106070.400000
183.079000 8323.100000
183.091500 18471.500000
184.063300 35450.200000
184.086800 5310.700000
185.071000 146499.200000
185.107100 14763.500000
186.058900 14730.800000
186.102000 4857.200000
187.066700 71237.000000
188.050700 26048.400000
188.074600 8270.300000
189.045700 37182.000000
189.082400 357978.100000
190.030300 9376.900000
190.053700 32341.500000
190.066400 64753.100000
190.090100 23551.100000
191.061600 163453.500000
191.074000 35429.000000
191.098200 31884.600000
192.069400 23275.200000
192.082100 9461.400000
193.053700 12175.900000
193.077400 29544.900000
195.033000 15260.500000
196.087000 20049.200000
197.048300 14674.400000
197.071300 13121.600000
197.094700 22963.400000
198.066100 38415.900000
198.078800 21993.100000
198.102600 69927.000000
199.086400 11772.400000
200.081300 9440.300000
201.082600 12460.200000
201.102700 6759.000000
202.054500 11911.200000
202.090700 11087.600000
203.061600 559833.600000
203.098200 63038.600000
204.069400 218940.100000
204.105900 248085.600000
205.077300 783479.900000
206.085100 49917.200000
207.056400 18147.400000
207.092900 80592.200000
210.066300 7936.100000
210.102400 18523.500000
211.087100 8388.300000
211.110500 117803.100000
212.082300 20714.100000
213.090500 7406.800000
213.102400 24449.800000
215.025200 8630.900000
215.060900 4994.500000
215.098100 29355.800000
216.069900 8802.600000
217.040800 36395.400000
217.077200 78512.800000
218.048800 19828.700000
218.062000 8132.300000
218.085100 122247.600000
219.056200 11778.200000
219.092900 190561.400000
221.071900 18005.400000
223.063900 41541.700000
224.045100 16174.300000
224.082100 16302.000000
224.118900 7356.300000
225.052800 17755.500000
225.089900 33590.100000
225.102400 10922.100000
225.126300 15528.600000
226.061400 38551.800000
226.097600 143579.800000
226.133800 42696.400000
227.081400 9262.100000
227.105200 11187.600000
227.117500 11617.100000
228.113300 15883.100000
230.049200 6356.900000
230.083500 4643.300000
230.108800 26308.700000
231.056700 2590930.300000
232.064800 14139.400000
233.108400 349221.500000
235.050900 7239.000000
235.088100 6638.700000
238.060800 13507.300000
238.133800 6992.500000
239.081800 7625.900000
243.056600 12097.300000
245.072100 84327.400000
245.108400 8420.800000
246.103600 6048.100000
246.139800 7899.200000
249.067100 41540.700000
252.076900 27570.800000
253.084700 42475.400000
254.092500 345252.500000
254.128400 65682.500000
256.146000 8295.300000
258.140400 43145.500000
259.087700 55087.000000
263.082600 15045.900000
272.083200 13803.700000
272.103200 71559.200000
273.090400 7645.500000
274.098700 144887.700000
274.134700 30571.700000
277.099000 5135.800000
282.123700 326491.800000
292.109300 41651.000000
300.134200 73854.400000
302.130000 621915.300000
320.140900 175019.100000

>ms2peaks
56.049500 9641.900000
58.065000 4160.900000
70.065200 17031.500000
89.038700 11319.700000
92.049300 6860.000000
103.054200 7290.900000
107.029200 5762.400000
109.044800 27379.500000
110.040200 7453.200000
115.054300 15457.700000
116.049500 56725.900000
117.057300 15922.100000
122.040000 24894.900000
128.049600 22798.900000
129.057400 8118.600000
130.065200 54969.800000
131.060400 17984.300000
132.024400 8026.500000
133.044800 14536.200000
134.040100 43413.200000
134.060000 15665.800000
135.047900 88172.400000
136.055800 100716.100000
137.027200 14939.900000
137.051200 13659.500000
137.063600 12337.600000
140.049400 13160.100000
142.065100 11307.700000
143.060400 30591.300000
143.073000 11351.900000
144.044500 19438.900000
144.055600 17784.900000
144.080600 6940.800000
146.040200 19351.800000
147.048300 8009.000000
148.055800 223828.800000
149.051000 27804.600000
149.063500 27527.100000
150.035400 8273.900000
150.058600 10230.200000
150.071400 22251.000000
151.042700 29829.300000
151.066500 15938.500000
152.050700 15921.400000
152.074500 162452.400000
155.060500 70266.000000
156.068300 90369.700000
157.076100 45474.100000
158.060300 15270.800000
159.091900 4049.400000
160.043400 7408.800000
160.055800 19734.900000
161.027300 23118.200000
161.051000 51094.100000
161.063600 57037.600000
162.035100 95665.100000
162.058800 37340.100000
162.071600 27520.500000
163.042800 61178.700000
163.066700 99261.800000
163.078800 6950.700000
164.050700 62359.900000
164.074700 4964.400000
165.046000 26858.900000
165.058200 7784.900000
165.082400 92115.500000
167.060600 18171.400000
169.016900 4838.000000
169.076000 34432.600000
170.071200 24024.400000
170.083800 11333.800000
171.055200 14374.900000
171.091800 56997.300000
172.055600 6813.900000
172.075500 8732.800000
173.050900 17280.800000
174.035100 12016.500000
174.058900 57431.900000
175.030300 11333.500000
175.066700 161719.800000
176.050900 52590.600000
176.074500 358632.800000
177.045700 5295.400000
177.058500 50043.200000
177.082300 30394.900000
178.053700 35916.600000
178.066300 36894.800000
179.061500 80581.400000
179.074500 10152.600000
179.098100 58637.700000
180.045300 4201.400000
181.075900 8905.600000
182.071300 11874.600000
182.084200 5100.500000
183.055300 13541.800000
183.079200 11899.200000
183.091900 18043.700000
184.063200 38086.400000
184.086700 3696.900000
185.071000 109175.000000
186.058800 10926.900000
187.066700 91191.700000
188.038100 70687.400000
188.050700 25503.300000
188.074700 16267.900000
189.045700 61829.400000
189.082400 809028.400000
190.029900 5475.600000
190.053700 26192.600000
190.066400 56544.000000
190.090000 13801.300000
191.061600 122762.200000
191.074200 14085.000000
191.098400 17400.000000
192.069600 16435.500000
192.081800 4413.200000
193.053600 13366.500000
193.077000 19144.700000
195.032700 21118.500000
196.087200 29749.700000
197.048600 7451.600000
197.071100 13530.700000
197.094800 19580.300000
197.108100 5061.100000
198.066400 27281.700000
198.078900 22595.200000
198.102700 32119.900000
199.049400 3035.900000
199.075000 3747.200000
199.087100 8757.700000
201.082400 10325.700000
202.029400 4302.500000
202.053600 10760.400000
202.090000 6919.900000
203.061600 645720.600000
203.098200 94734.800000
204.069400 75563.300000
204.105900 108240.300000
205.077200 301376.400000
206.085000 5117.200000
207.056100 6634.100000
207.092800 26534.100000
210.065900 7243.300000
210.102500 22686.000000
211.087100 4817.800000
211.110600 55353.800000
212.082200 11696.500000
213.102000 7023.800000
215.025400 19315.100000
215.061500 7964.200000
215.097800 14683.200000
216.032900 21734.200000
216.070000 9653.100000
217.040900 50856.200000
217.077300 64304.400000
218.048500 16167.900000
218.062000 4355.300000
218.085200 49361.200000
219.056500 11542.300000
219.092700 45807.200000
221.072200 6759.800000
223.063900 18206.900000
224.045500 16457.400000
224.082200 16154.700000
224.118900 4577.800000
225.053200 12593.800000
225.089900 11142.600000
225.126400 5208.900000
226.061000 24537.100000
226.097500 50919.500000
226.133500 5646.800000
227.082300 6712.200000
230.048700 5205.000000
230.108600 14887.000000
231.056700 2020228.000000
232.064400 9676.700000
233.107900 31667.600000
235.051700 10095.400000
238.061400 12808.000000
238.134100 4800.200000
243.056700 3691.900000
245.072300 65318.200000
249.067100 29913.600000
252.076600 13829.200000
253.084800 8150.700000
254.092500 86253.100000
254.128800 9388.800000
258.139600 12220.500000
259.087600 12734.400000
263.082400 5023.200000
272.082500 3321.600000
272.103200 17868.900000
274.098700 19569.800000
282.124100 21215.700000
292.109800 7502.200000
302.128900 24400.200000

