>compound EA03112620
>parentmass 222.04289999999995
>ionization [M+H]+
>formula C10H8ClN3O
>rt 312.000000
>profile orbitrap
#smiles_iso C1=CC=C(C=C1)N2C(=O)C(=C(C=N2)N)Cl
#smiles_can C1=CC=C(C=C1)N2C(=O)C(=C(C=N2)N)Cl
#inchikey WYKYKTKDBLFHCY-UHFFFAOYSA-N
#pubchem_id 15546
#mb_accession EA008802,EA008803,EA008804,EA008805,EA008806,EA008807,EA008808,EA008809,EA008810,EA008811,EA008812,EA008813

>ms2
77.038300 10431.900000
222.043000 4276215.400000

>ms2
77.038300 5263.000000
104.049600 8816.400000
222.043100 3864896.600000

>ms2
65.038600 7444.000000
77.038400 31187.200000
92.049500 75685.600000
94.065200 45544.600000
100.990300 3529.900000
104.049600 199790.600000
105.044600 5717.000000
128.985000 36852.200000
146.011700 22825.800000
159.055400 3949.000000
159.078400 3880.100000
186.066300 33251.900000
193.029200 18765.400000
195.032200 5989.400000
205.016100 10399.000000
222.043100 3375664.200000

>ms2
55.029000 17965.900000
63.995000 6788.700000
65.038600 43021.700000
67.029100 4999.400000
75.995000 7144.500000
77.038600 116870.100000
83.023900 8303.800000
87.994800 13507.500000
92.049500 338091.800000
93.057400 16020.000000
94.065200 118557.100000
95.049200 13436.800000
100.990200 23340.000000
101.974200 6730.300000
104.049500 472996.900000
105.044800 27747.700000
116.997700 5100.100000
119.060200 11011.200000
128.985000 139242.500000
130.064900 12870.300000
131.060500 9532.300000
132.044400 10753.600000
140.026100 3620.000000
142.052600 3268.000000
146.011600 99200.600000
149.015200 10230.400000
150.010800 9382.700000
159.055600 18111.400000
159.079100 3249.200000
160.062700 3858.300000
177.021100 7597.300000
178.005700 6676.000000
186.066200 41568.100000
193.028900 66151.500000
195.032400 13141.400000
205.016500 23735.300000
222.042800 1417472.600000

>ms2
53.038600 11335.100000
55.029100 21226.100000
63.994900 11794.900000
65.038600 109653.100000
66.021400 4430.600000
67.029300 4232.100000
75.994800 9261.200000
77.038700 196338.700000
83.024000 9810.700000
87.994900 43406.100000
92.049600 426364.800000
93.057400 33369.600000
94.065300 103339.300000
95.049200 25838.400000
100.990200 52316.600000
101.974300 14723.600000
104.049600 357242.900000
105.044800 59899.700000
116.997600 8012.600000
119.001200 4563.900000
119.060300 15054.100000
125.015100 2560.900000
128.985100 129221.300000
130.065200 26496.300000
131.060500 18755.400000
132.044500 16565.300000
132.068400 3637.100000
140.026800 6008.000000
142.052800 6051.300000
146.011700 124728.300000
149.015600 12135.800000
150.010800 30797.300000
158.060600 7200.300000
158.071300 3998.900000
159.055400 14111.300000
160.063100 6587.200000
177.021900 4105.000000
186.066300 14652.400000
193.029100 53257.300000
195.032000 5791.000000
205.016400 10151.400000
222.043200 316719.100000

>ms2
53.038500 10138.600000
55.029000 17535.900000
63.994900 13070.600000
65.038600 177703.200000
66.021200 13312.800000
67.029100 3947.800000
73.979300 4039.500000
75.994900 12098.200000
77.038600 244860.500000
81.033400 2605.600000
83.024100 3904.300000
87.994900 56705.600000
92.049500 306616.100000
93.057400 49416.700000
94.065200 76079.200000
95.049100 36315.100000
100.990100 77810.600000
101.974100 9457.700000
104.049500 172051.000000
105.044700 67265.300000
114.033700 4590.900000
116.997700 10469.900000
117.057600 3422.500000
119.060300 8893.700000
122.999400 5673.800000
128.985100 79212.300000
130.065200 31941.300000
131.060600 14694.600000
132.044300 15805.600000
132.068500 5492.400000
140.026400 3106.700000
142.053100 6212.500000
146.011700 106971.700000
149.015200 9449.700000
150.010500 20999.200000
158.060000 5076.900000
159.055200 3081.400000
159.079500 2760.100000
186.065800 5743.000000
193.029300 17344.800000

>ms2
77.038300 3298.600000
222.043000 2393351.700000

>ms2
104.049500 3786.200000
222.043100 2302847.900000

>ms2
65.038600 2561.200000
77.038500 13774.700000
92.049500 40573.200000
94.065200 18140.000000
104.049500 109005.000000
105.044500 4003.900000
119.060200 2444.700000
128.985200 15683.800000
146.011600 11615.900000
159.055100 3740.300000
186.066300 12983.800000
193.028600 8148.200000
195.031700 3142.700000
205.016400 7387.900000
222.043100 1834333.300000

>ms2
53.038500 3094.900000
55.029100 7221.900000
63.994800 5085.500000
65.038600 20349.800000
75.994900 2947.600000
77.038600 56637.500000
83.023700 3237.400000
87.994900 9709.100000
92.049500 169345.300000
93.057200 4024.000000
94.065200 58221.800000
95.049200 6253.600000
100.990100 12508.000000
101.974000 3910.500000
104.049500 251815.100000
105.044700 16055.300000
117.057300 1898.200000
119.000700 2388.400000
119.060400 7773.100000
128.985000 63219.900000
130.065100 6132.000000
131.060500 4571.800000
132.044400 4570.300000
146.011600 44068.500000
149.015100 5746.400000
150.010800 4601.300000
158.060300 2736.300000
159.055500 11043.000000
159.078700 2845.900000
177.021500 5147.300000
186.066100 23116.800000
193.028900 37184.600000
195.032100 4207.400000
205.016500 8021.400000
222.043000 780578.600000

>ms2
53.038500 5576.300000
55.029000 9081.700000
63.994900 5106.400000
65.038600 50760.300000
66.021400 2554.100000
67.028900 2420.800000
75.994900 3896.900000
77.038600 108388.900000
83.024100 4457.700000
87.994900 21542.000000
92.049500 236871.900000
93.057300 13786.900000
94.065200 64304.100000
95.049300 12352.100000
100.990200 23968.400000
101.974200 3832.100000
104.049500 195449.600000
105.044700 31150.800000
116.997600 5240.800000
119.060400 5236.200000
125.015200 2840.900000
128.985100 72170.100000
130.065200 16181.900000
131.060400 6429.700000
132.044500 8571.200000
132.068200 2068.400000
146.011600 66862.700000
149.015200 5106.200000
150.010600 14066.700000
158.059900 3025.400000
158.071600 2526.700000
159.055400 6356.700000
159.079600 2618.500000
160.063100 2311.000000
178.005700 2562.200000
186.066200 8835.500000
193.029000 26799.100000
195.032200 3584.500000
205.016300 2362.000000
222.042800 123679.100000

>ms2
53.038500 6086.700000
55.029000 4873.600000
63.994800 6651.400000
65.038600 88403.100000
66.021200 3540.500000
73.979200 3210.000000
75.994900 5793.300000
77.038600 122456.100000
81.033500 1444.400000
87.994900 28662.400000
92.049500 158410.100000
93.057300 21087.900000
94.065100 31140.500000
95.049100 14481.600000
100.990100 40454.900000
101.974100 4019.900000
104.049500 79443.400000
105.044700 41248.400000
114.033700 2329.600000
116.997600 6430.400000
119.060400 4382.800000
122.999500 1946.300000
125.015200 2391.000000
128.985000 40097.600000
130.065100 17946.100000
131.060400 6828.300000
132.044400 5208.100000
132.068400 2389.500000
142.052500 2441.200000
146.011500 47628.100000
149.015400 3292.200000
150.010500 13287.500000
158.060700 1375.600000
159.055300 4149.900000
160.063000 1564.200000
186.065800 1963.800000
193.029000 7949.300000
222.042100 6645.700000

