>compound EA04762901
>parentmass 609.2807000000001
>ionization [M+H]+
>formula C33H40N2O9
>rt 498.000000
>profile orbitrap
#smiles_iso CO[C@H]1[C@@H](C[C@@H]2CN3CCC4=C([C@H]3C[C@@H]2[C@@H]1C(=O)OC)NC5=C4C=CC(=C5)OC)OC(=O)C6=CC(=C(C(=C6)OC)OC)OC
#smiles_can COC1C(CC2CN3CCC4=C(C3CC2C1C(=O)OC)NC5=C4C=CC(=C5)OC)OC(=O)C6=CC(=C(C(=C6)OC)OC)OC
#inchikey QEVHRUUCFGRFIF-MDEJGZGSSA-N
#pubchem_id 5770
#mb_accession EA268202,EA268203,EA268204,EA268205,EA268206,EA268207,EA268208,EA268209,EA268210,EA268211,EA268212,EA268213

>ms2peaks
195.960000 9233.500000
397.225500 80464.300000
448.208900 97252.500000
608.269800 32051.000000
609.280700 8596207.800000

>ms2peaks
111.043700 13236.700000
123.080200 11151.600000
148.075700 48120.300000
160.075800 42465.200000
167.069900 10407.500000
174.091300 1762240.500000
175.076100 18221.700000
175.095400 25026.100000
176.107100 43836.700000
178.085900 17988.700000
186.091300 15714.100000
188.106700 80752.100000
190.086000 19826.100000
192.102000 218882.900000
195.065200 4315739.000000
196.068600 69007.500000
199.096900 8866.400000
200.106700 60405.900000
204.101800 68536.400000
207.101600 21080.600000
212.106000 19492.100000
214.111000 11855.300000
215.118100 108368.800000
222.112400 31940.400000
224.128000 294428.000000
227.117100 15154.900000
228.124900 17460.700000
229.133400 33111.400000
236.127900 553949.600000
238.123500 21138.200000
253.132600 10577.300000
254.138600 25125.500000
288.137600 22560.800000
290.118800 14669.600000
305.163100 12536.000000
316.133400 17137.200000
322.143300 47021.900000
333.159900 50340.200000
334.142400 14525.500000
336.158700 141007.800000
348.158900 88728.400000
354.170300 39576.700000
365.185400 611744.200000
366.188000 22272.200000
368.184400 184395.600000
380.185100 74480.400000
397.211800 3803748.500000
413.207200 50045.300000
422.180700 10121.800000
434.181200 59725.900000
436.196100 218975.400000
448.196500 842383.400000
449.200600 39944.400000
577.253700 160350.000000
609.280200 2157970.800000

>ms2peaks
70.065100 17486.600000
71.049000 13891.000000
79.054400 17731.400000
91.054100 24776.200000
93.070000 14677.600000
94.065100 49151.100000
97.064700 12807.800000
103.053800 10372.700000
105.070100 11619.800000
106.065400 24673.400000
108.080500 11489.400000
109.064800 45059.400000
111.044100 76618.800000
117.070100 20075.400000
118.065600 23865.800000
120.081000 43972.100000
121.065200 16041.800000
122.035900 13835.300000
123.080400 35450.000000
124.052100 26980.500000
129.069700 14610.500000
131.072800 29965.600000
131.085400 35351.700000
132.080800 69798.100000
135.044400 12327.600000
136.076000 12091.800000
137.059500 22236.500000
139.075400 98870.400000
143.073400 28152.300000
144.080800 67746.200000
145.088500 13356.700000
147.080300 54069.500000
148.075900 113343.900000
149.059700 39598.600000
152.046600 91919.800000
159.067800 114767.800000
160.075600 232590.200000
161.083500 79762.600000
162.091400 79406.600000
164.106900 21539.300000
167.070300 69121.000000
172.075400 55109.500000
173.084000 29228.700000
174.091500 4869018.000000
175.075200 51593.200000
176.107100 46439.300000
178.086300 30027.600000
179.069900 19377.800000
181.086100 18012.200000
184.075500 15472.800000
186.091100 100145.800000
187.099400 34267.200000
188.107100 183449.000000
189.102100 11175.800000
190.086300 58482.500000
192.102000 430325.000000
195.065300 6092819.600000
198.091100 47153.300000
200.106900 264822.800000
201.101700 40717.900000
204.101900 144125.300000
206.118200 19619.000000
207.101000 19731.700000
210.092000 32427.700000
210.114700 14890.800000
211.098800 14606.600000
212.106900 62787.000000
214.110400 61037.200000
215.117800 82105.700000
222.112900 30590.200000
224.106500 42630.200000
224.128300 194088.400000
226.122500 40356.100000
227.117600 75263.700000
228.125700 21343.700000
229.133900 18254.600000
236.105100 31104.900000
236.128100 565919.600000
238.122700 102323.100000
248.106600 22821.700000
250.122600 48258.900000
251.117800 37753.500000
252.137200 30239.200000
253.133900 70428.700000
254.138300 18047.500000
261.115500 28222.900000
262.122500 65953.200000
265.133200 66395.100000
266.140500 32764.300000
273.115100 12945.900000
274.123600 30042.700000
275.131400 15227.200000
276.138400 123182.900000
277.146000 25115.000000
288.138500 73367.700000
289.110600 10144.000000
289.145100 36800.800000
290.117200 36378.200000
291.147600 18700.600000
294.147600 13678.900000
296.128100 18938.300000
304.132900 91043.800000
305.163700 49809.500000
308.164700 21353.300000
316.133200 23183.600000
322.144000 56461.700000
333.159100 47410.600000
336.159500 219756.100000
337.190000 34602.800000
348.159000 81837.900000
350.162200 37707.900000
354.170800 19750.200000
365.185600 515611.400000
368.185100 56787.800000
380.184000 18201.200000
381.181700 15465.000000
382.187700 22707.200000
396.198200 22871.900000
397.212700 438183.900000
413.207700 13182.000000

>ms2peaks
53.038400 21648.400000
65.038300 14117.100000
67.054200 14215.000000
71.049100 15138.500000
75.044100 15809.200000
77.038600 54597.800000
79.054200 103557.900000
80.049400 18884.300000
81.033500 69724.900000
81.069800 53889.300000
91.054100 83255.900000
93.033900 8368.000000
93.057700 8672.800000
93.069500 11619.200000
94.041400 15201.600000
94.065200 58402.700000
96.057000 64346.500000
97.064800 11711.400000
101.059600 8939.900000
103.054500 11031.500000
105.045000 16579.500000
105.069900 29623.100000
106.065300 33515.800000
107.048800 26568.400000
108.056900 43661.600000
108.081000 21095.800000
109.028000 20685.600000
109.064700 162745.100000
111.044000 42764.000000
111.080300 44026.000000
113.023500 13610.800000
113.059600 29477.900000
115.054400 47989.600000
116.062100 12176.000000
117.056700 17950.400000
117.070000 50006.500000
118.065100 48215.000000
119.085400 14412.800000
120.080700 51939.400000
121.028500 10049.100000
121.064800 43481.400000
122.036100 133704.100000
123.080600 24511.400000
124.051900 141042.000000
128.046800 12006.800000
129.069900 41083.600000
130.065200 87275.400000
131.048900 21678.400000
131.072900 261159.000000
131.085600 21477.000000
132.056400 19120.300000
132.080800 110718.600000
135.044100 24161.300000
135.080000 18167.100000
136.075700 19451.200000
137.023100 50978.600000
137.059900 33108.400000
139.075300 444173.500000
141.017700 16960.100000
142.065200 66965.400000
143.073000 285483.400000
144.080800 128857.300000
145.065300 16525.700000
145.088500 32540.500000
146.059900 36026.100000
146.096100 21669.000000
147.067700 32725.900000
147.080300 97879.900000
148.075700 78742.600000
149.059400 48359.500000
150.090800 10695.800000
151.038400 38367.100000
152.046700 532951.400000
155.059700 7314.300000
156.041300 38413.000000
156.081100 14921.200000
157.088700 21658.700000
158.059400 29248.500000
159.067800 700004.400000
160.075600 262852.700000
161.059700 18784.200000
161.083600 117404.500000
162.091200 49153.700000
164.106800 11943.500000
166.086200 14741.300000
167.070100 168582.100000
170.060400 13712.300000
172.075600 67859.500000
173.083500 115065.700000
174.091300 3442132.400000
175.075100 24496.600000
175.094400 49980.200000
176.107200 25504.100000
178.086500 19311.600000
181.088100 8300.800000
184.036500 12427.300000
184.075600 40843.400000
185.083200 54944.900000
186.091200 129119.800000
187.099200 47058.400000
188.071200 8604.900000
188.106900 126971.000000
190.086200 35665.200000
192.102000 117259.000000
195.065100 2892424.700000
195.963900 11059.600000
197.083300 32817.100000
198.091300 67486.700000
199.095600 70380.100000
200.107000 122388.500000
201.102700 29701.600000
204.101900 66260.800000
207.103500 9369.600000
210.091200 55815.000000
211.098900 36719.700000
213.102100 25667.500000
214.110400 38400.100000
215.118100 35419.600000
222.091100 29119.900000
222.113300 13075.600000
223.098900 30617.800000
224.106700 93983.700000
224.128100 22195.600000
226.122900 41351.100000
227.117700 74549.900000
234.092000 21252.900000
235.098600 27323.000000
236.105200 53520.900000
236.128100 71443.100000
238.122000 78081.300000
246.091600 15254.200000
247.099000 40102.100000
248.106800 72607.900000
249.114200 28357.300000
250.121600 49244.900000
251.117700 125736.000000
252.126200 15467.800000
253.132800 57713.500000
258.092200 11492.000000
259.099800 11934.700000
260.106800 41787.800000
261.114000 64603.600000
262.122500 94105.300000
264.101100 29246.100000
264.139500 24381.300000
265.133200 99695.400000
266.141500 21514.300000
267.149500 11945.500000
273.114100 29379.200000
274.122200 47320.500000
276.138000 92055.900000
277.131900 15961.900000
278.116500 12867.000000
288.137800 25724.400000
290.118300 28630.000000
291.149200 28675.600000
304.133200 28368.700000
305.163300 20634.600000
306.113700 10775.100000
336.158200 32163.500000
337.190800 14259.000000
350.161700 30711.200000
365.185100 70775.600000
382.188500 9993.500000

>ms2peaks
53.038500 49746.400000
65.038500 32677.400000
66.046400 24657.500000
67.054400 32095.600000
71.049300 12111.400000
77.038600 127525.400000
78.046400 13262.000000
79.054200 146050.800000
80.049300 15744.600000
81.033500 181978.500000
81.069900 62030.100000
91.054200 141743.400000
92.026000 18928.900000
93.057100 19022.700000
93.069800 11107.500000
94.041200 45431.100000
94.065100 56514.200000
95.049000 65611.200000
96.056900 114274.300000
97.065000 16893.600000
99.044000 10031.100000
103.054400 27415.300000
105.033400 20197.600000
105.044700 56668.200000
105.070000 38582.900000
106.041300 23124.100000
106.065100 36104.600000
107.049400 39056.600000
108.057000 85002.100000
108.080600 13924.200000
109.028400 59372.300000
109.064800 176159.200000
111.043800 28055.500000
111.080400 47204.400000
113.059800 37295.600000
115.054200 106215.900000
116.061800 28730.000000
117.057200 47679.700000
117.069900 50786.800000
118.065000 52798.800000
120.081000 29527.500000
121.028300 47902.000000
121.064900 56673.700000
122.036200 205477.500000
123.044400 13512.700000
123.080600 9090.400000
124.051900 179284.300000
129.070000 37506.100000
130.065100 218965.200000
131.073000 715963.400000
132.044700 18569.500000
132.056300 23976.400000
132.081000 81594.400000
133.064200 19606.700000
134.036200 33302.200000
134.060000 13441.100000
135.044000 13972.700000
136.075500 19615.600000
137.023300 150321.000000
139.075300 367402.900000
142.065100 86108.400000
143.072900 534290.400000
144.057200 30592.200000
144.080700 130570.400000
145.052300 34929.200000
145.064700 12633.200000
145.088500 35311.100000
146.060000 86703.500000
147.068100 56181.100000
147.080400 87777.900000
148.075500 59644.200000
149.060300 20999.600000
150.090800 13187.600000
151.039300 107885.000000
152.046700 668493.200000
154.065100 19368.900000
155.060600 24997.100000
156.041700 12277.200000
156.081200 32880.800000
157.088200 21753.000000
158.060000 84005.800000
159.067800 1076287.400000
160.075700 198578.600000
161.083500 68184.600000
162.090900 28750.600000
167.070400 73493.600000
168.080900 19038.800000
169.087900 20382.100000
170.059800 67910.700000
171.067700 22622.100000
172.075500 91567.600000
173.083400 168889.200000
174.091300 1568348.900000
176.107600 10815.300000
180.080100 19214.100000
181.088300 25963.300000
182.059700 21395.000000
182.097100 12901.800000
183.068100 21466.200000
184.075500 81377.900000
185.083300 68717.300000
186.091300 87164.200000
187.099600 33069.200000
188.069100 9626.300000
188.106100 34686.900000
192.080100 19052.000000
192.102000 16558.100000
193.088200 25086.100000
194.096500 16030.200000
195.065200 610392.500000
196.076100 40081.800000
197.082900 34046.200000
198.090900 75822.700000
199.087600 69429.100000
201.101900 17091.000000
204.080400 17261.800000
204.101600 12905.900000
205.089000 29585.200000
206.096300 16098.400000
207.101800 14153.400000
208.076000 25928.100000
209.083000 19996.900000
210.090900 58316.700000
211.097300 32970.800000
217.087700 18362.700000
218.095800 26800.800000
219.104300 15217.100000
221.083000 25537.600000
222.091400 55722.200000
222.113300 9750.200000
223.098100 45719.900000
224.106700 81911.500000
227.117300 22764.600000
230.096800 22125.300000
231.104200 26781.900000
232.109100 12480.900000
233.084000 19609.200000
234.091100 46762.000000
235.097600 21383.200000
236.103800 48178.000000
237.103000 35450.600000
239.118200 35396.700000
245.082600 12412.800000
245.121100 12199.500000
246.090700 51606.700000
247.099300 35012.900000
248.106900 57281.200000
249.103100 33013.700000
250.110100 35795.800000
251.117900 118726.900000
258.091600 18639.900000
260.107000 50624.800000
261.114500 43694.300000
262.122500 71007.400000
264.100900 20062.000000
265.133200 37826.400000
272.109700 11650.100000
273.115000 14516.300000
274.086600 15526.300000
274.123100 26391.600000
275.114700 10920.500000
276.139300 24754.600000
277.131200 15029.700000
289.134700 16238.900000
291.146400 17199.300000
448.207400 18082.100000

>ms2peaks
53.038500 99426.000000
65.038500 34417.500000
66.046400 27419.400000
67.054200 32937.800000
77.038500 179556.500000
78.046200 31530.400000
79.054200 123990.300000
80.049400 24119.000000
81.033400 215471.400000
81.069900 39419.400000
91.054100 150259.300000
92.025900 34065.300000
92.049600 13503.800000
93.033300 13686.200000
93.057300 22452.200000
94.041300 55931.000000
94.065000 38571.400000
95.049100 68625.300000
96.056800 96838.900000
97.065100 9166.800000
99.044200 11910.300000
103.054200 52556.800000
104.061700 17991.000000
105.033300 25063.800000
105.044700 67772.200000
105.057500 18275.900000
105.069600 36549.000000
106.041400 20648.000000
106.064800 23803.400000
107.012600 47831.900000
107.049100 24338.200000
107.072700 11916.500000
108.057000 44070.500000
109.028300 99825.700000
109.064700 77241.200000
111.044000 18089.200000
111.080800 14539.300000
113.059800 28024.600000
115.054100 151917.400000
116.049400 20539.400000
116.061900 41719.600000
117.057200 113965.400000
117.069700 45327.100000
118.065000 55332.500000
119.049100 15327.800000
120.080800 22612.400000
121.028200 79586.800000
121.065000 39246.000000
122.036100 177827.800000
123.044000 22216.600000
124.051800 100294.800000
128.062300 21817.200000
129.069500 29386.000000
130.065000 451874.400000
131.072900 1095972.500000
132.044300 41934.100000
132.056800 24911.000000
132.080900 59774.400000
133.051900 19541.600000
133.065100 8848.900000
134.036300 16804.400000
135.043600 12575.300000
135.080700 8695.800000
137.023200 245236.800000
139.075200 134178.000000
142.065000 88780.400000
143.072900 526759.900000
144.056800 26487.200000
144.080900 110169.000000
145.052100 52545.600000
145.064700 12877.200000
145.088600 40465.900000
146.059900 128667.900000
146.096400 17925.600000
147.067900 46445.800000
147.080200 40945.700000
148.075600 23408.700000
151.038900 185742.400000
152.046700 304742.800000
154.065200 46236.900000
155.059800 25066.100000
155.072900 50366.900000
156.080500 41047.500000
157.088300 41574.200000
158.060000 140208.800000
159.067700 834383.600000
160.076000 104763.900000
161.083800 28379.200000
162.091500 11076.200000
167.072700 46244.500000
168.080800 48836.900000
169.052600 8361.500000
169.088600 13180.600000
170.060100 102932.800000
171.068100 29279.000000
172.075700 80347.200000
173.083500 101701.800000
174.091200 523547.400000
175.095300 10612.600000
180.080800 43003.000000
181.089300 38138.500000
182.060100 29386.600000
182.095700 13480.700000
183.067400 28291.300000
184.036100 15263.000000
184.075300 79925.700000
184.099200 12938.500000
185.083500 34100.800000
186.091300 47439.600000
187.100100 9349.500000
191.073500 21331.600000
192.081000 44516.000000
193.088200 31540.900000
194.095500 35352.200000
195.066000 90529.300000
195.963600 9051.200000
196.075800 36646.100000
197.082900 26265.200000
198.090900 37571.900000
199.086800 54543.400000
200.107300 9078.600000
204.080300 50320.600000
205.087800 33856.000000
208.075900 40537.300000
208.099400 15429.300000
209.083400 22021.500000
210.090800 53191.300000
211.095900 9683.300000
217.088400 48883.600000
218.096500 55450.100000
219.103600 22632.900000
220.075300 41339.900000
220.111100 13777.100000
221.082800 33724.900000
222.090400 47033.400000
222.115600 14378.200000
230.096000 24737.500000
231.104600 24557.800000
232.076300 23126.700000
232.110300 18074.100000
233.082800 24302.600000
233.119900 13035.400000
234.091000 51888.500000
235.095800 20117.500000
237.103000 24604.100000
239.117200 11939.300000
242.095700 8934.100000
244.112200 14419.200000
245.083700 14573.700000
246.091000 57559.800000
247.098700 36615.500000
248.106100 26151.500000
249.102100 31171.200000
250.086100 8787.700000
250.110900 21038.800000
251.117600 64691.600000
258.092100 19062.000000
260.107200 47010.400000
262.122800 31299.100000
272.109400 11236.600000
275.115700 6551.300000
397.224700 8861.600000
448.207000 14964.200000

>ms2peaks
397.213100 29552.900000
448.202500 10945.600000
608.269900 27397.600000
609.280800 5854101.000000

>ms2peaks
70.065200 4579.800000
94.065300 9809.500000
106.064600 5870.700000
111.044100 12762.500000
131.085600 6058.100000
132.080800 6216.500000
135.043900 4997.700000
148.075400 26023.100000
160.075400 24281.500000
162.091200 19724.000000
167.070000 6038.700000
174.091200 1177685.100000
175.074900 6917.800000
175.094900 8974.600000
176.106800 23759.700000
178.086200 13167.800000
186.091300 14296.600000
188.106900 47121.100000
190.086500 11760.500000
192.101800 129708.000000
195.065100 2909204.900000
195.964300 6197.200000
196.068600 11207.400000
200.106700 58514.200000
201.101600 5906.700000
204.101700 39412.800000
207.101000 8058.700000
212.107200 11346.800000
214.110300 11877.900000
215.117600 64319.400000
222.112200 20450.300000
224.127900 205453.800000
227.118100 9782.900000
228.125800 11563.000000
229.133600 16179.700000
236.127900 371507.700000
238.122100 11319.900000
242.139400 6799.400000
253.133700 12427.000000
254.138800 15839.900000
276.137500 10397.200000
281.165000 12581.900000
290.116400 10845.700000
304.132200 11894.400000
305.164800 8776.900000
316.132700 10239.900000
322.143300 35190.300000
333.159800 27340.400000
334.142500 12951.800000
336.158900 106233.800000
337.191600 8037.000000
348.158800 51856.200000
354.169700 27640.100000
365.185400 394539.300000
366.168700 14403.200000
368.149300 40563.600000
368.185100 126945.200000
379.200500 5762.800000
380.184800 52000.700000
386.195500 5914.600000
397.211900 2520904.800000
402.154800 8372.800000
404.170100 12244.900000
413.206700 30006.600000
416.169900 6082.700000
434.179900 39955.900000
436.195900 136547.900000
448.196100 605541.200000
449.199900 11657.900000
577.253900 99956.800000
591.268500 6401.100000
592.252000 12085.800000
609.280100 1555339.100000

>ms2peaks
71.049100 7740.500000
75.043900 6074.600000
79.054200 8623.200000
80.049400 7289.700000
91.054200 15481.200000
93.057600 4371.100000
94.065200 28066.300000
97.064700 9200.800000
101.059700 7640.700000
106.065000 15570.700000
107.048700 3702.900000
107.072500 4959.700000
108.057200 7033.200000
108.080700 7997.200000
109.064800 23152.000000
111.044100 43210.700000
113.023300 4438.100000
115.054200 11227.300000
117.069900 16335.400000
118.065200 9660.500000
120.080700 20388.200000
121.064800 11979.600000
122.036400 10214.300000
123.080500 20045.700000
124.051800 11634.500000
129.070000 6824.200000
130.064900 12515.200000
131.049100 6472.300000
131.072800 13633.400000
131.085600 15920.500000
132.080800 35265.200000
135.044000 4214.200000
135.080200 8844.000000
136.075600 12974.500000
137.059900 7494.500000
137.096000 7411.400000
139.075300 57361.800000
142.065200 3769.600000
143.049500 5194.500000
143.073200 21044.500000
144.080800 36757.200000
145.065000 7105.300000
145.088600 9615.900000
146.060200 6363.600000
146.096200 5132.800000
147.067800 9173.700000
147.080300 31593.900000
148.075600 80271.900000
149.059400 21304.700000
150.091400 6330.700000
152.046700 52936.500000
154.062100 5248.100000
156.041500 8636.600000
156.080200 3888.900000
158.059800 10341.500000
159.067900 62196.300000
160.075600 124982.000000
161.059400 5281.400000
161.083600 38951.100000
162.091200 40990.300000
164.107100 14721.500000
166.086300 8528.200000
167.070200 35394.300000
172.075800 27959.200000
173.083600 16940.200000
174.091300 2783802.000000
175.075200 29859.400000
175.094700 10570.900000
176.106800 34349.000000
178.086200 26427.200000
179.069700 5658.700000
181.085600 15190.900000
185.083400 8538.300000
186.091200 66919.600000
187.099200 28721.500000
188.106900 115041.400000
189.102200 7827.100000
190.086200 37398.500000
192.101900 237400.800000
195.065100 3513347.800000
196.068100 15774.500000
197.083400 8362.600000
198.091100 21898.300000
199.099100 25116.800000
200.106900 133395.600000
201.102000 23847.100000
204.101800 105199.100000
206.117400 9524.600000
207.101400 9179.900000
210.091500 15121.100000
211.098800 15988.500000
212.107000 30230.000000
214.110100 37048.100000
215.117800 43102.400000
216.101900 4567.800000
222.112400 17651.500000
223.098100 4234.800000
224.107000 36713.100000
224.128000 114781.000000
225.114700 5075.000000
226.122600 27452.700000
227.117700 36598.300000
228.125900 19751.200000
229.133600 12558.200000
234.091600 3832.800000
235.099200 4334.900000
236.107300 19390.600000
236.128100 335913.700000
237.114400 19501.300000
238.122700 52306.000000
239.130900 9907.100000
247.099000 9235.600000
248.107100 20149.800000
249.114600 11710.500000
250.122000 26554.100000
251.118100 22338.200000
252.125000 12390.000000
252.138100 16832.100000
253.133600 35773.600000
254.138900 8855.100000
261.114900 13071.500000
262.122500 30383.900000
263.130700 7149.900000
264.102200 8333.700000
264.138200 12636.000000
265.133500 37735.600000
266.140800 18702.300000
267.149000 9661.500000
274.122300 15561.200000
275.129600 11165.400000
276.138100 86783.900000
277.146000 15287.700000
279.148300 10067.600000
281.165200 7795.900000
288.138200 48203.500000
289.145100 14617.400000
290.117100 23247.100000
291.149100 12141.600000
294.148200 5625.100000
296.128200 8688.500000
304.132800 45910.800000
305.164400 23866.800000
308.128200 7833.400000
308.164900 7920.700000
316.132800 16827.800000
322.143600 25379.500000
333.159200 34093.000000
334.143300 9266.100000
336.159100 129718.600000
337.190800 19170.200000
348.158700 38249.700000
350.161900 13650.600000
354.171000 5581.600000
363.167400 6193.500000
364.172300 4774.900000
365.185600 299440.600000
368.149100 16824.400000
368.185300 29991.300000
380.185600 8308.000000
381.179600 8695.600000
382.188500 19701.100000
395.195700 16172.500000
396.198100 5610.700000
397.212200 254834.800000
402.154900 10969.400000
413.206900 7220.800000
434.178800 9457.700000
436.197000 11701.600000
448.196100 76486.000000
609.280700 4933.000000

>ms2peaks
53.038500 6212.700000
65.038600 7940.700000
67.054300 6654.400000
71.049100 6392.700000
75.044000 7932.300000
77.038600 21800.300000
79.054200 50325.100000
80.049400 9497.800000
81.033500 41663.200000
81.069800 19895.100000
82.065200 5498.200000
91.054200 46646.100000
92.049600 5265.500000
93.033600 4893.000000
93.057300 5474.900000
93.069800 7339.600000
94.041400 7700.600000
94.065100 25182.600000
95.049100 14462.900000
96.057000 31560.100000
97.064700 12907.300000
101.059700 4967.600000
103.054100 7177.800000
105.033500 5990.600000
105.044500 9983.200000
105.069900 16404.600000
106.041400 4293.000000
106.065100 17972.800000
107.049100 19104.800000
108.056900 25408.400000
108.080700 12605.100000
109.028500 12065.200000
109.064700 84530.700000
111.044000 31275.600000
111.080400 24048.300000
113.023200 7626.900000
113.059700 15321.900000
115.054200 33199.000000
116.062000 8337.500000
117.057100 7553.700000
117.069900 23734.100000
118.065000 32907.900000
120.080700 27364.200000
121.028300 9118.100000
121.064800 22483.900000
122.036200 60512.100000
122.072400 9495.100000
123.043800 4264.700000
123.080400 8644.500000
124.051800 70253.100000
128.046300 6015.500000
129.069900 16258.500000
130.065000 46221.200000
131.049000 8566.800000
131.072900 138093.800000
131.085300 11029.900000
132.056900 10125.800000
132.080700 66765.300000
133.052200 3680.300000
133.064300 5803.300000
134.036000 7449.300000
135.043600 10150.600000
135.080400 10623.900000
136.075600 12184.500000
137.023100 23476.400000
137.059400 12197.900000
137.095800 4012.400000
139.075300 257168.200000
141.018400 6847.500000
142.065000 36882.700000
143.048700 11334.700000
143.072900 169421.600000
144.056600 9217.400000
144.080700 76313.100000
145.052400 4411.400000
145.064500 8160.400000
145.088600 14548.600000
146.059900 20929.600000
146.096400 12484.400000
147.067800 22443.700000
147.080400 55938.800000
148.075600 52387.200000
149.059700 28695.500000
150.091000 9719.000000
151.038700 19072.400000
152.046700 295094.300000
154.062100 5222.600000
155.073400 3539.900000
156.041600 19361.800000
156.080900 14280.400000
157.088400 14923.700000
158.059700 19008.500000
158.096200 5780.000000
159.067800 375149.300000
160.075500 160831.600000
161.059600 13500.200000
161.083400 65172.100000
162.091300 35846.700000
164.107000 10422.700000
166.086000 5017.200000
167.070100 93508.800000
170.060100 6811.900000
172.075700 40014.800000
173.083400 59554.900000
174.091300 1970882.800000
175.075000 12910.800000
175.094700 17525.900000
176.106900 12389.200000
178.086100 12412.800000
179.069600 4892.800000
182.096200 5761.600000
183.067300 7690.400000
184.036400 7592.400000
184.075600 24247.400000
185.083700 24796.100000
186.091200 69249.600000
187.099100 31816.700000
188.069500 5543.500000
188.106900 74023.600000
190.086200 18721.000000
192.101800 67586.700000
195.065200 1641639.500000
196.069000 10496.800000
197.083200 19287.400000
198.091100 38171.400000
199.086500 25885.000000
199.099100 19770.300000
200.106900 71239.900000
201.102400 17192.900000
204.101700 42750.300000
205.088400 5407.500000
210.091400 35383.100000
211.099400 16961.100000
212.094700 11220.300000
212.106700 26718.900000
213.101900 15335.500000
214.109900 21240.400000
215.117900 20221.400000
216.102000 3711.200000
219.104700 5790.300000
221.082700 7298.800000
222.091300 13789.200000
222.112500 3899.800000
223.098800 22876.700000
224.106900 48094.000000
224.127500 9316.100000
225.102500 8442.300000
225.115200 5565.600000
226.122500 17972.000000
227.117700 35424.400000
229.133800 4878.200000
230.097300 4019.800000
233.119800 3973.800000
234.091000 10818.500000
235.099300 10573.000000
236.093500 5264.800000
236.106700 32550.300000
236.127800 36197.700000
237.101900 17097.300000
237.114900 19854.200000
238.110100 11162.300000
238.122500 39275.900000
239.117800 26657.500000
239.130400 9433.100000
245.119200 4825.000000
246.090500 6380.200000
247.099200 14748.200000
248.106800 40389.300000
249.103000 3630.700000
249.114600 10497.100000
250.110200 9599.000000
250.122600 20688.100000
251.117700 66336.000000
252.125800 5895.200000
252.137200 4519.100000
253.133300 22233.600000
260.106600 21631.400000
261.114600 39934.300000
262.122300 48128.400000
263.130400 9636.500000
264.101600 14099.400000
264.125900 10662.000000
264.138300 12204.200000
265.133200 48747.900000
266.141900 10087.900000
267.148400 12862.800000
272.107200 5105.500000
273.114300 12130.900000
274.085900 6483.800000
274.122700 27780.000000
275.130900 8327.400000
276.102000 9168.300000
276.138000 48972.600000
278.117300 6122.100000
279.149500 6013.700000
288.137400 14033.500000
289.109800 6894.700000
290.117100 9052.900000
291.148600 13265.600000
294.149800 3849.400000
304.133600 14288.400000
305.164700 17577.600000
306.112100 7462.900000
333.159700 7635.900000
336.158600 13317.900000
350.162200 18354.000000
363.169000 6336.600000
365.185500 44613.100000
382.187900 7246.800000
395.196200 6466.300000
448.203800 6931.100000

>ms2peaks
53.038500 27957.000000
65.038600 15548.700000
66.046400 11747.100000
67.054200 11233.700000
70.065100 3385.800000
71.049000 5575.000000
75.044000 6424.500000
77.038600 62839.200000
78.046300 9803.700000
79.054200 81989.500000
80.049400 8913.700000
81.033400 90292.100000
81.069800 37575.900000
82.065000 3461.000000
83.049100 4562.200000
85.028400 3982.000000
91.054200 66006.200000
92.025500 9091.300000
92.049500 3247.800000
93.033600 5211.100000
93.057200 8321.400000
93.069900 5030.300000
94.041300 19430.200000
94.065100 26439.600000
95.049000 24555.500000
96.056900 56245.100000
97.064700 9704.200000
99.043900 5267.000000
101.059700 6033.300000
103.054100 17040.000000
105.033400 9093.800000
105.044700 24182.700000
105.069700 23244.900000
106.041200 7759.000000
106.065000 14516.000000
107.012700 9446.400000
107.049100 17538.700000
107.072900 4779.000000
108.056900 33984.600000
108.080600 9449.400000
109.028300 22046.100000
109.064700 87709.200000
111.044000 19746.900000
111.080300 16141.300000
113.023200 4059.200000
113.059700 16292.100000
115.054100 53544.800000
116.062000 16311.700000
117.057200 18709.100000
117.069800 19674.900000
118.065000 25665.200000
119.048900 5326.400000
119.072900 4686.600000
119.085900 4802.600000
120.080700 17083.500000
121.028300 19910.400000
121.064700 23378.400000
122.036200 88889.000000
122.072600 5818.300000
123.043900 7645.600000
123.080500 6451.400000
124.051800 88350.700000
128.062200 6915.000000
129.069900 13213.300000
130.065000 115736.200000
131.072900 379606.800000
132.044400 8191.800000
132.056800 12449.900000
132.080700 41971.500000
133.052200 8155.200000
133.064600 8446.200000
134.036100 9014.200000
134.060100 5521.800000
135.043800 6187.500000
135.080300 7246.800000
136.075500 10112.800000
137.023200 75840.700000
137.059200 7730.400000
139.075200 185730.800000
141.018600 3689.400000
142.065000 39902.000000
143.072900 288097.100000
144.056800 13031.500000
144.080600 68313.400000
145.052000 15788.900000
145.064500 5370.300000
145.088300 21088.800000
146.059900 48732.000000
146.096500 16027.700000
147.067600 28486.100000
147.080300 42937.100000
148.075500 29120.500000
149.059600 19130.900000
151.038800 53986.100000
152.046700 316908.000000
154.065600 11063.400000
155.060100 9354.600000
155.072800 12400.200000
156.041300 7144.100000
156.080600 14792.500000
157.088700 16811.300000
158.060000 43944.700000
158.096200 4632.000000
159.067800 529744.000000
160.075500 119509.200000
161.059600 4500.500000
161.083400 41711.000000
162.091100 14601.800000
164.106500 4349.000000
167.069700 31911.600000
168.080600 11844.800000
169.088500 9733.300000
170.060000 31828.400000
171.067800 8146.300000
172.075600 41063.800000
173.083400 75132.100000
174.091200 783277.900000
175.094800 7579.800000
180.080100 6111.000000
181.088700 12117.000000
182.059800 9817.100000
183.067600 11125.400000
184.036500 8315.700000
184.064000 3439.300000
184.075500 39531.300000
185.083300 27567.100000
186.091200 54777.900000
187.099000 15945.200000
188.069800 3926.200000
188.106700 18583.300000
192.081200 5309.700000
192.101700 8435.700000
193.088200 10386.200000
194.096500 8492.100000
195.065000 317613.400000
195.964600 2788.000000
196.075300 18394.700000
197.071100 3779.500000
197.083400 15646.700000
198.091400 27872.000000
199.086500 32332.200000
199.098800 6907.500000
200.106800 19457.000000
201.102100 6388.000000
204.080800 10953.300000
204.101800 4538.600000
205.088200 10157.500000
206.096500 11463.200000
207.104100 7710.500000
208.075100 13172.300000
208.099300 2867.200000
209.083000 12855.100000
210.091300 32929.400000
210.114500 3231.000000
211.085900 4427.100000
211.098900 12610.900000
212.094300 9659.300000
212.106600 9532.200000
213.102000 8020.300000
214.110000 4141.000000
215.118300 3934.500000
217.088600 8891.400000
218.096400 10568.700000
219.067700 3493.800000
219.104100 7645.000000
220.075900 11478.500000
221.083100 10691.200000
221.107200 5707.200000
222.091300 25579.100000
222.115200 4675.500000
223.085900 4851.200000
223.099000 14519.600000
224.106800 41336.600000
225.102700 7049.100000
226.121800 3468.300000
227.117500 16336.600000
230.096200 9141.000000
231.104200 11422.000000
232.075200 7758.500000
233.084000 10698.300000
234.091400 25239.600000
235.086100 4839.300000
235.098600 16084.600000
236.094700 16487.300000
236.106700 25094.400000
237.102000 15540.900000
237.114400 9385.500000
238.109700 7607.800000
238.122300 12925.500000
239.117600 15115.400000
242.095900 4911.700000
243.104000 4132.200000
244.112000 7350.000000
245.119500 5515.200000
246.091100 29256.200000
247.099100 20378.800000
248.106900 36625.600000
249.079000 6179.300000
249.102000 17880.100000
249.114600 8100.000000
250.087300 5713.400000
250.109700 16305.300000
250.122600 13582.800000
251.117700 54180.800000
253.133400 13954.300000
258.091200 11778.200000
259.098800 8199.400000
260.106900 28846.800000
261.114500 22438.700000
262.122300 32752.000000
264.102100 9936.800000
264.125200 5800.200000
265.133500 20871.900000
272.106700 9283.800000
273.114100 9447.400000
274.085100 5851.900000
274.122100 15977.100000
275.117500 6891.900000
276.101500 5227.000000
276.137500 9236.600000
278.117700 4490.800000
288.138400 4923.900000
289.108500 4851.600000
289.132400 5399.100000
291.149600 4691.000000
448.209100 4745.800000

>ms2peaks
53.038500 45269.500000
65.038600 20131.200000
66.046300 17638.000000
67.054200 16076.800000
71.049200 3970.500000
75.044200 3124.300000
77.038600 70434.700000
78.046400 15946.100000
79.054200 54880.200000
80.049300 8509.700000
81.033500 90191.300000
81.069900 20860.800000
82.064900 4506.200000
83.049000 3172.300000
85.028300 3236.700000
91.054200 64822.900000
92.025700 16275.200000
93.033500 3462.200000
93.057200 10140.100000
93.070100 2701.600000
94.041300 26337.800000
94.065100 22601.900000
95.049100 31906.300000
96.057000 45819.900000
97.064500 3661.700000
99.044300 4507.900000
101.059700 3852.700000
103.054200 21822.300000
104.062200 7646.400000
105.033400 9054.600000
105.044700 37941.500000
105.057100 7584.800000
105.069900 16233.000000
106.041300 4543.100000
106.065100 11824.300000
107.012700 24998.400000
107.049200 14448.100000
107.072800 5469.700000
108.057000 31754.600000
108.080600 5959.400000
109.028400 42720.200000
109.064800 44239.600000
111.044100 11130.600000
111.080600 5609.200000
113.059800 8134.900000
115.054200 74927.700000
116.049400 5207.800000
116.062100 16390.900000
117.057300 49008.000000
117.069800 22055.200000
118.065100 23394.900000
119.049000 7027.900000
119.073200 3533.800000
120.080600 8336.000000
121.028400 36631.200000
121.064800 15892.000000
122.036200 81791.800000
122.072900 4790.300000
123.043900 11969.800000
124.051900 44406.900000
128.062100 12093.900000
129.069900 13185.800000
130.065100 191451.600000
131.072900 506647.400000
132.044400 21686.000000
132.057100 13791.600000
132.080700 28854.100000
133.052200 7313.500000
133.064700 5368.100000
134.036200 8911.200000
134.060200 5776.400000
135.043800 4715.400000
135.080400 4822.900000
136.075500 5768.400000
137.023300 108612.700000
139.075300 56913.500000
142.065100 42161.500000
143.072900 266579.700000
144.056800 9898.900000
144.080700 60367.600000
145.052200 29065.400000
145.064800 7050.400000
145.088600 18987.400000
146.060000 65307.100000
146.096100 4046.900000
147.067900 21785.400000
147.080500 18631.500000
148.075600 13500.900000
149.059300 2628.100000
151.038900 81858.300000
152.046700 149264.600000
154.065100 25481.900000
155.060300 9643.800000
155.073000 18233.500000
156.080700 18566.900000
157.088600 17182.000000
158.060000 64307.900000
159.067800 391442.600000
160.075500 64313.400000
161.083500 11796.900000
162.091300 6832.600000
167.073500 18446.300000
168.080700 24967.200000
169.052300 3393.600000
169.088700 4818.700000
170.060000 50287.400000
171.067900 13308.000000
172.075600 41867.000000
173.083500 48202.600000
174.091200 233943.300000
180.080600 19700.900000
181.088600 14760.300000
182.059900 15532.900000
182.096300 4986.900000
183.067800 18938.800000
184.036800 4349.000000
184.063000 2978.900000
184.075600 32873.900000
184.099600 4982.600000
185.083600 14934.900000
186.091100 18175.900000
187.099200 3709.900000
188.106700 4483.900000
191.072700 5267.900000
192.080700 14826.500000
193.088300 13149.700000
194.096300 11503.500000
195.065000 30839.600000
195.959300 3790.700000
196.075700 21115.400000
197.071400 3835.100000
197.083400 11925.800000
198.091200 17660.000000
199.086600 18750.400000
204.080800 22506.600000
205.088300 19144.800000
206.096200 9833.000000
207.103900 5952.800000
208.075700 21476.300000
208.099300 8248.500000
209.083400 7707.400000
210.091200 21411.300000
211.086300 5797.400000
211.098600 4534.600000
212.094200 7742.500000
213.102200 6764.400000
217.088500 20726.700000
218.096300 32126.100000
219.068100 3295.800000
219.104600 11001.000000
220.075500 19467.900000
220.111900 4233.800000
221.083600 12658.500000
221.107500 8166.000000
222.091400 25160.600000
222.115800 3056.200000
223.086100 9466.600000
223.099400 11352.400000
224.106700 17151.500000
225.102700 4029.000000
230.096200 18985.700000
231.103800 7677.300000
232.075500 14723.000000
233.083700 10845.000000
233.120200 4656.600000
234.091200 20165.400000
235.086200 7077.600000
235.099500 9057.900000
236.094400 25736.400000
236.107100 16174.500000
237.102800 6894.300000
237.114000 4195.200000
238.110400 5163.000000
239.117900 7312.000000
242.096700 5611.700000
243.105000 3863.000000
244.111500 7423.300000
245.083900 4602.600000
245.119200 5476.500000
246.091300 27462.800000
247.099200 16061.800000
248.106900 15352.400000
249.078700 4684.500000
249.101900 14940.800000
249.114900 2147.400000
250.110100 10896.400000
250.122200 3445.000000
251.117700 21036.100000
258.091300 9370.200000
259.100100 4195.000000
260.106800 19229.600000
261.113900 7280.100000
262.122300 14829.700000
264.101200 4379.400000
273.114400 3133.300000
274.122200 3615.400000
275.118500 2912.200000
278.117500 3589.300000
289.133300 4155.500000
291.148900 2729.700000
397.223500 6369.800000

