>compound EA04078214
>parentmass 207.14919999999998
>ionization [M+H]+
>formula C12H18N2O
>rt 522.000000
>profile orbitrap
#smiles_iso CC(C)C1=CC=C(C=C1)NC(=O)N(C)C
#smiles_can CC(C)C1=CC=C(C=C1)NC(=O)N(C)C
#inchikey PUIYMUZLKQOUOZ-UHFFFAOYSA-N
#pubchem_id 36679
#mb_accession EA028602,EA028603,EA028604,EA028605,EA028606,EA028607,EA028608,EA028609,EA028610,EA028611,EA028612,EA028613

>ms2
72.044200 266129.200000
165.101700 64361.600000
207.149100 10081784.400000

>ms2
72.044300 1457596.500000
120.044300 10784.400000
162.090600 20443.000000
165.102100 743590.100000
207.149100 7205433.400000

>ms2
56.013200 14337.600000
72.044400 3151767.400000
120.044000 14192.700000
134.096400 126726.900000
162.091500 93687.100000
165.102200 1142104.000000
207.148700 1537278.800000

>ms2
72.044400 3538735.000000
91.054100 16515.900000
92.049400 18040.000000
107.085400 30093.600000
117.069800 15128.000000
119.072400 12313.100000
120.044300 42662.200000
134.096300 387949.300000
147.091800 33838.900000
162.091400 57960.800000
165.102100 396548.900000

>ms2
72.044400 3525280.000000
77.038600 13326.200000
91.054300 95186.900000
92.049400 36287.000000
93.069800 19244.900000
94.065400 11010.600000
107.085400 69626.700000
117.069700 36173.700000
119.072500 38495.700000
120.044500 42951.600000
134.096400 350032.300000
147.091800 42257.400000
165.101500 29335.800000

>ms2
56.012900 11014.100000
72.044400 3248586.700000
77.038500 25326.500000
91.054200 166282.800000
92.049400 26881.400000
93.069600 12340.100000
103.053900 12500.900000
105.069600 16660.600000
107.085400 94147.900000
117.069400 45308.100000
118.065300 14938.300000
119.073000 77029.000000
120.044300 19733.700000
134.096400 180739.200000
147.091700 18002.100000

>ms2
72.044300 299893.000000
165.102000 74650.000000
207.149100 10742914.300000

>ms2
72.044300 1470987.000000
162.091100 20939.800000
165.102100 745138.200000
207.149100 7418611.900000

>ms2
56.013100 10899.100000
72.044400 3064065.200000
107.085700 8276.800000
120.044300 20048.600000
134.096400 139207.000000
162.091300 83893.500000
165.102200 1140099.000000
207.149200 1691075.400000

>ms2
72.044400 3172280.000000
91.054300 15876.700000
92.049500 18095.800000
93.070000 8573.800000
107.085400 29003.600000
117.069700 13089.200000
119.073000 9691.800000
120.044300 34832.200000
134.096300 308886.000000
147.091700 39093.900000
162.091300 56575.400000
165.102200 334347.300000
207.149200 138068.800000

>ms2
56.013000 7180.800000
72.044400 2885187.500000
77.038600 12499.600000
91.054100 82225.300000
92.049400 19439.300000
93.069900 14504.400000
94.064700 5314.500000
106.065400 8736.500000
107.085500 53920.400000
117.069700 33034.300000
119.072900 39290.400000
120.044300 30870.800000
134.096300 313363.400000
147.091600 37181.700000
162.091100 8595.600000
165.102000 33639.700000

>ms2
56.013000 10102.900000
72.044400 2534411.400000
77.038500 13404.700000
91.054200 126189.200000
92.049400 24564.400000
93.069900 7151.200000
103.054200 5157.700000
105.069800 7754.600000
106.065000 11494.800000
107.085500 61850.800000
117.069800 29931.400000
118.065000 14539.400000
119.072900 59229.900000
120.044300 21308.400000
134.096300 143522.800000
147.091600 13812.400000
162.091600 4432.600000

