>compound EA04965030
>parentmass 444.13209999999987
>ionization [M+H]+
>formula C22H22ClN3O5
>rt 900.000000
>profile orbitrap
#smiles_iso CC(C(=O)OCCON=C(C)C)OC1=CC=C(C=C1)OC2=CN=C3C=C(C=CC3=N2)Cl
#smiles_can CC(C(=O)OCCON=C(C)C)OC1=CC=C(C=C1)OC2=CN=C3C=C(C=CC3=N2)Cl
#inchikey FROBCXTULYFHEJ-UHFFFAOYSA-N
#pubchem_id 86122
#mb_accession EA012202,EA012203,EA012204,EA012205,EA012206,EA012207,EA012208,EA012209,EA012210,EA012211,EA012212,EA012213

>ms2
56.049400 29195.700000
70.065100 19653.700000
100.075600 185102.100000
144.102000 17186.800000
299.057500 15151.600000
371.078600 71738.000000
444.131100 403544.800000

>ms2
56.049400 100081.100000
70.065100 57235.000000
91.054300 5661.900000
99.043900 11884.500000
100.051600 26908.900000
100.075700 396658.100000
118.086100 5775.400000
119.049600 3272.300000
144.101500 4486.100000
191.070000 9681.000000
192.077200 9460.900000
243.032200 4936.100000
271.062700 19581.600000
283.064000 4124.600000
299.057800 246334.600000
327.052700 75642.700000
371.078400 74434.700000

>ms2
56.049400 104562.400000
70.065100 93792.300000
91.054200 56288.600000
99.044000 19720.700000
100.051800 63149.700000
100.075700 252374.900000
119.048900 8908.200000
120.057400 3048.900000
147.043800 6031.200000
163.006100 5823.100000
181.015900 13661.900000
192.077900 19406.000000
236.094100 13952.200000
243.031500 28716.100000
243.068200 39747.700000
253.052800 12035.200000
255.031900 35983.800000
256.038700 4066.800000
271.062900 82930.100000
285.042300 18485.600000
299.057700 121172.400000
327.053100 19860.600000

>ms2
56.049400 122698.900000
65.038400 2694.800000
70.065100 128755.600000
91.054200 70228.100000
99.044000 22873.700000
100.051800 54256.300000
100.075700 127233.800000
119.049000 14687.200000
120.056800 7477.700000
133.064600 7162.200000
147.044500 6374.000000
163.005800 46018.900000
165.021500 4108.700000
179.001200 4321.600000
181.016100 29173.000000
192.068400 10663.500000
193.075500 4066.300000
207.091800 8689.800000
208.063200 5971.800000
208.099200 7683.800000
215.036700 8167.700000
227.035600 4842.700000
228.044200 11082.300000
229.052000 4145.100000
236.093800 3124.100000
243.032100 22287.100000
243.068200 37338.200000
253.052800 16595.400000
255.031800 116687.900000
256.039700 10908.800000
271.063100 22790.000000
285.042100 43219.100000
299.057200 19388.600000

>ms2
56.049400 102112.200000
65.038700 8163.800000
70.065100 143200.500000
91.054200 54607.400000
99.044000 31601.100000
100.051900 39961.600000
100.075700 49141.300000
119.048900 6742.200000
126.010900 3163.900000
147.043900 5177.700000
163.005800 87720.300000
164.001200 15371.000000
165.021900 4034.000000
165.057200 4778.100000
179.000700 3392.300000
181.016200 26724.100000
191.060100 2797.600000
192.068200 72335.100000
193.075900 7494.600000
200.024900 2844.300000
207.092000 6409.400000
208.062700 4751.600000
208.099800 5355.300000
215.037500 14085.900000
218.083700 4586.200000
227.037300 11932.400000
228.044900 12735.600000
229.051800 7697.900000
243.031900 5390.800000
243.068000 9989.100000
253.052000 5435.100000
255.031800 85505.500000
257.047200 30500.400000
285.042100 17786.200000

>ms2
56.049400 79536.000000
65.038500 13614.400000
70.065000 110034.700000
77.038600 8670.400000
91.054100 41712.300000
99.043900 30854.000000
100.018000 4469.800000
100.051800 19816.600000
100.075700 12337.700000
119.048900 3819.500000
123.994800 2706.400000
126.010200 4656.700000
163.005600 100291.900000
164.000800 49744.200000
164.049200 11592.600000
165.021900 3007.700000
165.057200 18670.800000
179.059600 5836.200000
180.068900 4055.900000
181.015700 18960.900000
191.059900 11361.500000
192.068000 105692.200000
194.084600 3517.100000
207.091300 9341.900000
208.063000 5770.200000
215.037300 10427.900000
226.029400 10595.100000
227.036600 9029.300000
228.044500 4682.700000
229.053300 6557.200000
255.031500 22241.500000
257.046900 14493.800000

>ms2
56.049400 31559.000000
70.065100 20796.100000
100.075700 222837.500000
118.086700 2304.600000
144.101900 19119.600000
299.058000 18975.400000
327.053000 2371.400000
371.078800 76276.900000
444.131200 454026.900000

>ms2
56.049400 83961.900000
70.065100 56662.400000
91.054200 4222.500000
99.044000 10076.700000
100.051800 22494.900000
100.075700 430940.600000
118.086300 8111.100000
119.049200 2794.300000
144.101500 7142.600000
191.070400 10802.000000
192.078100 6771.000000
243.031700 5244.600000
243.068400 3291.900000
271.063000 18585.500000
283.063300 4408.600000
299.057900 273649.000000
327.052700 68059.800000
371.078800 70162.600000

>ms2
56.049400 95194.700000
70.065100 82121.000000
91.054200 48258.500000
99.044000 20069.900000
100.051800 55142.800000
100.075700 233993.500000
118.086300 2534.500000
119.049000 9694.700000
120.057000 2368.700000
133.064300 2546.200000
147.044100 6847.400000
163.005500 7888.000000
181.016200 13039.400000
191.070000 6979.400000
192.077900 11941.900000
207.091600 3780.300000
208.100200 3146.600000
235.086600 3327.100000
236.094100 14513.200000
243.031800 22394.800000
243.068200 38246.000000
253.052300 6694.300000
255.031600 31193.000000
256.039600 6422.300000
271.062900 70332.600000
283.063200 2956.800000
285.042400 20817.400000
299.057800 116510.400000
327.052700 15949.600000
353.106900 1849.000000

>ms2
56.049400 94119.800000
65.038600 3204.000000
70.065100 104422.400000
91.054200 59846.000000
99.044000 20604.300000
100.051800 45004.000000
100.075700 104544.600000
119.049100 11054.700000
120.056700 3948.900000
133.064700 4136.700000
147.044000 5401.400000
163.005700 39211.400000
164.012800 1979.000000
165.021800 2163.000000
179.000700 3658.800000
181.016300 24797.400000
191.070200 2652.900000
192.068000 9971.300000
192.078700 3549.100000
193.076300 5676.400000
207.091400 7834.300000
208.063200 4099.700000
208.099400 6347.100000
215.037200 6944.200000
218.084100 4916.300000
227.037600 4094.400000
228.044500 5201.200000
229.052500 3504.400000
235.086000 3639.300000
243.031600 19632.500000
243.068200 28616.000000
253.052400 10834.100000
255.031700 97903.300000
256.039400 5410.700000
257.047100 13483.800000
271.063000 21792.400000
285.042200 32389.600000
299.058000 15498.500000

>ms2
56.049400 75822.400000
65.038500 7460.600000
70.065100 116044.900000
91.054200 45810.600000
99.044000 19448.600000
100.051800 29930.300000
100.075600 41336.800000
119.049300 4563.300000
126.010500 2525.600000
133.064800 3458.400000
147.043800 2941.200000
163.005600 72230.600000
165.021600 4189.800000
165.057400 2550.800000
179.001000 3797.000000
180.068300 2561.100000
181.016200 24601.300000
189.020400 2247.200000
192.068100 50650.100000
193.076100 4474.000000
202.028800 2386.100000
207.091200 7473.800000
208.063100 7642.000000
215.036700 13198.900000
218.084300 2796.300000
226.030000 3236.600000
227.037200 6020.500000
228.044500 11557.300000
229.052400 4579.500000
243.032000 4930.400000
243.067800 3769.800000
253.051200 4649.500000
255.031700 69917.200000
256.039400 2754.400000
257.047100 22809.400000
285.042100 12480.500000

>ms2
56.049400 47524.600000
65.038500 7415.700000
70.065100 74588.000000
77.038600 3121.200000
91.054200 29032.100000
99.044000 23690.800000
100.018200 3077.100000
100.051800 12768.200000
100.075700 8502.400000
119.049100 1572.100000
120.056800 1834.700000
123.994600 1961.700000
126.010400 2346.000000
163.005700 65754.600000
164.000900 33075.700000
164.013200 2671.300000
164.049500 6540.300000
165.021200 2766.400000
165.057200 14121.000000
179.000300 1787.500000
179.060100 3890.500000
180.068000 3867.800000
181.016200 10206.800000
189.021100 1633.500000
191.060200 6000.000000
192.068100 61584.100000
193.075900 4898.700000
194.083800 2802.500000
200.026100 3375.100000
202.028800 1793.600000
207.091500 8427.500000
208.063200 2590.000000
215.036700 4360.000000
226.028900 6466.000000
227.036700 7131.700000
228.044700 3970.700000
229.052200 3897.400000
243.067800 1530.900000
255.031700 12104.200000
257.047300 9284.500000

