>compound EA05919537
>parentmass 300.1594
>ionization [M+H]+
>formula C18H21NO3
>rt 168.000000
>profile orbitrap
#smiles_iso CN1CC[C@]23[C@@H]4[C@H]1CC5=C2C(=C(C=C5)OC)O[C@H]3[C@H](C=C4)O
#smiles_can CN1CCC23C4C1CC5=C2C(=C(C=C5)OC)OC3C(C=C4)O
#inchikey OROGSEYTTFOCAN-DNJOTXNNSA-N
#pubchem_id 5284371
#mb_accession EA278002,EA278003,EA278004,EA278005,EA278006,EA278007,EA278008,EA278009,EA278010,EA278011,EA278012,EA278013

>ms2peaks
300.159300 61173875.400000

>ms2peaks
215.107100 227012.100000
243.101500 410586.800000
282.148600 237364.000000
300.159200 60204315.000000

>ms2peaks
58.065200 371211.600000
121.064300 50616.500000
137.059600 178885.300000
155.085800 109773.500000
159.080400 157014.600000
161.059800 428030.900000
165.070100 164817.100000
171.080500 57542.400000
174.067900 42799.700000
175.075600 202461.000000
179.093400 57344.000000
181.064800 216363.300000
181.101700 38076.400000
183.080500 889708.200000
185.060300 79856.500000
186.068400 65701.400000
187.075400 637273.100000
187.111800 158515.900000
191.085700 122865.300000
192.102100 122459.000000
193.064800 465787.300000
193.100900 55190.400000
194.072900 81439.700000
195.081000 57492.000000
197.096100 165452.800000
198.067400 41493.200000
199.075400 1120976.800000
200.083400 123798.500000
201.091100 145056.900000
207.081000 61670.600000
209.059500 293228.900000
209.095800 161070.300000
211.075100 220298.200000
212.083400 88030.400000
213.091300 303198.500000
215.106700 3633672.600000
219.080500 165668.000000
220.088800 44497.800000
221.096600 229368.900000
223.075500 186217.700000
225.090900 1502986.200000
229.109900 39495.900000
230.117400 52420.600000
236.083100 84000.000000
237.091800 78092.800000
238.098500 75466.700000
241.085800 660719.200000
241.122300 130694.200000
243.101500 2958149.800000
251.106700 269269.500000
253.122200 281185.000000
266.117400 105514.600000
267.125400 270491.400000
269.116800 152698.900000
272.127300 43703.100000
282.148900 1160869.100000
285.135600 84836.000000
300.159500 36801533.400000

>ms2peaks
58.065100 608314.200000
69.033500 51331.300000
71.049100 23841.400000
81.033600 34759.300000
83.049000 29316.300000
91.054100 39705.300000
93.069800 57297.500000
95.049200 28316.700000
103.054300 23636.900000
121.064800 195713.700000
129.070100 38278.000000
131.049100 42775.500000
132.080700 35182.500000
137.059900 426362.400000
141.070100 148219.000000
143.049100 59183.500000
144.057100 215692.400000
145.064900 76021.400000
146.060600 51691.700000
147.080400 35319.900000
149.060100 33662.300000
151.075000 55230.300000
152.062300 32296.000000
153.069900 391442.800000
154.077700 51017.300000
155.085600 755768.800000
156.056900 110852.100000
157.065300 79556.400000
158.072700 170644.500000
159.080500 657422.900000
160.075600 62261.400000
161.059800 1043753.500000
162.091500 41487.300000
163.075200 39322.500000
164.069900 27019.100000
165.070000 1267686.700000
166.077900 96934.200000
167.085900 170310.500000
168.057100 274394.300000
169.065300 114757.000000
171.080500 674173.400000
172.052000 173984.600000
172.088500 201112.000000
173.060000 40662.000000
173.096100 110253.900000
174.067600 190009.700000
175.075400 297613.200000
177.070200 70703.900000
181.064800 1174916.300000
181.102000 222387.700000
182.072800 303516.300000
183.080600 2063869.900000
184.051700 51685.600000
184.088400 102283.200000
185.059900 300232.700000
185.096600 164308.200000
186.067600 311850.600000
187.075500 1113975.200000
187.111900 423507.700000
189.091800 58318.400000
191.085500 403705.400000
192.102000 192635.900000
193.065200 868025.300000
193.101200 156368.000000
194.072700 583227.500000
195.080500 285394.800000
196.087800 36301.200000
197.059400 89154.700000
197.096100 420704.600000
198.067600 318155.800000
198.104000 34251.700000
199.075400 2940821.300000
200.083300 420456.500000
201.091100 269723.000000
202.077800 32984.600000
203.084900 63725.400000
205.064400 60409.100000
206.072300 24387.400000
207.080600 234141.000000
208.088500 119408.600000
209.059800 693525.300000
209.096400 283697.500000
210.067800 285230.900000
210.104600 54533.400000
211.075400 456944.700000
212.083200 354352.100000
213.091100 799057.500000
214.098200 64591.900000
215.106700 3742662.600000
219.080700 265924.800000
220.088600 150982.600000
221.060000 78524.700000
221.095900 253595.700000
222.104000 25587.600000
222.128000 28746.500000
223.075500 527292.000000
223.112000 45746.000000
224.083000 74985.400000
225.091000 2267063.800000
226.063000 29048.300000
226.098100 86731.000000
227.070200 83062.300000
227.107400 59312.000000
228.077200 83793.400000
228.101900 63106.100000
229.110500 33154.100000
230.116800 34327.200000
236.083800 201340.500000
237.091000 119083.900000
238.098000 133539.200000
239.106200 119179.900000
241.086000 1539229.500000
241.123200 117023.700000
243.101700 1675043.700000
250.122800 121320.200000
251.106500 297585.500000
252.101200 78566.200000
253.122200 205766.900000
254.117500 48896.700000
266.117800 361716.600000
267.125600 278642.200000
269.117400 101478.600000
272.127900 28836.700000
282.149100 529074.400000
285.136200 77146.400000
300.159900 7357139.100000

>ms2peaks
57.033300 41254.200000
58.065100 372155.300000
67.054100 34415.000000
69.033600 77046.300000
71.049300 26119.900000
79.054300 71059.800000
81.033500 61916.900000
83.049100 62186.600000
91.054200 129602.800000
93.069800 49319.900000
95.049100 46477.800000
103.054400 104347.300000
105.069500 59446.100000
107.048800 25216.200000
115.054000 194943.000000
117.069500 41236.800000
121.064800 167717.200000
122.036400 30099.400000
128.062100 227284.100000
129.069900 199759.600000
131.049200 68751.500000
131.085300 48557.900000
132.080600 23635.200000
137.059700 466815.800000
141.069800 594491.600000
142.078200 73266.700000
143.049400 75237.500000
143.086100 53374.200000
144.056900 581467.100000
145.064600 113526.900000
146.060500 23677.900000
146.072800 37096.800000
147.080100 49716.400000
152.061800 215071.600000
153.069800 1645442.700000
154.077800 322348.000000
155.049400 144855.300000
155.060100 82751.200000
155.085500 1499509.700000
156.057000 381083.300000
157.064600 196825.100000
158.072400 412068.700000
159.043900 116547.700000
159.080300 616392.200000
160.075700 61850.900000
161.059600 1097160.800000
162.091800 23862.000000
163.075200 30399.400000
164.071200 34198.500000
165.069900 2503649.800000
166.077900 328992.100000
167.085600 252396.400000
168.057000 519083.800000
169.064900 234413.200000
169.100900 41890.500000
170.072600 247737.600000
171.043900 124022.700000
171.080400 1594905.200000
172.051900 243432.000000
172.088400 332444.100000
173.059400 74957.200000
173.096500 129490.900000
174.067400 234975.900000
175.075200 227678.000000
177.070100 101904.600000
178.077600 231227.100000
179.085700 264242.500000
180.056600 135524.900000
181.064800 1948245.300000
182.072600 670223.200000
183.043400 188840.500000
183.080400 1221991.300000
184.051700 225006.500000
184.088200 138594.800000
185.059600 713179.100000
185.096300 242248.100000
186.067600 355657.400000
187.075400 611574.500000
187.111800 220827.100000
189.070200 54498.800000
190.077700 150154.200000
191.085500 420958.800000
193.065600 631725.700000
193.101000 90250.000000
194.072600 817522.900000
195.080400 307287.100000
196.052500 35102.100000
196.087600 49071.400000
197.059600 359878.800000
197.096000 270604.900000
198.067500 796226.000000
199.075300 2172198.500000
200.082900 426491.200000
201.055500 53070.900000
201.090300 132287.400000
202.077900 46708.500000
203.085700 41693.400000
205.064500 103566.200000
207.080100 137840.400000
208.051700 96428.900000
208.088300 144100.800000
209.059600 565940.600000
209.096300 139056.300000
210.067500 536672.400000
210.103600 30308.200000
211.075300 357375.800000
212.082800 402721.200000
213.054200 50432.700000
213.090900 569346.500000
215.106400 983952.200000
216.100900 28007.300000
218.071900 75420.700000
219.080400 207940.000000
220.087600 129769.800000
220.111500 96729.900000
221.059800 153777.500000
221.096000 108234.500000
222.128000 39878.200000
223.075300 571653.800000
224.083100 83112.200000
225.090800 904229.700000
226.062600 106695.900000
226.099000 43407.100000
227.069800 51691.300000
228.078400 45661.000000
228.102200 46316.500000
235.075900 80960.600000
236.083100 152473.000000
237.091100 44305.800000
238.098300 61421.300000
239.070400 39098.300000
239.106600 47032.400000
241.085900 804738.400000
241.122400 43793.800000
243.101800 281855.500000
250.122600 85431.000000
252.102000 68242.500000
266.117500 250988.400000
267.125200 66669.600000
282.147700 66525.200000

>ms2peaks
55.017700 43269.700000
57.033500 56065.600000
58.065100 206437.500000
69.033500 48671.000000
79.054000 58371.300000
81.033700 56254.600000
83.048900 51190.800000
91.054100 213493.000000
93.069700 33584.000000
94.041200 27391.700000
103.054200 172969.600000
105.069600 76812.400000
107.049300 71096.800000
115.054100 587605.900000
116.062300 91360.800000
117.069700 84418.100000
121.064800 117402.200000
122.036300 70781.800000
127.054700 37276.000000
128.062000 866556.600000
129.069900 460858.500000
131.049100 161575.200000
137.059500 266557.600000
139.054400 62644.700000
140.062100 54200.200000
141.069700 1102695.900000
142.077700 196224.400000
143.049400 158926.700000
144.056800 834459.300000
145.064600 161129.300000
146.036000 133400.500000
146.072100 40506.900000
151.053900 46166.300000
152.062000 1142284.300000
153.069800 2890070.500000
154.077700 570064.200000
155.049200 381019.300000
155.060100 217800.100000
155.085500 1067065.100000
156.056900 647399.700000
157.064900 314883.600000
158.072700 433958.200000
159.043900 209532.600000
159.080600 256194.000000
160.052300 47580.000000
160.075500 33903.400000
161.059700 894926.600000
165.069800 3194276.500000
166.077600 544008.100000
167.085600 208128.100000
168.056900 720955.900000
169.064900 607803.800000
170.036100 88165.600000
170.072600 348158.000000
171.044300 283382.400000
171.080400 1506582.500000
172.051700 209218.500000
172.088400 252650.600000
173.059900 98253.400000
173.095900 61882.300000
174.067800 102539.200000
175.075500 96629.300000
177.069800 96944.100000
178.077800 291629.800000
179.085500 263909.200000
180.056900 194745.900000
180.093500 56929.700000
181.064700 1850348.400000
182.072500 693156.000000
183.043700 749637.100000
183.080500 558394.100000
184.051700 338204.100000
184.088800 57977.600000
185.059500 756024.000000
185.096100 141043.000000
186.067200 166703.000000
187.075200 182910.800000
187.111000 41642.600000
189.070100 188464.400000
190.077500 234338.000000
191.085500 280137.000000
193.065100 440205.600000
194.072500 524543.300000
195.080400 281735.900000
196.052000 62275.000000
197.059700 765530.000000
197.096500 105019.500000
198.067400 769187.100000
199.075300 927895.300000
200.083000 189838.500000
202.077400 83080.100000
205.064500 129924.500000
207.080100 155091.800000
208.051800 171108.400000
208.088000 91591.200000
209.059600 381415.100000
209.096600 64482.100000
210.067700 400121.900000
211.075300 236117.600000
212.082900 189318.200000
213.054000 39881.400000
213.090500 194333.300000
218.071900 52051.200000
219.080900 119324.500000
220.111800 118556.000000
221.059700 162771.700000
223.075400 340104.400000
224.082800 47268.000000
225.090900 236761.200000
235.076300 64630.400000
236.083900 59203.200000
241.085600 142298.400000
248.106800 68079.100000
266.116600 88542.500000

>ms2peaks
300.159100 53298238.500000

>ms2peaks
215.106600 141554.500000
225.090400 51159.800000
243.101400 263883.100000
282.149000 160723.600000
300.159200 50181746.600000

>ms2peaks
58.065100 278389.300000
121.064900 37424.400000
137.059700 132331.800000
155.085500 61096.800000
159.080400 113480.500000
161.059700 336735.000000
162.091000 29576.900000
165.070000 121923.700000
171.080200 71003.300000
174.067500 32375.300000
175.075300 123559.100000
179.094200 43245.400000
181.064800 173759.900000
181.101400 29590.900000
183.080400 666341.600000
185.060100 57513.800000
187.075300 475309.700000
187.111700 130737.200000
191.085400 116209.200000
192.101900 111904.800000
193.064600 355202.400000
193.101400 52288.300000
194.072800 84900.400000
195.080100 43057.200000
197.096000 129875.500000
198.067700 37669.000000
199.075400 841112.900000
200.083200 93170.700000
201.090900 98899.800000
207.080200 69432.100000
209.059700 201265.900000
209.095800 109114.100000
211.075200 173683.000000
212.083200 74181.600000
213.091000 240742.900000
215.106600 2799302.100000
219.080300 116448.800000
220.088900 34319.300000
221.096000 148327.500000
223.075300 123711.400000
225.090900 1223083.800000
236.083400 70123.900000
237.091100 60328.800000
238.099000 51130.600000
239.106800 61532.600000
241.085900 531321.700000
241.122400 100870.900000
243.101500 2308063.100000
250.123000 39968.100000
251.106600 241514.800000
253.122400 234075.100000
266.117200 107008.500000
267.125200 182169.900000
269.117100 103437.900000
282.148800 899911.600000
285.135700 45358.000000
300.159300 28955677.100000

>ms2peaks
58.065100 477968.200000
69.033500 44416.500000
79.054300 35670.100000
81.033200 22197.900000
83.049200 30724.600000
91.054100 29425.900000
93.070000 44107.100000
103.054100 30687.900000
115.053800 36981.200000
121.064800 91527.000000
129.069800 34684.100000
131.048900 39821.000000
137.059600 354334.800000
141.069800 99770.400000
143.049200 68969.000000
144.057000 186095.300000
144.080600 27225.400000
145.064700 66847.300000
146.060100 26052.300000
149.059200 20148.900000
151.075000 22282.400000
153.069800 335009.700000
154.077700 39867.400000
155.085400 653461.600000
156.056800 48221.900000
157.064700 67273.800000
158.072400 94727.800000
159.080300 596341.100000
160.075400 36519.700000
161.059600 845847.900000
162.090800 38251.800000
163.075000 49615.800000
164.070700 48629.000000
165.069800 927038.100000
166.077800 94540.600000
167.085600 119510.400000
168.056900 207560.100000
169.064600 81365.000000
169.101200 34026.500000
170.072500 36267.600000
171.080400 580925.500000
172.051900 153848.300000
172.088100 124916.000000
173.059300 27273.100000
173.095800 101430.000000
174.067200 140441.000000
175.075200 196400.200000
177.055000 37755.100000
177.069800 43297.700000
177.077800 25993.800000
178.077500 42826.000000
178.085700 25833.700000
179.085400 121360.800000
180.101400 40732.200000
181.064700 982084.900000
181.101200 151978.700000
182.072400 225354.800000
183.080400 1777434.400000
184.051700 50237.300000
184.088100 85380.600000
185.059600 257387.100000
185.096000 135067.000000
186.067500 207088.700000
187.075200 921293.500000
187.111700 344555.300000
189.090700 37545.600000
190.077300 37469.200000
191.085500 324165.500000
192.101800 80804.300000
193.064700 684149.500000
193.075700 57348.700000
193.101100 109817.600000
194.072600 487664.400000
195.080400 183061.000000
196.087700 37031.600000
197.059800 79871.000000
197.096000 338703.300000
198.067400 269626.300000
198.103500 52656.400000
199.075200 2298393.000000
200.083000 358301.100000
201.054300 29299.800000
201.090800 238962.900000
203.084800 45083.100000
205.065000 29778.200000
207.080400 145336.900000
208.088300 104393.100000
209.059600 538217.000000
209.096100 244761.600000
210.067400 292735.800000
211.075200 321130.000000
212.082900 233113.100000
213.090900 648275.600000
214.098200 40738.300000
215.106500 2988517.900000
218.071800 23801.600000
219.080300 247935.000000
220.088200 148294.900000
221.059900 87954.500000
221.095900 246450.400000
223.075300 424901.700000
223.112000 42309.400000
224.083400 47105.700000
225.090900 1866137.200000
226.061300 33438.400000
226.098300 44928.900000
227.070100 44678.400000
227.106700 29094.100000
228.077300 60361.100000
228.101300 36725.000000
230.117000 22883.800000
235.074700 36511.000000
236.082900 194841.800000
237.091000 84654.600000
238.098600 107002.200000
239.070000 27470.700000
239.106700 89963.100000
241.085800 1296808.000000
241.122000 97800.500000
243.101400 1378827.100000
250.122300 68473.400000
251.106400 223810.100000
251.130900 43583.500000
252.101300 59833.500000
253.122100 178525.100000
254.094100 28928.700000
256.133500 30352.600000
266.117400 330099.200000
267.125000 231123.900000
269.117200 78576.300000
272.127800 26494.800000
282.148800 452107.900000
285.136300 78581.300000
300.159100 5836649.800000

>ms2peaks
55.017700 22412.300000
58.065100 252961.100000
67.054200 34878.000000
69.033400 52883.100000
71.049300 17196.700000
79.054100 34425.800000
81.033500 24135.900000
83.049100 40737.600000
91.054100 105571.700000
93.069800 53995.600000
94.065300 14537.500000
95.049200 24523.600000
103.054200 64049.600000
105.069900 31233.200000
107.048900 31546.600000
115.054100 129176.900000
117.069800 30131.100000
121.064700 133018.900000
128.061900 132239.800000
129.070000 142780.500000
131.049100 51531.100000
131.085300 34134.900000
132.080900 17057.200000
137.059700 336831.600000
141.069900 396652.700000
142.077600 43718.400000
143.049000 73846.500000
143.085700 45202.300000
144.056900 412991.800000
144.081000 23759.300000
145.064700 128697.100000
146.059900 22953.500000
146.072300 28937.200000
147.080700 46661.100000
149.059600 34073.900000
151.075500 21033.100000
152.062100 150771.900000
153.069800 1221273.600000
154.077600 210488.200000
155.049100 94457.100000
155.060500 58893.800000
155.085400 1081757.000000
156.056900 298501.700000
157.064600 144290.400000
158.072500 314574.600000
158.096100 19938.400000
159.043800 99612.300000
159.080400 484432.400000
160.052100 27022.600000
160.075500 35248.000000
161.059600 745888.700000
162.090800 22005.100000
163.075400 17173.200000
164.070300 22108.600000
165.069800 1982256.800000
166.077600 265291.000000
167.085400 180000.600000
168.056800 420015.800000
169.064600 192467.000000
169.075800 41316.800000
169.101200 25939.600000
170.072500 163509.100000
171.043500 83827.700000
171.080400 1270877.900000
172.051800 190740.100000
172.088200 250029.500000
173.059800 56184.600000
173.096200 87062.100000
174.067500 135753.100000
175.075300 198497.900000
177.069800 73964.800000
178.077600 141019.200000
179.085400 166881.000000
180.056900 63674.400000
180.093300 28950.500000
181.064700 1538634.700000
181.101500 125654.000000
182.072600 479115.900000
183.043900 139608.900000
183.080400 970349.800000
184.051900 156460.800000
184.088300 101838.300000
185.059600 465228.800000
185.096000 167740.400000
186.067500 254229.000000
187.075200 417629.700000
187.111700 161496.600000
189.069900 46901.700000
189.091500 36247.200000
190.077400 113476.100000
191.085500 321685.100000
192.056600 15727.700000
192.101900 22871.600000
193.064600 429174.100000
193.076100 102292.200000
193.101400 49211.500000
194.072500 608647.800000
195.080300 260564.600000
196.087900 43355.800000
197.059600 301617.500000
197.096000 219275.000000
198.067400 552682.900000
199.075300 1552320.100000
200.083100 293275.800000
201.054800 44310.700000
201.090900 106246.300000
202.077900 50344.800000
203.085300 29441.500000
205.064600 60044.900000
206.073400 19097.200000
207.080200 107092.800000
208.052000 49641.500000
208.088000 93568.900000
209.059600 338734.500000
209.096000 129700.400000
210.067400 405822.600000
210.104000 30260.800000
211.075200 228422.600000
212.083000 237310.500000
213.054000 33507.400000
213.090800 436904.200000
214.098700 25782.900000
215.106500 687451.300000
218.071900 35683.900000
219.080400 128390.600000
220.088200 107538.500000
220.111400 70776.800000
221.059700 112498.000000
221.096200 69531.400000
223.075200 391394.300000
223.111500 27412.100000
224.082700 54119.500000
224.106100 15839.300000
225.054200 45156.500000
225.090900 757488.900000
226.062300 66387.100000
226.098500 40930.900000
227.070300 46288.500000
227.106400 16932.800000
228.077900 52796.900000
228.102600 17680.000000
235.075200 49314.200000
236.082900 116613.500000
237.091000 47739.400000
238.099200 17233.600000
239.069700 19475.800000
239.107100 24564.800000
241.085800 584547.200000
241.121700 35938.600000
243.101400 185912.900000
248.107200 41638.600000
250.122700 65823.800000
251.106500 37792.200000
252.101900 46683.100000
253.121500 24260.800000
266.117300 192200.700000
267.125200 82500.900000
268.134100 22312.200000
282.148700 40593.600000
285.135300 20440.200000
300.158500 338705.500000

>ms2peaks
55.017800 23570.100000
57.033400 26387.400000
58.065100 144849.000000
67.054200 28457.600000
69.033500 49384.800000
79.054200 47201.500000
81.033400 19791.900000
83.049000 30207.900000
91.054200 149328.700000
93.069800 26340.000000
94.041700 15616.200000
94.064900 19721.900000
95.049200 27562.100000
103.054100 102643.900000
105.069900 18504.900000
107.048900 39724.800000
115.054200 416850.100000
116.062300 56374.900000
117.069600 31297.700000
121.064500 83906.000000
122.036200 42281.800000
127.054000 35600.100000
128.062000 653234.600000
129.069900 357661.200000
131.049100 123543.200000
131.085200 29078.200000
132.080700 26079.600000
137.059600 218767.800000
139.054100 47704.300000
140.061800 23562.000000
141.069800 807781.500000
142.077600 112219.100000
143.049200 112585.100000
143.085300 39281.900000
144.056900 519377.000000
145.064800 128828.600000
146.036100 68669.600000
146.072600 49016.700000
147.080600 28603.500000
151.054300 20111.100000
152.062000 748789.800000
153.069700 2146541.600000
154.077600 401200.300000
155.049100 235626.800000
155.060300 186859.000000
155.085400 801466.500000
156.056900 432588.500000
157.064700 222118.500000
158.072600 343649.100000
159.044000 160458.600000
159.080300 226763.200000
160.052000 44940.200000
160.075200 23832.500000
161.059600 616872.900000
165.069800 2281743.300000
166.077700 301378.200000
167.085300 166545.700000
168.056900 464981.900000
169.064700 403512.000000
169.075800 42056.900000
170.036100 88451.300000
170.072400 237198.600000
171.043900 170540.300000
171.080400 1137910.000000
172.051800 177081.000000
172.088200 154532.000000
173.059900 29272.400000
173.095700 29179.700000
174.067600 76436.300000
175.075300 88285.700000
177.069900 49469.700000
178.077600 237946.400000
179.085400 182452.400000
180.056700 160582.000000
180.094000 31612.300000
181.064700 1293411.400000
182.072500 520709.000000
183.043900 605100.000000
183.080300 337293.200000
184.051800 208054.200000
184.088300 87880.700000
185.059600 479409.900000
185.096100 99776.000000
186.067300 151604.300000
187.075200 167860.800000
187.111900 35165.100000
189.069900 129152.300000
190.077700 139778.800000
191.085400 177202.000000
192.056800 23188.700000
193.064800 288737.200000
193.076000 37791.400000
193.101900 24182.300000
194.072500 316233.400000
195.080400 175384.100000
196.051800 34914.200000
196.088600 36926.700000
197.059600 511113.700000
197.096000 62827.600000
198.067400 624943.600000
199.075300 673408.200000
200.083000 121260.300000
201.091100 23028.600000
202.077100 34538.700000
203.086200 18715.900000
205.064900 97929.100000
206.072400 24054.100000
207.080200 93113.600000
208.052000 103179.300000
208.088100 51511.800000
209.059700 231635.300000
209.096000 35271.500000
210.067400 245374.600000
211.075200 144161.200000
212.083000 100175.700000
213.054000 33268.900000
213.090900 110350.100000
215.107000 86047.400000
218.072800 30593.100000
219.080100 89735.800000
220.112100 98685.300000
221.059900 105351.800000
221.096200 27466.000000
223.075200 235186.100000
225.054600 45576.700000
225.090900 204090.600000
226.062800 52816.200000
227.069600 30263.000000
235.075400 44287.900000
236.082200 36492.500000
239.070000 31362.000000
241.085600 101532.800000
248.107300 46943.300000
250.122400 33949.800000
252.102100 27258.300000
266.117800 63844.700000
300.158700 33201.200000

