>compound EA05710692
>parentmass 255.1016
>ionization [M+H]+
>formula C16H14O3
>rt 576.000000
>profile orbitrap
#smiles_iso CC(C1=CC(=CC=C1)C(=O)C2=CC=CC=C2)C(=O)O
#smiles_can CC(C1=CC(=CC=C1)C(=O)C2=CC=CC=C2)C(=O)O
#inchikey DKYWVDODHFEZIM-UHFFFAOYSA-N
#pubchem_id 3825
#mb_accession EA020502,EA020503,EA020504,EA020505,EA020506,EA020507,EA020508,EA020509,EA020510,EA020511,EA020512,EA020513

>ms2peaks
105.033300 40782.000000
177.055100 10429.200000
194.072700 3291.900000
209.096100 457930.200000
255.101700 1434006.300000

>ms2peaks
77.038500 11529.000000
105.033500 315505.000000
177.054700 104287.500000
194.072000 18884.900000
209.096200 1087180.800000
255.101600 299317.000000

>ms2peaks
53.038800 2701.500000
77.038400 20515.000000
103.054100 7750.300000
105.033500 656871.200000
131.048900 28955.600000
177.054700 168212.900000
181.101300 6969.500000
194.072500 62270.100000
209.096000 624144.900000

>ms2peaks
53.038700 8089.800000
77.038600 74184.600000
93.069700 6042.100000
95.049400 7320.800000
103.054300 36417.000000
105.033600 743013.900000
121.064800 9775.900000
131.049300 44960.700000
131.060900 3848.700000
149.059900 5053.900000
165.070000 4530.100000
166.078100 6154.100000
177.055000 118153.600000
181.100800 7356.100000
191.084800 6065.600000
194.072700 90189.100000
209.096100 110151.500000

>ms2peaks
51.022700 2925.700000
53.038500 18341.100000
77.038600 160284.200000
91.054300 8850.400000
93.069900 17853.000000
95.049200 17268.500000
103.054200 80052.800000
105.033500 530461.400000
105.044700 51347.600000
121.064600 10131.800000
131.049100 29411.400000
131.060900 5044.800000
165.069900 9434.000000
166.077600 14071.500000
177.055000 35558.500000
194.072600 57670.700000

>ms2peaks
53.038500 23051.900000
77.038600 235991.100000
79.054500 5166.400000
81.033300 4265.200000
91.054200 17201.900000
93.069800 13092.100000
95.049100 31988.300000
103.054200 89501.900000
105.033400 285827.300000
105.044700 79659.800000
121.064600 7059.600000
131.049300 11712.200000
131.060900 6346.000000
165.069800 24354.900000
166.077900 7522.100000
177.055000 6981.200000
191.086400 3178.300000
194.073000 19530.700000

>ms2peaks
105.033300 25443.200000
177.054800 4717.600000
194.072700 4288.000000
209.096100 308282.800000
255.101600 976143.600000

>ms2peaks
77.038400 5248.600000
105.033500 234308.700000
131.049000 4810.900000
177.054600 63716.200000
194.072500 11228.100000
209.096200 755249.700000
255.101500 194443.100000

>ms2peaks
53.038500 3207.300000
77.038600 13530.800000
93.070100 1818.600000
103.054300 5428.900000
105.033500 455470.800000
131.049200 18871.200000
177.054700 109905.900000
181.101200 2971.000000
194.072600 44297.800000
209.096200 423460.400000
255.102600 6316.100000

>ms2peaks
53.038500 5095.600000
77.038600 45597.100000
91.054300 2261.300000
93.069900 5025.000000
95.049100 4308.100000
103.054300 28287.400000
105.033500 501220.400000
121.064700 4850.800000
131.049200 33579.900000
149.059900 3568.900000
166.077300 4797.800000
177.054600 74901.300000
177.065800 12920.800000
181.101200 6035.900000
191.085600 3987.300000
194.072600 59670.200000
209.096100 65373.200000

>ms2peaks
53.038500 15465.300000
77.038600 98810.500000
79.054300 2936.000000
81.033500 1898.000000
91.054300 4279.300000
93.069900 11332.800000
95.049100 9760.400000
103.054200 43998.300000
105.033500 363826.600000
105.044500 31735.000000
121.064700 6778.700000
131.049100 14986.500000
131.060300 5374.300000
165.069100 5515.800000
166.077800 8346.000000
177.054700 19506.700000
177.065700 7657.100000
191.085400 2675.000000
194.072600 34421.300000

>ms2peaks
51.022800 1504.200000
53.038600 18558.000000
77.038600 146268.100000
79.054200 1580.800000
81.033500 2016.100000
91.054200 7533.600000
93.069900 6828.300000
95.049100 18972.300000
103.054200 58117.900000
105.033500 177225.700000
105.044700 49035.400000
131.049100 7150.700000
131.060200 3786.400000
149.059100 1374.700000
165.069800 15795.100000
166.077500 3288.100000
177.055000 2551.800000
194.072500 13147.600000

