>compound EA05007133
>parentmass 308.05069999999995
>ionization [M+H]+
>formula C15H14ClNO2S
>rt 342.000000
>profile orbitrap
#smiles_iso C1CN(CC2=C1SC=C2)C(C3=CC=CC=C3Cl)C(=O)O
#smiles_can C1CN(CC2=C1SC=C2)C(C3=CC=CC=C3Cl)C(=O)O
#inchikey DCASRSISIKYPDD-UHFFFAOYSA-N
#pubchem_id 4129546
#mb_accession EA285402,EA285403,EA285404,EA285405,EA285406,EA285407,EA285408,EA285409,EA285410,EA285411,EA285412,EA285413

>ms2
152.026400 38822.300000
169.004500 19843.500000
170.036900 32756.000000
198.031600 263459.000000
308.051000 3189095.800000
310.053600 6425.000000

>ms2
111.026100 19137.100000
125.015300 67333.900000
140.025900 13185.600000
141.010100 15126.000000
152.026300 496239.300000
169.005200 146645.400000
170.036800 411249.800000
198.031800 1932971.800000
262.045400 9914.900000
308.050800 511483.300000

>ms2
77.038800 6181.800000
111.026300 18492.500000
113.015300 21839.300000
125.015400 321824.900000
140.026400 44572.900000
140.053000 5954.300000
141.010200 163336.000000
152.026400 738220.700000
169.005300 630458.500000
170.036900 405363.400000
198.031700 790462.400000
262.045200 5555.900000
308.050000 8447.700000

>ms2
77.038600 26075.200000
105.045200 5603.700000
111.026300 15461.400000
113.015400 107510.700000
125.015500 414813.400000
140.026300 94826.400000
141.010400 471977.300000
152.026400 438012.400000
169.005400 817959.600000
170.036900 164499.900000
198.032000 81033.900000

>ms2
53.038500 5338.800000
77.038700 96107.300000
95.049300 10877.000000
105.033200 4652.900000
105.044900 24902.000000
111.026400 7852.500000
113.015400 329138.000000
125.015400 420783.800000
134.036400 19720.900000
140.026200 99069.300000
141.010300 598113.800000
152.026300 118781.400000
169.005200 350144.400000
170.036900 29176.500000

>ms2
53.038600 12409.000000
77.038700 236055.400000
89.038900 4971.000000
95.049200 28157.600000
105.033600 6273.000000
105.044800 72589.500000
111.026600 8201.200000
113.015400 354164.900000
117.057100 10364.600000
125.015500 335197.400000
134.036400 26180.400000
140.026300 63906.800000
141.010300 360033.000000
152.026300 24890.400000
169.005300 70670.800000

>ms2
152.026100 17077.400000
169.004400 6419.800000
170.036900 13287.900000
198.031500 105040.700000
308.051100 1301222.700000

>ms2
111.026200 7469.600000
125.015400 30003.400000
140.026100 8685.200000
140.053000 2731.700000
141.010400 12379.200000
152.026200 213232.700000
169.005100 56950.900000
170.036800 168085.000000
198.031800 818203.000000
262.044700 2897.500000
308.050700 208316.500000

>ms2
111.026200 6484.700000
113.015500 6543.500000
125.015300 142433.900000
140.026300 20974.200000
140.052700 3113.700000
141.010300 68807.300000
152.026300 307241.500000
169.005200 266134.300000
170.036800 174685.900000
198.031700 342710.700000
262.046100 2290.800000

>ms2
77.038600 8567.000000
105.044700 2103.900000
111.026400 3775.100000
113.015400 44417.600000
125.015400 175144.500000
134.036300 2779.600000
140.026300 38381.500000
141.010300 182756.200000
152.026300 164979.600000
169.005200 352422.700000
170.036800 68773.400000
198.031500 31970.100000

>ms2
77.038700 36839.000000
105.044800 12456.600000
111.026600 3954.400000
113.015300 125482.100000
125.015300 167073.100000
134.036300 7389.200000
140.026300 39434.700000
141.010300 237150.800000
152.026200 47608.600000
169.005100 136334.500000
170.036900 9857.300000

>ms2
53.038600 4174.200000
77.038700 87735.400000
89.038600 2176.800000
95.049200 12891.800000
105.033600 2162.700000
105.044800 26000.500000
111.026300 1485.500000
113.015300 146205.900000
117.057200 1772.400000
125.015300 144875.300000
134.036300 9948.800000
140.026200 24401.300000
141.010300 138023.500000
152.026400 12098.300000
169.005200 26632.400000

