>compound EA05975799
>parentmass 240.1594
>ionization [M+H]+
>formula C13H21NO3
>rt 120.000000
>profile orbitrap
#smiles_iso CC(C)(C)NCC(C1=CC(=C(C=C1)O)CO)O
#smiles_can CC(C)(C)NCC(C1=CC(=C(C=C1)O)CO)O
#inchikey NDAUXUAQIAJITI-UHFFFAOYSA-N
#pubchem_id 2083
#mb_accession EA285102,EA285103,EA285104,EA285105,EA285106,EA285107,EA285108,EA285109,EA285110,EA285111,EA285112,EA285113

>ms2
148.075600 282331.600000
166.086300 263840.400000
222.149000 2658489.100000
240.159600 3499053.000000

>ms2
120.080700 19462.000000
121.064800 21941.700000
130.065300 45975.100000
133.052600 38029.200000
148.075900 3006996.300000
166.086400 1007073.300000
204.138600 37030.100000
222.149100 2263216.900000
240.159800 447607.600000

>ms2
57.069900 44160.100000
91.053800 11873.900000
103.053800 10540.800000
106.065300 11703.400000
120.080900 51933.300000
121.064900 84371.300000
130.065100 108152.900000
131.048800 13589.400000
133.052100 90911.100000
136.075900 26537.700000
148.075800 4575423.600000
166.086400 355372.100000
222.149400 185696.200000

>ms2
55.017800 9157.400000
57.069800 58320.900000
68.049400 6682.900000
77.038300 8204.900000
79.054300 51280.500000
80.049500 25474.200000
91.054300 46158.900000
93.069900 45279.300000
94.065200 13804.400000
103.054300 42272.400000
106.065200 38382.600000
107.048600 7894.800000
118.065100 38546.300000
119.049000 20533.500000
120.080900 195800.200000
121.064900 307573.300000
130.065200 297077.200000
131.049500 38115.800000
133.052300 235099.300000
135.067400 8276.200000
136.075800 50276.000000
148.075800 3368295.600000
166.086100 33337.000000

>ms2
55.017700 23322.800000
57.069800 56583.200000
68.049500 6257.700000
77.038600 42156.800000
79.054200 135501.100000
80.049500 53165.300000
81.033300 21421.500000
91.054200 193373.400000
93.069900 166194.100000
94.065100 20822.000000
103.054300 119567.600000
105.044700 9660.100000
105.057300 12183.900000
105.070000 10337.300000
106.065100 57225.900000
107.049300 9177.200000
117.057300 17677.100000
118.065100 77123.700000
119.049300 34473.900000
120.080800 313622.200000
121.064800 562031.400000
130.065100 443632.500000
131.049100 76075.300000
131.073100 11639.800000
133.052200 362842.200000
135.068200 19030.500000
136.075700 38466.700000
146.060600 22885.400000
147.067500 20025.900000
148.075700 1447873.300000

>ms2
55.017900 22710.800000
57.069900 57500.500000
68.049600 6850.700000
77.038600 101181.600000
79.054300 175002.700000
80.049600 66265.900000
81.033600 28663.500000
91.054300 369190.700000
92.049700 9880.200000
93.070000 224116.800000
94.065100 27950.000000
95.049300 15412.200000
103.054300 212793.800000
105.044800 24646.000000
105.057500 25599.500000
105.069500 10952.200000
106.065300 37142.400000
107.049500 13854.700000
117.057500 44485.600000
118.065200 80373.300000
119.049100 31073.000000
119.073000 11215.600000
120.080900 229668.900000
121.064900 476467.700000
130.065200 337379.000000
131.049200 63760.300000
133.052300 293835.200000
135.067900 33563.300000
136.076200 15558.500000
146.060200 25175.800000
147.067900 25075.600000
148.075800 332729.200000

>ms2
148.075700 240064.000000
166.086300 228598.100000
204.138000 6138.100000
222.149100 2223264.100000
240.159700 2967499.400000

>ms2
57.069700 13464.500000
120.081000 13442.100000
121.064700 25318.300000
130.065100 28118.600000
133.052300 29824.200000
148.075800 2566681.100000
166.086400 828978.200000
204.138200 33391.600000
222.149000 1891031.200000
240.159600 390900.400000

>ms2
57.069900 33266.700000
77.038400 5726.400000
91.054200 6930.000000
103.054100 9063.400000
106.065300 11068.500000
120.080900 42892.300000
121.064800 70245.700000
130.065200 95162.800000
131.049200 12430.700000
133.052300 84275.000000
136.075900 20112.400000
148.075800 3803388.200000
166.086300 297092.800000
204.138300 8450.900000
222.149000 151281.800000

>ms2
55.017800 6082.600000
57.069900 51534.800000
68.049600 4511.700000
77.038400 7366.300000
79.054200 32820.500000
80.049500 16132.800000
81.033600 4668.100000
91.054200 43441.100000
93.069900 29838.500000
94.065100 6686.000000
103.054200 41308.400000
105.069900 4514.500000
106.065100 22768.700000
117.057300 6751.800000
118.065100 25508.600000
119.049200 23489.700000
120.080800 168725.800000
121.064800 272425.200000
130.065200 241298.600000
131.049100 43771.600000
133.052200 200380.300000
135.067700 5463.800000
136.075700 48489.300000
146.060300 8644.900000
147.067800 7196.600000
148.075800 2844018.100000
166.086400 30431.100000

>ms2
55.017800 17141.700000
57.069900 61419.800000
68.049500 7038.000000
77.038600 36233.200000
79.054300 118882.500000
80.049500 48289.300000
81.033600 19167.900000
91.054300 164453.300000
93.069900 132741.100000
94.065100 19208.400000
103.054300 110779.100000
105.044700 8518.200000
105.057300 10240.300000
105.070000 7489.700000
106.065100 45822.300000
107.049200 10988.400000
117.057400 14973.300000
118.065200 68119.200000
119.049100 28659.200000
119.073000 3471.000000
120.080800 254119.200000
121.064900 486830.900000
130.065200 345492.300000
131.049200 61219.500000
131.073000 13198.000000
133.052300 320111.200000
135.067900 17944.400000
136.075700 28051.600000
146.060000 17004.400000
147.067900 18190.400000
148.075800 1275614.200000

>ms2
55.017800 14524.600000
57.069900 52034.200000
68.049500 10282.800000
77.038600 84014.700000
79.054200 139756.600000
80.049500 53389.600000
81.033500 17103.300000
91.054200 319445.400000
92.049500 6572.300000
93.069900 187490.600000
94.065200 22722.600000
95.049100 7435.700000
103.054200 186738.900000
105.044700 19672.500000
105.057300 25072.500000
105.069900 11129.500000
106.065100 31874.300000
107.049100 19048.200000
117.057200 36980.900000
118.065100 61072.700000
119.049100 22467.600000
119.073000 6903.300000
120.080800 187426.000000
121.064800 421127.100000
130.065100 295225.800000
131.049100 54852.400000
131.072900 8236.100000
133.052200 266243.900000
135.067800 24347.400000
136.075700 15688.100000
146.060100 22390.200000
147.067800 18280.600000
148.075700 299150.800000

