>compound EA05798036
>parentmass 267.17029999999994
>ionization [M+H]+
>formula C14H22N2O3
>rt 120.000000
>profile orbitrap
#smiles_iso CC(C)NCC(COC1=CC=C(C=C1)CC(=O)N)O
#smiles_can CC(C)NCC(COC1=CC=C(C=C1)CC(=O)N)O
#inchikey METKIMKYRPQLGS-UHFFFAOYSA-N
#pubchem_id 2249
#mb_accession EA016902,EA016903,EA016904,EA016905,EA016906,EA016907,EA016908,EA016909,EA016910,EA016911,EA016912,EA016913

>ms2
267.170400 3669137.000000

>ms2
56.049500 10153.300000
72.080700 15658.100000
74.059900 41402.200000
98.096300 28510.300000
116.106800 73578.100000
145.065100 21958.800000
162.091500 18023.300000
178.085900 13793.300000
190.086000 154239.200000
207.112300 9348.100000
208.096900 42436.800000
225.122900 200381.200000
249.159400 32435.900000
250.143700 6034.800000
267.170500 3449871.300000

>ms2
56.049500 62799.500000
58.065100 11795.400000
72.080800 104095.100000
74.060000 254705.200000
91.054000 5720.900000
98.096400 138481.600000
107.049000 7210.700000
116.107000 218175.800000
119.049200 9848.500000
121.064800 19109.800000
133.064700 36220.700000
145.064800 289160.200000
147.044100 16504.800000
147.080800 6801.500000
152.070600 18808.500000
162.091400 71938.400000
163.075400 13803.700000
164.070500 66375.500000
173.059600 48822.800000
178.086200 150854.100000
180.102500 12327.800000
190.086200 508404.900000
204.137700 12352.400000
208.096600 129073.300000
225.123100 191735.100000
249.160000 20694.200000
250.144400 7933.300000
267.170300 664304.600000

>ms2
56.049400 89270.000000
58.065100 13917.000000
72.080700 103993.300000
74.060000 224461.500000
84.080500 4847.300000
91.054100 21634.900000
93.069900 22839.800000
98.096300 88168.800000
100.112000 8745.200000
105.070000 11823.300000
106.065000 6154.000000
107.049100 27993.600000
116.106900 112816.000000
117.057700 4489.400000
117.069700 12208.700000
119.049000 37648.600000
121.064700 70126.900000
122.059700 12250.000000
133.064800 144725.500000
134.059800 13714.700000
145.064700 546751.400000
147.044000 39668.900000
152.070300 17345.900000
162.066300 27304.600000
162.091000 44831.500000
163.075200 20918.700000
164.070500 78944.100000
173.059600 42650.600000
178.086000 115292.800000
190.086000 157085.200000
208.096600 29330.900000

>ms2
56.049400 79858.800000
58.065100 12544.100000
72.080700 51593.700000
74.060000 141104.300000
77.038800 7043.400000
79.054200 13074.700000
84.080800 5043.100000
89.038500 14191.200000
91.054100 51987.300000
93.069700 41832.800000
98.096400 28213.900000
100.111900 7976.400000
105.069900 23368.600000
106.065000 30130.900000
107.049100 59563.400000
116.049700 10580.000000
116.106800 34037.700000
117.033400 10613.700000
117.069900 38493.700000
119.049200 50358.700000
121.064800 61993.900000
122.060000 13943.500000
131.049100 5297.400000
133.064800 204738.600000
134.060100 54219.500000
136.076300 6167.900000
145.064700 445962.700000
147.043900 27043.500000
152.069800 4226.300000
155.061100 4116.500000
162.066100 43386.200000
162.091300 10018.300000
163.075900 8029.000000
164.070900 24014.500000
173.058900 7856.300000
178.085900 19049.600000
190.087000 12705.700000

>ms2
56.049400 67227.300000
58.065100 15491.000000
72.080800 23403.900000
74.060000 79734.200000
77.038700 19322.800000
79.054300 31035.900000
84.081200 5329.000000
89.038500 63925.500000
91.054200 97883.500000
93.069800 34260.800000
98.096700 6553.000000
103.054200 11047.000000
105.044300 3888.900000
105.069800 51586.900000
106.065100 56830.800000
107.049100 104363.200000
115.054300 46256.800000
116.049200 18801.300000
116.106800 6118.200000
117.033400 15848.500000
117.069700 57540.400000
119.049100 37758.200000
121.064500 28139.200000
131.048500 6108.200000
133.064800 150700.800000
134.060100 47202.500000
145.064700 268661.300000
147.044500 9597.700000
155.059900 11186.000000
162.066300 16368.300000
164.070300 4677.900000
267.171400 4879.900000

>ms2
267.170300 3074187.000000

>ms2
56.049500 8100.700000
72.080800 11432.900000
74.060100 27999.600000
98.096400 23823.900000
116.107000 68042.200000
145.064800 18168.700000
162.091300 13223.600000
164.070700 5650.400000
173.060000 6969.200000
178.086200 14080.600000
190.086200 129442.400000
204.138000 3695.700000
207.112100 5798.500000
208.096700 32518.400000
225.123400 172244.200000
249.159600 27977.200000
250.143900 5327.500000
267.170600 2761361.800000

>ms2
56.049400 56601.200000
58.065100 9996.400000
72.080800 82341.400000
74.060100 195162.500000
84.080800 3180.700000
91.054300 4027.300000
98.096400 100691.400000
107.049100 6769.000000
116.107000 191783.500000
119.049000 9849.500000
121.064800 15126.300000
122.060200 2256.200000
133.064800 27735.600000
145.064800 237678.400000
147.044000 13045.000000
152.070500 13822.800000
161.059600 3241.700000
162.091300 55477.300000
163.075100 13934.600000
164.070600 61594.900000
173.059700 40090.500000
178.086200 123687.100000
180.101700 9109.000000
190.086200 419492.800000
204.138000 8592.300000
207.112600 6065.400000
208.096800 117702.400000
225.123300 165423.000000
232.132900 4203.200000
249.159600 18915.000000
250.143700 6104.300000
267.170400 547967.000000

>ms2
56.049400 76299.800000
58.065100 9446.600000
72.080800 78476.700000
74.060000 171447.700000
84.080700 4853.000000
91.054200 18399.900000
93.069800 13262.400000
98.096400 69666.000000
100.112000 7989.900000
105.069800 9406.300000
106.065100 5986.600000
107.049100 27992.000000
116.106900 81617.000000
117.069800 13734.700000
119.049100 25384.000000
121.064700 59519.000000
122.060000 9894.800000
131.049200 4865.100000
133.064700 131841.400000
134.060000 13078.800000
136.075300 4871.400000
144.080800 2121.400000
145.064800 449796.900000
147.043900 31462.100000
147.080500 4530.300000
152.070500 13727.100000
161.059400 6052.600000
162.066200 22568.000000
162.091300 31972.200000
163.075300 12983.800000
164.070500 62944.800000
173.059600 32130.500000
178.086100 90585.200000
190.086200 133301.000000
204.137700 2660.000000
208.096700 20000.100000
225.123900 11104.000000
267.169900 19521.300000

>ms2
56.049400 69669.200000
58.065100 9716.300000
72.080700 41533.000000
74.060000 109023.400000
77.038500 6787.400000
79.054100 12672.800000
84.080700 5162.000000
89.038400 12421.500000
91.054200 44541.900000
93.069800 31258.000000
98.096300 20806.700000
100.112100 11129.000000
103.054300 3567.600000
105.069800 26154.000000
106.065000 26278.600000
107.049000 50095.200000
115.054100 10538.600000
116.049400 8215.500000
116.106900 28730.100000
117.033300 6960.300000
117.069700 33906.700000
119.049000 40741.500000
121.064700 54630.400000
122.059900 8136.000000
131.049100 3504.900000
133.064700 167111.200000
134.059900 45281.700000
144.080800 2602.500000
145.064700 384059.700000
147.043900 26761.900000
147.080200 4380.200000
152.070600 6337.200000
155.060200 4557.400000
162.066000 33252.800000
162.090900 8893.000000
163.075400 6406.600000
164.070500 16290.400000
173.059300 8080.000000
178.085900 13842.200000
190.086100 13927.700000

>ms2
56.049400 47137.400000
58.065100 6175.700000
72.080700 17683.400000
74.060000 58106.700000
77.038500 12083.700000
79.054200 22524.100000
84.080600 3514.700000
89.038500 43952.700000
91.054200 72704.100000
93.069800 25826.700000
98.096400 6391.300000
100.112000 5724.100000
103.054200 8005.800000
105.044600 3262.300000
105.069800 36049.200000
106.065100 41412.000000
107.049100 86095.100000
115.054200 40179.400000
116.049400 13107.800000
116.106900 2326.400000
117.033400 11964.700000
117.057400 4261.600000
117.069800 46925.600000
119.049100 25148.200000
121.064700 21848.800000
122.059900 7766.900000
131.049100 6196.100000
133.064700 106636.200000
134.059900 35031.700000
144.080600 3221.200000
145.064700 205739.800000
147.043900 10583.000000
155.060300 5573.200000
162.066000 13793.100000
162.091400 2631.200000
190.087000 3674.900000

