>compound EA06073615
>parentmass 171.11279999999996
>ionization [M+H]+
>formula C8H14N2O2
>rt 180.000000
>profile orbitrap
#smiles_iso CC[C@H](C(=O)N)N1CCCC1=O
#smiles_can CCC(C(=O)N)N1CCCC1=O
#inchikey HPHUVLMMVZITSG-ZCFIWIBFSA-N
#pubchem_id 441341
#mb_accession EA256402,EA256403,EA256404,EA256405,EA256406,EA256407,EA256408,EA256409,EA256410,EA256411,EA256412,EA256413

>ms2
69.033500 3216.900000
126.091400 667594.000000
154.086300 352275.100000
171.112800 88169.200000

>ms2
69.033600 6280.000000
98.060100 3357.300000
98.096600 3437.200000
126.091400 888635.700000
154.086300 123852.300000
171.113400 8411.400000

>ms2
69.033500 6626.100000
98.096200 7198.500000
126.091400 934332.500000
154.085800 16230.400000

>ms2
58.065000 4709.900000
69.033600 20767.600000
98.060100 4846.700000
98.096500 20388.100000
126.091400 823092.700000

>ms2
58.065000 9695.400000
69.033500 69003.200000
70.065200 3666.600000
71.049200 3601.500000
98.059900 5367.200000
98.096400 44058.600000
126.091300 565200.200000

>ms2
58.065100 12668.700000
69.033500 106052.600000
70.065000 6477.800000
71.049200 2776.200000
98.060000 5161.800000
98.096400 45916.800000
126.091300 268425.200000

>ms2
126.091300 405686.800000
154.086200 205931.100000
171.112600 56687.500000

>ms2
126.091300 560364.900000
154.086200 73937.000000
171.112600 6736.500000

>ms2
69.033400 3064.700000
98.096400 4397.800000
126.091300 549586.700000
154.085600 11600.100000

>ms2
69.033500 10029.200000
98.060000 2304.700000
98.096400 11056.200000
126.091400 473410.800000

>ms2
58.065000 6291.000000
69.033500 31384.700000
98.060100 2555.300000
98.096400 20619.900000
126.091300 301922.200000

>ms2
58.065100 6102.300000
69.033500 42606.200000
98.060100 2253.700000
98.096400 18855.800000
126.091300 144872.600000

