>compound EA07873068
>parentmass 382.0816
>ionization [M+H]+
>formula C14H15N5O6S
>rt 426.000000
>profile orbitrap
#smiles_iso CC1=NC(=NC(=N1)OC)NC(=O)NS(=O)(=O)C2=CC=CC=C2C(=O)OC
#smiles_can CC1=NC(=NC(=N1)OC)NC(=O)NS(=O)(=O)C2=CC=CC=C2C(=O)OC
#inchikey RSMUVYRMZCOLBH-UHFFFAOYSA-N
#pubchem_id 52999
#mb_accession EA012802,EA012803,EA012804,EA012805,EA012806,EA012807,EA012808,EA012809,EA012810,EA012811,EA012812,EA012813

>ms2peaks
141.077100 45845.600000
167.056500 1178311.200000
199.005900 48396.100000
350.054800 31658.600000
382.081700 454638.600000

>ms2peaks
56.049300 4059.600000
69.008100 4690.600000
135.043800 8630.000000
141.077100 126369.400000
167.056400 1518434.200000
184.006500 6593.200000
199.005900 245004.700000
209.985300 21460.300000
382.082400 3414.000000

>ms2peaks
56.049400 19237.000000
57.044800 2583.400000
58.028700 5247.900000
77.038300 4636.000000
83.024100 17272.700000
135.044000 138582.700000
141.077100 121343.300000
146.023400 5172.800000
167.056300 1110826.100000
184.005900 9149.100000
199.005800 219931.200000
209.985500 43245.700000

>ms2peaks
56.049500 48761.000000
57.044700 5545.600000
58.028700 22358.300000
69.008400 29808.300000
77.038600 34755.000000
79.054200 9417.000000
83.024100 60726.100000
90.033900 10917.000000
95.049200 4584.700000
100.050900 3803.600000
105.033200 4128.400000
105.044800 11520.300000
107.049400 4656.600000
120.020500 6854.500000
120.044700 6413.500000
130.040000 4541.900000
135.044200 221376.500000
141.077100 72809.600000
146.023600 20575.800000
167.056500 547662.400000
184.007000 9229.900000
199.005900 61298.500000
209.985600 18092.700000

>ms2peaks
53.038600 6295.700000
56.049400 55683.700000
57.044800 7406.700000
58.028700 39068.300000
69.008300 43112.200000
77.038600 82113.000000
79.054200 17989.400000
83.024000 60207.100000
90.033800 22226.400000
92.025700 19276.000000
95.049000 10653.500000
100.050400 3290.500000
105.033400 6692.900000
105.044700 23480.000000
107.049400 2691.300000
120.020400 15040.000000
120.044000 8544.300000
130.039800 9122.200000
135.044000 135308.700000
141.077100 26555.700000
146.023600 13338.500000
167.056300 142391.600000
199.005700 5403.000000

>ms2peaks
53.038500 7781.300000
56.049500 36626.500000
57.044800 8006.500000
58.028800 38086.400000
69.008400 60843.400000
77.038600 93378.100000
79.054300 10955.200000
83.024100 40342.500000
90.033900 31738.300000
92.025700 45438.800000
95.049100 9696.700000
105.033500 6406.700000
105.044700 27986.300000
120.020700 8782.100000
130.040200 9744.000000
135.044000 37991.200000
141.077700 6813.600000
146.022500 3391.900000
167.056600 19470.800000

>ms2peaks
69.008000 2243.400000
83.023700 1713.000000
141.077000 24848.100000
167.056400 683995.900000
199.005800 26729.500000
350.055400 22899.700000
382.081500 243973.100000

>ms2peaks
135.044000 7957.700000
141.077100 63458.000000
167.056500 828892.300000
184.006400 3019.800000
199.005900 132322.300000
209.985200 11452.500000

>ms2peaks
56.049400 9760.800000
69.008300 3535.500000
83.023900 8333.200000
120.020300 2221.800000
135.044000 67626.000000
141.077000 66437.500000
146.022800 1877.600000
167.056300 595932.000000
184.006000 9360.600000
199.005700 108664.700000
209.985400 17038.400000

>ms2peaks
56.049400 25524.600000
57.044700 4228.600000
58.028700 10101.400000
69.008400 11037.300000
77.038600 15757.900000
79.054200 6429.100000
83.024000 27040.700000
90.033800 4466.800000
105.033200 3335.900000
105.044700 3272.000000
135.044000 108012.200000
141.077000 38030.900000
146.023600 9341.700000
167.056400 287733.300000
184.006000 2451.700000
199.005800 26925.000000
209.985200 7386.700000

>ms2peaks
53.038600 1724.200000
56.049400 25216.100000
57.044600 3534.800000
58.028700 19208.900000
69.008300 19678.700000
77.038500 32966.300000
79.054200 5025.300000
83.024000 31027.100000
90.033800 11865.100000
92.025700 9387.400000
95.049100 3700.400000
105.033400 3602.700000
105.044700 10468.200000
120.020600 5436.000000
135.044000 56226.500000
141.077000 9559.200000
146.023400 4863.600000
167.056300 62030.000000

>ms2peaks
53.038500 1951.600000
56.049400 13076.800000
57.044700 1743.400000
58.028700 11226.100000
69.008300 19788.400000
77.038600 39370.300000
79.054300 3372.200000
83.024000 15650.500000
90.033800 15919.000000
92.025600 16518.700000
95.049100 4586.600000
105.033500 2133.000000
105.044700 12488.300000
120.020400 2794.600000
130.039900 2355.200000
135.044000 15535.300000
167.056300 9899.400000

