>compound EA07949447
>parentmass 559.2603
>ionization [M+H]+
>formula C33H35FN2O5
>rt 744.000000
>profile orbitrap
#smiles_iso CC(C)C1=C(C(=C(N1CC[C@H](C[C@H](CC(=O)O)O)O)C2=CC=C(C=C2)F)C3=CC=CC=C3)C(=O)NC4=CC=CC=C4
#smiles_can CC(C)C1=C(C(=C(N1CCC(CC(CC(=O)O)O)O)C2=CC=C(C=C2)F)C3=CC=CC=C3)C(=O)NC4=CC=CC=C4
#inchikey XUKUURHRXDUEBC-KAYWLYCHSA-N
#pubchem_id 60823
#mb_accession EA281002,EA281003,EA281004,EA281005,EA281006,EA281007,EA281008,EA281009,EA281010,EA281011,EA281012,EA281013

>ms2peaks
422.210600 3335.400000
440.223700 111988.000000
466.202000 44187.700000
559.260300 330504.300000

>ms2peaks
250.102500 28399.300000
276.117300 5585.900000
292.149700 105066.000000
294.165200 14822.500000
318.164500 8518.400000
336.175500 5039.800000
380.166400 43978.500000
404.202100 10816.700000
422.212500 64737.800000
424.158200 4037.000000
430.179100 4031.800000
440.223200 522946.200000
466.202800 32810.300000

>ms2peaks
79.054200 5877.100000
83.049100 3934.300000
92.049500 4181.300000
120.044400 12793.100000
238.102700 34853.200000
249.094600 27885.400000
250.102700 416130.500000
252.117500 6934.400000
262.102700 24683.200000
264.082100 5558.000000
264.118700 6434.200000
276.082600 15791.700000
276.118300 144144.300000
277.125700 6254.600000
279.142600 5512.600000
280.150400 13612.500000
290.133100 11405.500000
292.149700 140312.100000
294.128500 4056.900000
294.165100 13848.200000
302.134300 17766.400000
306.128700 18546.200000
316.151100 5210.900000
318.127800 7691.600000
318.166000 24181.500000
320.144300 20902.600000
336.174500 9353.200000
344.142800 7380.100000
362.155300 55136.400000
380.166400 47505.900000
406.181100 7705.200000
422.213500 12073.900000
440.223600 20125.200000
466.202500 21976.800000

>ms2peaks
77.038800 7315.700000
79.054300 8779.000000
83.049200 4418.600000
92.049600 13542.900000
120.044800 9947.200000
122.039800 3981.000000
133.044600 5358.800000
147.059900 2648.600000
209.075600 9449.300000
222.084400 2705.600000
223.092000 4847.700000
230.096300 10484.500000
233.076100 18894.500000
234.083500 2818.900000
235.078900 15271.400000
236.087800 5737.100000
237.094500 13115.900000
238.102900 45956.600000
248.086800 26938.300000
249.094900 58338.800000
250.102900 452107.300000
252.119000 9171.000000
262.102800 29896.100000
263.110200 3997.300000
264.082700 22505.100000
264.118300 14947.600000
274.101900 8074.700000
275.111100 7026.800000
276.083000 16099.000000
276.118600 156182.400000
277.125600 11225.400000
278.134800 7560.400000
288.117700 8416.400000
290.134200 15562.100000
292.150200 20371.700000
302.098000 8568.500000
302.134300 24415.000000
303.140900 3537.300000
306.129400 18705.500000
316.150300 6206.700000
320.106300 4706.700000
362.155700 16899.900000

>ms2peaks
77.038600 11334.600000
79.054300 7042.400000
83.049100 8956.000000
92.049500 13485.800000
95.048700 3455.100000
104.049900 7636.600000
105.045000 2584.500000
109.045000 4556.300000
115.054300 11797.000000
117.057700 2865.000000
120.044400 5724.300000
122.040300 8555.000000
128.062700 4398.000000
129.070400 5883.700000
133.044800 8507.200000
147.059800 3821.200000
154.065100 12765.300000
155.060800 8439.100000
172.055900 7502.800000
202.078500 7365.700000
203.085700 11871.400000
209.076700 19733.700000
221.076300 7874.400000
223.092000 8204.500000
230.097100 11389.900000
233.076300 40227.700000
234.083800 3741.700000
235.079100 41748.700000
236.087500 4917.500000
237.094400 15968.700000
238.102700 18460.600000
248.087000 59298.900000
249.094900 46670.300000
250.102700 202924.800000
260.088300 3507.400000
261.095000 15493.000000
262.102400 28545.100000
263.110700 9552.400000
264.082100 14348.000000
264.118900 9924.200000
274.102500 13081.000000
275.111200 5620.600000
276.082200 15334.000000
276.118400 84650.500000
277.126400 3729.100000
288.117500 9835.100000
290.134300 5928.100000
302.133400 10940.000000
362.153300 5007.800000

>ms2peaks
77.038700 11436.600000
79.054600 5512.000000
83.049100 4353.700000
92.049500 11380.300000
103.054300 6562.800000
104.049500 9217.800000
109.044500 6109.100000
115.054600 12596.700000
117.057100 4819.500000
121.044700 3343.000000
122.039800 9658.100000
128.062200 8509.300000
129.070400 5707.000000
133.044800 11758.800000
154.065100 19676.200000
155.060600 24709.300000
159.061000 3260.600000
167.072400 4756.100000
172.056000 12009.100000
173.051400 10624.400000
202.077800 18169.400000
203.085500 10031.400000
209.076000 22377.700000
220.068400 15582.700000
221.076000 7905.500000
230.096100 10460.900000
233.076000 36331.400000
235.079400 54416.100000
236.087900 8752.600000
237.095600 7493.200000
238.102400 4649.600000
248.087000 78962.000000
249.094800 23809.100000
250.102700 62765.400000
260.086200 6664.600000
261.094800 19231.500000
262.103000 18759.200000
263.111000 4827.900000
264.082900 4228.300000
274.102700 15565.800000
276.118100 27653.400000
288.117500 4495.900000

>ms2peaks
143.061000 1792.600000
440.222700 70647.000000
466.202500 31109.200000
559.259700 195856.800000

>ms2peaks
250.102500 17561.700000
252.118100 1900.500000
276.119100 5828.000000
292.149600 56266.700000
294.165000 6756.300000
318.165700 3321.800000
353.268300 1597.600000
362.154500 7900.600000
380.165900 24447.000000
380.202000 3470.800000
398.175800 10322.500000
404.202100 7832.400000
422.212700 37870.200000
424.155100 3030.400000
430.180000 3594.700000
440.223100 330024.500000
448.191600 2332.700000
466.203000 22314.200000

>ms2peaks
79.054500 2015.500000
83.049300 2300.700000
92.049500 4764.600000
120.044300 6741.600000
238.102800 15600.200000
249.095100 14960.500000
250.102700 246091.300000
252.118000 6682.400000
262.102800 11848.500000
264.118000 5826.800000
276.082500 6839.500000
276.118300 95047.000000
277.125800 3395.500000
278.133400 2253.700000
279.142500 3647.800000
280.149700 9024.600000
290.132500 3315.600000
292.149600 88604.400000
294.129700 3807.900000
294.164800 7027.900000
302.134000 10899.700000
303.142700 2230.400000
306.129400 11162.600000
316.150000 4542.500000
318.128600 5640.300000
318.165300 11689.600000
320.144200 11957.200000
336.176600 4321.000000
344.145200 4145.800000
353.268900 1827.700000
362.155100 27864.100000
380.165700 26218.200000
380.202200 3500.300000
398.176000 3391.900000
406.182900 5558.700000
422.213600 6584.200000
440.223600 9604.100000
466.202200 16252.000000

>ms2peaks
79.054200 3865.100000
83.049100 2858.500000
92.049500 7487.900000
96.005300 1630.100000
115.053800 2189.000000
120.044400 6332.000000
172.054900 2234.700000
209.076100 4253.100000
223.092100 2549.500000
230.096800 4339.900000
233.076200 8655.000000
235.079400 7648.700000
237.095100 6251.200000
238.102500 22936.800000
248.087000 12323.100000
249.094900 29977.600000
250.102700 222424.700000
252.118400 4522.600000
261.094600 5927.900000
262.102600 18493.100000
264.082100 8814.400000
264.117900 6234.000000
274.102600 3947.900000
275.111600 2444.200000
276.082400 11069.200000
276.118400 81135.500000
277.126600 6068.500000
278.134200 2035.500000
288.117800 3582.500000
290.134100 5824.600000
292.149700 11591.100000
302.099000 2338.400000
302.133500 12012.300000
306.128800 12451.600000
318.164000 3302.300000
320.108100 2052.700000
320.142900 3076.300000
362.155100 12179.200000

>ms2peaks
77.038700 6591.900000
83.049300 2688.900000
92.049600 8146.200000
96.005100 1637.000000
104.049400 3426.800000
115.054200 6403.400000
117.057600 2640.400000
122.039900 4322.800000
129.069600 3428.600000
133.044600 4993.200000
154.065200 6739.200000
155.060500 5624.200000
172.055800 5110.900000
202.077800 3097.300000
203.085600 6274.900000
209.076000 7471.100000
222.072200 3437.000000
223.091600 3371.800000
230.095800 5064.100000
233.076100 17643.900000
235.079100 20571.400000
236.087400 4185.600000
237.094700 4526.400000
238.103000 8624.500000
248.086900 30656.300000
249.095000 21134.600000
250.102700 99585.100000
261.094600 9149.900000
262.102700 13672.300000
263.109700 5753.200000
264.082200 7120.200000
264.118100 6432.200000
274.102600 7162.300000
275.110100 3415.600000
276.081900 4845.000000
276.118400 37979.700000
277.125300 2635.700000
288.118200 4345.700000
290.134400 4182.300000
302.133300 4057.900000
318.130400 2416.600000
353.273900 2114.900000

>ms2peaks
77.038600 7051.300000
79.054300 1645.100000
83.049200 1591.100000
92.049500 6227.200000
95.049300 2481.600000
103.054200 1700.700000
104.049500 1951.000000
105.044700 1382.800000
109.044800 2610.700000
115.054200 6259.700000
121.044700 2066.500000
122.040100 3965.600000
128.062100 3645.600000
133.045000 5609.500000
143.062000 1447.300000
147.060600 1692.400000
154.065200 4974.700000
155.060300 5168.900000
159.060800 1501.300000
167.073100 2139.400000
172.055800 4565.900000
173.051100 2140.600000
202.077500 7707.100000
203.085500 3759.500000
209.076100 8022.500000
220.068600 2383.400000
221.076000 4893.000000
222.071100 2134.200000
222.083900 2282.500000
223.092000 2679.800000
230.096500 3678.000000
233.076000 19748.000000
235.079100 23027.800000
236.086800 2849.900000
237.094800 1609.000000
238.102300 1681.900000
248.087000 31765.400000
249.094800 10315.700000
250.102600 22928.300000
260.086800 3465.000000
261.094900 8413.000000
262.102700 8141.500000
263.110800 2747.500000
264.081300 1613.100000
274.103000 3951.600000
275.110600 2091.300000
276.118400 10573.200000
353.271900 2097.000000

