>compound EA08200521
>parentmass 271.0414999999999
>ionization [M+H]+
>formula C10H11ClN4OS
>rt 276.000000
>profile orbitrap
#smiles_iso C1CS/C(=N\C(=O)N)/N1CC2=CN=C(C=C2)Cl
#smiles_can C1CSC(=NC(=O)N)N1CC2=CN=C(C=C2)Cl
#inchikey LEZHOZPJYAQQNU-UVTDQMKNSA-N
#pubchem_id 16212161
#mb_accession EA295502,EA295503,EA295504,EA295505,EA295506,EA295507,EA295508,EA295509,EA295510,EA295511,EA295512,EA295513

>ms2
103.032500 27040.400000
126.010500 404671.800000
228.035900 2880722.400000
254.015300 6557181.300000
271.041800 11820469.600000

>ms2
90.034100 17003.700000
101.016800 47348.700000
103.032500 104090.300000
126.010500 3872129.400000
129.011800 59176.000000
143.037300 24625.300000
168.032500 58886.000000
186.014000 247462.800000
192.059100 210218.200000
211.009400 26853.200000
228.035900 8842196.500000
229.019500 29241.900000
254.015100 4735665.400000
271.040900 894869.200000

>ms2
90.033900 53637.800000
101.016900 158086.100000
103.032500 95359.200000
126.010600 11365123.800000
128.026100 18461.800000
129.011700 61739.000000
132.055600 63033.200000
143.036600 14115.800000
144.021400 17811.000000
165.048400 36471.100000
168.032400 115350.300000
186.014000 308149.900000
192.059200 347613.600000
211.009000 46658.000000
228.036000 3362504.300000
254.016100 580650.300000

>ms2
90.033900 202599.600000
91.042000 21004.900000
98.999700 71320.500000
101.016900 134484.900000
103.032500 71960.300000
126.010600 13078331.500000
129.011800 59385.800000
132.055700 119686.400000
133.076000 19882.000000
144.021300 101613.200000
165.048200 50220.400000
168.032400 87417.100000
186.014100 61999.900000
192.059100 113548.800000
211.009000 26290.400000
228.036500 374468.100000

>ms2
63.023000 43289.500000
72.984000 41934.500000
81.033700 16531.800000
90.033900 788850.300000
91.041700 115502.200000
98.999700 515551.400000
101.016800 85899.400000
103.032500 41510.400000
108.044500 42905.400000
126.010500 11068851.100000
127.018500 71607.400000
129.011700 29780.300000
132.055700 90364.900000
133.076000 11449.800000
144.021100 277119.900000
165.047600 31402.900000
168.032700 38694.000000
192.059600 15907.200000
228.041700 94820.600000
254.025400 83614.200000

>ms2
63.023000 110688.300000
65.038500 21680.100000
72.984000 153171.200000
80.049800 12679.800000
81.033600 24887.900000
90.033900 1369961.500000
91.041700 265315.900000
98.999600 1280178.800000
101.017000 37893.100000
103.032300 30760.600000
106.064900 12403.700000
108.044400 85710.400000
126.010600 6795252.300000
127.018500 61464.900000
129.011400 15388.200000
132.055600 40888.000000
137.017000 15157.900000
144.021200 312648.400000
165.047900 8678.400000
228.043400 58861.200000
254.027300 58128.200000

>ms2
103.032400 21020.200000
126.010400 238917.500000
228.035700 1835999.400000
254.015100 4507722.200000
271.041700 7647102.600000

>ms2
90.033600 6529.400000
101.016900 26942.000000
103.032500 48067.400000
126.010600 2331984.900000
128.026400 6849.700000
129.011700 29415.100000
143.037100 13181.700000
168.032400 30147.700000
186.014000 154304.800000
192.059100 129913.000000
211.009100 18116.000000
228.035800 5422775.000000
229.019900 17059.300000
254.015100 2974112.800000
271.041600 585957.400000

>ms2
90.033800 29170.500000
101.016900 85478.300000
103.032500 44270.800000
126.010600 7091360.700000
129.011700 32200.300000
132.055600 35916.200000
144.021000 10653.800000
165.048100 23172.200000
168.032400 56464.300000
186.014000 178087.400000
192.059100 215990.500000
211.009000 28514.800000
228.035700 1958181.600000
229.019700 8369.200000
254.015100 331415.900000
271.042100 11247.400000

>ms2
90.033800 108586.300000
91.041600 12012.500000
98.999600 41172.400000
101.016800 76654.200000
103.032400 34838.500000
126.010500 7867906.500000
127.018300 13828.900000
129.011700 27139.700000
132.055600 71608.600000
133.076100 10346.100000
144.021100 55449.100000
165.048100 30456.500000
168.032300 50185.700000
186.013900 35223.600000
192.059000 59846.000000
211.009300 14728.900000
228.035600 201240.300000

>ms2
63.022900 20750.800000
72.983900 21584.500000
90.033800 397658.900000
91.041600 53628.400000
98.999600 227199.100000
101.016800 38232.900000
103.032300 23654.500000
108.044300 20259.600000
126.010500 6014366.800000
127.018300 31729.900000
128.026200 6151.800000
129.011700 15533.200000
132.055600 43271.900000
133.076200 10144.900000
144.021100 134514.800000
165.048300 16782.300000
168.032400 17386.200000
211.009400 6225.700000
228.036800 16115.000000

>ms2
63.022900 46766.500000
65.038600 12894.300000
72.984000 75941.000000
81.033500 13740.600000
90.033800 689598.300000
91.041700 124707.800000
98.999600 625850.800000
101.016800 17054.200000
103.032400 11595.700000
106.065200 4173.700000
108.044400 38043.500000
126.010500 3546902.200000
127.018300 30633.900000
129.011800 9370.700000
132.055700 19936.000000
137.016900 7802.400000
144.021100 150517.100000
165.048400 4525.200000
254.026400 6661.900000

