>compound EA09168469
>parentmass 314.98529999999994
>ionization [M+H]+
>formula C13H9Cl3N2O
>rt 888.000000
>profile orbitrap
#smiles_iso C1=CC(=CC=C1NC(=O)NC2=CC(=C(C=C2)Cl)Cl)Cl
#smiles_can C1=CC(=CC=C1NC(=O)NC2=CC(=C(C=C2)Cl)Cl)Cl
#inchikey ICUTUKXCWQYESQ-UHFFFAOYSA-N
#pubchem_id 7547
#mb_accession EA298802,EA298803,EA298804,EA298805,EA298806,EA298807,EA298808,EA298809,EA298810,EA298811,EA298812,EA298813

>ms2
128.026200 29757.000000
161.987200 25148.600000
314.985300 4357690.100000

>ms2
93.057100 33695.800000
126.010400 49141.400000
127.018300 137092.300000
128.026100 1018406.200000
154.005400 94563.400000
159.971400 19075.600000
161.987100 1167844.000000
187.966200 56055.500000
314.985200 1875894.100000

>ms2
93.057200 302140.900000
126.010400 165441.800000
127.018200 960113.500000
128.026000 988503.000000
154.005300 99206.200000
159.971400 99577.000000
161.987000 1094422.400000
187.966300 61993.800000

>ms2
93.057300 571337.900000
98.999600 9137.600000
126.010400 250365.800000
127.018300 1426779.600000
128.026100 413913.600000
139.005600 4343.700000
154.005300 32986.100000
159.971500 148464.800000
161.987100 332270.700000
172.965600 2795.800000
187.966200 15674.100000

>ms2
86.999300 2882.600000
90.033600 2997.900000
92.049500 7856.000000
93.057300 583813.500000
98.999600 32649.900000
125.002500 6928.400000
126.010400 227151.300000
127.018200 1358815.800000
128.026100 112857.900000
132.960700 25224.600000
139.005800 15909.500000
154.005200 4123.400000
159.971500 121893.500000
161.987200 65143.100000
172.966500 12291.500000

>ms2
65.038400 7140.800000
86.999600 3471.600000
90.033800 5842.700000
91.041700 5364.800000
92.049400 18144.300000
93.057200 513039.200000
98.999500 67452.100000
100.007400 14307.700000
123.994600 4377.100000
125.002600 20945.900000
126.010400 142395.700000
127.018200 1121150.300000
128.026100 26888.200000
132.960500 58640.100000
139.005600 24200.100000
159.971500 59950.400000
161.987500 12738.500000
172.966800 12917.400000

>ms2
128.026000 15302.500000
161.987000 18682.500000
314.985100 2360565.700000

>ms2
93.057200 18035.100000
126.010300 24167.500000
127.018200 56985.600000
128.026000 522311.900000
154.005300 46921.000000
159.971200 10315.100000
161.987000 616918.500000
187.966300 32487.900000
314.985000 941741.500000

>ms2
93.057200 137921.700000
126.010400 77621.900000
127.018200 470005.600000
128.026000 473561.600000
154.005300 44837.400000
159.971400 45906.700000
161.987000 540083.900000
187.966200 27637.500000
314.986400 38022.800000

>ms2
93.057200 245745.700000
98.999600 2837.200000
126.010400 107215.500000
127.018200 690984.500000
128.026000 190440.400000
132.960400 2102.600000
154.005300 11802.900000
159.971300 68114.900000
161.987000 151978.300000
187.966100 5189.200000

>ms2
90.033700 2975.000000
92.049400 3184.200000
93.057200 276445.500000
98.999600 12072.000000
123.994100 2258.100000
126.010400 90856.300000
127.018200 648691.200000
128.026100 46548.100000
132.960600 11356.100000
139.005700 8042.100000
159.971400 51979.400000
161.987000 30335.600000
172.966600 4623.800000

>ms2
65.038500 1962.400000
86.999700 2072.800000
90.033800 1981.600000
91.041700 2166.200000
92.049400 5525.100000
93.057200 219903.400000
98.999500 23130.600000
100.007300 6228.200000
123.994700 1812.600000
125.002600 11291.000000
126.010400 61547.600000
127.018200 521796.500000
132.960500 24270.800000
139.005700 9154.600000
159.971300 26849.300000
172.966800 5039.700000
314.986200 2172.900000

