>compound EA10661727
>parentmass 441.1670000000001
>ionization [M+H]+
>formula C24H20N6O3
>rt 558.000000
>profile orbitrap
#smiles_iso CCOC1=NC2=CC=CC(=C2N1CC3=CC=C(C=C3)C4=CC=CC=C4C5=NNN=N5)C(=O)O
#smiles_can CCOC1=NC2=CC=CC(=C2N1CC3=CC=C(C=C3)C4=CC=CC=C4C5=NNN=N5)C(=O)O
#inchikey HTQMVQVXFRQIKW-UHFFFAOYSA-N
#pubchem_id 2541
#mb_accession EA280402,EA280403,EA280404,EA280405,EA280406,EA280407,EA280408,EA280409,EA280410,EA280411,EA280412,EA280413

>ms2
189.065300 5482.500000
192.081300 29139.800000
194.096200 12069.900000
206.109300 4407.900000
207.091700 48986.500000
208.112900 15271.800000
210.090900 10977.400000
218.097300 6772.800000
235.097600 37885.200000
235.123200 70920.700000
263.129500 1381440.400000
338.105100 18482.200000
395.150200 17619.800000
423.157000 564617.800000
441.167200 170826.400000

>ms2
161.035200 9364.200000
178.077900 19408.800000
180.080800 28937.900000
189.066000 33286.700000
190.065600 24809.400000
191.045500 17794.500000
192.081100 114382.300000
193.088600 34471.100000
194.096600 86855.000000
205.076600 5300.800000
206.084500 18132.600000
206.108900 7326.800000
207.091700 295915.200000
208.112300 45395.900000
210.091500 131716.300000
218.096900 33030.900000
220.099700 36341.500000
233.107900 10902.100000
234.115300 27233.400000
235.097700 123068.900000
235.123100 361166.900000
261.102300 5066.000000
263.129300 588173.500000
337.095600 10229.100000
338.106000 105521.700000
349.109200 24114.000000
350.092100 54518.900000
352.108700 159080.600000
366.114200 5209.800000
367.120300 11969.400000
380.139900 73990.300000
395.151100 117984.400000
423.156800 73573.800000

>ms2
140.049700 4572.100000
152.061800 7565.100000
153.070000 16921.500000
161.035100 28895.100000
165.070000 71784.600000
167.085300 23098.500000
173.035000 13280.300000
175.049500 7056.500000
177.057800 6722.400000
178.077900 70196.000000
179.084800 12339.100000
180.080800 133352.700000
189.066000 32032.500000
190.065300 96710.100000
191.045600 6911.800000
191.073100 29136.900000
192.080800 248425.300000
193.088700 88014.100000
194.096600 164470.500000
196.076100 4659.700000
205.075500 29928.100000
206.084200 87709.700000
207.091700 394540.600000
208.112300 38640.800000
210.091400 211057.600000
217.089100 4938.600000
218.096200 30212.400000
219.091300 20140.400000
220.099900 42406.900000
234.115300 64739.200000
235.097400 16563.800000
235.123000 166777.500000
263.130500 30952.900000
308.118000 15691.800000
309.103000 27884.500000
310.109100 9259.800000
324.113900 7434.900000
337.095700 11240.700000
338.104900 28022.400000
349.107700 19431.600000
350.093100 49280.100000
352.108500 185059.500000
367.121000 6524.700000
380.139100 7614.000000
395.149300 6234.000000

>ms2
91.054200 3247.100000
115.054100 5502.700000
140.049900 12861.100000
152.062100 30922.000000
153.070000 59388.600000
161.034500 49784.000000
163.053900 13723.300000
165.070000 199538.000000
166.065600 10157.000000
166.077300 7096.500000
167.085600 22906.400000
173.034600 20679.600000
175.050900 7927.600000
177.057600 28594.300000
178.077800 125630.800000
179.045900 8680.800000
179.073100 21055.800000
180.080800 182765.000000
189.065600 14936.700000
190.065300 166197.400000
191.073200 86138.700000
192.080200 212784.600000
193.088600 82158.200000
194.096500 110418.700000
196.075800 6805.200000
205.075900 69058.600000
206.083900 114251.200000
207.091700 166369.900000
208.076100 5707.800000
208.111500 14273.600000
210.091400 78308.000000
217.088900 14047.400000
218.096500 15999.900000
219.091900 40956.200000
220.100100 21311.700000
233.107200 17295.400000
234.115400 51931.400000
235.122700 29694.900000
282.092000 7675.100000
297.101400 4785.100000
308.117300 30182.800000
309.102300 27717.700000
310.111200 10479.000000
322.097000 10665.300000
324.113500 22238.500000
334.096300 8128.800000
337.095800 5790.100000
350.092000 9939.200000
351.101800 15377.600000
352.108400 37995.000000

>ms2
77.038900 9405.700000
80.049600 5153.000000
91.054400 8890.200000
105.044700 12178.100000
115.054000 2972.300000
116.049900 3554.500000
117.044400 4700.900000
140.049900 9971.000000
141.070200 2662.000000
152.062200 80321.200000
153.070000 77614.100000
154.065400 6879.300000
155.060700 5137.800000
161.034700 41337.400000
163.054400 15369.700000
164.062200 12920.600000
165.070000 248767.900000
166.065200 15637.000000
166.078100 12377.200000
167.073500 9750.000000
167.085400 10473.500000
168.067800 7110.000000
173.034900 9309.500000
176.062500 7764.700000
177.057700 57093.300000
178.077800 140364.600000
179.045400 10522.600000
179.072900 39281.400000
180.080800 123037.300000
183.067900 2693.000000
190.065400 201769.300000
191.073200 98819.000000
192.079800 127180.527600
193.088600 56782.000000
194.096400 34186.300000
196.075900 5632.300000
203.072000 4508.700000
204.056100 3504.300000
205.076200 107467.200000
206.083900 69416.300000
207.091900 42250.700000
208.076200 3848.400000
210.091700 9347.800000
217.088100 12374.900000
219.092100 35382.000000
220.099500 5186.600000
233.107500 15236.900000
234.115200 20480.300000
254.095400 4818.700000
279.091900 8978.300000
282.091900 5500.900000
306.104600 3869.000000
309.101300 12548.000000
310.112300 3621.400000
321.087100 5289.400000
322.097900 7124.400000
348.103000 5071.200000
351.100000 6890.400000

>ms2
77.038600 14967.200000
80.049800 5411.100000
90.033800 8426.000000
91.054400 8305.800000
105.044800 24470.400000
115.054300 6410.400000
116.049500 5440.100000
117.044700 6306.900000
139.054800 3889.400000
140.049500 22017.600000
141.070100 4977.500000
152.062200 161143.600000
153.070100 53780.600000
154.065400 6462.200000
155.061000 14519.000000
161.034600 22218.300000
163.054300 32678.600000
164.048900 6534.400000
164.062200 20560.000000
165.070000 265590.200000
166.065400 15171.600000
166.077300 9335.000000
167.073100 9829.800000
173.034200 4381.700000
176.062100 15292.300000
177.057700 77278.200000
178.077700 142870.600000
179.072800 44136.800000
180.080800 69759.000000
181.076800 4413.000000
190.065300 238466.100000
191.072900 67063.300000
192.079600 87462.831350
193.088300 29833.200000
194.096300 9720.400000
196.076200 4262.900000
205.076200 117577.800000
206.084100 27072.200000
207.092400 10220.300000
216.081100 8476.300000
217.088500 6801.200000
218.084100 5781.400000
219.092000 29664.700000
233.106700 12606.200000
254.096500 10940.400000
263.133000 4642.300000
279.090900 9720.700000
281.106600 5577.600000
293.094800 6372.300000
294.078200 6178.400000

>ms2
191.045400 4058.200000
192.080900 20867.200000
193.088800 3104.600000
194.096600 7621.900000
206.108800 5195.800000
207.076600 4854.400000
207.091700 41759.500000
208.111900 12938.600000
210.091200 5709.400000
218.096700 3985.800000
220.100000 8907.300000
234.115500 6964.000000
235.098000 23853.800000
235.123100 47321.400000
263.129500 980544.700000
338.104600 13845.700000
350.091300 3745.100000
352.107400 3457.000000
395.150900 10410.500000
413.161900 4513.300000
423.156700 427136.500000
441.167200 106931.400000

>ms2
161.034600 5787.100000
167.085900 4731.900000
175.050400 2279.900000
178.077800 11164.800000
179.085500 3449.800000
180.080800 22278.200000
189.066000 16437.100000
190.065300 17264.200000
191.045100 9473.300000
192.080800 77623.700000
193.088700 19480.100000
194.096500 60623.200000
206.083800 10166.100000
206.108700 6661.300000
207.076400 14171.400000
207.091700 215168.300000
208.112100 30503.700000
210.091300 88836.100000
218.096500 19790.000000
219.092000 5605.700000
220.099600 24910.300000
233.107000 6469.000000
234.115100 22080.300000
235.097900 80748.800000
235.123000 244455.600000
261.103200 2464.000000
263.129200 386338.800000
337.097100 6846.400000
338.105100 75574.200000
349.108700 14190.900000
350.092600 40833.800000
352.108200 105038.400000
367.119300 9704.900000
380.139400 51706.800000
395.150400 79774.500000
423.156400 56786.800000

>ms2
140.049400 3552.200000
141.070600 1688.500000
152.062100 3475.900000
153.070000 12058.700000
161.034600 15228.700000
163.054400 4312.400000
165.070000 40071.500000
166.064700 2688.300000
167.072500 3609.300000
167.085600 14157.700000
173.034700 10591.900000
175.050400 2801.400000
177.057300 2956.300000
178.077900 45027.100000
179.045100 5875.400000
179.073600 3614.500000
179.085400 8306.000000
180.080800 94929.800000
189.065900 25128.600000
190.065200 66642.900000
191.045300 5897.000000
191.073000 18911.800000
192.068400 12842.300000
192.080800 144167.500000
193.088700 56489.900000
194.096500 113924.500000
205.076000 15894.700000
206.083900 54434.100000
206.109600 3992.600000
207.091700 241695.200000
208.076500 3149.900000
208.112000 25426.400000
210.091400 133424.600000
217.088000 3669.400000
218.096400 24378.900000
219.091600 14299.100000
220.099500 27439.000000
233.107400 9017.200000
234.115100 45351.900000
235.097700 10339.500000
235.123000 115215.900000
263.129500 21304.300000
308.118400 9872.500000
309.102500 18562.000000
310.111800 4799.600000
324.114200 5638.500000
337.098000 10211.800000
338.104900 11520.500000
349.108200 17386.500000
350.092500 27121.300000
351.099900 2676.600000
352.108200 110637.300000
366.112200 3427.600000
367.120000 7261.900000
380.139300 6162.000000
395.151000 5958.100000
423.163500 2722.400000

>ms2
77.038800 1734.400000
80.049600 2996.900000
115.054100 3558.500000
129.044700 2820.500000
140.049600 8209.600000
145.039700 2783.000000
152.062100 20166.700000
153.069900 36392.400000
161.034600 30225.900000
163.054200 6957.200000
165.069900 124366.300000
166.065200 5838.700000
166.077400 4039.000000
167.072700 8328.100000
167.085700 18335.500000
173.034600 12287.300000
177.057400 17758.400000
177.069600 7815.500000
178.065600 9158.900000
178.077800 90857.500000
179.045200 4501.000000
179.073000 13390.800000
179.085800 5663.200000
180.080800 123239.500000
181.076300 2668.400000
189.066000 10230.800000
190.065200 106695.700000
191.073000 59404.000000
192.068300 40747.600000
192.080800 128951.500000
193.075900 2826.600000
193.088600 55283.400000
194.096500 71017.800000
196.075100 3084.200000
203.073400 2048.800000
205.076000 45027.300000
206.083900 81145.500000
207.091700 110527.700000
208.112300 12639.700000
210.091300 41917.400000
217.088600 10174.000000
218.096800 9031.400000
219.091700 24434.100000
220.099800 12384.000000
233.107000 10465.600000
234.115300 28730.600000
235.122900 21349.700000
263.132500 3394.400000
279.090500 3173.000000
282.091800 4271.700000
296.117300 2904.200000
297.101700 2157.000000
306.102400 3490.900000
308.095600 3898.500000
308.118600 15700.700000
309.102500 21185.500000
310.110800 6435.800000
321.089600 2028.500000
322.096900 6479.900000
324.113500 15411.100000
334.096600 4396.200000
337.096900 6708.400000
348.101000 4307.100000
349.107400 5642.200000
350.092300 5439.400000
351.100400 7337.700000
352.108300 19795.900000

>ms2
77.038700 6691.300000
80.049600 4474.500000
90.033700 2913.700000
91.054200 4058.300000
105.044600 7351.300000
117.044900 3400.400000
129.044900 2635.500000
140.049400 12119.400000
145.039900 5748.400000
151.054100 9576.800000
152.062100 57477.700000
153.069900 58036.000000
154.065200 3482.200000
155.060200 3445.300000
161.034700 29945.400000
163.054300 14163.000000
164.062400 5867.400000
165.070000 175811.700000
166.065100 8971.500000
166.077500 8505.500000
167.073000 7444.300000
167.085600 10433.500000
168.057400 2655.000000
168.068400 4998.000000
169.065300 2279.700000
173.034600 10416.900000
175.050500 2026.500000
176.062300 5362.600000
177.057300 36282.900000
177.070100 8319.900000
178.065300 20556.200000
178.077800 110528.200000
179.045900 3400.300000
179.060700 4830.100000
179.073100 33532.900000
179.085300 2301.300000
180.080800 98050.800000
181.076100 5369.400000
190.065200 136714.200000
191.073000 73803.000000
192.068200 50104.900000
192.080800 93157.300000
193.076200 3867.000000
193.088600 43767.200000
194.096500 24545.800000
196.075500 3754.300000
203.073400 2432.900000
205.076000 73609.100000
206.083900 47843.400000
207.091600 28174.800000
210.091200 8016.200000
216.081300 3806.100000
217.088300 6774.300000
218.084400 2078.300000
218.097100 3250.300000
219.091800 20777.600000
220.100400 3526.200000
233.107800 10226.700000
234.115300 12314.000000
254.096600 2662.700000
263.130000 3197.400000
279.091400 5935.500000
281.107500 3708.800000
282.092200 4008.400000
293.095000 4462.800000
294.078900 4946.700000
296.118600 3379.300000
297.101900 5527.300000
307.086100 2600.500000
308.095400 4790.600000
308.118700 4218.100000
309.102800 7803.100000
310.109300 2731.600000
322.096300 2214.400000
351.099800 6480.400000

>ms2
77.038700 7687.200000
80.049500 3642.500000
90.033900 4132.800000
91.054200 5581.800000
105.044800 16835.000000
115.054300 3789.800000
117.044800 3169.500000
129.044700 3438.500000
139.054400 5091.100000
140.049700 10414.600000
145.039700 1664.500000
151.054300 19264.700000
152.062200 102558.000000
153.070000 35839.500000
154.065300 5308.700000
155.060500 6528.400000
161.034700 10438.800000
163.054300 22126.800000
164.049500 5697.900000
164.062100 15154.000000
165.070000 162579.900000
166.065100 11212.300000
166.077900 4863.900000
167.073000 5510.300000
167.085800 3080.900000
168.057100 6967.500000
168.068300 5464.400000
169.064900 4380.600000
173.034800 2055.900000
176.062100 11666.700000
177.057400 45019.400000
177.070000 20105.700000
178.065200 20762.400000
178.077800 84922.100000
179.045000 2498.600000
179.060400 12194.500000
179.073000 33372.600000
180.080800 39144.500000
181.076500 2325.000000
183.067400 1387.900000
190.065200 156239.600000
191.073000 39580.400000
192.068300 33775.700000
192.080800 41830.800000
193.088600 16905.500000
194.096500 8883.900000
196.075700 3173.500000
203.073000 2718.400000
204.055700 1886.000000
205.076100 80026.400000
206.083900 16880.700000
207.092000 2740.400000
216.080800 2827.500000
217.088500 4460.000000
218.083600 4589.100000
219.091700 14274.800000
233.107600 7403.400000
234.115400 1809.000000
254.096100 3886.000000
279.091700 7823.900000
281.106900 2680.200000
282.091500 2114.900000
293.095000 3381.600000
294.078700 6500.600000
296.118200 2048.300000
297.103100 2010.800000
307.086900 1607.100000
308.095200 1820.600000
423.163200 2685.700000

