>compound EA10504870
>parentmass 215.09610000000006
>ionization [M+H]+
>formula C8H14N4OS
>rt 414.000000
>profile orbitrap
#smiles_iso CC(C)(C)C1=NN=C(N(C1=O)N)SC
#smiles_can CC(C)(C)C1=NN=C(N(C1=O)N)SC
#inchikey FOXFZRUHNHCZPX-UHFFFAOYSA-N
#pubchem_id 30479
#mb_accession EA009002,EA009003,EA009004,EA009005,EA009006,EA009007,EA009008,EA009009,EA009010,EA009011,EA009012,EA009013

>ms2
215.096300 15351453.700000

>ms2
84.080700 25540.200000
114.995800 26444.700000
131.027400 56521.000000
145.054600 22378.100000
171.058500 31495.800000
186.081900 84546.800000
187.101200 750777.000000
215.096300 15413998.700000

>ms2
57.069800 91329.100000
58.040000 104817.100000
59.990300 15814.400000
62.005900 47441.900000
69.008200 23340.600000
69.069900 60089.500000
74.005900 93525.400000
76.021600 43331.200000
82.065200 59973.100000
84.018900 13337.900000
84.080800 263677.700000
87.001200 31697.100000
89.016800 134923.000000
89.041500 18447.400000
97.064900 70139.900000
99.091700 21126.900000
104.027600 24864.000000
114.996000 115222.800000
127.086800 16558.000000
130.068000 44185.700000
131.027500 103426.200000
131.038600 150411.600000
132.022800 15831.900000
139.086700 18783.600000
140.105300 23473.600000
145.054200 117940.100000
155.063500 27622.900000
159.033300 14697.800000
167.093300 20572.700000
171.058900 193234.700000
183.046100 21195.100000
184.054400 36047.700000
186.082300 288621.800000
187.101400 4321352.500000
200.072000 29090.000000
215.096400 8113983.200000

>ms2
57.069800 124654.800000
58.039900 300564.700000
59.990300 101659.800000
62.005900 116620.400000
69.008300 33991.600000
69.069900 57574.800000
74.005900 285184.900000
76.021500 83882.000000
79.054400 13044.600000
82.065100 88477.000000
84.080800 440906.700000
87.001100 51242.900000
88.009100 19534.700000
89.016800 156080.600000
97.064800 66708.900000
99.091500 33295.100000
104.027600 34878.800000
108.068000 13288.800000
110.060000 28002.100000
114.996100 87088.600000
130.068900 15334.000000
131.027500 32221.700000
131.038600 517851.900000
139.086400 24906.100000
140.105800 19866.300000
143.063500 26355.300000
145.054100 150707.400000
153.077300 26121.200000
155.063500 28631.200000
156.059100 49642.200000
157.043200 32313.800000
171.058700 270311.800000
172.077700 70834.200000
183.046500 38087.000000
184.053900 103897.000000
186.082200 149222.800000
187.101200 3392608.400000
215.095400 1203372.400000

>ms2
57.069800 122927.300000
58.039900 295086.800000
59.990200 192989.700000
60.998100 23325.200000
62.005800 149702.500000
68.049500 26130.200000
69.008100 13106.800000
69.069700 44900.800000
74.005900 526903.100000
76.021700 53338.700000
82.065000 78223.900000
84.080800 343827.900000
87.001100 40260.700000
89.016800 96830.600000
110.060300 18569.500000
114.995900 42788.200000
130.030700 27175.500000
131.038600 426456.000000
143.064000 18475.600000
145.054200 81975.800000
153.077600 20546.600000
156.058800 104169.100000
157.042300 30745.300000
171.058700 208432.900000
172.077300 41234.600000
184.053700 98150.200000
186.082100 18483.800000
187.101100 867510.900000

>ms2
57.069900 108192.000000
58.039900 231714.000000
59.990200 262300.800000
60.997800 25156.100000
62.005900 137865.200000
68.049300 61030.200000
69.008300 26310.400000
69.069900 27893.500000
70.065100 18732.500000
74.005900 635671.900000
76.021400 19944.700000
82.065000 32690.000000
84.080800 184882.900000
87.001000 19060.400000
89.016700 55751.700000
95.060000 19254.000000
123.055400 15224.800000
125.082400 19087.300000
130.030600 36674.200000
131.038600 197301.000000
145.054500 34597.400000
156.058900 154696.900000
171.059100 80926.200000
184.054000 26637.100000
187.101200 94283.700000

>ms2
186.082900 14524.900000
187.100600 15138.400000
200.072700 15522.600000
215.096200 14048575.300000

>ms2
57.069600 20049.900000
74.005800 15238.600000
84.080800 25534.500000
89.017000 17162.800000
114.996100 32272.900000
131.027400 49843.900000
171.058900 26684.700000
186.082100 83312.800000
187.101200 672863.300000
200.073000 14182.500000
215.096200 13253232.400000

>ms2
57.069800 76522.200000
58.039900 87902.500000
59.990300 12577.200000
62.005900 37375.000000
69.008300 25560.600000
69.069900 63829.400000
74.005800 77793.700000
76.021600 30383.300000
79.053900 11788.300000
82.065200 64069.900000
84.019200 12452.400000
84.080800 238145.000000
86.990000 9697.700000
87.001100 25927.500000
89.016800 128287.300000
89.041900 10975.400000
97.064800 69363.600000
99.091700 23480.300000
103.057900 9161.400000
104.027600 24068.100000
110.060200 15323.900000
114.996100 130272.900000
130.068500 24870.800000
131.027400 69356.500000
131.038600 126729.300000
139.086400 15359.700000
140.105400 14036.300000
145.054200 101801.600000
155.051400 10764.500000
155.063600 17855.500000
157.043000 28422.600000
159.033300 10408.000000
167.092600 20585.000000
171.058800 172182.100000
172.066900 15957.000000
183.046200 17044.300000
184.053900 29411.000000
186.082200 250036.600000
187.101300 3724031.500000
200.072000 20967.800000
215.096200 6719872.100000

>ms2
57.069800 101761.800000
58.039900 206293.000000
59.990200 83675.600000
60.998100 16591.700000
62.005900 109429.100000
69.008300 33469.500000
69.069900 60833.400000
70.065000 10369.200000
74.005900 216549.200000
76.021500 66301.100000
82.065200 82691.800000
84.080800 322361.700000
87.001100 41907.100000
88.008900 10917.100000
89.016800 152959.100000
97.064800 54681.700000
99.091700 26252.500000
104.027700 33459.300000
108.068100 12236.800000
110.060100 27993.200000
114.996100 92214.000000
127.086600 23261.600000
130.068600 12220.800000
131.027800 32402.700000
131.038600 445612.200000
139.086300 13320.100000
140.105900 16696.700000
145.054300 123109.900000
153.077200 11430.000000
155.063500 20239.300000
156.059000 38711.800000
157.042900 17845.300000
159.033900 11334.300000
171.058700 240873.700000
172.077700 58588.600000
183.046100 20466.600000
184.053900 85379.800000
186.082100 95690.900000
187.101200 2732577.400000
215.096300 1284253.200000

>ms2
57.069900 87660.100000
58.040000 265366.700000
59.990200 161148.600000
60.998000 15517.700000
62.005900 113632.100000
68.049500 23976.200000
69.008400 12918.700000
69.069900 42080.300000
74.006000 399823.400000
76.021700 23674.800000
82.065200 57085.800000
84.080800 267278.000000
87.001200 23401.000000
88.008900 9746.800000
89.016800 82630.800000
94.065200 8701.500000
95.060400 9980.200000
97.064900 21959.500000
104.027600 11430.800000
108.068300 26259.500000
109.075800 11723.900000
114.996200 27260.700000
125.070900 9586.500000
125.082300 13838.800000
130.030900 30778.500000
131.038700 302360.700000
140.040300 11943.300000
145.054400 64094.900000
153.077500 16934.600000
155.064000 12879.600000
156.059100 97705.800000
157.043200 15811.300000
171.058800 142107.400000
172.077900 38177.800000
183.046300 11662.700000
184.053900 65377.000000
186.082300 8190.700000
187.101300 659911.800000
215.096200 81980.500000

>ms2
57.069800 68046.200000
58.039900 169216.800000
59.990200 171853.800000
60.998000 18294.100000
62.005800 84129.400000
68.049400 32194.800000
69.008400 13480.400000
69.069900 18283.000000
70.065100 11847.400000
74.005900 448050.300000
76.021500 7334.400000
82.065100 32584.000000
84.080700 140447.200000
87.001100 14889.000000
88.008900 6503.100000
89.016800 38147.500000
108.068100 9727.000000
109.076100 5875.800000
125.070700 8163.100000
125.082000 11004.000000
130.030700 17117.300000
131.038500 109857.600000
140.040200 8024.300000
143.063500 7110.700000
145.054000 7135.800000
156.058800 75297.700000
171.058500 42524.800000
172.077700 14330.900000
184.053900 28133.600000
187.101100 84807.300000

