>compound EA11610935
>parentmass 213.0789
>ionization [M+H]+
>formula C10H13ClN2O
>rt 492.000000
>profile orbitrap
#smiles_iso CC1=C(C=C(C=C1)NC(=O)N(C)C)Cl
#smiles_can CC1=C(C=C(C=C1)NC(=O)N(C)C)Cl
#inchikey JXCGFZXSOMJFOA-UHFFFAOYSA-N
#pubchem_id 27375
#mb_accession EA027302,EA027303,EA027304,EA027305,EA027306,EA027307,EA027308,EA027309,EA027310,EA027311,EA027312,EA027313

>ms2peaks
72.044300 576364.800000
213.079100 12770029.900000

>ms2peaks
72.044500 2637061.200000
140.026300 17465.500000
168.020900 54996.300000
213.079300 8172037.700000

>ms2peaks
72.044400 4260099.700000
140.026100 204574.900000
168.021000 240889.100000
213.078300 1120485.800000

>ms2peaks
72.044500 4869210.000000
113.014900 19912.900000
125.014600 14215.100000
140.026300 504020.500000
168.021100 181365.700000

>ms2peaks
56.013000 14416.800000
72.044400 4455742.000000
77.038500 24271.000000
104.049400 42092.000000
113.015200 36285.200000
125.015100 62149.900000
133.051600 24226.800000
140.026100 548321.600000
153.021600 31338.800000
168.020600 49983.300000

>ms2peaks
56.013100 20086.100000
72.044400 4234944.000000
77.038600 67556.200000
89.038500 23867.600000
104.049400 75244.100000
105.045200 11615.400000
105.057300 13976.500000
113.015400 65865.200000
125.015200 127704.700000
133.052000 27337.300000
140.026100 352849.800000
153.020500 25491.700000

>ms2peaks
72.044300 528947.900000
213.079100 11215404.700000

>ms2peaks
72.044400 2261046.700000
140.026200 27050.800000
168.021100 58985.800000
213.079100 6868002.500000

>ms2peaks
56.013100 8332.900000
72.044400 3584597.600000
140.026100 177382.000000
168.021100 196062.400000
213.078800 1040416.700000

>ms2peaks
56.013100 8657.100000
72.044400 3813076.200000
104.049200 14309.000000
113.015200 11903.800000
125.015300 17973.400000
140.026100 418575.200000
153.021700 8944.200000
168.021000 140014.100000

>ms2peaks
56.013100 7931.900000
72.044500 3387879.000000
77.038600 10041.100000
104.049400 27198.100000
113.015500 35215.500000
125.015300 51843.400000
133.052000 6880.500000
140.026200 415284.000000
153.021500 36778.200000
168.021100 32941.500000

>ms2peaks
56.013100 6883.900000
72.044400 2875728.200000
77.038600 38835.100000
89.038600 14640.700000
104.049500 72671.800000
105.044700 10337.000000
105.057400 9383.900000
113.015200 52837.500000
125.015200 91351.800000
133.052200 13400.000000
140.026200 217646.500000
153.021400 12770.500000

