>compound EA11515884
>parentmass 280.15430000000003
>ionization [M+H]+
>formula C15H21NO4
>rt 522.000000
>profile orbitrap
#smiles_iso CC1=C(C(=CC=C1)C)N(C(C)C(=O)OC)C(=O)COC
#smiles_can CC1=C(C(=CC=C1)C)N(C(C)C(=O)OC)C(=O)COC
#inchikey ZQEIXNIJLIKNTD-UHFFFAOYSA-N
#pubchem_id 42586
#mb_accession EA013502,EA013503,EA013504,EA013505,EA013506,EA013507,EA013508,EA013509,EA013510,EA013511,EA013512,EA013513

>ms2
148.111900 52156.600000
160.111800 77364.600000
192.138300 411841.600000
220.133200 1834508.500000
248.127900 2111637.000000
280.154200 4270229.100000

>ms2
133.088300 11915.400000
134.096000 27504.500000
146.096100 19715.900000
148.112000 392031.100000
160.112000 737817.700000
162.127500 61376.200000
165.114900 71864.300000
188.106800 35251.300000
192.138400 3756829.100000
208.132900 27821.300000
220.133300 3514335.200000
248.127800 430271.300000
252.158400 22404.400000
280.154100 194350.200000

>ms2
121.088300 10907.000000
132.080900 26189.000000
133.088600 99866.500000
134.096300 163116.700000
145.088800 43846.000000
146.096300 147650.100000
148.112000 491079.600000
158.096400 10422.400000
160.112100 2235358.400000
162.127700 350019.600000
165.114600 124650.200000
188.107100 36914.500000
192.138300 3216876.700000
208.132700 13807.800000
220.133100 839064.200000

>ms2
105.069800 45478.100000
118.064900 21502.300000
119.085300 24862.400000
121.089000 22909.200000
130.065000 18822.200000
132.080700 138785.900000
133.088500 218416.500000
134.096300 384381.900000
144.080500 17924.700000
145.088400 210066.700000
146.096300 191241.200000
148.112000 469034.300000
150.091200 41106.700000
160.112000 2061289.300000
162.127600 469607.500000
164.106800 15487.500000
165.114500 35582.300000
192.138200 587644.800000
220.132500 115264.000000

>ms2
91.054100 26172.700000
105.069800 134797.300000
106.077500 10639.100000
107.085000 12030.200000
117.056800 26431.500000
117.069400 10291.300000
118.064900 50382.100000
119.072400 11861.800000
119.085500 55776.800000
120.080900 23532.900000
121.088300 31912.300000
128.061700 10242.400000
130.065100 77713.500000
131.073000 48224.300000
132.080700 364479.600000
133.088500 239174.000000
134.096300 422265.600000
144.080300 52891.900000
145.088600 364031.900000
146.096200 127622.200000
147.104700 25380.600000
148.111900 338502.700000
150.091300 45063.300000
158.096300 13539.200000
159.103900 10747.500000
160.112000 1061706.200000
161.119500 10013.400000
162.127600 250790.500000
164.106600 33805.700000
192.138000 51021.800000

>ms2
77.038400 12274.900000
79.054200 37492.600000
91.054200 75836.000000
103.054400 25204.900000
105.069900 244414.400000
106.065400 9695.600000
106.077800 22456.600000
107.085400 11296.400000
115.054200 14156.400000
117.057400 46611.300000
117.069600 17388.600000
118.065100 76048.200000
119.085300 39462.200000
120.080600 47564.800000
121.088500 22983.400000
130.065000 172455.700000
131.072900 58411.200000
132.080700 555960.600000
133.088600 155272.300000
133.100500 12664.800000
134.096400 425762.800000
135.068500 13643.500000
144.080600 135578.200000
145.088700 329967.400000
146.096200 78591.700000
148.112100 213170.100000
149.083600 13744.000000
150.091100 35804.400000
160.112000 371153.300000
162.128000 83249.500000
164.106800 18137.900000

>ms2
148.112000 47400.300000
160.112000 111127.400000
162.127200 9987.700000
192.138300 428834.300000
220.133300 1923168.400000
248.128200 2173959.300000
252.159700 11817.200000
280.154400 4392248.000000

>ms2
133.088600 16388.000000
134.096500 21434.600000
146.096500 15817.000000
148.112100 354470.800000
160.112100 728818.100000
162.127700 64256.100000
165.114800 83257.900000
188.107000 40815.800000
192.138400 3684382.200000
208.133100 27652.400000
220.133300 3487404.900000
248.127900 401022.800000
252.159500 16097.000000
280.153400 181245.200000

>ms2
121.088700 11924.000000
132.080800 15924.000000
133.088500 90786.700000
134.096300 144377.200000
145.088400 39550.300000
146.096300 127558.000000
148.112000 442101.600000
150.091100 16957.700000
160.112100 2081886.400000
162.127600 310211.400000
164.106900 7791.000000
165.114700 122230.000000
188.107000 27486.800000
192.138300 2899877.300000
208.133600 7660.400000
220.133000 736932.100000
248.129200 24332.800000

>ms2
105.069800 35982.400000
107.085600 12755.900000
118.064900 11044.000000
119.085600 19194.900000
121.088500 27899.500000
130.065100 19862.400000
131.072800 25875.700000
132.080700 113822.900000
133.088600 193200.400000
134.096400 340248.500000
135.104700 8842.700000
144.080900 13859.500000
145.088600 164431.300000
146.096400 172049.300000
147.104100 9828.800000
148.112000 380993.300000
150.091300 34802.000000
158.096600 8384.900000
160.112100 1760632.500000
162.127700 343521.300000
164.106800 21628.000000
165.114700 31911.400000
192.138100 436980.900000
220.133200 93247.900000

>ms2
91.054100 23012.600000
103.054300 8823.000000
105.069800 121902.700000
107.085400 12831.000000
117.057600 15391.100000
118.065000 32945.500000
119.073100 5425.000000
119.085400 29362.300000
120.080600 9343.400000
121.088600 27450.000000
130.065000 58283.200000
131.072900 37077.400000
132.080700 287644.100000
133.088500 188047.400000
134.096400 364107.000000
135.104500 5274.200000
144.080900 42671.100000
145.088600 313237.100000
146.096400 89759.500000
147.104700 11447.200000
148.112000 309435.200000
150.091200 41006.900000
158.096200 12684.600000
159.104800 5100.600000
160.112100 850303.700000
161.119600 8867.400000
162.127700 183867.100000
164.107000 28200.700000
192.138100 44576.400000
220.133100 15937.700000

>ms2
77.038600 6258.300000
79.054200 27197.700000
91.054200 46885.700000
103.054200 12392.800000
105.069800 190820.200000
106.065000 6854.500000
106.077600 16715.900000
107.085500 8282.500000
115.054200 7054.100000
117.057200 36508.900000
117.069800 15285.800000
118.065000 47716.100000
119.072800 8953.200000
119.085400 29582.800000
120.080700 27165.100000
121.088500 27875.000000
128.062000 7535.600000
130.065000 145095.900000
131.072800 33066.600000
132.080700 383419.200000
133.088500 99071.100000
133.101000 6773.700000
134.096300 299682.700000
135.067700 9185.400000
135.103900 6060.700000
144.080700 104477.100000
145.088500 241681.300000
146.096300 47507.900000
148.112000 143672.400000
149.083400 8376.500000
150.091200 23690.900000
158.096100 10154.500000
160.112000 268356.500000
161.119700 4263.100000
162.127600 51378.300000
164.107000 12188.300000
248.127600 6838.800000

