>compound EA11955407
>parentmass 264.1958
>ionization [M+H]+
>formula C16H25NO2
>rt 378.000000
>profile orbitrap
#smiles_iso CNCC(C1=CC=C(C=C1)OC)C2(CCCCC2)O
#smiles_can CNCC(C1=CC=C(C=C1)OC)C2(CCCCC2)O
#inchikey MKAFOJAJJMUXLW-UHFFFAOYSA-N
#pubchem_id 3501942
#mb_accession EA103402,EA103403,EA103404,EA103405,EA103406,EA103407,EA103408,EA103409,EA103410,EA103411,EA103412,EA103413

>ms2
121.064300 73275.900000
147.079900 27243.300000
215.143100 296277.300000
246.185100 4240479.900000
264.196100 10887197.700000

>ms2
91.054200 22393.200000
121.064700 497931.000000
138.128000 41982.400000
147.080400 245078.400000
159.080600 74836.400000
173.095900 54940.500000
215.142900 1962284.300000
246.185000 1818088.400000
264.195800 949564.600000

>ms2
79.054300 61939.900000
81.069900 66141.000000
91.054300 58319.600000
93.070000 66192.400000
107.085500 95542.800000
121.064800 1222452.200000
132.057500 23296.900000
135.080200 70459.400000
138.127600 56838.000000
147.080500 841159.600000
159.080500 228735.400000
164.106600 61760.400000
173.095900 287047.900000
183.116200 17340.400000
215.143100 942827.700000
246.184800 165044.700000

>ms2
79.054200 85552.700000
81.069800 117069.300000
91.054200 149210.200000
93.069600 56917.300000
107.048700 19779.600000
107.085300 51738.700000
117.070300 18450.700000
121.064700 1571745.500000
132.056800 65916.300000
135.080400 113810.300000
147.080400 969099.500000
159.080200 214506.400000
161.095600 41806.300000
164.107300 53378.600000
173.096000 359604.900000
215.143000 108377.900000

>ms2
67.054300 23398.400000
69.070100 22636.800000
77.038300 29255.800000
79.054300 90444.800000
81.069900 137221.000000
91.054300 356201.700000
93.070000 52362.900000
105.069500 20060.000000
107.085700 37555.900000
115.053800 20822.100000
117.069700 53647.000000
119.060600 23550.100000
119.085600 31354.200000
121.064900 1624801.700000
132.057000 98835.200000
135.080400 109225.400000
145.064700 31651.900000
147.080500 634292.600000
149.083900 50581.000000
155.085300 16652.000000
158.072500 95019.400000
159.080600 149526.900000
161.096700 20957.900000
173.096200 172099.300000

>ms2
67.054200 23002.700000
77.038700 58012.300000
78.046500 26553.000000
79.054300 108261.200000
81.069900 145912.300000
91.054200 574005.800000
93.069900 35813.200000
105.045100 22991.400000
105.070000 39301.700000
107.048900 62260.000000
107.085900 22908.500000
115.054100 83446.800000
117.069900 80381.900000
119.059900 20974.000000
119.085300 36274.400000
121.064800 1370451.500000
128.061800 29202.800000
129.069800 33849.900000
130.077900 17645.200000
131.048900 32313.800000
132.057000 90097.400000
135.080200 53963.600000
141.069600 35403.000000
144.056800 59169.200000
145.064700 24360.800000
146.072400 19813.400000
147.080400 236869.700000
148.075200 55163.400000
149.083100 38706.600000
158.072800 124924.400000
159.080300 65462.000000
161.096400 17554.100000
173.095400 44585.200000

>ms2
121.064500 48854.000000
215.143000 243836.600000
246.185200 3309940.700000
264.196000 8093052.900000

>ms2
79.054100 10076.100000
91.054200 23298.900000
93.069900 11228.000000
107.085500 16625.500000
121.064800 327224.600000
138.127700 34213.400000
147.080400 167726.100000
159.080400 37322.800000
164.106700 14449.800000
173.096100 34586.400000
215.143100 1293483.700000
246.185100 1353839.900000
264.195400 588312.900000

>ms2
79.054300 38889.800000
81.070000 19087.800000
91.054200 32509.700000
93.069900 33085.200000
107.085400 43621.900000
121.064800 814851.600000
132.056600 25388.000000
135.080300 53202.300000
138.127800 37014.300000
147.080400 579705.700000
159.080400 155817.400000
161.096100 13178.300000
164.107300 33003.000000
173.096100 221781.500000
183.116300 18063.500000
187.112200 17868.600000
215.143000 645793.800000
246.185100 120003.900000

>ms2
67.054100 7011.500000
69.069900 16365.700000
79.054200 61295.400000
81.069900 61643.700000
91.054200 88193.200000
93.069900 43143.100000
107.049000 9061.700000
107.085400 34256.600000
121.064800 1009875.500000
132.056900 34836.900000
135.080300 76153.900000
141.069900 6900.000000
144.056400 8859.900000
145.064900 16375.200000
147.080400 623895.600000
149.083800 22290.700000
158.072600 25899.000000
159.080300 140247.800000
161.096000 17632.500000
163.098900 23509.100000
164.106900 41946.300000
173.096000 205843.700000
183.116900 22240.100000
187.112600 11436.500000
215.143100 68308.500000

>ms2
69.069700 19145.500000
77.038500 12810.300000
79.054200 64239.400000
81.069900 83679.100000
91.054200 210142.200000
93.069800 28314.500000
105.070000 11121.500000
107.049000 16345.100000
107.085600 19907.300000
115.054100 24939.500000
117.070100 34185.100000
119.060100 12351.600000
119.085700 15989.400000
121.064800 947206.500000
132.056900 62831.600000
135.080300 56311.100000
144.056800 18814.200000
146.072100 8741.400000
147.080400 363480.200000
148.075600 17575.900000
149.083600 35922.800000
158.072600 60690.200000
159.080300 76106.100000
164.106700 10755.900000
173.095900 105569.600000

>ms2
67.054300 10424.400000
69.069900 7947.400000
77.038600 32847.500000
78.046500 12184.900000
79.054200 61851.100000
81.069900 85306.200000
91.054200 317390.900000
93.069900 12343.400000
105.044800 8526.500000
105.069800 21304.200000
107.049100 27642.000000
107.085500 6824.500000
115.054200 48631.100000
117.069900 38576.600000
119.060400 9131.900000
119.085500 16283.700000
121.064800 797070.500000
128.062000 20471.200000
129.069800 13659.200000
130.077500 4539.800000
131.049100 18259.200000
132.057000 53340.600000
135.080400 34303.600000
141.069800 14085.600000
144.056900 31417.300000
145.064700 19549.200000
146.072400 9636.000000
147.080400 144954.100000
148.075600 26636.300000
149.083500 24997.000000
155.086100 5278.800000
158.072600 64019.400000
159.080400 49161.700000
163.099400 6152.400000
173.095900 28523.400000

