>compound EA12466307
>parentmass 364.0737
>ionization [M+H]+
>formula C14H13F4N3O2S
>rt 702.000000
>profile orbitrap
#smiles_iso CC(C)N(C1=CC=C(C=C1)F)C(=O)COC2=NN=C(S2)C(F)(F)F
#smiles_can CC(C)N(C1=CC=C(C=C1)F)C(=O)COC2=NN=C(S2)C(F)(F)F
#inchikey IANUJLZYFUDJIH-UHFFFAOYSA-N
#pubchem_id 86429
#mb_accession EA070902,EA070903,EA070904,EA070905,EA070906,EA070907,EA070908,EA070909,EA070910,EA070911,EA070912,EA070913

>ms2
109.044600 21740.100000
124.055600 39028.100000
152.050600 592506.800000
152.087000 115373.100000
166.102700 16243.800000
194.097500 2442791.000000
364.073300 225361.400000

>ms2
109.044700 91281.600000
110.039500 4105.300000
124.055600 188581.900000
152.050600 2062841.300000
152.087000 255134.300000
166.102600 61021.700000
194.097500 746449.800000

>ms2
57.069900 5791.900000
97.044700 17163.800000
104.049600 2725.000000
109.044800 249427.400000
110.039500 3834.400000
124.055700 756100.800000
125.039300 3253.700000
132.043800 5179.400000
152.050700 1808978.000000
152.087000 262325.000000
166.102600 36225.800000
194.097600 44560.200000

>ms2
96.037100 3122.500000
97.044700 107067.500000
104.049400 5065.300000
109.044700 332009.900000
110.039900 12975.100000
112.056000 6304.300000
123.023900 28317.100000
124.055600 1263780.900000
125.039400 9085.300000
132.044300 11546.300000
134.040000 7277.500000
152.050600 853168.000000
152.086900 235495.100000
160.049900 4176.000000
166.102400 8704.800000

>ms2
83.028900 6269.400000
96.037200 9288.900000
97.044700 264998.700000
104.049500 26991.300000
105.044700 4681.400000
109.044700 321787.400000
110.040000 20753.400000
111.047800 2915.200000
112.055700 11497.100000
115.054000 8404.700000
123.024000 78568.400000
123.035700 10656.900000
124.055600 1164467.400000
125.039800 13042.300000
132.043900 12457.100000
133.044500 5161.400000
134.039800 25584.900000
135.060700 8149.400000
136.055500 6338.500000
137.063500 14172.700000
151.042300 5418.600000
152.050500 273464.500000
152.086900 118430.300000

>ms2
71.029000 3138.300000
77.038600 50259.700000
83.029100 27340.200000
96.036900 33084.300000
97.044700 329243.300000
104.049400 39162.800000
105.044500 14917.200000
107.029000 21910.200000
109.044800 276366.400000
110.040000 27715.200000
111.048000 4830.900000
112.055700 12474.700000
114.034500 2980.200000
115.054200 12151.700000
123.024000 85774.800000
123.035200 46657.900000
124.055600 772793.500000
125.039400 6275.900000
132.044600 5877.900000
133.045300 3833.200000
134.040000 20048.200000
135.047900 9065.900000
136.055600 24913.700000
137.063300 16838.800000
151.042100 9564.800000
152.050500 67326.800000
152.086900 47539.200000

>ms2
57.069700 2031.700000
109.044600 16962.100000
124.055600 25855.200000
152.050600 491455.300000
152.087000 84861.800000
166.102600 10504.700000
194.097500 1841903.300000
210.978000 2363.200000
364.073100 167283.000000

>ms2
57.069800 2162.000000
109.044700 66848.300000
124.055600 146820.200000
152.050600 1573274.700000
152.087100 171956.200000
166.102400 46338.300000
194.097500 550531.300000
210.978600 2811.500000

>ms2
57.069800 4807.100000
97.044800 10900.500000
109.044800 175830.800000
123.024000 2223.500000
124.055600 561483.700000
125.040000 1653.700000
132.044200 4278.000000
152.050600 1354253.300000
152.087000 180796.600000
166.102500 28752.900000
194.097600 23843.000000

>ms2
57.069800 4612.100000
97.044700 71516.200000
104.049300 2265.100000
109.044700 215056.100000
110.040000 6693.000000
123.024000 19649.900000
124.055600 903274.300000
125.039700 6913.900000
132.044100 8946.600000
134.040000 3918.000000
135.060200 3393.800000
152.050500 612047.800000
152.086900 165600.500000
166.102400 6058.900000
194.102900 2113.100000

>ms2
77.038500 9359.300000
83.028900 2980.600000
95.048700 2243.400000
96.036800 9000.600000
97.044700 172675.600000
104.049300 15911.800000
109.044700 210910.500000
110.039900 15950.100000
111.048000 2945.500000
112.055500 5363.000000
115.054200 4159.800000
123.023900 50000.500000
123.035100 7856.400000
124.055600 813055.400000
125.039400 9612.300000
132.044200 7428.400000
133.044600 3411.200000
135.047800 2361.000000
135.060300 4759.100000
136.055600 5442.800000
137.063300 8914.400000
147.038600 1838.000000
151.042900 5449.900000
152.050400 184350.800000
152.086800 76846.000000
160.049700 3129.800000
194.102200 4075.100000

>ms2
71.029100 1516.100000
77.038500 24618.000000
83.029100 18196.900000
95.049000 2786.500000
96.036900 21961.100000
97.044700 201144.000000
104.049400 24078.500000
105.044600 6957.500000
107.029000 7590.500000
109.044700 159649.600000
110.039900 11512.000000
111.047900 2444.200000
112.055500 4772.200000
114.034900 2748.500000
115.054100 6049.100000
123.024000 55265.200000
123.035200 27138.700000
124.055600 471830.500000
125.039700 2882.500000
132.044400 4462.200000
133.044700 2249.300000
134.039900 14928.900000
135.047700 7906.700000
135.060400 1790.800000
136.055500 10189.000000
137.063400 5493.500000
147.038900 1408.400000
151.042600 5300.700000
152.050500 39910.900000
152.086900 24474.300000

