>compound EA12449395
>parentmass 202.08539999999996
>ionization [M+H]+
>formula C7H12ClN5
>rt 456.000000
>profile orbitrap
#smiles_iso CC(C)(C)NC1=NC(=NC(=N1)N)Cl
#smiles_can CC(C)(C)NC1=NC(=NC(=N1)N)Cl
#inchikey LMKQNTMFZLAJDV-UHFFFAOYSA-N
#pubchem_id 108201
#mb_accession EA067102,EA067103,EA067104,EA067105,EA067106,EA067107,EA067108,EA067109,EA067110,EA067111,EA067112,EA067113

>ms2
146.023100 1214789.700000
202.085600 12165178.100000

>ms2
79.006100 26649.500000
146.022900 6883635.300000
202.085600 7567847.400000

>ms2
57.070000 31081.900000
61.979200 22069.500000
68.024300 67585.400000
79.005900 90858.200000
104.001100 72676.200000
110.046100 63572.600000
146.023000 11321502.900000
202.084800 1083912.800000

>ms2
57.069900 53276.100000
61.979200 28485.600000
68.024300 341606.900000
79.005800 539778.300000
104.001000 597126.100000
110.046100 229716.100000
128.056500 85747.200000
146.022900 9114468.300000

>ms2
57.069900 63766.200000
61.979200 39149.000000
68.024400 708302.000000
79.005900 1103828.300000
104.001100 1353241.400000
110.046200 336192.600000
128.056700 61852.900000
146.022900 4636072.800000

>ms2
57.070000 50398.600000
61.979300 96225.800000
68.024500 959131.300000
79.005900 1246110.100000
104.001200 1644724.000000
110.046300 260579.000000
128.056800 27853.400000
146.023000 1809905.600000

>ms2
68.024600 11342.100000
146.022900 860918.600000
202.085500 8778006.500000

>ms2
57.069800 10250.000000
79.005800 12693.500000
146.023000 4780560.100000
202.085600 5146647.700000

>ms2
57.069800 14693.300000
61.978900 11075.900000
68.024400 31607.300000
79.005800 58764.500000
104.001000 53307.300000
110.046200 56701.400000
128.056500 10716.300000
146.022900 7800075.500000
202.085300 842650.800000

>ms2
57.069900 23685.800000
61.979200 14159.900000
68.024400 219279.300000
79.005800 365987.900000
86.035000 9018.700000
104.001000 403803.300000
110.046200 176127.000000
128.056600 51447.700000
146.022900 6153009.000000
202.085600 50187.800000

>ms2
57.069900 34824.500000
61.979200 27260.000000
68.024400 499632.700000
79.005900 755457.700000
104.001100 904831.900000
110.046200 250173.300000
128.056800 46548.700000
146.023000 3077763.200000

>ms2
57.069900 26549.900000
61.979300 61402.700000
68.024400 595893.100000
79.005900 781351.600000
86.035100 4759.000000
104.001100 1041473.300000
110.046200 170553.600000
128.056700 15592.000000
146.023000 1161249.200000

