>compound EA12499046
>parentmass 285.18089999999995
>ionization [M+H]+
>formula C14H24N2O4
>rt 306.000000
>profile orbitrap
#smiles_iso CCC(CC)O[C@@H]1C=C(C[C@@H]([C@H]1NC(=O)C)N)C(=O)O
#smiles_can CCC(CC)OC1C=C(CC(C1NC(=O)C)N)C(=O)O
#inchikey NENPYTRHICXVCS-YNEHKIRRSA-N
#pubchem_id 449381
#mb_accession EA065902,EA065903,EA065904,EA065905,EA065906,EA065907,EA065908,EA065909,EA065910,EA065911,EA065912,EA065913

>ms2
94.065200 67467.800000
119.060500 11781.500000
120.044500 63361.900000
137.071000 57977.200000
138.055000 886109.400000
179.081200 51686.200000
180.065600 907688.400000
197.092300 3462122.800000
198.076100 323375.800000
215.102700 1151066.800000
268.154400 536723.700000
285.181000 2662315.400000

>ms2
60.044300 51721.600000
67.054000 18729.200000
92.049800 17092.900000
93.033500 27829.800000
94.065200 468604.500000
109.075500 15403.400000
111.044300 58719.800000
119.060300 30367.300000
120.044400 455658.000000
121.028200 28585.400000
136.075900 54925.900000
137.071000 302569.200000
138.055100 3444110.500000
139.039400 60748.100000
151.086400 12709.500000
153.102300 13408.800000
155.081600 25241.400000
156.065600 28278.400000
161.071300 20999.300000
162.054900 154935.300000
179.081400 136025.500000
180.065600 1281255.000000
197.092100 1444957.800000
198.076100 1153208.400000
215.102700 543944.300000
268.154200 172650.200000

>ms2
60.044400 85888.900000
65.038500 39459.700000
67.054200 84888.900000
68.049500 38444.100000
83.049300 22569.100000
92.049300 46021.600000
93.033500 106892.800000
94.065200 1228760.600000
95.049000 50345.100000
109.076300 77208.400000
110.060200 53522.500000
111.044000 125063.300000
111.092200 13285.200000
119.060500 43543.800000
120.044400 1012597.800000
121.028400 28654.000000
136.075700 107838.600000
137.071000 759545.500000
138.055100 3413622.800000
139.038700 58305.900000
155.081600 67122.200000
156.065600 118143.100000
161.071300 47302.900000
162.055000 275632.000000
179.081500 62709.500000
180.065600 508768.400000
197.092500 135823.300000
198.076100 622042.400000
215.103000 23143.600000

>ms2
60.044500 59392.000000
65.038600 124986.800000
67.054300 174639.500000
68.049500 41238.200000
77.038700 40096.500000
80.049600 19312.300000
82.065100 21911.300000
83.049200 47263.400000
92.049500 115973.800000
93.033600 181962.400000
93.057000 19499.100000
94.065300 1823544.900000
95.049100 62167.700000
109.052200 15008.600000
109.076000 173006.800000
110.060100 113620.800000
111.044100 63780.800000
119.060800 38841.700000
120.044600 1376354.900000
121.028400 24512.200000
133.076000 24000.200000
134.060600 31517.800000
136.075600 38916.900000
137.071100 743547.500000
138.055100 2084868.200000
139.039100 26084.900000
155.081300 22091.800000
156.065600 83478.000000
161.071100 36566.500000
162.055100 124779.900000
179.081200 14942.600000
180.065800 82233.500000
198.075900 95169.700000

>ms2
53.038700 14700.500000
60.044400 43668.600000
65.038600 235419.200000
67.054300 268127.400000
68.049500 48062.900000
77.038600 129605.700000
80.049500 68615.500000
82.065100 73725.900000
83.049300 40833.100000
92.049500 277711.000000
93.033600 317301.000000
93.057300 82201.600000
94.065200 1765125.300000
95.049000 66072.700000
105.044600 34660.600000
108.044400 18629.800000
109.052000 20352.900000
109.076100 177663.200000
110.060000 235469.300000
111.044300 23136.100000
119.060500 72995.100000
120.044400 1329827.300000
121.028000 22899.800000
133.076200 15505.700000
134.059700 22721.600000
137.071000 356640.900000
138.055000 977419.800000
156.066200 13868.300000
161.071100 14548.700000
162.055000 36549.500000

>ms2
53.038500 21086.400000
60.044500 31585.900000
65.038600 364853.900000
67.054300 316357.300000
68.049500 37196.000000
77.038600 261004.600000
80.049500 112246.600000
81.057600 10309.000000
82.065200 116619.300000
83.049200 29768.900000
92.049500 468796.600000
93.033600 329575.300000
93.057300 155042.500000
94.065200 1311275.000000
95.049100 65150.500000
105.044800 94545.600000
108.044400 21173.600000
109.052300 28002.100000
109.076000 117872.400000
110.060100 246883.400000
111.043600 9250.200000
119.060500 83915.400000
120.044500 827465.100000
137.071000 111108.500000
138.055000 279059.900000

>ms2
93.057500 5191.700000
94.065100 56486.800000
120.044500 59596.700000
136.075800 8079.300000
137.071000 49274.400000
138.055100 814097.300000
139.038600 7338.800000
162.054900 19896.900000
179.081400 43055.700000
180.065700 839568.900000
197.092400 3076919.200000
198.076200 342632.300000
215.102800 1005613.600000
268.154400 460028.600000
285.181200 2365850.000000

>ms2
60.044400 47361.000000
67.054200 21920.900000
68.049600 12224.100000
77.038400 8194.600000
93.033600 20427.100000
94.065200 359728.400000
95.048800 7467.900000
109.076000 18682.700000
110.060200 12484.700000
111.044000 49435.500000
112.039400 7624.600000
119.060400 32679.100000
120.044500 334384.100000
121.028500 27837.900000
136.075900 51833.100000
137.071000 261329.400000
138.055100 2718773.800000
139.039000 41051.900000
151.086700 11930.900000
153.102100 12446.200000
155.081800 16390.100000
156.065500 26489.500000
161.070700 13111.500000
162.055100 141641.300000
179.081500 125621.900000
180.065600 1005405.500000
197.092200 1190044.200000
198.076200 913784.000000
215.102700 405774.900000
268.154400 134978.200000
285.181800 30994.700000

>ms2
60.044400 55272.600000
65.038600 28406.400000
67.054300 68602.300000
68.049500 28775.800000
77.038700 20335.800000
83.049200 22829.100000
92.049600 31456.400000
93.033600 71734.300000
93.057300 5750.000000
94.065200 949785.000000
95.049200 33584.200000
108.044600 5050.600000
109.076100 51835.800000
110.060100 41595.000000
111.044100 81729.600000
111.091700 6290.100000
112.039200 6136.500000
119.060600 33247.500000
120.044500 717403.600000
121.028400 18723.700000
133.076200 17219.600000
136.075800 73710.100000
137.071100 537295.600000
138.055100 2429463.400000
139.039000 30069.900000
151.086800 12019.500000
155.081600 43637.000000
156.065600 95163.400000
161.071100 30483.500000
162.055100 196122.200000
179.081700 54790.000000
180.065600 364368.400000
197.092200 99605.000000
198.076200 432231.200000
215.101900 19470.200000

>ms2
60.044400 45096.400000
65.038600 64159.100000
67.054300 126824.200000
68.049500 29643.100000
77.038500 24333.500000
80.049500 7426.500000
82.065200 19531.500000
83.049200 29784.900000
92.049500 81907.300000
93.033500 142133.400000
93.057400 14870.500000
94.065200 1316139.400000
95.049200 42949.900000
108.044800 7800.300000
109.076100 117643.000000
110.060100 94106.400000
111.044200 48376.300000
112.039200 5670.700000
119.060400 27651.400000
120.044500 972624.000000
121.028400 22452.500000
133.076200 21305.700000
134.060200 22660.200000
136.075900 28530.100000
137.071000 515265.200000
138.055100 1514992.700000
139.039100 14101.300000
151.087200 9143.700000
155.081600 22576.700000
156.065600 53790.800000
161.070800 35105.500000
162.055000 122647.400000
179.082200 5975.000000
180.065600 56383.500000
198.076100 60402.600000

>ms2
53.038600 8847.800000
60.044400 30831.800000
65.038600 140604.500000
67.054300 192164.700000
68.049600 27827.700000
77.038600 83264.100000
80.049500 36959.200000
82.065100 39056.000000
83.049200 22007.100000
92.049600 173215.100000
93.033600 204131.100000
93.057300 50940.000000
94.065200 1190157.000000
95.049200 49891.800000
105.044800 29595.700000
108.044600 16774.700000
108.068000 6957.300000
109.052000 7183.100000
109.076100 107206.900000
110.060100 164018.300000
111.044100 27122.900000
119.060400 49290.500000
120.044500 878184.200000
121.028400 8704.000000
134.060200 22666.800000
137.071000 220556.800000
138.055000 661421.600000
156.065200 11169.500000
161.071300 10405.400000
162.055100 30429.900000

>ms2
53.038500 13123.200000
60.044400 21418.500000
65.038600 204318.500000
67.054300 179322.500000
68.049500 21643.900000
77.038600 140061.400000
80.049500 55169.100000
81.057400 3455.500000
82.065200 61740.200000
83.049200 13882.700000
92.049500 261955.800000
93.033600 206630.400000
93.057300 97359.900000
94.065200 813475.600000
95.049200 39170.100000
105.044800 44903.600000
108.044400 12906.600000
108.068200 10265.700000
109.052200 12521.900000
109.076100 67730.400000
110.060100 144427.000000
119.060400 47389.900000
120.044500 549860.200000
121.028300 5535.500000
133.076300 4890.300000
134.060200 9260.400000
137.071000 58666.800000
138.055000 175311.700000
162.055600 3612.800000

