>compound EA13684013
>parentmass 264.07900000000006
>ionization [M+H]+
>formula C9H11F2N3O4
>rt 60.000000
>profile orbitrap
#smiles_iso C1=CN(C(=O)N=C1N)[C@H]2C([C@@H]([C@H](O2)CO)O)(F)F
#smiles_can C1=CN(C(=O)N=C1N)C2C(C(C(O2)CO)O)(F)F
#inchikey SDUQYLNIPVEERB-QPPQHZFASA-N
#pubchem_id 60750
#mb_accession EA260302,EA260303,EA260304,EA260305,EA260306,EA260307,EA260308,EA260309,EA260310,EA260311,EA260312,EA260313

>ms2
112.050500 324614.000000
264.079300 2123173.900000

>ms2
59.029200 6883.600000
79.035300 4364.500000
87.024100 28781.300000
95.023900 3192.300000
107.030200 13375.600000
112.050700 1440873.100000
135.025400 6084.100000
190.080300 3429.600000
264.078900 551988.100000

>ms2
59.029100 22149.600000
79.035300 22331.500000
87.024000 68039.200000
95.023800 5688.200000
107.030300 25375.000000
112.050600 1507935.900000
135.025500 5295.100000
264.078500 27681.500000

>ms2
59.029200 34962.200000
69.044800 10039.300000
73.028600 4004.800000
79.035400 30591.400000
87.024100 60313.800000
94.040100 4919.600000
95.024000 23341.200000
107.030100 10912.200000
112.050700 1227267.600000
264.079700 4357.500000

>ms2
59.029100 39810.900000
69.044700 34966.400000
73.028100 3957.400000
79.035400 14814.900000
87.024100 36008.700000
94.040100 17281.800000
95.024000 104272.000000
107.029900 4083.200000
112.050500 940217.100000

>ms2
59.029100 36070.300000
67.028900 7724.900000
68.013100 6245.100000
69.044700 57081.300000
73.028100 3824.000000
79.035400 8743.300000
87.024100 18440.800000
89.019500 3373.900000
94.040000 37380.400000
95.024000 180415.400000
112.050600 580030.800000

>ms2
112.050500 180642.000000
264.079100 1276323.900000

>ms2
59.029200 2964.700000
79.035300 5169.700000
87.024000 14246.200000
107.030300 6669.100000
112.050500 883255.300000
135.025200 4614.700000
264.078800 326577.700000

>ms2
59.029100 11913.400000
79.035400 8276.000000
87.024000 34899.300000
95.023700 2400.400000
107.030300 15299.300000
112.050600 919654.000000
135.025300 5866.300000
264.078700 11716.400000

>ms2
59.029100 21035.200000
69.044800 3180.300000
79.035400 13863.100000
87.024100 29934.900000
94.039900 3720.200000
95.024000 18118.300000
107.030200 7611.000000
112.050600 759730.000000

>ms2
59.029100 26119.100000
69.044700 17904.300000
79.035400 6359.300000
87.024100 22846.400000
89.019800 1695.400000
94.040000 11867.000000
95.024000 53787.000000
112.050600 583091.600000

>ms2
59.029100 22782.200000
67.029100 4992.700000
68.013000 2680.500000
69.044700 32270.700000
73.028500 1921.700000
79.035300 3404.600000
87.024000 10764.700000
94.039900 22050.000000
95.024000 117147.100000
112.050500 347930.400000
190.079400 1707.800000

