>compound EA14926532
>parentmass 353.0914000000001
>ionization [M+H]+
>formula C14H16N4O5S
>rt 378.000000
>profile orbitrap
#smiles_iso CC(=O)NC1=CC=C(C=C1)S(=O)(=O)NC2=NC(=CC(=N2)OC)OC
#smiles_can CC(=O)NC1=CC=C(C=C1)S(=O)(=O)NC2=NC(=CC(=N2)OC)OC
#inchikey DQWIIKBKAIPUPY-UHFFFAOYSA-N
#pubchem_id 168167
#mb_accession EA024502,EA024503,EA024504,EA024505,EA024506,EA024507,EA024508,EA024509,EA024510,EA024511,EA024512,EA024513

>ms2
353.091800 2012190.000000

>ms2
93.033900 5524.500000
108.044400 44652.300000
134.060100 74513.600000
136.074800 6002.800000
148.076200 6559.700000
150.054500 12570.500000
154.061100 24891.800000
155.068900 87289.000000
156.076900 206440.000000
162.066300 24415.600000
164.071000 11628.100000
198.022000 150632.600000
212.037600 12019.100000
218.022900 53263.500000
257.104000 14165.500000
287.114000 131588.500000
321.065500 44782.400000
353.091700 1503155.500000

>ms2
65.038600 48650.600000
92.049600 7511.600000
93.033400 26622.800000
93.057000 8447.700000
108.044400 203047.500000
116.049100 6257.600000
124.023000 3450.100000
125.058400 29126.400000
126.066200 29811.400000
127.050000 19162.700000
133.052700 4568.500000
134.060100 468191.000000
136.075200 11019.000000
140.045700 16192.800000
148.075700 16442.900000
150.055000 17355.700000
154.061200 242148.600000
155.069000 308461.600000
156.011400 31676.400000
156.076800 372381.600000
157.048500 19825.000000
159.055000 8818.500000
162.066300 55056.100000
164.070600 31680.600000
170.055800 11899.600000
173.058700 10078.000000
198.021900 147270.300000
215.068800 32927.700000
218.022900 75762.100000
230.080500 11896.700000
245.103800 24905.900000
257.104600 11086.300000
272.091000 13987.200000
287.113800 135175.700000
321.065500 21687.900000
353.091600 114595.400000

>ms2
65.038600 184766.900000
81.044500 6342.600000
84.032000 4044.100000
86.023800 4240.200000
92.049500 28872.800000
93.033600 31724.400000
93.057400 8529.800000
96.055700 3971.200000
106.065400 8278.200000
108.044500 202767.700000
109.039100 6733.600000
110.034900 14176.900000
116.049400 4395.500000
124.021400 5470.200000
125.058400 56963.900000
126.066200 59421.600000
127.050300 36785.900000
134.060100 439883.300000
139.038200 4348.700000
140.045500 33060.800000
141.053100 16508.600000
148.075200 5025.200000
154.061200 398942.100000
155.069000 110838.100000
156.011400 15564.500000
156.076900 233257.400000
157.048300 53380.300000
162.066500 17714.200000
164.070800 18231.100000
173.058400 66540.800000
198.022000 11015.200000
215.068500 25752.600000
218.023100 11915.300000
230.080300 29649.500000
245.103700 12962.600000
272.091000 5007.100000

>ms2
56.049600 4862.600000
58.028800 6319.300000
65.038600 291884.300000
67.029200 14837.600000
68.012900 7526.500000
68.036800 3618.000000
79.054300 7527.400000
81.044600 12178.900000
84.031900 8919.200000
86.023300 5567.200000
92.049500 63968.100000
93.033400 20960.200000
93.057600 8186.900000
96.055800 14267.500000
99.055200 6917.600000
106.065000 21948.200000
108.044400 178409.600000
109.039500 12657.800000
110.034800 45967.400000
110.060300 6507.800000
111.055700 5495.900000
124.050800 7408.500000
125.058400 46533.600000
126.066100 63096.300000
127.050500 15256.700000
134.060000 161514.700000
140.045400 30102.800000
141.053200 24865.000000
154.061100 341220.600000
155.068900 17319.400000
156.076700 87635.400000
157.048200 53491.800000
172.050100 8015.400000
172.075600 4284.300000
173.058400 79958.600000

>ms2
57.044600 5174.500000
58.028900 7142.700000
65.038600 264620.800000
67.029100 43622.500000
68.013100 13694.200000
69.044700 11565.300000
72.044300 8802.400000
77.038800 7506.200000
78.033900 6590.200000
79.054300 13239.700000
80.049500 13373.300000
81.044800 30084.300000
82.028600 9521.300000
84.032000 10591.200000
85.039600 6101.500000
92.049500 68368.900000
93.033900 9437.900000
93.057500 10619.100000
95.023600 5054.500000
95.047900 9084.600000
96.055700 15530.700000
97.063800 7018.600000
98.071200 13987.500000
99.055300 14972.600000
106.065000 19686.000000
108.044400 126623.100000
109.039700 20245.700000
110.034900 77691.700000
111.055200 14457.000000
113.034500 12561.200000
124.050400 5566.000000
125.058400 20807.200000
126.066100 47725.600000
127.037300 4414.500000
134.060000 44145.500000
140.045400 14834.900000
141.052900 22270.400000
145.063100 8935.100000
154.061100 203039.000000
156.076700 23104.800000
157.047900 19076.400000
172.050800 14469.200000
172.074400 6454.700000
173.058600 34206.000000

>ms2
155.069100 2218.600000
156.076900 3177.700000
353.091800 1851078.400000

>ms2
65.038600 3920.000000
92.049400 1888.500000
93.033600 3244.600000
108.044400 41235.400000
134.060000 66370.600000
136.075400 4001.000000
148.075900 4062.800000
150.055200 12302.000000
154.061200 17294.900000
155.068900 72524.400000
156.076800 167423.200000
162.066200 18215.000000
164.070800 8775.000000
170.056000 5883.100000
198.022000 117730.300000
212.037700 11700.800000
218.023100 45582.700000
245.103600 3007.300000
257.103700 11431.300000
287.113800 103129.800000
321.065300 29771.000000
353.091800 1292146.100000

>ms2
65.038700 36342.000000
92.049500 6890.500000
93.033600 22891.300000
93.057300 5559.400000
108.044500 154198.000000
116.049800 4209.100000
124.022200 3898.100000
125.058500 19875.000000
126.066300 21838.700000
127.050400 19977.600000
133.052400 3219.200000
134.060200 373782.200000
136.075700 4877.800000
140.045600 12079.100000
142.061100 2534.900000
148.075700 7895.800000
150.055000 9585.500000
154.061300 183400.300000
155.069100 248593.900000
156.011500 22914.600000
156.076900 281834.200000
157.048200 15005.600000
159.055400 6239.400000
162.066400 40141.500000
164.070700 23961.700000
170.055800 8143.300000
173.058600 10615.200000
198.022100 102657.700000
212.037700 6613.200000
215.069200 33429.800000
218.023200 61593.400000
230.080000 9262.600000
245.103500 19543.400000
257.103400 10039.600000
272.090900 12847.500000
287.114100 116136.900000
321.065100 12260.200000
353.092000 90747.300000

>ms2
57.044700 2905.100000
65.038600 125378.900000
67.029100 5646.300000
72.044500 2533.100000
80.049400 2274.200000
81.044900 4381.200000
86.023800 2951.900000
92.049500 20889.900000
93.033500 20611.600000
93.057300 7000.800000
94.065000 2422.100000
96.055500 3232.300000
97.063700 4048.900000
99.018700 3114.300000
99.055400 3669.300000
106.065100 9944.400000
108.044400 138281.400000
109.039700 3463.700000
110.034900 9636.900000
116.049600 3258.700000
124.021900 2526.100000
125.058400 39343.400000
126.066200 43869.500000
127.050300 19075.400000
134.060100 313841.100000
136.076100 2486.100000
139.037100 3596.500000
140.045500 28243.500000
141.053200 9486.900000
142.061500 2108.200000
148.075800 2915.100000
154.061200 276471.500000
155.069000 87765.600000
156.011300 13714.700000
156.076800 154088.400000
157.048200 40472.300000
162.066300 10728.000000
164.070700 17121.700000
170.055600 2055.000000
173.058500 46471.200000
198.022100 6666.000000
215.069000 23028.400000
218.023100 9343.900000
230.079900 15691.500000
245.103200 8343.800000
287.113500 7334.000000

>ms2
57.044700 2676.600000
58.029000 1631.300000
65.038600 178302.000000
67.029100 11496.600000
69.044700 4946.200000
72.044600 2856.300000
79.054200 6737.100000
81.044800 8221.800000
82.028800 3756.400000
84.031900 6843.700000
85.039500 4912.100000
86.023800 2560.500000
92.049500 31406.800000
93.033500 13983.800000
93.057300 6755.000000
94.065000 2264.400000
95.024200 2054.900000
95.047800 2377.100000
96.055500 7005.800000
97.063600 5198.300000
98.047700 2504.300000
98.071100 3645.300000
99.019000 3827.200000
99.055400 7946.400000
106.065200 13219.000000
108.044400 115665.600000
109.039700 8157.300000
110.034900 30191.100000
110.060100 3594.200000
111.018900 3678.600000
111.055500 3733.400000
116.049900 2261.600000
124.050500 6247.600000
125.058400 29155.600000
126.066200 38629.000000
127.037900 2309.700000
127.050200 9985.100000
134.060000 105998.600000
139.037500 2380.400000
140.045400 14351.800000
141.053200 19089.100000
145.062700 2276.500000
154.061100 220359.400000
155.068900 12924.200000
156.076700 57948.300000
157.048200 32337.000000
162.066500 2641.300000
164.070500 6651.300000
172.050400 5687.200000
172.074900 3508.400000
173.058400 48319.600000
173.081600 2472.800000
230.080300 3679.900000

>ms2
56.049500 3423.900000
57.044700 1842.000000
58.028700 2025.000000
65.038600 149294.900000
67.029100 18601.000000
68.013100 6470.600000
68.036900 1884.100000
69.044800 4993.700000
72.044400 4415.500000
77.038600 2138.200000
78.033900 2679.200000
79.054200 8387.200000
80.049500 6969.100000
81.044700 15389.100000
82.028800 7347.800000
84.031800 4508.200000
85.039600 3149.900000
92.049500 33798.300000
93.033500 4470.500000
93.057300 4465.300000
94.065000 1858.600000
95.024000 3638.400000
95.047900 7324.800000
96.055600 4004.400000
97.063400 3471.100000
98.047600 2466.100000
98.071300 8353.800000
99.055300 7662.400000
106.065100 12019.600000
108.044400 71834.500000
109.039700 13297.900000
110.034900 40896.600000
110.060200 4581.600000
111.019000 2371.900000
111.055300 9424.000000
113.034600 5845.900000
124.050600 6470.500000
125.058400 11734.500000
126.066200 26468.000000
127.037400 2268.500000
127.050200 3380.700000
134.060000 17855.600000
140.045400 7221.600000
141.053200 9496.500000
145.063500 4114.200000
154.061200 113371.000000
156.076900 15113.500000
157.048200 10091.500000
164.071000 1280.400000
172.050600 7472.800000
173.058400 16974.500000
173.083000 1414.300000

