>compound EA14899780
>parentmass 212.0837
>ionization [M+H]+
>formula C11H14ClNO
>rt 516.000000
>profile orbitrap
#smiles_iso CC(C)N(C1=CC=CC=C1)C(=O)CCl
#smiles_can CC(C)N(C1=CC=CC=C1)C(=O)CCl
#inchikey MFOUDYKPLGXPGO-UHFFFAOYSA-N
#pubchem_id 4931
#mb_accession EA070802,EA070803,EA070804,EA070805,EA070806,EA070807,EA070808,EA070809,EA070810,EA070811,EA070812,EA070813

>ms2
152.025000 15798.500000
170.037200 1145525.400000
212.083800 10992053.200000

>ms2
94.065100 49754.700000
106.064900 17996.800000
152.026200 214257.800000
170.036900 6719328.300000
194.073400 17548.300000
212.084000 5422127.000000

>ms2
76.978500 18476.200000
77.038400 27514.400000
91.054400 25012.200000
94.065100 409484.100000
95.049100 97711.800000
106.065100 381047.200000
134.059900 124079.600000
152.026100 576186.500000
170.036800 9548813.200000
194.073300 23993.600000
212.083100 521844.900000

>ms2
76.978700 51071.300000
77.038400 65568.500000
79.054100 41495.100000
91.054200 90607.600000
93.056900 14195.400000
94.065100 1789643.400000
95.049100 320503.100000
106.065100 1325857.200000
125.015600 10569.400000
134.060000 225133.800000
152.026100 781297.500000
170.036700 5088400.800000

>ms2
75.995000 12844.800000
76.978900 107404.900000
77.038600 227137.200000
79.054300 107089.400000
91.054300 120940.200000
93.057400 29124.100000
94.065200 2952807.300000
95.049200 322526.400000
105.044700 63191.500000
106.065200 1642437.900000
112.007300 10664.800000
117.057300 13744.900000
125.015600 24053.400000
134.060000 117252.500000
152.026300 616080.500000
170.036800 1571642.200000

>ms2
53.038600 21543.600000
75.994800 11027.900000
76.978800 90771.000000
77.038500 498322.200000
79.054200 176682.900000
91.054200 91160.500000
92.061800 10228.800000
93.057300 48844.200000
94.065100 2611727.300000
95.049100 262660.300000
105.044700 144260.500000
106.065100 1201695.700000
112.007200 14938.500000
117.057500 26545.300000
125.015100 40389.700000
134.060100 34188.800000
152.026000 231473.700000
170.037000 304265.300000

>ms2
94.065200 8644.300000
152.026100 19921.800000
170.036700 748676.500000
212.083700 7364838.500000

>ms2
76.978800 6440.500000
77.038200 6404.800000
94.064800 21107.700000
106.065100 12170.100000
152.026200 161242.800000
170.036800 5048301.000000
194.072900 5885.000000
212.083700 3868384.400000

>ms2
76.978500 11555.600000
77.038300 15065.000000
91.054200 17947.800000
94.065100 303355.200000
95.049100 76177.500000
106.065100 256944.700000
134.060000 81240.700000
152.026100 378991.100000
170.036700 6327781.900000
194.072800 23533.000000
212.083700 391823.400000

>ms2
76.978800 31813.700000
77.038500 49312.500000
79.054200 28454.900000
91.054200 54958.100000
93.057200 12674.300000
94.065100 1174651.700000
95.049100 209663.100000
105.044600 8254.600000
106.065100 905840.200000
117.057300 5210.200000
125.015500 11335.500000
134.060000 134775.600000
152.026100 497402.100000
170.036700 3422345.200000
194.073200 5525.700000
212.084300 27993.000000

>ms2
53.038400 4032.800000
75.995000 7707.300000
76.978800 56266.500000
77.038500 131298.700000
79.054200 79261.800000
91.054200 65095.800000
93.057200 21893.200000
94.065100 1807211.000000
95.049100 208805.600000
105.044700 42917.100000
106.065100 1038464.400000
112.007300 8127.700000
117.057000 15114.400000
125.015200 17878.100000
134.060000 79164.100000
152.026100 338542.500000
170.036600 923032.200000

>ms2
53.038500 10364.300000
75.994800 7043.100000
76.978900 48128.700000
77.038600 272865.500000
79.054300 102856.800000
91.054200 39351.800000
92.062100 6678.900000
93.057300 23204.400000
94.065200 1511569.300000
95.049200 135567.800000
105.044700 74097.500000
106.065200 683279.600000
112.007400 8623.900000
117.057300 12018.300000
125.015200 15277.700000
134.060000 26471.400000
152.026200 116527.700000
170.036700 146529.700000

