>compound EA14108693
>parentmass 178.12259999999995
>ionization [M+H]+
>formula C11H15NO
>rt 258.000000
>profile orbitrap
#smiles_iso CC1=CC=C(C=C1)C(=O)C(C)NC
#smiles_can CC1=CC=C(C=C1)C(=O)C(C)NC
#inchikey YELGFTGWJGBAQU-UHFFFAOYSA-N
#pubchem_id 45266826
#mb_accession EA282702,EA282703,EA282704,EA282705,EA282706,EA282707,EA282708,EA282709,EA282710,EA282711,EA282712,EA282713

>ms2peaks
147.080600 250897.700000
160.112300 5753862.000000
178.122800 15430961.100000

>ms2peaks
58.065000 33446.300000
115.049700 18016.200000
119.085400 118837.500000
145.088600 383621.000000
147.080500 924595.500000
160.112300 15015741.000000
178.122900 6758998.400000

>ms2peaks
58.065200 64552.500000
91.054100 24896.900000
119.085600 687024.000000
129.069600 46881.000000
144.080800 107545.900000
145.088700 4240118.100000
147.080500 894237.700000
160.112300 15275695.100000
178.122000 628043.700000

>ms2peaks
58.065200 78291.700000
91.054300 123693.900000
117.070100 74133.500000
119.085600 1792902.700000
129.070100 52713.200000
130.065000 62992.400000
131.085900 44943.100000
144.080900 500850.900000
145.088800 10260169.400000
147.080500 355399.400000
158.097000 60896.100000
159.104800 49603.000000
160.112300 7770895.200000

>ms2peaks
58.065200 108279.700000
91.054400 477564.400000
93.069900 70184.500000
103.054400 64945.400000
104.062200 23331.800000
105.070100 39563.500000
116.062400 36190.500000
117.070000 341872.200000
119.085700 2298076.500000
129.070100 68644.300000
130.065300 292284.200000
131.086100 37551.200000
144.081100 2465262.700000
145.088800 11036855.300000
147.080000 53180.400000
158.096700 59635.300000
159.104000 78426.300000
160.112400 2375006.900000

>ms2peaks
58.065200 129415.600000
77.038400 45436.000000
79.054400 53823.300000
91.054300 1126209.800000
93.070000 141603.800000
103.054300 221684.500000
104.062100 120704.100000
105.069800 49920.800000
115.053800 70908.500000
116.062200 87612.700000
117.070000 668597.500000
119.085600 1830982.200000
128.062500 33332.100000
129.070100 57176.200000
130.065100 569361.500000
131.060300 28240.400000
131.085800 40526.100000
144.081000 5606268.500000
145.088700 7403223.700000
158.096700 97102.900000
159.104300 44576.300000
160.112700 558285.700000

>ms2peaks
119.049000 18101.900000
119.085200 23157.300000
142.064800 14960.000000
144.081000 39449.100000
147.080400 184276.500000
158.096800 19510.900000
160.112200 4775600.000000
178.122800 12573044.800000

>ms2peaks
58.065100 24293.800000
119.085500 121658.700000
145.088600 327234.000000
147.080500 719332.600000
160.112200 12202151.100000
178.122800 5418276.300000

>ms2peaks
58.065200 49271.500000
119.085600 610382.700000
129.069900 35436.600000
130.064700 16109.700000
144.080500 48697.100000
145.088700 3618526.100000
147.080500 776093.700000
158.095700 18874.600000
160.112200 12284454.700000
178.122600 607036.300000

>ms2peaks
58.065100 77037.800000
91.054200 86520.300000
93.070000 20327.400000
117.069900 76963.700000
119.085600 1535337.300000
129.069900 54427.000000
130.065000 70900.800000
131.085600 44887.000000
144.080800 441059.200000
145.088700 8747070.700000
147.080400 250165.600000
158.096400 50024.000000
159.104500 40224.200000
160.112200 6877146.500000

>ms2peaks
58.065200 64199.100000
77.038600 15933.200000
79.054400 18195.700000
91.054300 351497.200000
93.069900 57611.500000
103.054300 32015.400000
104.062200 25325.000000
105.069800 15364.900000
115.054100 13010.000000
116.062000 38389.600000
117.069900 229416.200000
119.085600 1725566.800000
128.062000 21807.600000
129.069800 58904.000000
130.065200 198636.800000
131.072800 23067.700000
131.085700 39772.300000
144.080900 1827179.800000
145.088700 8284449.500000
147.080400 34286.400000
158.096500 60024.000000
159.104300 51086.600000
160.112100 1763833.300000

>ms2peaks
58.065100 72625.400000
77.038600 32400.200000
79.054200 33714.800000
91.054300 825305.600000
93.069900 87047.400000
103.054200 117378.400000
104.062100 86159.400000
105.069900 39027.700000
115.054300 56148.900000
116.062100 54581.400000
117.069900 410212.700000
119.049200 72573.600000
119.085600 1319251.700000
128.062200 30199.800000
129.069900 40436.800000
130.065200 428825.200000
131.060300 18610.300000
131.073000 14411.200000
131.085500 23224.700000
142.065800 7510.800000
144.080900 4145168.800000
145.088600 5358945.600000
147.081000 9186.100000
158.096300 61039.200000
159.104200 22361.600000
160.112100 319417.400000

