>compound EA15124793
>parentmass 329.0245
>ionization [M+H]+
>formula C14H13ClO5S
>rt 408.000000
>profile orbitrap
#smiles_iso CS(=O)(=O)C1=CC(=C(C=C1)C(=O)C2C(=O)CCCC2=O)Cl
#smiles_can CS(=O)(=O)C1=CC(=C(C=C1)C(=O)C2C(=O)CCCC2=O)Cl
#inchikey PQTBTIFWAXVEPB-UHFFFAOYSA-N
#pubchem_id 91760
#mb_accession EA029002,EA029003,EA029004,EA029005,EA029006,EA029007,EA029008,EA029009,EA029010,EA029011,EA029012,EA029013

>ms2peaks
111.044300 3650.000000
139.038900 47508.200000
157.049200 7669.100000
329.024200 865901.300000

>ms2peaks
68.997000 16726.300000
98.984200 4581.500000
111.044100 91969.000000
139.039100 639935.900000
157.049500 141807.200000
190.992600 18365.100000
293.047700 66145.900000
329.024200 242427.800000

>ms2peaks
55.017700 3264.200000
68.997100 90980.800000
111.044100 333930.100000
139.039000 526295.200000
157.049400 128458.500000
190.993000 16827.200000
214.061800 9351.000000
240.972300 5343.000000
246.051900 5965.100000
249.030700 8214.300000
293.047300 56136.900000
329.024000 5652.900000

>ms2peaks
55.017900 5286.300000
68.997100 278351.100000
78.985200 3950.300000
97.028400 11648.700000
111.044100 404296.600000
139.039000 189328.000000
157.049600 41932.600000
178.989600 4738.200000
202.062800 7557.100000
214.062500 27782.800000
240.972200 24445.100000
246.052000 14447.100000
249.031100 7730.400000
293.048600 12839.100000

>ms2peaks
55.017800 8585.500000
68.997100 390279.200000
78.984800 4787.900000
97.028400 11163.300000
98.984800 3207.400000
111.044000 219098.900000
139.038900 46449.500000
157.049200 11400.200000
177.981400 5594.900000
178.989000 19678.200000
202.062600 6876.300000
214.062500 34560.600000
240.971900 13982.300000
246.052000 17513.500000

>ms2peaks
55.017700 6541.100000
68.997100 418246.900000
97.028200 8769.100000
98.983900 5264.400000
111.044000 89561.100000
121.027900 2704.600000
139.039000 7962.500000
149.986800 11248.800000
177.982100 6455.100000
178.989600 21781.100000
202.061500 3305.800000
214.062400 17855.400000
246.053400 8937.800000

>ms2peaks
111.044100 3319.300000
139.038900 46563.700000
157.049300 8208.700000
293.047800 5597.700000
329.024300 938306.500000

>ms2peaks
68.997000 15946.800000
98.984200 3671.500000
111.044000 86149.000000
139.039000 580570.600000
157.049500 116100.200000
171.064500 2760.200000
190.992800 21348.200000
249.031700 5909.300000
293.047500 62910.200000
329.024200 227285.800000

>ms2peaks
55.017700 3369.600000
68.997000 63077.800000
97.028500 3284.900000
98.984100 7535.000000
111.044000 253245.100000
139.038900 441859.800000
157.049400 101665.200000
171.065200 2365.900000
190.992600 9107.500000
202.063300 1993.500000
214.062300 9644.100000
230.056500 2674.200000
240.971700 5635.400000
246.051500 3190.900000
249.030200 6069.600000
283.019000 6483.600000
293.047400 42151.700000
329.024100 2933.600000

>ms2peaks
55.017700 4630.000000
68.997100 188738.300000
97.028300 7580.500000
98.984200 5910.800000
111.044000 287880.900000
139.038900 135541.400000
157.049400 32536.300000
202.062400 4756.500000
214.062200 24157.400000
230.057400 2527.500000
240.972100 13558.300000
246.052300 10048.100000
249.031000 2648.500000
283.019000 3018.700000
293.047500 10039.000000

>ms2peaks
55.017700 6010.000000
68.997100 262722.000000
78.984800 1756.400000
97.028400 7951.900000
98.983900 4328.800000
111.044000 136980.800000
139.038900 25712.100000
157.049400 6917.900000
177.980900 4752.800000
178.989300 11906.800000
202.062300 4374.700000
214.062000 20708.200000
240.972100 6995.200000
246.052000 10168.600000
249.031100 2118.000000

>ms2peaks
55.017800 4176.100000
68.997100 245925.300000
97.028400 3907.400000
98.984200 4948.500000
111.044000 43012.500000
121.028400 3394.600000
139.039000 4559.200000
149.986700 10089.000000
177.981600 1790.100000
178.989400 8475.900000
202.062400 2347.500000
214.062200 8290.200000
246.051900 2820.000000

