>compound EA15594692
>parentmass 220.1332
>ionization [M+H]+
>formula C13H17NO2
>rt 282.000000
>profile orbitrap
#smiles_iso C1CCNC(C1)C(C2=CC=CC=C2)C(=O)O
#smiles_can C1CCNC(C1)C(C2=CC=CC=C2)C(=O)O
#inchikey INGSNVSERUZOAK-UHFFFAOYSA-N
#pubchem_id 86863
#mb_accession EA070102,EA070103,EA070104,EA070105,EA070106,EA070107,EA070108,EA070109,EA070110,EA070111,EA070112,EA070113

>ms2peaks
84.080800 375283.900000
220.133500 12211707.900000

>ms2peaks
84.080800 2878252.300000
174.127700 90109.500000
220.133400 9137793.000000

>ms2peaks
56.049300 21616.700000
84.080900 6423121.400000
174.127700 372922.400000
220.133300 2253488.700000

>ms2peaks
56.049400 45253.300000
70.065300 13912.500000
84.080900 6594192.800000
91.054300 39395.000000
129.070000 44373.300000
157.101300 22623.600000
174.127900 409674.600000

>ms2peaks
56.049400 63565.300000
67.054400 11782.300000
70.065200 20434.100000
84.080800 5911409.300000
91.054200 142778.800000
96.080600 20717.900000
115.054100 35242.700000
129.069700 99850.300000
146.096500 55863.100000
174.127700 264869.000000

>ms2peaks
56.049500 111688.100000
67.054300 23885.800000
70.065300 26825.100000
79.054200 24083.600000
82.065200 19125.700000
84.080900 4862567.600000
91.054200 200440.300000
96.080600 12238.800000
115.054400 44013.300000
117.070100 18984.400000
128.061900 14947.200000
129.069700 119664.900000
146.096400 33930.500000
174.127900 110056.400000

>ms2peaks
84.080800 238365.100000
220.133400 8556854.200000

>ms2peaks
56.049500 8822.700000
84.080800 2035610.800000
174.127700 49582.200000
220.133400 6349703.000000

>ms2peaks
56.049500 23613.600000
84.080900 4147296.800000
129.069300 6676.800000
174.127800 204913.000000
220.133300 1363606.900000

>ms2peaks
56.049500 20712.900000
84.080900 3962620.700000
91.054300 32231.700000
115.054300 12561.200000
129.070100 32590.800000
146.096400 11325.900000
157.101000 9807.000000
174.127800 244570.300000
220.133600 108590.500000

>ms2peaks
56.049500 33544.600000
67.054400 5919.500000
70.065200 12919.300000
82.065200 6244.300000
83.073000 8242.000000
84.080900 3209152.300000
91.054300 85759.900000
96.081000 8756.300000
115.054200 18348.600000
117.069700 8266.600000
129.069900 62161.800000
131.085500 7003.300000
146.096400 29542.500000
174.127800 152714.400000

>ms2peaks
56.049500 55304.600000
67.054300 12406.600000
70.065200 15377.900000
79.054300 6853.700000
82.065200 6154.300000
83.072800 2852.900000
84.080900 2469286.200000
91.054300 91541.700000
115.054300 23370.500000
117.070000 15996.700000
128.062100 7246.800000
129.070000 55468.900000
131.085500 3553.300000
146.096500 15724.500000
174.127900 39942.800000

