>compound EA16088431
>parentmass 205.07940000000005
>ionization [M+H]+
>formula C11H12N2S
>rt 174.000000
>profile orbitrap
#smiles_iso C1CSC2=N[C@H](CN21)C3=CC=CC=C3
#smiles_can C1CSC2=NC(CN21)C3=CC=CC=C3
#inchikey HLFSDGLLUJUHTE-SNVBAGLBSA-N
#pubchem_id 26879
#mb_accession EA285702,EA285703,EA285704,EA285705,EA285706,EA285707,EA285708,EA285709,EA285710,EA285711,EA285712,EA285713

>ms2
205.079600 17198179.300000

>ms2
91.053900 27594.100000
178.068900 67768.200000
205.079700 18867738.100000

>ms2
88.021600 128830.700000
91.053900 60821.700000
105.070200 33002.600000
117.069700 41910.500000
118.065100 42059.800000
123.026100 35939.200000
129.070000 118908.500000
144.081100 23975.200000
145.075900 100494.600000
146.096400 306323.400000
150.036500 18795.600000
178.068500 1964365.800000
188.052700 57118.700000
205.079600 16488024.800000

>ms2
61.010600 59360.900000
88.021600 321540.900000
91.054200 326150.600000
103.054500 44615.100000
105.069900 254523.200000
115.054200 22650.800000
117.057400 59683.400000
117.070000 345968.800000
118.065200 321068.600000
119.085600 52163.600000
123.026400 415307.300000
127.032200 22327.500000
128.061900 38724.100000
129.070000 575131.500000
131.072900 113531.500000
132.080700 34780.700000
135.026600 65070.300000
144.080500 124315.800000
145.076000 276356.100000
146.096600 880535.700000
150.037400 133063.100000
178.068700 6094309.100000
188.052800 139293.900000
205.079600 9862829.100000

>ms2
58.995100 23844.200000
61.010600 115902.900000
74.005900 53226.000000
77.038400 19798.400000
79.054300 61327.700000
86.005900 82682.000000
88.021600 221974.400000
91.054300 1249586.200000
103.054200 199276.000000
104.049800 39235.200000
105.069900 567710.500000
106.065200 31397.800000
115.054000 91114.300000
117.057400 266051.600000
117.069900 727831.700000
118.065200 677023.700000
119.073000 41506.400000
119.085200 81533.300000
120.080600 21812.600000
123.026300 1444282.200000
128.049700 60881.000000
128.062200 198985.400000
129.070000 823071.100000
130.065000 136644.900000
131.073000 264353.100000
132.080800 155560.800000
135.026400 200356.300000
144.080900 244556.400000
145.076000 166029.500000
146.096500 728470.100000
148.021800 48877.400000
150.037100 309765.200000
155.060300 56469.900000
178.068600 5571369.100000
188.053200 106286.000000
205.079400 3066207.400000

>ms2
58.995000 57633.300000
59.990400 29127.300000
61.010700 163641.900000
74.005900 70123.300000
77.038600 61873.100000
79.054300 151695.500000
86.006000 89224.500000
88.021700 152729.300000
91.054300 2492710.500000
103.054400 499861.500000
104.049800 59165.600000
104.062200 120882.900000
105.070000 688689.900000
106.065300 36885.100000
115.054300 269413.800000
117.057400 457681.100000
117.070000 686268.800000
118.065300 766590.100000
119.072400 31621.200000
119.085500 79844.800000
120.080800 48412.300000
123.026400 1928054.600000
128.049700 104015.700000
128.062200 501589.700000
129.070000 619467.900000
130.065200 401406.000000
131.073000 318552.600000
132.080900 262995.000000
135.026500 218115.600000
144.080900 298940.700000
145.076100 83695.500000
145.088500 34196.500000
146.059900 34444.100000
146.096600 312016.700000
148.022000 53003.600000
150.037300 242296.300000
155.060500 145767.000000
178.068600 2551250.300000
188.053100 35678.200000
205.079100 585161.400000

>ms2
205.079500 16641595.900000

>ms2
178.069300 105948.800000
205.079500 17331655.900000

>ms2
88.021600 150541.900000
91.053900 43583.200000
105.069900 15801.000000
117.069800 40522.800000
118.065100 36998.600000
123.026300 23044.400000
129.069800 93463.600000
145.076000 83641.000000
146.096500 280369.400000
150.037000 18177.100000
178.068500 1848275.400000
188.053000 74509.100000
205.079500 15089097.800000

>ms2
61.010700 48003.800000
88.021600 286352.700000
91.054200 314510.100000
103.054100 28847.200000
105.070000 208018.200000
117.057400 69841.500000
117.069900 312340.700000
118.065200 300960.500000
119.072600 12836.900000
119.085600 21501.300000
120.080600 12917.500000
123.026400 346693.500000
127.032200 29687.500000
128.049500 21857.400000
128.062000 31323.300000
129.070000 505301.400000
130.065200 29574.400000
131.073000 90246.800000
135.026300 53154.300000
144.080800 72563.500000
145.076100 198608.000000
146.096500 842948.400000
148.021900 14785.900000
150.037300 145784.000000
178.068700 5367421.400000
188.053000 111669.200000
205.079600 9141600.800000

>ms2
58.995000 24821.900000
59.990100 9630.600000
61.010600 125765.200000
74.005900 32684.400000
77.038500 24832.200000
79.054200 48378.300000
86.005900 63761.200000
88.021600 239797.700000
91.054300 1070251.200000
103.032400 17821.800000
103.054200 157475.300000
104.049600 30329.900000
104.062100 28474.000000
105.069900 487067.800000
106.065100 30678.800000
115.054300 75771.700000
117.057400 220682.300000
117.069900 613307.100000
118.065200 587692.600000
119.072900 30819.400000
119.085400 63302.300000
120.080700 27133.500000
123.026400 1296418.000000
127.032400 20016.100000
128.049500 67647.200000
128.062100 194834.000000
129.069900 733980.800000
130.065100 151016.700000
131.073000 237518.600000
132.080800 121773.200000
135.026400 170990.900000
144.080900 233297.900000
145.076100 176255.000000
146.060100 34084.300000
146.096500 626767.900000
148.021400 29782.000000
150.037200 308270.100000
155.060400 66541.000000
178.068600 4781764.900000
188.052900 97769.500000
205.079600 2767961.500000

>ms2
58.995000 29568.600000
59.990200 17668.400000
61.010600 116350.700000
74.005900 42447.600000
77.038600 58201.400000
79.054300 135558.900000
86.005900 70655.900000
88.021600 104058.700000
91.054300 2073701.200000
103.032400 26148.100000
103.054200 381798.600000
104.049500 41124.700000
104.062000 90040.900000
105.069900 528059.600000
106.065100 37468.600000
115.054200 222202.900000
117.057300 355466.700000
117.069900 576136.000000
118.065200 628938.400000
119.072900 39158.600000
119.085500 71680.200000
120.080800 41795.800000
123.026300 1623204.900000
127.032300 17262.300000
128.049500 67446.700000
128.062100 385953.000000
129.069900 508603.500000
130.065100 320779.100000
131.073000 264220.400000
132.080800 197973.800000
135.026300 162510.700000
144.080800 212864.000000
145.076000 63329.000000
145.088700 13809.700000
146.060100 34345.500000
146.096500 254787.600000
148.021600 43729.900000
150.037200 169541.000000
155.060400 150566.400000
178.068600 2233931.900000
188.052600 50002.700000
205.079300 529126.600000

