>compound EA16842243
>parentmass 389.16260000000005
>ionization [M+H]+
>formula C21H25ClN2O3
>rt 558.000000
>profile orbitrap
#smiles_iso C1CN(CCN1CCOCC(=O)O)C(C2=CC=CC=C2)C3=CC=C(C=C3)Cl
#smiles_can C1CN(CCN1CCOCC(=O)O)C(C2=CC=CC=C2)C3=CC=C(C=C3)Cl
#inchikey ZKLPARSLTMPFCP-UHFFFAOYSA-N
#pubchem_id 2678
#mb_accession EA277202,EA277203,EA277204,EA277205,EA277206,EA277207,EA277208,EA277209,EA277210,EA277211,EA277212,EA277213

>ms2
165.069300 4445.000000
187.107400 8537.800000
201.046300 255423.300000
389.162100 370806.200000

>ms2
165.068400 8674.300000
166.077700 8501.500000
187.107300 10696.100000
201.046300 745912.800000

>ms2
165.070300 12636.100000
166.077200 69157.600000
193.076300 6805.000000
201.046300 630892.600000

>ms2
165.069700 72343.300000
166.077400 261519.100000
193.075800 20251.700000
201.046200 276546.300000

>ms2
165.069600 166354.200000
166.077400 344454.800000
193.075100 12608.900000
199.031900 3389.500000
201.046000 55651.400000

>ms2
164.061900 2390.600000
165.069700 286186.300000
166.077500 212784.900000
199.030300 7461.600000
201.047400 6230.100000

>ms2
165.067200 3084.800000
187.107500 5986.200000
201.046200 120528.400000
389.161900 189339.600000

>ms2
166.077200 2285.700000
187.107600 6218.300000
201.046300 394528.200000

>ms2
165.069500 5061.600000
166.077500 28723.500000
193.075900 3863.000000
201.046300 315117.100000

>ms2
165.069700 40481.000000
166.077500 130981.300000
193.076000 10562.100000
201.046300 141657.000000
353.112900 1848.500000

>ms2
164.062100 3099.000000
165.069600 73013.700000
166.077400 165842.900000
193.075600 6957.900000
201.046100 24890.200000

>ms2
164.062100 2219.000000
165.069700 132237.200000
166.077500 101322.200000
193.075900 1445.900000
199.030600 2877.600000
201.046500 3689.500000
353.113400 2072.000000

