>compound EA16568166
>parentmass 515.2442
>ionization [M+H]+
>formula C33H30N4O2
>rt 552.000000
>profile orbitrap
#smiles_iso CCCC1=NC2=C(N1CC3=CC=C(C=C3)C4=CC=CC=C4C(=O)O)C=C(C=C2C)C5=NC6=CC=CC=C6N5C
#smiles_can CCCC1=NC2=C(N1CC3=CC=C(C=C3)C4=CC=CC=C4C(=O)O)C=C(C=C2C)C5=NC6=CC=CC=C6N5C
#inchikey RMMXLENWKUUMAY-UHFFFAOYSA-N
#pubchem_id 65999
#mb_accession EA280502,EA280503,EA280504,EA280505,EA280506,EA280507,EA280508,EA280509,EA280510,EA280511,EA280512,EA280513

>ms2peaks
261.114800 18362.400000
498.235200 73997.700000
515.244400 10602303.100000

>ms2peaks
305.175600 101580.800000
497.233000 704449.700000
498.237200 165749.600000
515.244000 9831218.500000

>ms2peaks
193.064800 440848.800000
194.067900 21700.600000
211.075400 616780.100000
262.121700 18812.600000
275.129000 82038.900000
276.137000 2816964.700000
277.140700 154675.200000
288.136400 9719.200000
289.144800 497643.400000
290.147900 26363.900000
303.160300 302075.400000
305.175900 633001.900000
317.175900 303533.000000
318.180100 17845.000000
453.172400 14554.400000
455.187000 23141.900000
467.185300 94240.700000
468.194800 34809.400000
471.254900 25354.100000
483.217600 18638.600000
485.195200 40220.400000
497.233900 5612868.800000
498.237000 605348.300000
515.243300 2329808.800000

>ms2peaks
106.065300 22501.300000
131.059700 10746.000000
133.028200 16759.900000
152.062200 43671.400000
153.070600 12811.500000
155.085600 49549.700000
165.069700 92526.900000
167.085600 66659.600000
183.080700 66619.600000
193.065000 810196.100000
194.067500 30297.200000
211.075500 1230599.100000
212.078600 36943.900000
260.105800 35234.600000
261.113500 302808.400000
262.121200 158181.900000
263.128300 11795.200000
273.113900 17054.600000
275.129100 482895.900000
276.137300 9587410.700000
277.140700 479791.100000
287.129700 37052.800000
288.136700 91855.500000
289.144900 2196120.700000
290.148400 119134.400000
301.145100 31748.700000
302.152700 72420.800000
303.160500 1125323.700000
304.164000 57200.300000
305.176000 748376.400000
306.179700 42397.000000
308.126500 14389.400000
317.176000 319756.700000
318.180300 17434.000000
439.186400 13480.800000
453.172100 45319.800000
455.186200 85788.600000
467.186700 256897.700000
468.192000 34738.700000
471.181200 45686.900000
473.195700 12964.400000
485.197300 190013.900000
486.202900 13680.100000
497.232000 420967.300000
498.237400 52586.700000

>ms2peaks
79.054300 25070.200000
92.049000 7976.200000
105.033600 19041.900000
106.065300 120828.100000
115.054100 18495.700000
119.060400 13600.300000
128.062400 15951.300000
129.070400 23641.000000
131.060600 34993.300000
132.067900 12887.400000
133.028500 75836.900000
133.076100 41265.200000
141.069800 35574.700000
143.060100 18469.400000
144.068000 15976.100000
145.076200 29603.900000
147.054600 7366.800000
151.053600 8905.800000
152.062200 202703.300000
153.070100 67349.600000
155.059800 10532.200000
155.085700 166554.800000
157.075900 15099.300000
158.083600 23105.200000
165.070100 471379.800000
166.078400 70335.600000
167.085900 75546.900000
168.057300 42473.900000
169.076300 10949.200000
170.071200 30176.700000
171.091600 19050.100000
181.065100 22644.900000
183.080700 116874.500000
184.086500 9714.000000
185.107200 11041.300000
193.065100 545520.300000
211.075500 639589.100000
220.086600 46758.100000
221.105200 18910.600000
222.114700 27893.200000
233.094200 18162.600000
234.103000 77596.600000
235.109900 24960.000000
236.118400 11358.600000
244.085800 8635.900000
247.109700 68794.400000
248.117800 19953.600000
254.105200 27779.900000
259.097600 23135.900000
260.105900 177224.800000
261.113700 2344944.000000
262.120900 200946.300000
273.113800 77990.100000
274.121900 258549.100000
275.129200 1387299.800000
276.137400 5983231.700000
277.140900 231330.800000
279.101300 24799.200000
287.129200 171998.900000
288.136500 116479.700000
289.144900 1903450.200000
290.148700 86212.700000
301.145300 77663.100000
302.152100 66846.400000
303.160500 876671.400000
304.164000 43568.300000
305.175900 240810.900000
317.176100 43004.100000
424.170100 11201.500000
441.208000 22227.300000
451.155600 16697.100000
452.161200 16046.400000
453.170600 27542.200000
455.188700 12781.100000
465.168900 15399.300000
467.186700 114135.200000
468.188900 8235.800000
471.181900 25412.300000
485.197100 76918.800000
497.258900 41648.200000

>ms2peaks
65.038700 18769.900000
77.038600 34198.300000
79.054400 87493.700000
91.053800 8283.600000
92.049600 94677.800000
104.049400 34889.900000
105.033800 23709.600000
105.044700 15148.100000
106.065200 305326.500000
115.054200 67784.200000
116.049600 12441.200000
117.057300 11621.200000
118.065400 9279.800000
119.060600 34771.000000
120.068500 10851.400000
128.062200 42682.600000
129.044700 22250.400000
129.070100 54266.100000
131.060500 96525.000000
132.068700 26796.400000
133.028400 70108.800000
133.076200 84262.900000
139.054600 16167.700000
141.069900 52502.900000
142.053000 12367.600000
143.060500 99713.700000
144.068400 41865.400000
145.076200 63036.900000
147.055500 13545.100000
151.053800 8693.900000
152.062200 242140.600000
153.070200 121202.200000
154.077900 64698.000000
155.060400 42818.000000
155.085700 128186.100000
156.068500 14330.600000
157.076100 65364.600000
158.083800 50062.100000
165.070000 795563.000000
167.086200 38659.500000
168.056900 72403.900000
168.080500 8463.300000
169.076100 20118.000000
170.071400 69125.100000
171.091800 54889.800000
176.058100 23980.000000
181.065100 23435.600000
183.080800 57462.100000
184.087600 22652.100000
185.107700 14290.200000
192.068100 8916.700000
193.065300 279164.900000
195.091800 27383.000000
198.102500 12872.100000
206.083900 55920.500000
207.091400 84398.900000
209.107400 15617.800000
211.075400 156910.500000
220.087100 179455.500000
221.104800 98106.500000
222.114500 40943.500000
231.079600 44797.800000
232.087100 82318.300000
233.095000 89610.200000
234.102800 304118.900000
235.110900 21350.800000
236.118000 32153.400000
244.086900 23395.800000
247.109300 111207.100000
248.117100 57181.100000
254.104200 18527.200000
259.097800 163163.200000
260.105800 540450.400000
261.113700 3261105.100000
262.120100 179651.400000
263.129400 15591.400000
272.104900 32668.700000
273.113400 317003.700000
274.121500 496742.600000
275.129200 1416531.800000
276.137100 1496065.700000
277.141200 64807.200000
279.099600 21765.300000
286.120900 23153.300000
287.129100 280866.500000
288.137200 126273.600000
289.144900 777734.900000
301.144700 74938.700000
303.160400 314316.000000
305.176200 23510.700000
409.145200 14418.600000
423.158500 26973.600000
424.166500 17101.500000
425.174700 34399.200000
437.141500 10933.200000
439.190400 17338.800000
451.155800 28945.100000
465.168900 18191.800000
469.166700 15398.600000
483.180800 26763.200000
497.258800 41257.100000

>ms2peaks
498.237100 78061.200000
515.244300 8111672.600000

>ms2peaks
211.074800 39684.800000
305.176000 93069.400000
497.233600 548289.400000
498.235400 58354.400000
515.244500 7649211.800000

>ms2peaks
193.065000 300435.300000
194.068200 9405.800000
211.075500 469293.400000
261.115000 21754.300000
262.121900 10352.200000
275.129200 50981.900000
276.137400 2124205.400000
277.140700 64191.300000
288.137100 4973.200000
289.144800 361898.800000
290.149000 12188.000000
302.153800 6207.000000
303.160500 227552.100000
305.176100 478974.500000
306.179400 10596.400000
317.176100 203548.400000
318.180000 8239.000000
455.187800 10933.500000
467.186500 67337.000000
468.193100 16618.000000
471.254800 15732.500000
483.219700 10457.800000
485.198000 32778.500000
486.206900 9534.600000
497.234200 3973591.200000
498.236900 288966.600000
515.244100 1734256.500000

>ms2peaks
106.065300 15940.100000
133.028500 16460.500000
152.062100 36462.500000
153.070200 6637.800000
155.085700 35829.200000
165.070100 60016.700000
166.077800 13798.500000
167.085800 34892.400000
183.080500 38250.000000
193.065100 500214.900000
194.068100 17661.400000
211.075700 774082.600000
212.078900 16280.800000
254.105500 9125.600000
260.105700 20242.400000
261.113700 179120.200000
262.121800 99747.700000
263.129700 9463.100000
273.114100 13360.500000
274.121800 48188.300000
275.129300 300281.400000
276.137000 5831109.800000
277.140700 245237.200000
287.129200 38772.000000
288.137100 54261.000000
289.145000 1343475.200000
290.148400 61646.700000
301.145200 17012.800000
302.152600 43398.300000
303.160600 676238.800000
304.163700 29814.100000
305.176200 417435.900000
306.180100 17872.800000
308.126900 9581.800000
317.176100 198726.800000
318.179600 10598.600000
439.187800 8590.400000
453.171300 34607.500000
455.186500 43119.200000
467.186900 174077.300000
468.191000 17734.800000
471.182200 25013.700000
473.198300 10265.400000
485.197500 119774.800000
497.234400 305172.100000
498.238400 23554.000000

>ms2peaks
79.054400 10869.700000
92.049500 7793.400000
104.049400 4854.500000
105.033600 9085.100000
106.065200 72475.600000
107.073000 5312.600000
115.054100 8544.000000
119.060500 8317.500000
120.068500 4094.500000
128.062400 8076.900000
129.070100 8797.000000
131.060400 23168.800000
132.068300 5997.500000
133.028500 48848.300000
133.076200 33712.200000
141.069900 24085.600000
143.060400 12074.700000
144.068200 11018.600000
145.076200 23272.300000
146.083900 5064.800000
152.062100 104309.400000
153.070000 42419.400000
154.077900 18971.900000
155.060400 6858.300000
155.085600 111889.200000
157.076000 13260.500000
158.084000 19459.900000
159.091100 3789.700000
165.070000 273092.200000
166.077800 51810.700000
167.085700 47013.900000
168.057200 21929.200000
170.071500 18651.600000
171.091600 14002.000000
176.057900 8170.200000
181.064800 8524.300000
183.080600 67754.600000
193.064900 326599.500000
194.067000 5747.800000
206.083600 5855.200000
207.092700 6734.600000
211.075500 368755.500000
212.078600 8242.200000
220.087000 20948.400000
221.107400 16622.500000
222.115300 16913.500000
233.095100 11542.200000
234.102700 42216.500000
235.111200 8587.800000
236.118000 8192.600000
246.089800 12648.900000
246.102800 25707.100000
247.097800 20085.700000
247.110800 31600.200000
248.105500 5561.200000
248.118300 16734.700000
254.104800 16603.700000
259.097400 17813.800000
260.105800 100619.600000
261.113700 1402862.300000
262.122400 92909.600000
263.130800 7414.300000
272.105400 4484.700000
273.113600 54733.600000
274.121500 139013.000000
275.129300 778126.400000
276.137100 3280710.400000
277.140500 104084.300000
279.100200 13507.700000
287.129100 118692.100000
288.136900 69180.800000
289.144800 1123431.900000
290.148600 27651.200000
301.144900 43437.100000
302.152600 34100.800000
303.160500 504939.600000
304.164000 12146.100000
305.176000 151587.800000
306.180500 3615.600000
308.126200 6239.900000
317.176000 27672.500000
409.143600 3435.900000
411.161200 7504.600000
425.176200 16482.000000
439.153800 9933.000000
439.191300 11044.500000
441.206800 15559.700000
451.154900 8679.300000
452.163000 6500.400000
453.172400 19380.800000
455.187300 9342.300000
465.171400 8696.100000
467.186800 66439.900000
468.191200 5529.800000
471.180700 14861.600000
483.181600 7862.100000
485.197200 62993.200000
497.233000 9589.300000

>ms2peaks
65.038600 6259.300000
77.038600 14457.900000
79.054300 36830.100000
91.054200 7113.700000
92.049500 59265.700000
104.049500 14036.500000
105.033600 10947.900000
105.044800 12399.500000
106.065200 133336.500000
107.072800 4766.100000
115.054300 42873.500000
116.049500 8342.100000
117.057400 6866.800000
118.065400 6774.600000
119.060500 19378.000000
120.068200 5954.600000
128.062100 26311.100000
129.045000 13121.000000
129.070000 31741.500000
131.060400 54676.500000
132.068400 10405.600000
133.028500 40344.700000
133.076100 55434.000000
139.054100 9681.700000
141.069900 33165.400000
142.052200 4959.500000
143.060400 59689.500000
144.068100 23716.500000
145.076100 33072.900000
146.084500 5121.300000
151.054400 8637.600000
152.062100 144521.700000
153.069900 65125.100000
154.077700 28984.900000
155.060500 22211.400000
155.085600 71148.300000
156.068300 11008.300000
157.076000 33392.600000
158.083900 26119.900000
159.091500 7223.200000
165.070000 458225.800000
166.077700 44359.300000
167.085600 22924.300000
168.057000 41936.700000
168.080900 4634.500000
169.076200 17499.900000
170.071300 45266.000000
171.091700 25298.300000
176.058200 11869.200000
181.064900 13393.000000
183.080300 34560.700000
184.087200 9908.300000
185.107400 5303.100000
192.068300 4609.500000
193.064900 158646.700000
195.091800 11918.600000
198.102800 3241.700000
206.083900 36448.500000
207.091900 49165.500000
209.107300 7487.900000
211.075600 80541.900000
220.087000 107464.900000
221.107400 43716.200000
222.103300 4856.500000
222.115500 17274.200000
231.079300 23378.300000
232.087200 39375.100000
233.094900 41944.500000
234.102700 154338.000000
235.111500 9037.100000
236.118400 18906.000000
244.087400 17706.200000
246.090100 83121.200000
246.102700 54233.000000
247.097900 28342.000000
247.110500 63557.400000
248.106100 17029.500000
248.118600 27106.400000
254.105200 13702.100000
259.097900 93907.800000
260.105800 311232.600000
261.113700 1814026.600000
263.130000 7542.200000
272.105800 17944.700000
273.113500 192588.000000
274.121400 290075.000000
275.129200 830686.700000
276.137200 859514.800000
277.139900 21260.200000
279.100400 11550.900000
286.121300 13491.800000
287.129100 156263.100000
288.137200 61273.800000
289.144700 433160.500000
290.148100 14835.500000
301.144700 34068.000000
302.152800 10555.400000
303.160500 178399.900000
305.176000 14619.700000
409.145400 5263.300000
411.161700 4107.700000
423.160500 15245.200000
424.168500 6142.600000
425.176600 15568.900000
437.138800 4750.900000
437.174300 4661.900000
439.190300 6443.100000
441.205600 4032.200000
451.155900 17275.300000
465.171400 8418.800000
469.164900 8977.800000
483.180100 8631.900000
485.198800 10922.000000
497.235100 7069.600000

