>compound EA17261382
>parentmass 256.1099
>ionization [M+H]+
>formula C13H18ClNO2
>rt 546.000000
>profile orbitrap
#smiles_iso CC1=C(C(=CC=C1)C)N(CCOC)C(=O)CCl
#smiles_can CC1=C(C(=CC=C1)C)N(CCOC)C(=O)CCl
#inchikey SCCDDNKJYDZXMM-UHFFFAOYSA-N
#pubchem_id 39722
#mb_accession EA070702,EA070703,EA070704,EA070705,EA070706,EA070707,EA070708,EA070709,EA070710,EA070711,EA070712,EA070713

>ms2
224.084000 6269652.000000
256.110200 5815411.000000

>ms2
148.112100 95370.900000
224.083900 11286984.500000
256.109800 452241.600000

>ms2
76.978700 26795.100000
105.069700 24274.800000
132.080800 59017.600000
146.096200 32857.000000
147.103800 25737.700000
148.112200 2116406.800000
224.083900 9247256.400000

>ms2
75.994600 10191.700000
76.978900 107516.300000
77.038200 11201.100000
79.054100 24476.300000
103.054000 13408.500000
105.069900 313022.600000
107.085200 10859.300000
118.065600 36242.000000
119.085500 27145.200000
121.064700 76740.400000
131.073000 83720.900000
131.085500 45139.300000
132.080800 418339.500000
133.088600 113058.000000
134.096500 19748.400000
144.080600 35317.200000
145.088700 18127.300000
146.096600 116005.100000
147.104200 96354.600000
148.112200 5537755.900000
153.046500 15639.800000
174.091700 96162.600000
198.067900 38893.100000
224.083600 3794584.200000

>ms2
76.978900 133730.200000
77.038600 55057.400000
79.054300 184921.500000
91.054200 104726.600000
93.070000 22703.800000
103.054300 99173.000000
105.069900 1005832.800000
106.077800 36950.600000
107.085700 56071.100000
116.061800 21134.400000
117.057300 17841.600000
118.065200 198793.100000
119.085500 93771.600000
120.080700 96313.600000
121.064600 94931.400000
121.101200 17953.000000
122.096800 27271.800000
123.080700 18074.800000
131.073100 141165.300000
131.085600 95754.700000
132.080900 907785.800000
133.088700 383889.000000
134.096500 39762.700000
144.080600 38502.500000
146.096400 174723.100000
147.067200 25044.700000
147.103900 57934.700000
148.112200 4552323.700000
153.046500 19495.800000
174.091400 128894.300000
224.083200 593332.200000

>ms2
75.995200 11921.300000
76.978900 108276.400000
77.038600 213771.100000
79.054300 525724.400000
91.054300 192017.400000
93.070000 32312.100000
95.049400 31749.800000
103.054300 310237.900000
105.069900 1481961.900000
106.077600 89946.500000
107.072800 30594.400000
107.085600 44301.000000
115.054700 16277.400000
116.062200 39205.400000
117.057500 124777.800000
117.069800 10200.900000
118.065200 383459.600000
119.072400 27307.300000
119.085600 77011.700000
120.080800 145010.700000
121.064700 55670.200000
121.088700 15948.000000
122.096500 41611.000000
129.069700 12004.500000
130.065100 55488.500000
131.073000 147327.800000
131.085500 93186.500000
132.080900 1069916.900000
133.088700 443387.200000
134.096400 43356.200000
144.080500 44083.400000
145.088300 11836.500000
146.096500 253131.600000
147.104200 22305.100000
148.112200 1916701.100000
174.091300 80751.000000

>ms2
173.015200 7157.300000
224.083800 5609830.700000
256.110000 4956018.500000

>ms2
148.112100 87749.600000
224.083800 9403810.400000
256.110300 407251.000000

>ms2
76.978600 16465.500000
105.069700 15959.100000
131.072500 12169.200000
132.080700 53243.800000
146.096600 25498.500000
147.104500 21428.300000
148.112200 1928953.100000
224.083800 7880425.300000

>ms2
75.994900 7200.100000
76.978900 100516.100000
79.054200 15241.700000
91.054300 9795.300000
103.054100 17646.700000
105.069900 263971.800000
107.085500 11918.300000
118.065000 27948.200000
119.085600 32308.200000
120.080800 22248.000000
121.064900 41173.700000
131.073000 74324.000000
131.085500 37171.600000
132.080800 354376.700000
133.088700 88077.300000
134.096500 12540.800000
144.080800 23606.200000
145.088500 8601.700000
146.096500 98798.900000
147.067100 5699.200000
147.104300 66794.700000
148.112200 4459691.400000
153.046500 11473.100000
160.111900 7848.200000
174.091300 62263.800000
198.068400 28868.400000
224.083900 3087290.600000

>ms2
75.995000 5334.900000
76.978900 103694.900000
77.038600 36752.200000
79.054300 125064.700000
91.054300 66193.700000
93.070000 14796.600000
103.054200 82386.400000
105.070000 764106.200000
106.065200 5087.800000
106.077800 28784.100000
107.085600 34267.600000
116.062000 11367.900000
117.057100 15869.000000
117.069800 6624.800000
118.065100 154636.700000
119.073100 9146.700000
119.085600 64924.600000
120.080800 71431.200000
121.064800 71033.800000
121.088400 5805.500000
121.101300 19348.900000
122.096500 17505.200000
123.080400 9847.400000
129.069800 13060.600000
130.064900 12597.200000
131.073000 97233.400000
131.085600 78957.800000
132.080800 653566.200000
133.088600 274578.200000
134.096500 21606.700000
144.080800 36363.800000
145.088500 13089.200000
146.096500 126175.300000
147.067700 15052.500000
147.104300 47347.600000
148.112200 3245333.900000
158.096800 6666.500000
160.075800 10236.900000
160.111900 4406.100000
174.091400 95069.800000
198.068200 19376.100000
224.083800 479875.600000

>ms2
75.994900 6560.200000
76.978900 66212.900000
77.038600 117150.500000
79.054300 345573.300000
91.054200 120985.700000
93.069900 20912.700000
95.049000 14435.900000
103.054200 201513.200000
105.069900 1015399.500000
106.065000 5031.100000
106.077700 49192.800000
107.073000 18686.900000
107.085500 26516.900000
115.054200 9179.500000
116.062000 27974.200000
117.057300 78597.700000
117.069800 5501.800000
118.065100 257822.300000
119.073000 14305.700000
119.085500 53493.400000
120.080800 87520.500000
121.064800 44592.900000
121.088700 9120.600000
121.101200 14644.700000
122.096400 30500.600000
123.080400 9241.300000
129.069900 15747.900000
130.065100 32338.400000
131.072900 92309.500000
131.085500 49926.300000
132.080800 738042.700000
133.088600 288532.000000
134.096400 22226.200000
144.080800 30288.900000
145.088600 7774.800000
146.096500 164390.900000
147.067900 8585.100000
147.104000 9391.500000
148.112100 1234518.400000
153.046400 7359.800000
158.096600 9079.000000
160.075900 6974.500000
173.015900 3541.700000
174.091300 45835.300000
224.083400 37013.200000

