>compound EA17692888
>parentmass 232.14440000000002
>ionization [M+H]+
>formula C13H17N3O
>rt 156.000000
>profile orbitrap
#smiles_iso CC1=C(C(=O)N(N1C)C2=CC=CC=C2)N(C)C
#smiles_can CC1=C(C(=O)N(N1C)C2=CC=CC=C2)N(C)C
#inchikey RMMXTBMQSGEXHJ-UHFFFAOYSA-N
#pubchem_id 6009
#mb_accession EA070202,EA070203,EA070204,EA070205,EA070206,EA070207,EA070208,EA070209,EA070210,EA070211,EA070212,EA070213

>ms2peaks
58.064900 12711.100000
70.065200 28637.900000
72.080900 26561.500000
84.080800 8502.300000
87.092000 14750.200000
97.076000 17922.600000
98.083900 69326.200000
99.092000 16400.100000
111.091700 156814.400000
113.107400 464879.700000
139.086700 59187.300000
146.059700 12362.600000
149.107500 30940.000000
159.091600 41712.800000
175.086500 20073.300000
177.102700 6883.400000
187.086600 117529.500000
188.094800 29982.300000
204.149800 10558.900000
232.144800 4323668.600000

>ms2peaks
56.049400 106093.500000
58.065100 93349.000000
70.065200 260018.100000
72.080800 128882.400000
82.065200 15953.000000
84.068300 7277.900000
84.080800 44605.400000
87.091800 15989.000000
97.076000 194848.700000
98.083900 310089.500000
99.091700 87299.100000
106.065100 23413.200000
111.091700 493297.700000
113.107400 1490038.400000
118.065200 45260.100000
139.086800 28336.900000
146.060200 8730.600000
147.091000 7798.300000
149.107400 48609.500000
159.091700 97265.600000
173.026700 5528.700000
175.086500 25312.500000
177.102300 81792.100000
187.086700 126340.700000
188.094200 37409.300000
204.149600 8386.800000
214.134100 7210.600000
217.121000 31575.100000
232.144700 1195244.900000

>ms2peaks
56.049500 171240.100000
58.065200 240532.300000
68.049700 5581.600000
70.065200 289339.100000
72.080800 238890.500000
82.065200 44796.800000
84.068100 8510.300000
84.080800 69518.700000
87.091700 14834.800000
97.076100 529383.400000
98.083900 395617.100000
99.091700 90799.000000
106.065200 63458.100000
111.091800 483594.200000
113.107400 849385.300000
118.065200 48825.400000
132.044400 20008.400000
133.075900 10973.000000
149.107300 32502.100000
159.091900 60198.500000
175.086300 11288.800000
177.102200 83394.000000
187.086100 21632.600000
188.094500 12521.000000
216.113000 9998.400000
217.121500 23316.800000
232.143800 59285.400000

>ms2peaks
56.049500 246856.100000
58.065200 331487.900000
70.065200 228221.400000
72.080800 243563.900000
82.065200 42196.000000
83.060600 11299.000000
84.068000 10217.200000
84.080800 52775.400000
87.091500 9027.000000
96.068700 6452.900000
97.076100 688584.800000
98.083900 279776.500000
99.091700 46108.000000
106.065200 97278.600000
111.091700 280619.700000
113.107400 240435.600000
118.065100 47348.400000
123.054900 7061.800000
132.044600 22194.900000
133.075900 6948.800000
146.060100 6836.400000
149.107500 20038.100000
159.091800 40933.800000
177.102700 21008.500000
187.085800 6775.200000
202.098500 5589.400000
216.112600 8235.400000

>ms2peaks
56.049500 272688.200000
58.065200 362826.200000
68.049400 5756.700000
70.065200 217111.600000
72.080900 198924.700000
77.038500 8009.200000
82.065300 30462.900000
83.060500 19864.500000
84.068300 6642.200000
84.080800 33367.500000
96.068400 9005.300000
97.076100 713784.100000
98.083900 114080.300000
99.091700 11703.500000
106.065200 99905.500000
111.091800 156698.900000
113.107400 40546.900000
118.065300 34409.500000
123.055200 8094.600000
132.044800 15574.400000
133.076100 8680.800000
149.107500 13424.100000
159.091800 18311.100000
199.086500 6418.200000

>ms2peaks
56.049500 322603.600000
58.065200 334086.800000
68.049300 8311.000000
70.065200 158857.200000
72.080800 139971.700000
77.038600 19697.700000
82.065000 21954.500000
83.060600 29913.800000
84.068300 6094.900000
84.081000 18797.400000
97.076100 695260.000000
98.083800 44444.900000
104.049700 11458.000000
106.065200 98075.100000
111.091700 65325.600000
113.107200 8086.100000
118.065300 18903.600000
132.081000 7159.400000
146.059500 6818.600000

>ms2peaks
56.049300 21868.000000
58.065100 16781.500000
70.065100 25019.800000
72.080800 20775.500000
87.091500 7512.400000
97.076000 19880.700000
98.083900 55603.600000
99.091700 14735.900000
111.091700 151223.200000
113.107400 384141.300000
118.065200 10706.800000
127.086500 4244.400000
139.086700 48869.300000
146.060100 12780.100000
147.091200 3970.100000
149.107400 21376.800000
159.091700 33154.300000
175.086500 10166.600000
177.102100 5761.800000
187.086600 106585.600000
188.094500 19625.300000
204.149500 9416.800000
217.121300 6340.300000
232.144700 3606022.200000

>ms2peaks
56.049500 71173.900000
58.065200 72371.000000
70.065200 193631.000000
72.080800 105468.800000
82.065200 17078.200000
84.080800 42581.600000
87.091800 17718.800000
97.076100 144708.800000
98.083900 255820.900000
99.091800 70891.300000
106.065300 19315.200000
111.091800 420824.900000
113.107400 1179907.900000
118.065200 34976.100000
139.086900 16260.200000
144.080800 3211.800000
146.060000 12726.100000
149.107300 37551.300000
159.091800 73541.000000
175.086800 20391.600000
177.102300 53712.200000
187.086700 94732.300000
188.094500 32818.800000
201.102600 9604.300000
204.150000 13559.500000
214.134300 5147.900000
217.120900 20716.100000
232.144800 1005334.800000

>ms2peaks
56.049500 145491.800000
58.065200 180307.700000
70.065200 221006.700000
72.080800 195208.500000
82.065200 29606.300000
83.060500 5170.500000
84.068200 6114.700000
84.080800 48824.500000
87.091600 12000.000000
96.068200 4809.400000
97.076100 431670.100000
98.083900 361513.600000
99.091700 74332.000000
106.065200 56496.200000
111.091800 400745.500000
113.107400 749804.200000
118.065200 43677.200000
123.055300 3399.600000
132.044600 14630.500000
133.075900 7180.200000
146.060200 9923.300000
149.107300 25124.700000
159.091800 46369.600000
177.102300 59176.600000
187.086500 20958.400000
188.094800 10554.000000
202.097700 5094.800000
214.133900 3042.200000
216.113200 9960.100000
217.121600 15320.200000
232.144300 42725.500000

>ms2peaks
56.049600 183566.100000
58.065200 276278.200000
68.049400 5811.800000
70.065200 203595.100000
72.080900 194201.800000
82.065300 26915.000000
83.060500 13185.000000
84.044600 5016.300000
84.068300 8419.300000
84.080900 40478.500000
87.091700 6090.300000
96.068200 4179.600000
97.076200 558112.100000
98.084000 227793.700000
99.091800 39196.500000
106.065300 69574.400000
111.091800 223577.700000
113.107500 203882.000000
118.065300 42466.300000
123.055600 4221.600000
132.044600 15194.800000
133.076200 8259.800000
146.060200 8888.700000
149.107500 12317.500000
159.091900 23623.500000
177.102400 16916.700000
188.094300 5052.600000
202.098000 7879.900000
216.113400 9021.200000

>ms2peaks
56.049500 215708.500000
58.065200 277509.300000
68.049500 5412.600000
70.065200 147075.900000
72.080800 151689.600000
77.038700 8325.300000
79.054400 2790.800000
82.065200 22233.200000
83.060400 13277.500000
84.044400 4186.500000
84.067900 4397.200000
84.080900 27058.000000
87.091600 5013.300000
96.068700 2929.700000
97.076100 526504.000000
98.083900 102475.600000
99.091800 10685.800000
104.049500 3296.700000
106.065200 83533.300000
111.091800 99205.700000
113.107400 35794.000000
118.065200 29684.900000
123.055300 6006.000000
128.049800 3909.800000
130.064900 3310.400000
132.044400 11970.900000
132.080600 4498.200000
133.076000 5818.800000
146.060200 3257.600000
149.107600 6393.800000
159.091600 7969.400000
187.087200 2524.200000
199.087100 3419.800000
216.113100 7972.100000

>ms2peaks
56.049500 231263.800000
58.065200 258004.300000
68.049500 4736.700000
70.065200 128433.800000
72.080800 103649.200000
77.038600 17016.900000
79.054300 6329.500000
82.065200 14498.100000
83.060400 15731.800000
84.044400 2359.200000
84.068100 3317.100000
84.080800 16056.400000
96.068200 3190.600000
97.076100 524671.300000
98.083900 27452.900000
104.049500 5665.200000
106.065200 65168.800000
111.091700 46060.000000
113.107400 5481.400000
118.065200 11308.400000
123.055400 8632.600000
128.049500 4932.300000
130.065200 3077.900000
132.044500 7587.200000
132.080700 5309.600000
133.075900 2638.800000
159.091700 6460.800000
199.086600 4145.000000

