>compound EA17195162
>parentmass 230.1167
>ionization [M+H]+
>formula C9H16ClN5
>rt 588.000000
>profile orbitrap
#smiles_iso CCC(C)NC1=NC(=NC(=N1)NCC)Cl
#smiles_can CCC(C)NC1=NC(=NC(=N1)NCC)Cl
#inchikey BZRUVKZGXNSXMB-UHFFFAOYSA-N
#pubchem_id 23712
#mb_accession EA067002,EA067003,EA067004,EA067005,EA067006,EA067007,EA067008,EA067009,EA067010,EA067011,EA067012,EA067013

>ms2peaks
174.053800 6489.200000
230.116700 957445.200000

>ms2peaks
104.001400 2405.900000
174.054100 144972.100000
230.116800 807486.500000

>ms2peaks
68.024300 12991.900000
79.005900 16107.000000
96.055500 16885.700000
104.000900 20128.400000
132.032300 18836.700000
138.078000 4380.200000
146.023000 19459.300000
174.054000 467210.600000
230.116600 272470.000000

>ms2peaks
68.024300 41866.000000
71.060500 4886.600000
79.005700 37965.900000
96.055600 48043.700000
104.001000 42826.600000
132.032300 55047.800000
138.077200 13161.800000
146.022700 52787.000000
174.054000 293448.300000
230.116300 28167.900000

>ms2peaks
61.979100 4019.400000
68.024300 71778.800000
71.060300 15260.800000
79.005800 42933.600000
96.055600 54458.300000
104.001000 81992.300000
110.045900 5929.200000
132.032300 41383.800000
138.077400 14016.600000
146.022700 42886.600000
174.054000 78673.200000

>ms2peaks
61.979000 4573.600000
68.024300 80860.000000
71.060400 16420.200000
79.005800 33249.400000
96.055600 34978.400000
104.001000 91569.600000
132.032400 20403.500000
138.077000 6043.600000
146.022900 20030.000000
174.054100 13771.600000

>ms2peaks
174.053600 4991.700000
230.116700 645477.100000

>ms2peaks
174.054100 89238.800000
230.116700 527151.000000

>ms2peaks
68.024300 7254.400000
79.005800 7166.900000
96.055700 9632.700000
104.000900 12890.600000
132.032200 11655.400000
146.022700 13738.600000
174.054100 302017.900000
188.070100 4238.300000
230.116500 167826.200000

>ms2peaks
68.024300 26111.300000
71.060400 5983.600000
79.005800 26602.000000
96.055600 27374.900000
104.001000 30359.000000
132.032300 34055.000000
138.077500 8824.700000
146.022700 40425.600000
174.054000 190774.000000
188.069800 4587.900000
230.116200 19269.000000

>ms2peaks
68.024300 41167.600000
71.060400 11081.800000
79.005800 32604.900000
96.055600 33090.900000
104.001000 48879.100000
132.032300 30074.000000
138.077400 6848.400000
146.022800 30193.400000
174.054000 47613.100000

>ms2peaks
61.979200 3331.900000
68.024300 38514.700000
71.060300 10140.000000
79.005700 21336.200000
96.055500 15082.100000
104.000900 46231.100000
110.046100 2632.300000
132.032200 8331.600000
138.077200 3851.700000
146.022700 12087.300000
174.053900 4983.400000

