>compound EA18504470
>parentmass 160.0272
>ionization [M+H]+
>formula C5H6ClN3O
>rt 132.000000
>profile orbitrap
#smiles_iso CN1C(=O)C(=C(C=N1)N)Cl
#smiles_can CN1C(=O)C(=C(C=N1)N)Cl
#inchikey XNSGCNYTNLWRKM-UHFFFAOYSA-N
#pubchem_id 594330
#mb_accession EA069902,EA069903,EA069904,EA069905,EA069906,EA069907,EA069908,EA069909,EA069910,EA069911,EA069912,EA069913

>ms2
160.027100 6978997.400000

>ms2
160.027300 37346800.900000

>ms2
116.997500 87665.100000
130.005300 54376.100000
131.000800 41020.000000
160.027200 36555347.200000

>ms2
68.049500 57890.700000
69.044700 48450.600000
75.995000 120355.700000
86.999700 59955.300000
87.994900 320527.300000
90.010400 37889.600000
97.063600 34145.800000
103.989600 57078.800000
115.989900 82160.800000
116.997700 960374.100000
124.050700 203407.200000
125.058700 38588.900000
128.984500 48142.400000
130.005500 591065.500000
131.000600 187414.300000
131.013300 252357.700000
132.008300 76010.900000
133.016500 55571.400000
145.003800 249382.400000
158.012200 52184.500000
160.027200 32486679.900000

>ms2
55.029100 33740.300000
57.044700 28970.800000
63.994800 30676.500000
67.029100 49176.500000
68.049500 164105.000000
69.044800 181144.300000
75.994900 326658.900000
78.010400 57036.000000
81.044700 36374.300000
86.999600 121009.900000
87.994900 1465624.400000
90.010500 71857.300000
96.044300 60537.800000
96.055700 20338.300000
97.039700 61463.300000
97.052100 35397.600000
97.063700 69561.700000
100.990200 76913.600000
101.974100 82555.900000
103.005600 40556.000000
103.018400 50359.100000
103.989800 207392.400000
115.006000 48619.700000
115.989900 181011.300000
116.997600 2467590.900000
124.050700 350200.700000
125.058500 67631.500000
128.985100 127192.800000
130.005500 1591365.400000
131.000800 320664.100000
131.013300 437456.900000
132.008700 153047.700000
133.016400 100082.300000
145.003800 783255.900000
158.011800 94127.400000
160.027200 20317800.500000

>ms2
54.033900 36095.400000
55.017900 12632.300000
55.029000 66919.900000
57.044600 28581.600000
58.028700 52606.100000
60.983900 20260.000000
62.963200 15566.900000
63.994900 51013.500000
66.021300 15203.500000
67.029000 90066.200000
68.013200 41800.900000
68.049500 189212.800000
69.044800 264447.200000
73.979400 24031.300000
75.994900 504431.600000
78.010500 63497.800000
81.044900 35401.600000
82.028700 47825.500000
83.060300 26873.600000
84.055600 26567.900000
85.039800 18604.900000
85.979300 52349.700000
85.991800 61813.000000
86.999500 116955.400000
87.994900 3538969.400000
90.010400 86305.700000
96.044500 87052.000000
96.055400 19608.900000
97.039700 56859.500000
97.052700 23344.800000
97.063500 73574.300000
99.971100 48377.000000
100.990100 223296.100000
101.974100 146986.300000
102.010500 32676.200000
103.005600 47267.900000
103.018500 62341.700000
103.989800 285879.300000
105.021900 17722.300000
110.034400 13075.400000
115.005800 80157.600000
115.989800 266265.900000
116.997600 3147609.500000
124.050700 381951.500000
125.058300 49345.900000
128.985100 151639.700000
130.005400 2026404.100000
131.000700 216739.000000
131.013400 372203.100000
132.008600 136949.200000
133.016600 53248.000000
143.001100 18000.900000
145.003800 1072999.300000
146.011400 15074.100000
158.011500 98181.200000
160.027100 9137334.800000

>ms2
160.027100 6549238.600000

>ms2
160.027300 34375857.500000

>ms2
116.997700 84892.800000
130.005500 46882.300000
160.027300 33424738.200000

>ms2
68.049500 53958.400000
69.044800 39388.500000
75.994900 63585.200000
86.999600 33357.800000
87.994900 229589.300000
97.063500 28619.500000
103.989800 51615.400000
115.989800 61187.300000
116.997700 747673.200000
124.050700 139540.000000
128.985000 30997.100000
130.005500 472450.300000
131.000800 146068.000000
131.013300 203104.100000
132.008500 62986.300000
133.016400 43850.300000
145.003800 193579.600000
158.011900 38217.700000
160.027300 28578560.700000

>ms2
55.029000 26355.900000
57.044700 21644.800000
63.994900 25604.900000
67.029100 35284.300000
68.049500 118268.700000
69.044700 119271.500000
75.994800 234227.300000
78.010500 38878.800000
81.044700 18088.800000
83.060400 18699.900000
86.999600 93330.400000
87.994900 1264219.200000
90.010500 62218.600000
96.044500 52322.800000
97.039700 37493.000000
97.052400 23277.900000
97.063500 61306.500000
100.990100 86086.900000
101.974100 59312.200000
103.005800 40658.600000
103.018400 34275.000000
103.989800 148894.500000
115.005800 46239.000000
115.989800 162676.900000
116.997600 2113946.800000
124.050600 295430.100000
125.058500 48425.900000
128.985100 100156.600000
130.005400 1282798.200000
131.000700 237827.700000
131.013300 366698.000000
132.008600 119757.400000
133.016400 64260.600000
145.003800 632103.300000
158.011800 76213.700000
160.027300 18005479.500000

>ms2
54.033800 21813.400000
55.029100 58916.800000
57.044700 19703.500000
58.028800 29166.400000
62.963300 13652.300000
63.994800 37143.900000
66.021300 13849.100000
67.029100 77478.300000
68.013200 25017.300000
68.049500 154415.600000
69.044700 203458.100000
73.979300 17209.600000
75.994900 369586.000000
78.010600 49958.200000
81.044700 36459.600000
82.028700 43453.200000
83.036500 8551.300000
83.060300 21724.400000
84.055600 16843.300000
85.979200 31230.200000
85.991800 66826.100000
86.999600 95187.700000
87.994900 3003509.300000
90.010500 68111.500000
96.044500 64553.400000
96.056000 12504.200000
97.039600 47491.600000
97.052200 29863.700000
97.063500 62585.300000
99.971100 38072.500000
100.990100 161678.000000
101.974100 107697.400000
102.010500 27426.100000
103.005700 38564.700000
103.018300 51840.200000
103.989800 219405.200000
105.021400 11108.900000
110.035000 16607.900000
115.005800 59914.500000
115.989800 210608.100000
116.997600 2815350.700000
118.005700 8038.100000
124.050600 300819.500000
125.058500 37319.300000
128.985100 133605.200000
130.005400 1780459.300000
131.000700 208844.600000
131.013300 322572.700000
132.008500 108457.100000
133.016400 53678.700000
140.045700 23138.600000
143.000700 21961.200000
145.003800 936458.000000
146.011400 17143.900000
158.011600 76057.500000
160.027200 7848614.600000

