>compound EA18742486
>parentmass 260.1644999999999
>ionization [M+H]+
>formula C16H21NO2
>rt 396.000000
>profile orbitrap
#smiles_iso CC(C)NCC(COC1=CC=CC2=CC=CC=C21)O
#smiles_can CC(C)NCC(COC1=CC=CC2=CC=CC=C21)O
#inchikey AQHHHDLHHXJYJD-UHFFFAOYSA-N
#pubchem_id 4946
#mb_accession EA017102,EA017103,EA017104,EA017105,EA017106,EA017107,EA017108,EA017109,EA017110,EA017111,EA017112,EA017113

>ms2
116.106800 25443.200000
260.164600 13792898.900000

>ms2
56.049400 69410.300000
58.065000 121171.600000
72.080700 121531.900000
74.059900 139747.300000
86.096400 78285.600000
98.096400 291864.100000
116.106900 972356.200000
145.064300 17161.100000
157.064700 268241.700000
183.080300 741541.600000
218.117400 290457.000000
242.154000 58650.800000
260.164700 11008370.300000

>ms2
56.049400 294792.200000
58.065100 385057.900000
72.080700 443635.400000
74.060000 678187.900000
86.096400 94455.800000
98.096400 764915.600000
100.112100 80551.600000
116.106900 1681548.300000
129.069900 55897.700000
132.101600 27915.100000
141.069700 98645.600000
143.049200 40181.600000
145.064900 118637.800000
153.070200 34545.400000
155.085400 387577.300000
157.064700 731638.200000
165.069900 109474.700000
171.079800 26598.900000
183.080300 1537751.000000
218.117400 209856.700000
260.164500 1493566.900000

>ms2
56.049400 343377.200000
58.065100 287532.400000
72.080800 400666.800000
74.060100 675927.500000
84.080500 45146.200000
86.096500 22267.600000
98.096400 342255.300000
100.112100 187845.700000
115.054200 41740.400000
116.106900 719276.000000
128.062000 14632.800000
129.069800 223391.300000
141.070000 83264.600000
143.048500 49504.200000
144.056700 14524.500000
145.064800 181695.000000
153.069700 104149.600000
155.060400 45038.700000
155.085500 814860.600000
157.064700 604563.700000
165.069800 227904.700000
168.057000 61192.900000
171.080700 44429.500000
183.080400 591095.700000

>ms2
56.049400 310132.600000
58.065100 249326.100000
72.080700 247760.400000
74.060000 436038.100000
84.080800 38098.600000
98.096400 119530.100000
100.112000 190403.000000
115.054200 94379.300000
116.106900 217859.500000
117.070000 35988.800000
128.061800 64988.500000
129.069800 406907.600000
141.069600 65605.100000
143.085800 11512.200000
144.057100 18988.600000
145.064700 141489.400000
153.069700 176259.400000
154.077400 47431.400000
155.060200 206105.200000
155.085500 629263.900000
157.064600 341051.200000
165.069600 206735.500000
168.056700 63104.400000
183.080100 81777.100000

>ms2
56.049400 263226.600000
58.065100 192484.800000
72.080800 134952.100000
74.060100 276153.100000
77.038300 12750.600000
84.080800 46172.200000
98.096400 24404.000000
100.112000 130890.800000
103.054500 26210.200000
115.054200 179554.600000
116.106800 41484.500000
117.069900 55257.100000
127.054300 36990.900000
128.062000 240137.300000
129.069800 442520.300000
141.070100 47261.100000
144.056400 20915.700000
145.064600 84550.100000
153.069800 224169.700000
154.077600 107627.300000
155.060300 475904.800000
155.085500 249418.700000
157.064500 105648.400000
165.069800 171385.000000
168.057000 63928.900000

>ms2
116.106800 12921.200000
260.164600 10029098.900000

>ms2
56.049400 40761.800000
58.065100 73342.300000
72.080800 79856.400000
74.060100 87804.700000
86.096400 74702.800000
98.096400 196374.000000
116.107000 684259.300000
129.069600 10531.000000
132.102100 22717.700000
141.070100 15777.100000
155.085700 25364.700000
157.064800 162927.300000
165.069900 10987.600000
183.080400 541909.100000
218.117600 214687.700000
242.153700 41373.900000
260.164700 7505050.200000

>ms2
56.049400 189807.200000
58.065100 219302.500000
72.080700 278985.100000
74.060000 454544.100000
84.080700 8688.500000
86.096400 61209.000000
98.096400 428201.400000
100.112000 74441.600000
116.106900 1194402.000000
129.069800 50876.500000
141.069700 56246.800000
143.049000 30684.500000
145.064700 74726.800000
153.070000 30861.300000
155.085400 268834.200000
157.064700 511561.000000
165.069600 80813.400000
168.056600 17805.400000
171.080500 22919.400000
183.080300 1083856.500000
218.117400 149579.500000
260.163900 895072.200000

>ms2
56.049400 240599.200000
58.065100 222161.000000
72.080700 286588.000000
74.060000 510205.000000
84.080900 19742.000000
86.096300 19544.900000
98.096400 228051.600000
100.112000 126399.500000
115.054100 26571.500000
116.106900 465262.800000
117.069900 7606.500000
128.061900 8530.500000
129.069800 144898.600000
141.069700 51031.300000
143.049000 35209.400000
143.085300 7974.800000
144.057200 12184.700000
145.064700 110988.400000
153.069800 86266.900000
154.077400 12404.600000
155.085400 532331.300000
157.064700 419902.500000
165.069700 145823.200000
168.056600 43158.800000
171.080000 22073.700000
182.072400 10568.000000
183.080300 361940.600000

>ms2
56.049400 221648.100000
58.065100 147176.300000
72.080700 157667.400000
74.060000 307579.000000
84.080700 32469.900000
98.096300 67208.500000
100.111900 115914.600000
103.054400 8059.000000
115.054100 73872.500000
116.106900 135023.100000
117.069600 29742.700000
128.061900 39427.600000
129.069700 275233.100000
141.069800 51699.800000
143.049000 18691.400000
145.064600 98601.700000
153.069700 134869.000000
154.077600 42184.800000
155.060200 120569.400000
155.085400 405905.000000
157.064700 205528.200000
165.069700 147034.800000
168.056800 34304.800000
182.071900 14606.900000
183.080300 66697.800000

>ms2
56.049400 158771.600000
58.065100 113914.300000
72.080700 82027.100000
74.060000 134338.600000
77.038600 5511.600000
84.080700 21586.500000
98.096400 16147.400000
100.112000 56534.900000
103.054200 18963.200000
115.054100 97476.800000
116.106900 27304.900000
117.069700 36375.400000
127.054200 9779.100000
128.061900 119116.800000
129.069800 276317.100000
141.069700 28039.300000
143.048800 5851.200000
144.056700 6469.500000
145.064700 41807.200000
153.069700 130366.000000
154.077600 53823.300000
155.060200 249613.100000
155.085400 155673.500000
157.064700 58837.700000
165.069700 108240.800000
168.056800 30631.800000
182.072300 6069.800000
183.080500 8537.800000

