>compound EA18738298
>parentmass 281.99859999999995
>ionization [M+H]+
>formula C8H12INO2
>rt 504.000000
>profile orbitrap
#smiles_iso CCCCNC(=O)OCC#CI
#smiles_can CCCCNC(=O)OCC#CI
#inchikey WYVVKGNFXHOCQV-UHFFFAOYSA-N
#pubchem_id 62097
#mb_accession EA030502,EA030503,EA030504,EA030505,EA030506,EA030507,EA030508,EA030509,EA030510,EA030511,EA030512,EA030513

>ms2peaks
55.017900 197786.300000
57.069900 2168659.500000
68.049700 37013.800000
74.023700 81804.000000
82.065300 31273.700000
86.096500 127387.000000
96.080800 54247.500000
100.075700 262733.300000
110.096500 57118.200000
116.070700 148743.800000
140.070400 13181.800000
155.094200 538335.200000
164.919600 11004728.400000
181.946300 100485.000000
182.930200 250983.500000
195.962500 67606.700000
238.008700 372447.400000
281.998700 3523219.800000

>ms2peaks
55.017900 172560.900000
57.069900 1474292.700000
74.023700 78239.200000
86.096500 87944.300000
96.080800 36897.800000
116.070900 48779.900000
126.904000 55784.000000
155.094400 211348.800000
164.919700 27799730.500000
181.945900 124092.800000
182.930400 145575.300000

>ms2peaks
55.017900 100909.100000
57.069900 1042781.200000
74.023800 53471.100000
126.903900 55015.000000
164.919700 31344622.300000
181.946000 55695.600000
182.930400 51590.200000

>ms2peaks
55.017800 78983.900000
57.069900 689156.500000
126.904300 99049.400000
164.919600 35049674.000000

>ms2peaks
55.017700 40730.000000
57.069900 305091.200000
126.904000 454096.000000
164.919600 32057466.900000

>ms2peaks
57.069900 107325.100000
126.904000 1548582.100000
164.919600 27315298.000000

>ms2peaks
55.017900 202027.100000
57.069900 2043027.500000
68.049500 59194.300000
74.023700 88821.200000
82.065300 16082.900000
86.096500 105380.600000
96.080900 55565.600000
100.075700 268972.500000
110.096500 41873.300000
111.104600 25909.400000
116.070700 134468.800000
155.094100 453530.600000
164.919600 10856059.600000
181.946200 92897.700000
182.930200 245438.100000
195.961700 45639.400000
238.008800 320002.100000
281.998600 3635607.100000

>ms2peaks
55.017900 163415.700000
57.069900 1442303.700000
68.049500 35312.900000
74.023600 66297.600000
86.096500 56276.800000
96.080800 43427.100000
116.070700 47773.300000
126.903800 36665.800000
155.094100 194489.800000
164.919600 27741091.200000
181.946200 105596.100000
182.930200 149784.800000
195.961900 30726.200000
238.008900 31141.100000
281.998800 103071.900000

>ms2peaks
55.017900 97979.600000
57.069900 978579.900000
74.023700 37479.700000
126.903500 52129.000000
164.919600 31131854.700000
181.946400 43206.800000
182.930700 37657.100000

>ms2peaks
55.017900 62427.400000
57.069900 581773.800000
126.903900 55417.900000
164.919600 31893246.100000

>ms2peaks
55.017900 38671.000000
57.069900 232936.200000
126.904000 305710.000000
164.919700 25773267.100000

>ms2peaks
55.017800 22635.800000
57.069900 80072.200000
126.904000 1107282.600000
164.919600 21369176.500000

