>compound EA18367970
>parentmass 254.05940000000007
>ionization [M+H]+
>formula C10H11N3O3S
>rt 276.000000
>profile orbitrap
#smiles_iso CC1=CC(=NO1)NS(=O)(=O)C2=CC=C(C=C2)N
#smiles_can CC1=CC(=NO1)NS(=O)(=O)C2=CC=C(C=C2)N
#inchikey JLKIGFTWXXRPMT-UHFFFAOYSA-N
#pubchem_id 5329
#mb_accession EA029802,EA029803,EA029804,EA029805,EA029806,EA029807,EA029808,EA029809,EA029810,EA029811,EA029812,EA029813

>ms2
92.049200 20012.000000
93.057300 11242.200000
94.065200 7882.700000
99.055200 13148.600000
108.044100 39225.700000
147.079100 36089.900000
148.087100 14157.500000
156.011200 156061.800000
160.087500 25888.000000
188.082000 55449.500000
190.097800 61285.500000
194.038000 21887.700000
236.049100 20567.600000
254.059700 4441614.400000

>ms2
65.038500 14263.600000
68.049400 13445.300000
92.049500 281531.300000
93.057300 163146.200000
94.065200 34235.000000
99.055300 172783.700000
107.060400 32968.500000
108.044400 484944.500000
146.071000 41445.700000
147.079100 211655.400000
148.087000 68760.600000
156.011400 1286558.100000
160.086900 245756.400000
161.001300 15963.700000
176.027300 9608.700000
188.081700 187797.500000
190.097400 131296.500000
194.038200 67331.700000
254.059300 1360356.600000

>ms2
65.038600 72796.800000
68.049500 62296.100000
78.033800 5715.400000
79.017700 8361.000000
80.049200 14670.100000
92.049500 494049.200000
93.057300 242343.000000
94.065100 17154.300000
96.044300 15731.300000
99.055300 247996.200000
107.060300 27889.400000
108.044400 935165.400000
110.060000 13142.000000
120.055800 11532.300000
121.075800 4017.800000
131.060600 6630.400000
132.068400 5875.800000
146.071100 37443.700000
147.079100 156847.200000
148.087000 36893.800000
156.011500 994427.600000
160.086900 224580.000000
161.002000 19840.700000
176.028400 11404.800000
188.081900 37130.100000
190.097600 14275.800000
194.038200 15458.900000
254.059400 60204.200000

>ms2
65.038600 182710.600000
68.049500 109210.200000
69.033600 6923.800000
78.033700 13809.000000
79.017700 7831.700000
80.049500 28878.500000
92.049500 677957.600000
93.057300 221890.300000
94.065000 13474.100000
96.044300 21235.300000
99.055300 202773.800000
107.060400 27893.800000
108.044400 1036944.700000
110.060100 45843.300000
120.055400 17871.100000
121.076600 6152.600000
131.060800 4887.100000
133.062800 5199.800000
143.061100 4541.300000
146.071300 35721.500000
147.079100 87782.400000
148.087000 12468.100000
156.011400 260733.700000
160.086800 122765.300000
161.001900 11714.300000

>ms2
65.038600 312787.500000
68.049500 65463.700000
72.044300 8325.400000
78.033900 7258.900000
79.017800 12159.700000
80.049500 52072.500000
92.049500 781947.900000
93.057300 200547.400000
94.065000 9811.300000
96.044400 17322.500000
99.055300 139159.400000
107.060500 24194.600000
108.044400 793779.800000
110.060100 75917.500000
119.060100 4803.300000
120.055300 7623.000000
131.060700 4419.400000
143.060500 3561.300000
146.071400 35093.200000
147.079100 37179.400000
156.011700 36500.900000
160.086800 35563.900000

>ms2
65.038600 449857.900000
68.049400 27333.500000
72.044300 9387.700000
80.049400 132166.900000
92.049500 623116.000000
93.057300 174150.000000
94.064800 5911.000000
99.055300 71513.000000
106.052500 4234.000000
107.060300 15181.200000
108.044400 531044.600000
110.060000 60642.000000
119.060400 4440.700000
131.060800 3474.700000
143.060800 3277.800000
146.071000 30595.800000
147.078900 11933.800000
156.012100 5897.100000
160.086900 9892.400000

>ms2
92.049400 18193.900000
93.057400 10677.900000
99.055200 5726.200000
108.044100 16618.700000
147.079200 24007.000000
148.086900 6361.400000
156.011300 110295.000000
160.086900 16788.600000
188.082100 36747.900000
190.097500 32729.500000
194.038100 13455.200000
236.048700 18455.600000
254.059600 2922238.500000

>ms2
65.038500 10112.800000
68.049500 9829.000000
72.044300 2081.700000
92.049500 157492.000000
93.057300 101975.700000
94.065100 18900.300000
99.055300 103496.800000
107.060300 17797.600000
108.044400 294146.900000
146.071300 23576.900000
147.079100 117905.800000
148.086900 43772.200000
156.011400 733915.200000
160.086900 141390.900000
161.001300 8514.800000
163.086800 4063.900000
172.086700 3389.900000
173.058800 2082.100000
176.027800 6581.200000
188.081900 110210.900000
190.097400 76564.100000
194.038200 38754.300000
236.049100 5249.800000
254.059500 855378.000000

>ms2
65.038600 49300.700000
68.049500 44745.800000
78.034100 4682.100000
79.017900 6299.000000
80.049600 8563.700000
92.049500 285012.700000
93.057300 140172.800000
94.065100 9215.800000
96.044300 12149.600000
99.055300 145389.900000
107.060400 15765.300000
108.044400 562010.200000
110.059900 7455.600000
120.055400 5466.800000
131.060500 3236.200000
132.067900 2767.200000
146.071300 22690.100000
147.079000 84182.700000
148.086800 15960.600000
156.011400 577119.400000
160.086900 136870.600000
161.001600 7952.000000
173.057900 3171.900000
176.027600 5642.600000
188.081700 24019.100000
190.097300 8194.600000
194.038100 8237.000000
254.058100 23480.100000

>ms2
65.038600 98695.900000
68.049500 53880.400000
69.033500 3443.600000
78.033800 9528.000000
79.017800 5020.300000
80.049500 11964.500000
92.049500 382114.000000
93.057300 114006.200000
94.065200 5019.500000
96.044400 14617.900000
99.055300 113148.300000
107.060400 14611.200000
108.044400 565482.900000
110.060000 27419.000000
120.055900 6707.800000
121.076000 2330.100000
131.060300 4160.200000
132.068000 3441.000000
143.060400 2610.300000
146.071300 19374.000000
147.079000 50559.800000
148.087000 3978.000000
156.011400 140786.400000
160.086900 64977.500000
161.001600 4998.200000
173.058000 3373.600000

>ms2
65.038600 167469.900000
68.049400 37639.200000
69.033600 2383.200000
72.044200 4960.000000
78.033800 3718.100000
79.017800 3416.100000
80.049500 29868.100000
92.049500 413065.700000
93.057300 102152.700000
96.044400 8822.300000
99.055300 66901.700000
107.060300 13259.000000
108.044400 424647.300000
110.060000 46149.900000
119.060800 2604.200000
120.055500 4817.100000
131.060800 2969.700000
132.068500 2721.100000
133.063800 2091.200000
143.060400 2554.200000
146.071200 19899.500000
147.078900 20788.700000
156.011300 15027.500000
160.086800 20316.500000

>ms2
65.038600 232060.100000
68.049500 12347.600000
72.044400 2084.800000
78.033900 1437.800000
80.049500 65306.100000
92.049500 320914.400000
93.057300 84342.500000
94.065200 2863.300000
96.044400 3489.800000
99.055300 30217.000000
106.052600 1792.000000
107.060400 7817.400000
108.044400 278953.700000
110.060000 26416.900000
119.060300 3232.400000
131.060200 1531.400000
146.071300 14520.400000
147.078800 5806.600000
160.086800 5226.600000

