>compound EA19375068
>parentmass 270.12550000000005
>ionization [M+H]+
>formula C14H20ClNO2
>rt 702.000000
>profile orbitrap
#smiles_iso CCC1=CC=CC(=C1N(COCC)C(=O)CCl)C
#smiles_can CCC1=CC=CC(=C1N(COCC)C(=O)CCl)C
#inchikey VTNQPKFIQCLBDU-UHFFFAOYSA-N
#pubchem_id 1988
#mb_accession EA010402,EA010403,EA010404,EA010405,EA010406,EA010407,EA010408,EA010409,EA010410,EA010411,EA010412,EA010413

>ms2peaks
90.010800 2499.800000
131.086000 3440.400000
148.112100 67989.100000
194.072600 3869.300000
206.073700 7250.800000
224.083800 538799.100000
270.125500 444614.600000

>ms2peaks
59.049100 10296.900000
90.010600 5798.700000
131.085700 11793.800000
148.112000 207608.000000
149.095800 5236.500000
194.072800 12142.100000
206.073000 8250.300000
210.068200 11634.300000
224.083500 320599.300000
270.126200 9130.200000

>ms2peaks
59.049100 11704.600000
90.010600 14019.500000
131.085500 10748.000000
132.081000 3939.300000
133.088500 10485.600000
146.096800 3052.700000
147.103700 5208.200000
148.112100 240702.500000
149.095900 19241.300000
188.106500 2630.600000
194.073000 3501.900000
206.072700 7376.200000
224.083600 61326.100000

>ms2peaks
59.049200 9492.800000
90.010400 8017.800000
131.085900 6361.700000
133.088500 45142.600000
148.112000 142313.600000
149.096200 13420.600000

>ms2peaks
59.049100 6835.600000
90.010500 4224.200000
132.080700 13660.200000
133.088500 94577.600000
148.112000 60271.700000
149.096400 5743.100000

>ms2peaks
91.054200 3311.500000
132.080600 18976.900000
133.088600 79201.500000
148.112000 14299.200000

>ms2peaks
59.048900 2901.200000
90.010300 2526.600000
131.085500 3281.900000
148.112000 53033.400000
194.072400 4060.500000
206.073000 4415.300000
210.068200 6510.400000
224.083600 446382.200000
270.125400 355284.100000

>ms2peaks
59.049100 6276.300000
90.010500 3995.000000
131.085400 8071.100000
146.096300 1908.700000
148.112100 157623.400000
158.096700 1760.200000
194.073200 4979.400000
206.072900 5494.500000
210.067900 8671.700000
224.083600 262049.400000
270.125500 8085.200000

>ms2peaks
59.049100 11187.800000
90.010500 13663.800000
131.085500 8938.100000
132.080800 2389.500000
133.088800 5760.500000
146.096600 3955.000000
147.103700 2775.700000
148.112000 170861.100000
149.096000 13865.600000
158.095800 3546.600000
188.106400 2250.300000
194.073100 3187.100000
206.072600 5858.400000
224.083700 43296.900000

>ms2peaks
59.049100 5246.300000
90.010500 4243.200000
131.085600 4254.300000
132.080500 5125.100000
133.088500 34871.600000
147.103500 3554.600000
148.112000 111663.600000
149.096100 7370.500000
158.096500 2520.500000
224.083000 2143.600000

>ms2peaks
59.049000 4179.500000
90.010400 4747.700000
91.054100 3176.400000
132.081000 6110.300000
133.088500 71910.100000
148.112000 48929.800000
149.095800 2480.500000

>ms2peaks
59.048900 1230.600000
90.010300 2013.100000
91.054200 3470.500000
132.080800 14505.200000
133.088500 62742.400000
148.112000 9043.900000

