>compound EA20715336
>parentmass 304.2635
>ionization [M+H]+
>formula C20H33NO
>rt 564.000000
>profile orbitrap
#smiles_iso C[C@@H]1CN(C[C@@H](O1)C)CC(C)CC2=CC=C(C=C2)C(C)(C)C
#smiles_can CC1CN(CC(O1)C)CC(C)CC2=CC=C(C=C2)C(C)(C)C
#inchikey RYAUSSKQMZRMAI-ALOPSCKCSA-N
#pubchem_id 93365
#mb_accession EA014602,EA014603,EA014604,EA014605,EA014606,EA014607,EA014608,EA014609,EA014610,EA014611,EA014612,EA014613

>ms2peaks
304.263400 28538949.500000

>ms2peaks
304.263400 28965151.600000

>ms2peaks
57.069700 158570.200000
72.080400 59765.700000
91.053800 68447.200000
98.096400 686636.500000
102.091000 41250.400000
116.106900 1574463.500000
119.086000 46248.800000
130.122600 1967374.100000
132.092800 40119.200000
147.116800 3674469.400000
161.132500 61438.800000
189.163700 548138.600000
248.200700 169306.500000
262.216900 35187.300000
304.263200 19917545.800000

>ms2peaks
57.069800 507607.900000
59.049000 60913.100000
70.065100 97530.900000
72.080800 91292.600000
81.069700 59845.000000
88.075600 41166.100000
91.054200 244476.700000
98.096400 2432155.900000
100.112500 45246.700000
102.091200 97094.000000
105.069900 633956.100000
107.086000 54381.400000
112.112100 80854.200000
116.107000 1779895.700000
117.069400 127852.500000
119.085500 654642.700000
130.122700 2198321.300000
132.093400 443690.200000
147.116900 10052015.800000
161.132300 260186.200000
189.163300 213426.400000
304.263100 2433478.400000

>ms2peaks
56.049400 50656.500000
57.069800 409587.000000
59.049200 60761.000000
70.065200 125295.400000
72.080700 71963.200000
79.054600 39307.000000
81.070100 64343.100000
86.096400 37640.000000
88.075500 38596.400000
91.054300 342341.200000
93.070100 43946.600000
98.096500 1881170.400000
102.091300 62470.600000
105.069900 1502422.500000
107.085500 222863.200000
112.111600 33309.600000
116.107000 455125.600000
117.069900 550457.800000
119.085600 1855896.100000
130.122700 598288.600000
131.085600 66220.100000
132.093400 2358680.600000
145.101700 128806.900000
146.109600 47269.200000
147.116900 6809490.300000
159.117200 47250.000000
161.132200 168130.300000

>ms2peaks
55.054100 55227.900000
56.049400 60266.100000
57.069800 293530.500000
58.065000 36614.100000
59.049000 64318.100000
70.065100 116316.600000
72.080800 30956.700000
79.054300 102921.800000
81.069800 84969.400000
91.054200 576579.100000
93.070100 50135.400000
98.096400 914946.300000
104.061900 152511.700000
105.069900 1734651.700000
107.085500 304568.800000
115.054100 42633.000000
116.106900 141690.800000
117.069800 2250356.800000
119.085500 2219230.900000
130.122800 105493.200000
131.085500 236325.900000
132.093300 3856855.800000
145.100900 115708.700000
146.109000 64245.500000
147.116800 2206663.900000
159.117300 53173.200000
161.132400 39855.300000

>ms2peaks
147.117200 63152.000000
304.263400 23723430.200000

>ms2peaks
304.263400 22704184.000000

>ms2peaks
57.069800 136427.300000
91.054200 43677.800000
98.096400 490594.500000
100.111800 16351.600000
102.091200 19677.100000
105.069800 37681.800000
112.112000 30850.200000
114.091500 23757.600000
116.107000 1230361.100000
117.069700 16652.000000
119.085200 26011.200000
130.122600 1386068.400000
133.101300 20630.900000
147.116800 2711851.600000
161.132200 75496.400000
189.163700 336987.100000
248.200300 70067.500000
304.263400 15072574.600000

>ms2peaks
56.049400 29852.900000
57.069800 313580.500000
58.065000 39308.600000
59.049100 29108.400000
70.065100 66735.800000
72.080700 74018.000000
81.069800 49146.100000
86.096400 40877.500000
88.075600 43024.600000
91.054200 153531.300000
98.096400 1685711.800000
100.112100 21097.100000
102.091400 78130.500000
105.069900 414854.300000
107.085600 73630.000000
112.112200 51117.600000
114.091400 24657.200000
116.107000 1317986.600000
117.069800 56370.200000
119.085500 481527.900000
130.122600 1602629.700000
131.085600 36902.100000
132.093300 311913.500000
145.101000 21621.100000
147.116800 7180680.100000
161.132400 224467.000000
189.163600 183739.400000
248.201000 42940.300000
304.264400 2241334.200000

>ms2peaks
56.049400 45941.500000
57.069800 295429.700000
58.065100 26586.600000
59.049100 44951.500000
70.065100 77867.700000
72.080700 26238.400000
79.054000 29716.300000
81.069900 70820.100000
86.096600 22614.900000
88.075700 33624.500000
91.054200 256769.600000
93.069800 27298.600000
98.096400 1441601.400000
102.091400 55669.200000
104.062200 20172.800000
105.069900 1107103.700000
107.085500 206035.200000
112.112200 25797.500000
116.107000 366628.900000
117.069800 461334.100000
119.085500 1465347.000000
130.122600 475395.200000
131.085200 82567.700000
132.093300 1716232.700000
145.101100 83250.200000
146.108800 20110.100000
147.116800 4906735.800000
159.116700 33882.100000
161.132400 132570.100000

>ms2peaks
55.054100 19613.900000
56.049400 49824.800000
57.069800 218561.000000
58.065100 23124.000000
59.049100 33431.300000
70.065100 75422.300000
72.080700 16597.100000
79.054200 63264.200000
81.069800 37983.900000
88.075600 10810.700000
91.054200 346022.600000
93.069700 27248.400000
98.096400 512247.800000
102.091400 21744.800000
104.062000 86078.000000
105.069900 1119349.800000
107.085400 195864.500000
115.054100 23749.100000
116.106900 50576.700000
117.069800 1596442.900000
119.085500 1425765.600000
130.122600 59968.100000
131.085500 115246.100000
132.093300 2571911.800000
145.101100 60925.100000
146.108900 41345.700000
147.116800 1562258.800000
159.116800 39020.100000
161.132500 34739.500000

