>compound EA21829211
>parentmass 172.0717
>ionization [M+H]+
>formula C6H9N3O3
>rt 126.000000
>profile orbitrap
#smiles_iso CC1=NC=C(N1CCO)[N+](=O)[O-]
#smiles_can CC1=NC=C(N1CCO)[N+](=O)[O-]
#inchikey VAOCPAMSLUNLGC-UHFFFAOYSA-N
#pubchem_id 4173
#mb_accession EA019702,EA019703,EA019704,EA019705,EA019706,EA019707,EA019708,EA019709,EA019710,EA019711,EA019712,EA019713

>ms2peaks
82.052400 15614.900000
128.045400 559584.700000
172.072000 7234998.500000

>ms2peaks
82.052300 32897.500000
128.045500 2988146.100000
172.071800 5423288.200000

>ms2peaks
56.036900 38298.600000
82.052400 108170.700000
98.047600 50428.100000
111.042600 46935.700000
128.045500 5477923.800000
172.071700 1627518.700000

>ms2peaks
56.037000 72403.300000
82.052600 195782.900000
98.047500 148508.500000
111.042700 167537.000000
128.045600 4646774.700000

>ms2peaks
56.036900 91471.800000
81.044700 12283.400000
82.052600 342863.200000
83.060700 10496.500000
98.047400 240263.100000
111.042700 286539.400000
128.045400 2333912.000000

>ms2peaks
56.036900 78549.200000
69.044700 11500.500000
81.044800 53496.600000
82.052500 364515.700000
83.060300 30616.200000
98.047400 220289.700000
111.042600 282458.900000
128.045500 861308.400000

>ms2peaks
128.045500 546806.900000
172.071800 7370991.300000

>ms2peaks
56.036900 5587.200000
82.052400 35022.700000
111.042600 14224.600000
128.045500 3157662.100000
172.071700 5581289.600000

>ms2peaks
56.036900 34507.000000
82.052500 93156.900000
98.047500 40114.900000
111.042700 40629.900000
128.045500 5442056.800000
172.071800 1626060.500000

>ms2peaks
56.036900 69027.700000
81.044600 7749.700000
82.052600 190493.100000
98.047400 134226.300000
111.042700 152967.600000
128.045500 4375286.400000
172.071600 218431.600000

>ms2peaks
56.036900 80005.100000
69.044700 8349.800000
81.044700 12905.300000
82.052600 278442.900000
83.060400 14059.200000
98.047500 212880.900000
111.042700 269354.000000
128.045500 2122289.400000
172.072100 24129.300000

>ms2peaks
56.036900 58308.000000
69.044800 8520.100000
81.044700 34617.200000
82.052600 296663.300000
83.060400 26420.700000
98.047400 203414.300000
111.042700 257113.200000
128.045400 721853.300000

