>compound EA21818260
>parentmass 214.12600000000006
>ionization [M+H]+
>formula C11H19NOS
>rt 696.000000
>profile orbitrap
#smiles_iso CCCCCCCCN1C(=O)C=CS1
#smiles_can CCCCCCCCN1C(=O)C=CS1
#inchikey JPMIIZHYYWMHDT-UHFFFAOYSA-N
#pubchem_id 33528
#mb_accession EA030002,EA030003,EA030004,EA030005,EA030006,EA030007,EA030008,EA030009,EA030010,EA030011,EA030012,EA030013

>ms2peaks
71.085300 49543.200000
102.000900 877309.400000
214.126000 15744550.600000

>ms2peaks
57.069700 153291.500000
71.085500 217538.700000
102.000800 4711272.900000
214.126100 9242529.000000

>ms2peaks
57.069800 335886.000000
71.085500 340684.600000
102.000700 5141626.400000

>ms2peaks
57.069800 386154.400000
71.085500 200084.400000
102.000800 4033374.900000

>ms2peaks
57.069800 273395.000000
58.994800 22673.900000
71.085400 56628.800000
84.974200 25709.200000
102.000800 3052421.700000

>ms2peaks
57.069800 175672.900000
58.994900 50316.600000
71.085400 23695.200000
83.990400 79510.800000
84.974100 48683.400000
102.000800 2464122.400000

>ms2peaks
71.085400 41991.100000
102.000800 656288.300000
214.126100 11324682.800000

>ms2peaks
57.069800 112137.400000
71.085500 135308.200000
102.000800 3397360.700000
214.126100 6413030.200000

>ms2peaks
57.069800 246786.700000
71.085500 265659.400000
102.000800 3845554.100000
214.125900 838887.000000

>ms2peaks
57.069800 244911.400000
71.085500 148081.100000
102.000800 2843290.500000

>ms2peaks
57.069800 179829.800000
58.995100 9278.400000
71.085500 57043.200000
83.990200 9303.400000
84.974200 19499.800000
102.000800 2102863.300000

>ms2peaks
57.069800 93828.000000
58.994900 18305.900000
71.085500 8537.900000
83.990300 48822.700000
84.974200 38838.100000
102.000800 1482119.600000

