>compound EA21874065
>parentmass 216.03249999999994
>ionization [M+H]+
>formula C8H9NO4S
>rt 270.000000
>profile orbitrap
#smiles_iso COC(=O)C1=CC=CC=C1S(=O)(=O)N
#smiles_can COC(=O)C1=CC=CC=C1S(=O)(=O)N
#inchikey VSOOBQALJVLTBH-UHFFFAOYSA-N
#pubchem_id 42546
#mb_accession EA012602,EA012603,EA012604,EA012605,EA012606,EA012607,EA012608,EA012609,EA012610,EA012611,EA012612,EA012613

>ms2peaks
135.043600 17726.800000
142.996200 7322.400000
184.006400 20980.200000
199.005900 900097.900000
216.032300 165850.900000

>ms2peaks
77.038400 4488.000000
130.039700 10107.700000
135.044000 149700.900000
142.996500 8588.300000
165.995700 17094.300000
184.006100 84240.800000
199.005800 720693.300000
216.032200 29294.400000

>ms2peaks
53.038500 4746.000000
77.038600 20571.300000
79.054200 10193.600000
92.025600 2460.300000
105.044700 9586.700000
120.044300 13402.200000
121.028400 2769.500000
130.039800 42487.400000
135.044000 382126.700000
165.995800 29496.800000
184.006000 79735.900000
199.005800 252158.600000

>ms2peaks
53.038600 14755.600000
77.038600 53146.800000
78.033800 3105.800000
79.054200 20996.900000
92.025500 15338.200000
92.049400 10856.600000
95.048800 5877.700000
105.033300 8836.900000
105.044600 26837.000000
120.020300 9339.500000
120.044300 36166.200000
121.028300 5051.000000
130.039900 83194.600000
135.044000 285797.700000
165.995700 10406.000000
184.006300 29688.000000
199.004900 24914.200000

>ms2peaks
53.038500 18631.100000
65.038500 4746.800000
77.038500 62003.800000
78.033700 5673.200000
79.054200 10082.400000
92.025600 39077.100000
92.049400 14287.700000
95.049000 8162.600000
105.033200 7961.400000
105.044600 37512.100000
120.020600 10542.300000
120.044400 18694.700000
130.039900 95708.500000
135.044000 68825.000000
199.004400 4519.900000

>ms2peaks
53.038500 16331.200000
65.038600 6150.800000
77.038500 63471.200000
78.033900 5727.800000
79.054100 4845.400000
92.025600 56417.900000
92.049300 9034.200000
95.049000 7706.600000
102.033600 11039.100000
105.033300 3694.800000
105.044600 33456.000000
120.020300 7280.100000
120.044200 6556.600000
130.039800 79031.000000
135.043800 13007.400000

>ms2peaks
135.043900 8224.700000
142.003500 1809.200000
142.996200 8236.800000
184.006200 11246.900000
199.005800 460555.800000
216.032300 59932.100000

>ms2peaks
77.038600 4197.900000
130.039400 2764.600000
135.043900 61800.000000
142.996100 9569.900000
165.995400 5119.400000
184.006000 31859.200000
199.005800 316292.400000
216.032300 11943.900000

>ms2peaks
53.038400 3082.900000
77.038600 13959.900000
79.054200 7459.100000
92.025600 1915.500000
105.033900 1825.600000
105.044700 7348.100000
120.044200 5866.600000
130.039900 15228.900000
135.043900 182923.200000
142.996200 2611.300000
165.995600 12061.000000
184.006100 32259.300000
199.005800 104957.200000

>ms2peaks
53.038500 7337.800000
77.038500 29169.400000
79.054200 10421.800000
92.025600 5813.300000
92.049500 4449.200000
95.049300 2549.100000
105.033300 5074.800000
105.044600 17181.200000
120.020400 4803.300000
120.044300 13470.500000
121.028800 2271.100000
130.039900 29841.300000
135.043900 121573.600000
165.995200 5105.400000
184.006000 12960.100000
199.005200 9590.000000

>ms2peaks
53.038500 8288.100000
77.038500 30788.700000
79.054100 4451.100000
92.025500 16519.500000
92.049400 4742.900000
95.049100 3802.500000
105.033600 2670.500000
105.044600 15174.600000
120.020400 5074.100000
120.044200 7827.300000
130.039900 35795.400000
135.043900 29884.400000

>ms2peaks
53.038500 8109.300000
65.038600 2932.300000
77.038600 30913.300000
78.033900 3313.400000
79.054200 2330.600000
92.025600 24061.800000
92.049400 4327.200000
95.049000 4324.200000
102.033800 3923.000000
105.033300 2395.900000
105.044700 15394.300000
120.020400 2194.400000
120.044100 3338.500000
130.039900 35336.400000
135.044100 7176.400000

