>compound EA21597806
>parentmass 242.14339999999996
>ionization [M+H]+
>formula C10H19N5S
>rt 510.000000
>profile orbitrap
#smiles_iso CC(C)NC1=NC(=NC(=N1)SC)NC(C)C
#smiles_can CC(C)NC1=NC(=NC(=N1)SC)NC(C)C
#inchikey AAEVYOVXGOFMJO-UHFFFAOYSA-N
#pubchem_id 4929
#mb_accession EA013302,EA013303,EA013304,EA013305,EA013306,EA013307,EA013308,EA013309,EA013310,EA013311,EA013312,EA013313

>ms2
158.049000 99179.900000
242.143700 28931018.900000

>ms2
68.024200 48665.400000
158.049300 279075.400000
184.064300 28652.000000
200.096600 2420196.600000
227.119200 71422.100000
242.143800 28151370.100000

>ms2
68.024300 644859.700000
91.032400 77565.800000
110.046600 40712.200000
110.071400 290768.700000
116.027800 385810.500000
152.093400 103178.800000
152.118700 174226.000000
158.049800 6543479.300000
184.065800 26317.900000
200.096700 10631591.200000
242.143400 11636461.500000

>ms2
68.024300 1613206.500000
74.005800 139661.400000
85.050900 542388.600000
85.076000 31705.800000
91.032400 322727.700000
110.046100 311472.000000
110.071300 180789.400000
116.027700 1313520.800000
127.097900 49486.600000
143.026400 29112.400000
152.093100 175886.900000
152.118500 76022.300000
158.049700 12609063.300000
200.096500 4925258.300000
242.143000 1321930.300000

>ms2
68.024400 2532319.100000
74.005900 421128.600000
85.051000 1346847.500000
91.032500 531052.000000
110.046200 608909.400000
110.071300 47837.200000
116.027800 1947674.000000
127.097900 47426.100000
128.056500 60431.500000
143.026200 31895.000000
152.093300 65454.500000
158.049700 8754968.200000
200.096800 787459.400000
242.142200 40004.200000

>ms2
68.024300 2768537.000000
74.005900 757601.400000
85.050900 1403772.300000
91.032500 449069.500000
110.046100 614851.300000
116.027700 1702644.600000
143.026400 32505.800000
158.049500 3056158.900000
200.097300 80064.400000

>ms2
200.096700 50116.300000
227.120200 61642.500000
242.143600 22236728.900000

>ms2
158.049800 232202.900000
200.096500 1959823.200000
227.120500 38166.000000
242.143600 20333207.300000

>ms2
68.024300 445513.100000
74.005700 25901.000000
91.032400 79037.800000
110.046100 39223.100000
110.071300 205706.500000
116.027700 279437.800000
152.093200 82760.900000
152.118200 137812.200000
158.049600 5102407.900000
194.139900 38668.000000
200.096600 7720387.200000
242.143500 8956806.100000

>ms2
68.024300 1199248.200000
74.005900 107049.700000
85.050900 333527.500000
85.076000 26569.900000
91.032500 214682.900000
110.046100 202580.000000
110.071300 150754.900000
116.027700 985606.000000
127.097800 31642.800000
128.056800 17105.400000
152.093100 122513.500000
152.118200 47414.000000
158.049600 9489564.800000
200.096500 3489639.900000
242.143400 1071635.800000

>ms2
68.024400 1704319.700000
74.005900 272702.300000
85.050900 885667.400000
91.032500 352772.600000
110.046100 396680.500000
110.071300 36674.200000
112.061800 25734.200000
116.027800 1353341.600000
127.097800 32037.100000
128.056900 38880.500000
143.025900 19552.300000
152.093200 46097.000000
158.049700 6230103.800000
200.096700 565759.300000

>ms2
68.024400 1889754.500000
74.005900 483203.000000
85.050900 989484.200000
91.032500 262415.200000
110.046200 381075.300000
112.061800 15535.400000
116.027800 1116806.600000
127.097900 9593.300000
128.056800 19186.300000
143.026100 32024.800000
158.049600 2161225.400000
184.065400 11659.500000
200.097100 22292.600000

