>compound EA22040000
>parentmass 237.12339999999998
>ionization [M+H]+
>formula C12H16N2O3
>rt 396.000000
>profile orbitrap
#smiles_iso CCNC(=O)C(C)OC(=O)NC1=CC=CC=C1
#smiles_can CCNC(=O)C(C)OC(=O)NC1=CC=CC=C1
#inchikey AMRQXHFXNZFDCH-UHFFFAOYSA-N
#pubchem_id 27689
#mb_accession EA013602,EA013603,EA013604,EA013605,EA013606,EA013607,EA013608,EA013609,EA013610,EA013611,EA013612,EA013613

>ms2peaks
63.044100 6532.400000
72.044300 14502.800000
72.080800 101725.900000
77.038400 7610.800000
92.049500 8364.200000
100.075700 90788.000000
118.086400 540337.600000
120.044500 778307.100000
138.055200 9485.300000
144.065500 31042.100000
164.070800 233665.900000
192.065700 708727.600000
237.123400 287458.400000

>ms2peaks
72.044300 31046.000000
72.080800 217286.400000
77.038700 11290.400000
92.049500 43303.100000
100.075700 144527.300000
105.044900 2689.100000
118.086300 889814.500000
120.044400 614881.800000
138.054800 16073.200000
164.070600 57981.400000
192.065700 102862.400000

>ms2peaks
72.044300 37499.100000
72.080800 356692.300000
77.038600 19382.500000
92.049500 93299.500000
100.075700 127031.700000
118.086300 570318.200000
120.044400 460281.900000
192.064900 5623.800000

>ms2peaks
55.017800 7028.600000
65.038600 5095.400000
72.044400 25844.300000
72.080800 372394.600000
77.038600 31681.500000
92.049600 99182.300000
95.049400 3806.400000
100.075700 93757.600000
105.045000 5424.000000
118.086300 177982.600000
120.044500 310123.100000

>ms2peaks
53.038800 3229.200000
55.017900 9899.600000
65.038700 7224.500000
72.044200 19077.600000
72.080800 336074.000000
77.038600 60025.000000
92.049500 127003.500000
95.049200 9617.100000
100.075600 55226.100000
105.044700 18041.400000
118.086200 43647.100000
120.044400 182986.400000
192.065600 4187.100000

>ms2peaks
53.038600 5642.500000
55.017800 9643.500000
65.038600 8384.600000
72.044500 15902.100000
72.080800 228566.200000
77.038600 91129.800000
92.049600 99548.100000
95.049000 14018.400000
100.075700 22404.700000
105.044800 28615.300000
118.086100 5640.700000
120.044500 70121.500000

>ms2peaks
63.043900 3310.300000
72.044300 9325.100000
72.080800 51400.400000
92.049400 5393.400000
100.075700 38787.900000
118.086300 289904.700000
120.044400 385207.800000
138.055200 4687.000000
144.065500 15127.000000
164.070600 128738.200000
192.065600 370060.600000
237.123300 136527.700000

>ms2peaks
72.044400 12239.800000
72.080800 112508.200000
77.038600 6647.900000
92.049400 20303.800000
100.075700 63134.100000
118.086300 464478.600000
120.044400 303942.100000
138.054900 5717.000000
164.070600 29457.000000
192.065500 47202.000000

>ms2peaks
72.044400 16581.600000
72.080800 152546.600000
77.038500 5442.000000
92.049500 36858.800000
100.075700 60773.000000
105.045200 1739.400000
118.086300 270716.300000
120.044400 213581.300000

>ms2peaks
55.017700 1739.500000
65.038500 3402.100000
72.044300 15064.700000
72.080800 182733.800000
77.038600 15239.000000
92.049500 50209.700000
100.075700 49635.700000
105.044800 3630.900000
118.086200 87165.600000
120.044400 147733.300000

>ms2peaks
55.017800 3534.900000
65.038600 3558.100000
72.044400 8501.800000
72.080800 137833.000000
77.038600 24750.300000
92.049500 48043.800000
95.049100 5400.400000
100.075700 21890.800000
105.044800 6398.300000
118.086300 20433.800000
120.044400 76863.500000
192.064900 3603.700000

>ms2peaks
55.017800 4550.100000
65.038600 3455.600000
72.080800 98979.700000
77.038600 34197.800000
92.049500 43033.700000
95.049100 2823.800000
100.075600 7803.200000
105.044700 12966.500000
118.086300 2418.500000
120.044400 27009.200000
192.065700 2019.800000

