>compound EA22417328
>parentmass 231.1016
>ionization [M+H]+
>formula C14H14O3
>rt 612.000000
>profile orbitrap
#smiles_iso CC(C1=CC2=C(C=C1)C=C(C=C2)OC)C(=O)O
#smiles_can CC(C1=CC2=C(C=C1)C=C(C=C2)OC)C(=O)O
#inchikey CMWTZPSULFXXJA-UHFFFAOYSA-N
#pubchem_id 1302
#mb_accession EA020202,EA020203,EA020204,EA020205,EA020206,EA020207,EA020208,EA020209,EA020210,EA020211,EA020212,EA020213

>ms2peaks
185.096100 135992.700000
231.101600 141290.400000

>ms2peaks
185.096000 274671.200000
231.101000 21373.200000

>ms2peaks
158.072900 7877.700000
170.072500 15077.100000
185.096000 247067.500000

>ms2peaks
115.054800 2712.000000
142.077900 4180.700000
153.069800 16697.900000
154.078000 18888.800000
155.085400 12330.800000
158.072700 13438.900000
170.072500 52252.900000
185.096000 118417.500000

>ms2peaks
115.054200 4745.100000
142.078200 7356.900000
152.061800 5272.800000
153.069900 21794.100000
154.077600 20003.200000
155.085800 12862.800000
169.064800 7486.400000
170.072400 58248.500000
181.076500 5941.900000
185.096100 32179.100000

>ms2peaks
115.054200 16746.300000
128.061500 3919.300000
141.069900 11946.900000
142.077700 19523.900000
152.061900 11720.300000
153.069900 20225.500000
154.077500 20694.100000
158.072300 7392.300000
169.064900 16369.500000
170.072700 35754.400000
181.075100 4185.600000

>ms2peaks
185.096000 87711.800000
231.101500 109331.500000

>ms2peaks
185.096000 177994.300000
231.101400 10239.100000

>ms2peaks
154.077800 2724.000000
155.084900 1722.700000
158.072600 6650.600000
170.072500 4618.800000
185.096000 154458.000000

>ms2peaks
153.069800 9163.800000
154.077500 7607.300000
155.085300 6541.600000
158.072500 6241.100000
170.072400 33899.500000
185.095900 78455.200000

>ms2peaks
115.054200 3278.500000
142.077500 4502.800000
152.062100 2974.400000
153.069700 12696.300000
154.077500 12783.700000
155.085200 8479.700000
158.072500 5081.100000
169.064800 5685.500000
170.072400 39518.700000
181.076000 3612.300000
185.096100 20605.600000

>ms2peaks
115.054200 10993.900000
128.062100 3638.500000
141.069900 11436.700000
142.077600 9141.800000
152.062000 9938.700000
153.069800 15715.300000
154.077600 9801.900000
155.085500 3207.300000
158.072400 4848.400000
169.064700 9295.000000
170.072500 19111.800000
181.075900 3015.600000
185.095800 2172.700000

