>compound EA22060714
>parentmass 212.15059999999997
>ionization [M+H]+
>formula C9H17N5O
>rt 336.000000
>profile orbitrap
#smiles_iso CCNC1=NC(=O)NC(=N1)NC(C)(C)C
#smiles_can CCNC1=NC(=O)NC(=N1)NC(C)(C)C
#inchikey OYTCZOJKXCTBHG-UHFFFAOYSA-N
#pubchem_id 135495928
#mb_accession EA034702,EA034703,EA034704,EA034705,EA034706,EA034707,EA034708,EA034709,EA034710,EA034711,EA034712,EA034713

>ms2peaks
156.087900 6342186.000000
212.150500 172992362.600000

>ms2peaks
86.034900 149086.200000
156.088000 86833199.700000
212.150600 90735598.400000

>ms2peaks
57.069900 457733.300000
69.008300 362546.900000
86.034900 2991869.700000
97.039600 313226.100000
114.066200 2310417.200000
128.056800 327537.400000
156.087900 136076059.000000
212.150300 9489843.200000

>ms2peaks
57.069900 635816.400000
69.008400 4024184.000000
71.060400 667803.400000
85.050700 269858.000000
86.034900 12730251.000000
96.055800 126445.900000
97.039600 3010106.700000
113.082200 579353.600000
114.066100 12781777.600000
128.056700 1828683.300000
138.077200 168796.700000
139.061300 137008.500000
156.087900 85397639.100000
170.103800 89192.200000

>ms2peaks
57.069900 626976.300000
68.024400 299507.800000
69.008400 11720196.100000
71.060400 1236367.600000
85.050900 589509.600000
86.034900 16406985.600000
96.055700 362873.400000
97.039700 6203458.000000
113.082300 799670.100000
114.066200 16407443.800000
128.056700 1897953.600000
138.077700 366552.500000
139.061600 194336.800000
156.087900 27542737.700000

>ms2peaks
57.069900 611479.500000
68.024300 537369.500000
69.008400 16987593.700000
71.060400 1241783.400000
85.051000 705170.500000
86.034900 13806587.600000
96.055500 378415.500000
97.039700 5341297.000000
110.045700 48362.700000
111.030000 79499.500000
113.082100 580637.700000
114.066200 11199361.000000
128.056700 1434907.100000
138.077200 156326.900000
139.061600 92215.800000
156.088000 5634651.800000

>ms2peaks
156.088000 3737650.200000
212.150600 107665329.300000

>ms2peaks
57.069700 69842.800000
86.034700 58855.400000
156.087900 49777181.600000
212.150400 51944272.700000

>ms2peaks
57.069900 141824.200000
69.008200 184616.700000
71.060500 81559.000000
86.034900 1449733.500000
97.039600 182490.400000
114.066200 1000542.000000
128.056600 200303.800000
156.088000 77159546.800000
212.150500 5466775.300000

>ms2peaks
57.069800 278186.100000
69.008300 1838271.000000
71.060400 297240.800000
85.050900 130818.700000
86.034900 6237965.000000
96.055700 60618.300000
97.039600 1445987.200000
113.082100 260800.800000
114.066100 6320821.500000
128.056700 756495.000000
138.077500 108649.300000
139.061400 86604.800000
156.087900 43325832.000000
212.150900 166814.300000

>ms2peaks
57.069900 304240.900000
68.024300 99094.400000
69.008300 5809491.600000
71.060400 537807.000000
85.050900 255491.200000
86.034900 8292280.000000
96.055700 142992.100000
97.039600 2785467.200000
110.045800 26302.900000
111.030000 39335.100000
113.082200 378384.800000
114.066200 8281375.400000
128.056700 991721.700000
138.077300 154513.400000
139.061300 95009.600000
156.088000 13303215.600000

>ms2peaks
57.069800 240358.100000
68.024300 281164.100000
69.008300 7802388.200000
71.060300 535825.800000
85.050800 331795.100000
86.034900 5735637.100000
96.055600 126403.300000
97.039600 2272647.900000
110.046000 22603.000000
111.030100 34161.100000
113.082100 211732.000000
114.066100 5048361.100000
128.056600 505155.800000
138.077200 78531.400000
139.061200 78125.600000
156.087900 2510131.300000

