>compound EA22880733
>parentmass 292.12109999999996
>ionization [M+H]+
>formula C15H18ClN3O
>rt 690.000000
>profile orbitrap
#smiles_iso CC(C1CC1)C(CN2C=NC=N2)(C3=CC=C(C=C3)Cl)O
#smiles_can CC(C1CC1)C(CN2C=NC=N2)(C3=CC=C(C=C3)Cl)O
#inchikey UFNOUKDBUJZYDE-UHFFFAOYSA-N
#pubchem_id 86132
#mb_accession EA008602,EA008603,EA008604,EA008605,EA008606,EA008607,EA008608,EA008609,EA008610,EA008611,EA008612,EA008613

>ms2peaks
70.039900 206604.900000
125.014700 44591.300000
138.993900 8900.700000
292.121200 5589415.700000

>ms2peaks
69.069800 9169.400000
70.040000 2065115.600000
125.015200 478934.200000
138.994400 37955.600000
165.047000 13242.500000
292.121200 1942504.700000

>ms2peaks
69.069800 10656.200000
70.040000 1917675.300000
125.015300 1130815.400000
138.994400 70610.500000
139.030600 12148.200000
155.026400 4569.100000
165.046100 15285.500000

>ms2peaks
69.069900 13176.300000
70.040000 1574023.100000
125.015300 1333393.000000
129.069900 5795.900000
130.077800 8862.100000
137.014600 5321.900000
138.994500 82607.300000
139.004900 11260.900000
139.030900 13100.300000

>ms2peaks
69.070100 10477.100000
70.040000 1271827.300000
89.038800 14715.300000
90.046800 4233.900000
98.999700 4829.200000
103.053900 6235.000000
125.015300 1283246.600000
128.061700 5555.400000
130.077700 9168.000000
137.015200 5348.400000
138.994500 53230.400000
139.005700 31005.700000
139.030300 8681.000000

>ms2peaks
70.040000 1123728.200000
89.038600 61503.300000
90.046500 8705.400000
98.999600 29367.900000
103.054300 9104.800000
125.015300 1185272.000000
128.062600 5356.300000
138.994300 21092.300000
139.005800 55677.700000

>ms2peaks
70.039900 102056.500000
125.014700 22708.100000
292.121200 3190316.100000

>ms2peaks
69.069900 4665.600000
70.040000 1136501.900000
125.015200 288572.900000
138.994600 13693.000000
165.046900 4019.500000
292.121100 982388.600000

>ms2peaks
69.069900 8599.300000
70.040000 1024467.400000
125.015300 577786.900000
138.994500 35700.100000
139.030800 8022.700000
155.025900 2613.900000
165.046700 10072.200000

>ms2peaks
69.069900 9274.600000
70.040000 781267.000000
125.015300 681258.300000
130.077900 3848.100000
138.994500 40973.700000
139.005700 3724.200000
139.031100 8666.900000
165.047100 3194.800000

>ms2peaks
69.069900 5950.200000
70.040000 655479.000000
89.038700 7398.900000
103.054300 3152.700000
125.015300 657041.800000
129.069800 2380.800000
130.077800 4982.300000
138.994500 24194.500000
139.005700 12483.200000
139.031000 3328.000000

>ms2peaks
69.070000 1942.200000
70.040000 513509.800000
89.038600 27716.100000
90.046400 3397.800000
98.999600 13917.500000
103.054400 4565.100000
125.015300 552777.100000
128.062200 2446.300000
129.070000 1857.300000
130.077700 2691.400000
137.015400 1783.100000
138.994500 13582.100000
139.005800 22724.500000
139.031200 1993.100000

