>compound EA22905071
>parentmass 308.1524
>ionization [M+H]+
>formula C16H22ClN3O
>rt 768.000000
>profile orbitrap
#smiles_iso CC(C)(C)C(CCC1=CC=C(C=C1)Cl)(CN2C=NC=N2)O
#smiles_can CC(C)(C)C(CCC1=CC=C(C=C1)Cl)(CN2C=NC=N2)O
#inchikey PXMNMQRDXWABCY-UHFFFAOYSA-N
#pubchem_id 86102
#mb_accession EA032702,EA032703,EA032704,EA032705,EA032706,EA032707,EA032708,EA032709,EA032710,EA032711,EA032712,EA032713

>ms2
308.152600 7890208.600000

>ms2
70.040000 2301220.200000
125.015300 57243.500000
139.030700 25232.600000
151.031200 50145.400000
165.047100 23694.200000
308.152300 4648762.600000

>ms2
57.069700 11382.100000
59.049100 34244.000000
70.040000 3300282.800000
83.085300 19522.500000
125.015300 323633.300000
139.030900 46834.400000
151.031000 238990.600000
165.046600 76460.000000
308.152800 272900.300000

>ms2
55.054100 9044.800000
57.069900 19600.800000
59.049200 50756.800000
70.040000 2641112.600000
83.085800 21196.100000
115.054200 21017.300000
116.062400 42012.200000
125.015300 513028.900000
139.031100 53606.100000
151.031100 255332.900000
165.046800 43183.300000

>ms2
55.054200 9591.400000
57.069800 23087.600000
59.049100 66504.500000
70.040000 2298722.300000
83.085400 10637.200000
103.054200 20431.000000
115.054100 49623.100000
116.062000 109622.600000
125.015200 579768.000000
129.070100 16361.500000
130.077700 37958.000000
139.031000 35156.500000
143.060200 13631.200000
151.030900 126077.700000
165.046700 10119.100000

>ms2
57.069800 12907.400000
59.049100 65919.500000
70.040000 2093232.500000
89.038700 21479.100000
103.053900 38900.700000
115.054100 83661.300000
116.062000 145885.700000
125.015200 616929.900000
130.078000 26428.600000
143.060300 11926.600000
151.030900 38928.800000

>ms2
70.039800 50650.500000
125.014700 8890.900000
308.152500 5558273.400000

>ms2
70.040000 1472176.500000
125.015100 35625.600000
139.031100 13557.700000
151.030900 34398.100000
165.047000 8775.800000
308.152600 2935294.700000

>ms2
57.069800 9143.100000
59.049100 19805.500000
70.040000 2086057.400000
83.085500 16013.000000
115.054300 3950.800000
125.015300 212427.400000
139.030900 33018.800000
151.031000 150487.100000
165.046700 47737.200000
179.062300 14278.200000
308.151900 133679.500000

>ms2
55.054200 8136.900000
57.069900 14628.500000
59.049100 41848.600000
70.040000 1670199.800000
83.085600 16580.000000
103.054200 4296.800000
115.054200 22855.600000
116.062100 21192.600000
125.015300 324402.700000
129.069500 4658.000000
130.077800 8343.400000
139.030900 32026.100000
143.060700 4406.300000
151.030900 151276.600000
165.046500 29468.300000
179.062000 6417.000000

>ms2
55.054100 3769.600000
57.069900 15090.800000
59.049100 37295.300000
70.040000 1294032.500000
83.085600 11221.000000
103.054300 10884.800000
115.054200 34947.900000
116.062100 62356.400000
125.015300 332148.900000
129.069900 8921.000000
130.077800 17952.500000
139.030900 19606.500000
143.060200 8916.700000
151.031000 61590.500000
165.046600 5908.500000

>ms2
57.069800 6043.100000
59.049100 30469.500000
70.040000 1074027.500000
83.085500 2707.000000
89.038500 10217.100000
103.054200 13454.800000
115.054200 39933.000000
116.062100 64827.100000
125.015300 318816.700000
129.069900 9315.300000
130.077700 12337.200000
139.031000 6867.900000
143.060500 4704.900000
151.030900 14120.200000
308.153000 4198.800000

