>compound EA23778850
>parentmass 319.07319999999993
>ionization [M+H]+
>formula C17H15ClO4
>rt 756.000000
>profile orbitrap
#smiles_iso CC(C)(C(=O)O)OC1=CC=C(C=C1)C(=O)C2=CC=C(C=C2)Cl
#smiles_can CC(C)(C(=O)O)OC1=CC=C(C=C1)C(=O)C2=CC=C(C=C2)Cl
#inchikey MQOBSOSZFYZQOK-UHFFFAOYSA-N
#pubchem_id 64929
#mb_accession EA033702,EA033703,EA033704,EA033705,EA033706,EA033707,EA033708,EA033709,EA033710,EA033711,EA033712,EA033713

>ms2
138.994500 9959.500000
233.036200 443709.200000
319.073000 1174264.200000

>ms2
121.028400 34649.000000
138.994400 82264.900000
233.036600 1580730.900000
319.073200 59824.800000

>ms2
110.999400 3977.500000
121.028300 237991.500000
138.994500 544858.700000
233.036300 818659.300000

>ms2
110.999500 3204.700000
121.028400 415243.100000
138.994500 850029.200000
233.036000 112113.400000

>ms2
50.015300 2880.400000
65.038500 10275.800000
75.022900 2747.900000
86.999500 10173.700000
93.033400 8464.600000
110.999600 13075.000000
121.028400 340576.900000
121.039600 45566.200000
138.994600 679123.600000
139.006000 155358.900000
233.036700 9870.700000

>ms2
50.015100 6621.600000
65.038500 27691.200000
75.022700 7002.600000
79.018100 5209.400000
86.999600 27105.300000
93.033500 20012.200000
110.999600 31148.400000
111.043900 9723.500000
121.028400 195547.500000
121.039600 74805.600000
129.010300 17571.200000
138.994500 358834.700000
139.005600 311168.100000

>ms2
121.027900 2035.300000
233.036200 297758.900000
319.073100 791136.300000

>ms2
121.028200 19937.000000
138.994300 50397.700000
233.036500 1044577.200000
319.072900 37801.300000

>ms2
121.028400 157951.300000
138.994500 368837.800000
233.036300 520979.300000

>ms2
110.999300 3987.500000
121.028400 235330.500000
138.994500 551699.800000
233.036300 73965.800000

>ms2
65.038600 5345.200000
86.999600 9492.700000
93.033500 8043.600000
110.999600 7553.600000
121.028400 214909.600000
121.039600 28312.100000
138.994500 428573.100000
139.005600 92925.700000

>ms2
50.015100 2907.300000
65.038600 12516.600000
75.022900 3328.400000
79.017800 1804.500000
86.999600 13983.900000
93.033400 13108.800000
110.999500 13601.300000
111.043900 3088.600000
121.028400 118468.600000
121.039600 40942.700000
129.010100 9346.800000
138.994500 217154.000000
139.005700 190698.400000

