>compound EA23609219
>parentmass 342.0771
>ionization [M+H]+
>formula C15H17Cl2N3O2
>rt 786.000000
>profile orbitrap
#smiles_iso CCCC1COC(O1)(CN2C=NC=N2)C3=C(C=C(C=C3)Cl)Cl
#smiles_can CCCC1COC(O1)(CN2C=NC=N2)C3=C(C=C(C=C3)Cl)Cl
#inchikey STJLVHWMYQXCPB-UHFFFAOYSA-N
#pubchem_id 43234
#mb_accession EA021202,EA021203,EA021204,EA021205,EA021206,EA021207,EA021208,EA021209,EA021210,EA021211,EA021212,EA021213

>ms2
70.039900 3463.700000
342.077100 2403192.600000

>ms2
67.054400 10468.800000
69.069900 217587.200000
70.040000 45366.600000
158.976300 640635.200000
172.956100 7885.200000
172.991800 7525.100000
186.971300 97260.500000
190.966500 11846.600000
204.982000 103867.200000
259.028700 40291.700000
273.044700 38641.800000
342.077000 1171334.600000

>ms2
67.054100 17196.800000
69.069900 270099.900000
70.040000 38251.000000
158.976300 1244619.700000
172.955500 63329.300000
172.992600 7333.400000
186.971200 132818.500000
190.966100 59037.700000
204.981600 27197.800000
256.004800 6251.600000
259.028600 42402.400000
342.076400 34215.900000

>ms2
67.054300 14692.200000
69.069900 164284.300000
70.040000 30666.700000
158.976400 1491224.300000
172.955600 142558.700000
186.971500 38498.700000
190.966200 58909.100000

>ms2
67.054100 7367.600000
69.069900 88367.800000
70.040000 32755.600000
89.038400 6625.200000
98.999800 5462.700000
122.999600 39282.900000
124.007100 11784.000000
132.960800 4302.000000
139.005700 9392.900000
152.002200 8937.300000
158.976400 1562552.600000
172.955800 228537.300000
190.966000 18067.000000

>ms2
67.054100 6026.500000
69.069900 40553.800000
70.040000 28625.700000
72.984300 6109.600000
89.038700 22348.200000
98.999700 25623.900000
122.999600 162193.200000
124.007500 53835.200000
132.960500 18412.400000
139.006000 11528.900000
144.961200 7822.900000
152.002100 9020.000000
158.976400 1394685.400000
172.956400 214575.400000

>ms2
69.069700 7450.900000
70.039700 4067.300000
273.044700 7945.300000
342.076900 3134557.400000

>ms2
67.054200 7754.600000
69.069900 260814.300000
70.039900 61548.400000
158.976200 814976.300000
172.955500 14046.900000
172.992000 20499.600000
186.971100 123653.400000
190.965900 9281.200000
204.981600 149578.200000
256.004400 7288.600000
259.028400 72602.300000
273.044100 41080.100000
342.076600 1359652.600000

>ms2
67.054100 18768.000000
69.069900 315607.400000
70.039900 53220.000000
158.976300 1600194.700000
172.955500 90414.700000
172.991800 14826.300000
186.971100 184053.600000
190.966000 83497.100000
204.981700 42149.000000
256.003400 7561.500000
259.028500 59180.600000

>ms2
67.054200 14372.300000
69.069900 204491.300000
70.039900 37791.700000
158.976300 1830024.100000
172.955500 194286.300000
186.971200 54965.600000
190.966100 70158.700000
259.029200 5056.300000

>ms2
67.054100 9218.700000
69.069900 99216.200000
70.040000 32619.400000
84.055400 4650.900000
98.999700 4402.100000
122.999500 43782.200000
124.007500 11994.700000
139.005600 11432.900000
152.002200 10192.700000
158.976300 1817956.400000
172.955500 274639.100000
172.966700 24924.900000
186.970700 8257.100000
190.966300 26120.700000

>ms2
67.054200 4715.800000
69.069900 36167.600000
70.040000 29857.000000
72.984000 3017.800000
84.055600 4169.700000
89.038600 21251.500000
98.999600 34384.500000
122.999600 175431.500000
124.007400 51735.600000
132.960600 22235.700000
139.005700 11017.700000
144.960300 3692.000000
152.002400 7529.300000
158.976300 1423771.300000
172.955500 211073.300000
172.966700 105734.300000

