>compound EA24030368
>parentmass 150.1277
>ionization [M+H]+
>formula C10H15N
>rt 222.000000
>profile orbitrap
#smiles_iso C[C@@H](CC1=CC=CC=C1)NC
#smiles_can CC(CC1=CC=CC=C1)NC
#inchikey MYWUZJCMWCOHBA-VIFPVBQESA-N
#pubchem_id 10836
#mb_accession EA282902,EA282903,EA282904,EA282905,EA282906,EA282907,EA282908,EA282909,EA282910,EA282911,EA282912,EA282913

>ms2peaks
91.054200 1425395.700000
119.085600 2365573.600000
150.127800 17021051.000000

>ms2peaks
58.065000 20442.200000
91.054300 6986318.500000
119.085500 2742018.100000
150.127900 9710574.100000

>ms2peaks
65.038600 51690.300000
91.054300 12413017.700000
119.085500 1991486.100000
150.127700 2468972.800000

>ms2peaks
58.065000 21670.300000
65.038400 44783.800000
91.054300 14747272.000000
119.085600 616903.400000
150.127700 313455.300000

>ms2peaks
65.038400 55439.200000
91.054300 14342854.100000
119.085500 118001.100000

>ms2peaks
65.038600 81442.700000
79.054300 20193.800000
91.054300 12725537.400000

>ms2peaks
91.054200 1148918.100000
119.085600 1880385.100000
150.127800 13525055.300000

>ms2peaks
58.065000 16324.800000
65.038500 11465.200000
91.054300 5641876.700000
119.085600 2252833.600000
150.127800 7829527.300000

>ms2peaks
58.065200 17773.900000
65.038600 41078.200000
91.054300 10457249.100000
119.085600 1624118.100000
150.127700 2020776.600000

>ms2peaks
58.065100 18365.700000
65.038500 48085.300000
91.054300 11874933.800000
119.085500 597545.700000
150.128000 223593.800000

>ms2peaks
65.038600 44409.600000
91.054300 11333935.700000
119.085400 83950.100000

>ms2peaks
65.038600 55313.100000
79.054200 11533.700000
91.054300 10533136.200000
119.085700 27807.500000

