>compound EA24549989
>parentmass 644.7875000000001
>ionization [M+H]+
>formula C12H11I3N2O5
>rt 78.000000
>profile orbitrap
#smiles_iso CC(=O)NC1=C(C(=C(C(=C1I)C(=O)O)I)C(=O)NCCO)I
#smiles_can CC(=O)NC1=C(C(=C(C(=C1I)C(=O)O)I)C(=O)NCCO)I
#inchikey OLAOYPRJVHUHCF-UHFFFAOYSA-N
#pubchem_id 34536
#mb_accession EA034202,EA034203,EA034204,EA034205,EA034206,EA034207,EA034208,EA034209,EA034210,EA034211,EA034212,EA034213

>ms2
272.929000 12758.300000
289.931300 5638.600000
428.837100 20745.900000
455.822200 22913.500000
516.877000 8643.200000
583.736300 35391.300000
644.788700 10319.800000

>ms2
163.026600 4443.300000
195.985900 2439.600000
272.928200 65241.500000
273.936000 6923.700000
289.931200 41349.600000
290.939000 16517.500000
301.931200 172149.000000
305.925700 5236.600000
319.941600 4262.500000
416.835100 3728.300000
428.835700 50661.800000
455.822900 53388.700000

>ms2
158.024000 5571.400000
174.018500 5713.500000
231.926000 2304.500000
257.940700 7638.300000
272.926900 9452.800000
273.936200 50107.700000
289.930800 3437.400000
301.931100 359366.600000
316.919100 4006.200000
319.940100 6329.800000
455.822700 21963.100000

>ms2
146.023800 4083.700000
147.031400 15400.200000
158.023700 9768.500000
174.018700 13673.500000
175.027100 4481.500000
176.033800 4850.300000
204.914600 6731.400000
231.925500 21041.900000
245.941200 15100.100000
257.941100 31487.300000
259.919300 3905.500000
272.927900 8285.800000
273.936300 82030.200000
301.931200 186555.800000
316.916900 2290.700000
319.940000 5268.400000

>ms2
65.026200 3676.300000
77.002300 6039.000000
92.012600 3587.100000
105.020900 18912.200000
130.028900 3997.100000
131.036500 9787.600000
147.031500 19965.500000
158.023600 6949.200000
174.019100 10633.000000
175.026800 6408.400000
176.033600 3248.900000
203.929800 3471.500000
204.915200 8275.000000
231.926000 19090.400000
232.910000 2531.600000
245.940700 12390.700000
257.941300 26698.900000
273.936000 52287.700000
301.930700 39673.300000

>ms2
65.025900 4426.200000
76.018500 3766.900000
77.002200 6645.800000
91.041800 5045.200000
92.012700 4617.200000
102.033700 3924.600000
105.020900 24283.400000
130.028300 5935.000000
131.036800 12515.200000
147.031600 12143.200000
148.039400 3016.700000
163.026900 9964.700000
174.018300 3425.000000
175.026900 2753.100000
175.911000 3536.400000
204.915400 4822.200000
231.925200 10612.900000
245.941700 4454.300000
257.941000 7177.100000
273.936900 13683.600000
301.931600 4795.100000

>ms2
272.928100 8361.400000
289.931000 4045.900000
428.835200 16774.800000
455.822500 19340.400000
516.875100 4374.400000
583.735300 26525.700000
644.789500 7544.600000

>ms2
195.986000 2098.900000
272.928200 50590.100000
273.936400 3755.800000
289.931200 22543.700000
290.938800 10477.500000
301.931100 114034.300000
305.926000 4022.100000
416.836900 4388.400000
428.835600 35979.400000
455.822800 36947.100000
498.866600 2590.100000

>ms2
174.018400 4454.300000
195.985800 2489.900000
231.925200 2745.000000
257.941100 6002.200000
272.928200 6639.100000
273.936000 30491.400000
301.931000 239294.900000
316.918900 2969.000000
319.942400 3973.100000
455.821800 16157.500000

>ms2
131.036800 2553.300000
146.023900 2252.500000
147.031600 7621.700000
158.023900 6904.600000
174.018700 8052.600000
175.026400 4233.400000
195.987300 2778.100000
204.914400 2523.000000
231.925700 13023.400000
245.940900 8761.400000
257.941300 16133.700000
272.928700 3963.700000
273.936100 56667.800000
301.931100 117300.600000
316.917900 1713.000000
319.942400 3299.600000

>ms2
105.020900 10281.100000
130.029100 2007.500000
131.036600 7366.400000
146.023800 2304.900000
147.031500 11259.400000
158.023700 3520.800000
163.026300 5764.000000
174.018500 5785.800000
175.026600 3418.900000
175.911600 1935.200000
195.988400 2402.300000
204.914500 6995.700000
231.925500 17133.800000
232.910200 1691.900000
245.941000 5962.900000
257.941100 15582.100000
259.920300 3549.300000
273.936000 28152.400000
301.931100 29257.400000

>ms2
76.018100 1768.700000
77.002200 3165.300000
91.041800 3991.700000
92.013300 1508.400000
102.034000 2109.300000
105.021000 13568.600000
130.029100 2072.700000
131.036600 6569.300000
147.031300 5460.700000
148.039500 2091.400000
163.026700 4370.700000
174.018500 2656.800000
175.912100 1610.500000
203.930800 4714.900000
231.925400 4658.500000
245.941400 3416.700000
257.941000 7360.400000
273.936400 9583.100000
301.930800 1725.300000

