>compound EA25461444
>parentmass 721.3199999999998
>ionization [M+H]+
>formula C37H48N6O5S2
>rt 816.000000
>profile orbitrap
#smiles_iso CC(C)C1=NC(=CS1)CN(C)C(=O)NC(C(C)C)C(=O)N[C@@H](CC2=CC=CC=C2)CC([C@H](CC3=CC=CC=C3)NC(=O)OCC4=CN=CS4)O
#smiles_can CC(C)C1=NC(=CS1)CN(C)C(=O)NC(C(C)C)C(=O)NC(CC2=CC=CC=C2)CC(C(CC3=CC=CC=C3)NC(=O)OCC4=CN=CS4)O
#inchikey NCDNCNXCDXHOMX-FDEOAKKQSA-N
#pubchem_id 60954
#mb_accession EA258002,EA258003,EA258004,EA258005,EA258006,EA258007,EA258008,EA258009,EA258010,EA258011,EA258012,EA258013

>ms2
140.052400 11239.200000
171.094800 59291.600000
197.074500 7499.600000
268.147300 96700.800000
296.142300 222812.100000
426.184200 46290.200000
530.203300 3503.700000
721.319300 21995.500000

>ms2
98.005600 11363.300000
140.052800 42778.500000
171.094900 158905.300000
197.074200 133960.300000
250.159100 10810.500000
268.147600 184948.300000

>ms2
70.994900 5767.800000
91.054000 3154.200000
98.005800 34043.800000
117.069200 3630.300000
140.052700 205978.000000
171.094900 70204.100000
197.074000 178857.700000
250.158400 13744.900000

>ms2
70.994900 12399.800000
91.054600 3259.700000
98.005900 40830.300000
117.070000 7408.900000
140.052800 290223.500000
171.095000 9397.400000
172.078600 4214.700000
197.074000 20534.500000
250.160500 4064.500000

>ms2
70.995000 28779.700000
91.054000 5024.900000
98.005900 37002.100000
117.069500 6714.700000
120.080800 3478.800000
140.052800 210237.500000
172.078600 2755.600000

>ms2
70.995000 66508.800000
91.053800 3531.700000
98.005800 34838.200000
140.052700 88355.700000

>ms2
140.052500 5844.000000
171.095000 33123.200000
268.147600 47434.200000
296.142600 117315.800000
426.184400 25519.600000
721.319300 9176.200000

>ms2
98.005800 4375.800000
140.052700 21182.300000
171.094900 75990.800000
197.074200 70342.100000
250.158700 7173.600000
268.147600 87193.300000
296.142200 13148.000000

>ms2
70.994800 2927.100000
98.005900 12358.000000
140.052800 106394.200000
171.094900 32262.400000
197.074200 84974.500000
250.159400 5280.700000
268.147200 5021.500000

>ms2
70.995000 5648.200000
91.054200 3049.400000
98.005800 21507.500000
117.069600 3018.100000
140.052800 144308.800000
171.095000 6447.400000
197.074100 12006.200000

>ms2
70.995000 15609.200000
91.053900 2280.000000
98.005800 23327.300000
120.080800 1986.900000
140.052800 121075.500000

>ms2
70.995000 32026.700000
91.054100 3058.400000
98.005800 16310.400000
117.069600 2915.000000
140.052700 46081.500000
530.207400 1735.200000

