>compound EA25703262
>parentmass 300.14730000000003
>ionization [M+H]+
>formula C14H22ClN3O2
>rt 258.000000
>profile orbitrap
#smiles_iso CCN(CC)CCNC(=O)C1=CC(=C(C=C1OC)N)Cl
#smiles_can CCN(CC)CCNC(=O)C1=CC(=C(C=C1OC)N)Cl
#inchikey TTWJBBZEZQICBI-UHFFFAOYSA-N
#pubchem_id 4168
#mb_accession EA278102,EA278103,EA278104,EA278105,EA278106,EA278107,EA278108,EA278109,EA278110,EA278111,EA278112,EA278113

>ms2peaks
184.015500 80010.800000
227.058400 475088.100000
300.147900 8729579.800000

>ms2peaks
100.112200 39665.900000
184.015900 823833.300000
227.058200 7443321.600000
300.147400 3053387.900000

>ms2peaks
100.112000 110509.000000
183.032000 241130.600000
184.016000 2564821.100000
212.034500 182036.500000
227.058300 8788617.800000

>ms2peaks
100.112100 101733.100000
126.009800 23159.800000
128.026600 15938.300000
140.997700 48454.300000
148.063000 41989.100000
156.021100 139450.100000
168.008600 56008.000000
168.991700 33181.800000
183.031900 1221102.700000
184.016000 4740798.100000
212.034600 1232233.200000
227.058100 4346486.300000

>ms2peaks
63.022800 17261.900000
72.080700 19746.900000
90.033800 98509.500000
92.049500 16383.000000
93.057300 71383.400000
100.112100 100450.400000
113.002400 43663.100000
126.010500 149566.500000
128.026100 95222.500000
129.010300 19768.600000
140.997500 497288.800000
144.021100 53464.000000
147.055400 24349.500000
148.063200 145711.200000
154.005300 102918.100000
156.021000 332755.400000
168.008500 505613.500000
168.992500 299596.500000
170.000000 100832.900000
181.017000 25382.000000
182.024100 61876.800000
183.032000 1098108.400000
184.016000 5043382.600000
187.003000 90690.600000
211.027000 49875.300000
212.034600 1407569.600000
227.058100 951809.100000

>ms2peaks
54.033800 35376.800000
63.022900 93610.900000
65.038500 17213.200000
72.080800 19701.800000
78.033800 42120.900000
82.028900 33058.000000
87.994800 28239.300000
90.033800 256199.600000
92.049300 30583.100000
93.057300 153759.700000
98.999600 61953.700000
100.112100 63077.900000
102.010200 19033.100000
105.044600 23028.000000
108.044400 61152.100000
113.002500 108986.800000
115.989700 16901.600000
120.044400 70916.700000
126.010500 314172.500000
128.026100 177674.400000
129.010000 88917.800000
140.997600 1450469.900000
144.021000 104304.000000
147.055000 33208.400000
148.063100 177845.600000
154.005400 210382.700000
156.021100 357288.300000
168.008500 1214626.600000
168.992500 527915.900000
170.000300 161904.600000
181.016300 27003.100000
182.024000 96929.700000
183.032000 407809.400000
184.016000 2864093.900000
187.003200 143457.600000
211.026800 69098.700000
212.034600 618200.800000
227.058800 122964.000000
300.146700 18259.300000

>ms2peaks
184.015400 84992.600000
227.057900 484087.800000
300.147400 8417352.200000

>ms2peaks
100.112100 54702.900000
184.015900 745976.700000
212.035000 9624.600000
227.058300 7209872.300000
300.147700 3171773.600000

>ms2peaks
100.112100 95883.700000
183.031800 229048.000000
184.016000 2317646.600000
212.034600 164938.300000
227.058300 8018854.400000

>ms2peaks
93.057100 8223.200000
100.112100 119051.200000
126.010600 17090.000000
128.026300 17091.900000
140.997600 47665.000000
147.055400 13598.400000
148.063200 38588.000000
154.004600 15705.700000
156.021100 93457.800000
168.008400 70530.700000
168.992100 36715.300000
183.032000 1092465.300000
184.016100 4146438.100000
211.027300 11481.400000
212.034700 1057790.900000
227.058200 3825124.900000

>ms2peaks
63.023000 13572.700000
72.080900 20988.700000
90.033800 68162.300000
92.049400 9213.000000
93.057300 64354.600000
98.999600 10104.900000
100.112100 89310.000000
102.009800 7644.200000
108.044600 13690.400000
120.044400 35464.600000
126.010500 136299.200000
128.026200 89016.800000
129.010200 22257.600000
140.997500 383594.200000
144.021000 38438.400000
147.055200 23285.400000
148.063000 111282.900000
154.005400 82557.800000
156.021100 291321.000000
168.008500 405454.600000
168.992500 223868.800000
170.000300 95836.100000
182.023900 41521.500000
183.032000 877114.900000
184.016000 4186179.000000
187.002900 62705.400000
211.026600 53223.100000
212.034700 1104925.800000
227.058200 733599.000000

>ms2peaks
54.033800 18807.900000
63.022900 48233.800000
65.038500 14514.800000
72.080700 17687.500000
78.033800 21946.800000
82.028700 23997.100000
87.994700 9043.200000
90.033800 200799.100000
92.049400 25192.500000
93.057200 105088.700000
98.999600 25775.900000
100.112000 36062.800000
102.010400 6998.700000
105.044700 13876.100000
108.044300 55341.000000
113.002600 77248.100000
115.989700 8503.300000
120.044300 57648.300000
126.010400 219560.700000
128.026100 109791.600000
129.010100 41775.900000
140.997600 1136511.500000
144.020900 75078.600000
147.055300 23103.800000
148.063000 142324.600000
154.005300 144119.700000
156.021000 252252.900000
168.008500 916584.700000
168.992400 464153.300000
170.000200 123061.300000
181.016200 31186.400000
182.024000 70417.800000
183.031900 295812.700000
184.016000 2245401.200000
187.003000 93797.900000
211.026800 38090.000000
212.034600 500851.400000
227.057900 46483.900000

