>compound EA26855427
>parentmass 436.2343
>ionization [M+H]+
>formula C24H29N5O3
>rt 672.000000
>profile orbitrap
#smiles_iso CCCCC(=O)N(CC1=CC=C(C=C1)C2=CC=CC=C2C3=NNN=N3)[C@@H](C(C)C)C(=O)O
#smiles_can CCCCC(=O)N(CC1=CC=C(C=C1)C2=CC=CC=C2C3=NNN=N3)C(C(C)C)C(=O)O
#inchikey ACWBQPMHZXGDFX-QFIPXVFZSA-N
#pubchem_id 60846
#mb_accession EA258302,EA258303,EA258304,EA258305,EA258306,EA258307,EA258308,EA258309,EA258310,EA258311,EA258312,EA258313

>ms2
178.077600 24493.700000
180.080700 143701.200000
190.064800 182466.300000
206.084600 55227.600000
207.091800 1231267.800000
235.097700 5470348.900000
278.166000 30962.900000
291.149300 5276246.400000
306.171500 3760045.500000
352.176900 2082072.800000
362.222800 2927690.100000
390.228300 30339.600000
408.228200 2988249.700000
418.223500 3670575.700000
436.234100 1553761.800000

>ms2
84.081000 51673.800000
98.059700 31015.800000
153.070200 33139.600000
178.077300 143386.200000
179.085100 79150.500000
180.080800 641305.100000
190.065000 562435.200000
191.072500 33504.700000
194.096300 286604.500000
205.075800 22504.700000
206.083900 227473.000000
207.091700 9182506.500000
209.106800 97846.400000
210.091300 147741.600000
235.097700 8835985.600000
263.154700 29482.100000
278.164100 34005.900000
291.149200 8276853.700000
306.171200 2501662.400000
352.176600 399490.600000
362.222300 351296.300000

>ms2
79.054400 23624.800000
80.049500 29305.200000
84.081000 55465.900000
98.060000 37399.800000
115.053800 62221.200000
129.045100 29498.000000
140.049500 129608.100000
153.069900 418942.600000
163.054500 45604.500000
165.069900 61365.600000
166.064800 26682.200000
167.072800 106339.900000
178.077700 764707.500000
179.085500 223888.500000
180.080800 2996487.400000
190.065100 2147733.300000
191.072900 235592.400000
193.089400 102493.800000
194.096400 596100.800000
196.075900 51425.800000
205.076300 219518.500000
206.083900 1408812.800000
207.091700 12630569.700000
208.075500 1018099.200000
209.107100 425426.000000
210.091300 542906.900000
235.097700 2067363.200000
273.139000 24982.600000
290.140000 22323.700000
291.149300 2052119.800000

>ms2
79.054500 32741.200000
80.049400 53093.600000
84.081100 19967.800000
105.044700 39109.800000
115.053900 72306.100000
129.044500 63963.600000
129.069700 20862.900000
140.049400 269481.000000
141.070100 37912.000000
151.054500 50160.400000
152.062100 136466.600000
153.069800 1375080.100000
155.060200 20225.700000
163.054200 213392.700000
165.069900 378990.300000
166.065000 138935.700000
166.078500 55004.800000
167.073300 191669.400000
177.056600 45880.500000
178.077700 1584545.100000
179.073100 315256.500000
180.080800 5064284.500000
190.065100 3001990.600000
191.072900 571245.900000
192.068800 1282318.000000
193.088700 224049.800000
194.060700 33410.200000
194.096500 231772.000000
195.080200 80445.300000
196.075500 146126.600000
205.076100 870628.100000
206.083900 2531393.700000
207.091700 5548298.700000
208.075600 1066742.300000
209.107100 213180.400000
210.091500 289783.700000
221.107500 24253.500000
235.086500 178060.100000
290.140300 40552.700000
291.149400 122113.100000

>ms2
77.038700 116003.900000
80.049400 73633.600000
105.044800 87379.100000
115.054300 78546.300000
116.049400 25274.000000
117.056800 22176.100000
129.044800 74981.700000
129.069600 23563.100000
139.053800 36519.100000
140.049600 323330.800000
141.056800 20475.700000
141.069600 55500.600000
151.054100 204281.800000
152.062100 870006.500000
153.069900 2049190.600000
154.065100 95978.700000
155.060400 74914.500000
163.054400 399856.500000
164.062400 84226.700000
165.069900 700797.900000
166.065000 180370.600000
167.072900 204912.300000
168.068000 128700.900000
169.064600 52405.800000
176.061700 22795.300000
177.057400 103157.400000
177.070100 82129.700000
178.077800 2095992.200000
179.073000 765809.900000
180.080800 4416236.200000
183.067000 34648.000000
189.058100 39978.900000
190.065200 2941422.900000
191.073000 661290.200000
192.068500 1597567.000000
193.088600 183102.500000
194.060900 55989.200000
194.096700 99453.300000
195.080100 36884.800000
196.075500 112845.000000
205.076100 1961881.600000
206.083800 1981861.800000
207.091700 1365165.800000
208.075700 390110.100000
209.107200 30150.600000
210.091500 90928.900000

>ms2
77.038600 179713.600000
80.049400 59858.500000
95.049500 24220.100000
105.044700 125518.600000
115.054300 132549.000000
116.049600 28109.200000
117.056700 32709.000000
127.054200 36111.100000
128.049200 34078.200000
128.062500 48005.900000
129.044700 82129.200000
129.070100 34500.000000
130.040200 34206.300000
139.054300 92234.700000
140.049500 436697.600000
141.057500 34531.900000
141.070100 42902.000000
151.054200 503840.700000
152.062000 2526867.900000
153.069900 1739406.400000
154.065000 185967.100000
155.060400 232824.500000
163.054300 649720.700000
164.049500 146780.700000
164.062500 186818.000000
165.069900 985638.100000
166.065100 201880.400000
167.073100 213741.100000
168.068300 133311.100000
169.064700 100289.900000
176.061700 59784.100000
177.057400 262061.800000
177.070000 243762.900000
178.077700 2010782.000000
179.072900 831671.400000
180.080800 2285966.800000
181.075700 83721.600000
182.059300 20058.900000
183.067600 35153.600000
189.057500 138966.100000
190.065200 2582709.100000
191.072800 438745.600000
192.068400 1249158.200000
193.088600 94323.100000
194.060000 28951.000000
194.096000 27760.600000
196.075400 66381.300000
205.076100 2500606.800000
206.083800 801693.000000
207.091600 202344.700000
208.076100 98305.200000
210.092200 23022.400000

>ms2
178.077400 25139.300000
180.080800 125421.200000
190.065200 160704.200000
191.073300 19887.300000
206.083100 51489.500000
207.091800 1266153.600000
235.097800 5058551.600000
278.163800 15796.100000
291.149200 4942115.700000
293.164800 23312.200000
306.171400 3519237.100000
324.169900 22310.600000
352.177000 1952677.700000
362.222800 2649940.900000
390.230100 21835.400000
408.228200 2762513.200000
418.223600 3336521.100000
436.234200 1526059.400000

>ms2
84.080700 23667.400000
98.059900 15646.700000
153.070100 35041.800000
178.065000 11657.700000
178.077800 93831.600000
179.085400 50034.500000
180.080900 485297.000000
190.065200 450818.400000
191.072700 54216.400000
192.068700 31048.300000
192.080800 96277.500000
194.096500 231697.300000
206.083900 188342.000000
207.091700 8058857.200000
208.075700 16746.000000
209.107100 91520.400000
210.091200 132831.400000
235.097700 7953246.500000
263.154400 16691.400000
273.138900 17003.100000
278.164300 22963.700000
291.149300 7147369.900000
293.166000 20696.200000
306.171400 2244396.200000
352.177100 300632.900000
362.222400 326843.700000

>ms2
79.054200 24609.000000
80.049400 23158.100000
84.080900 35367.600000
98.060000 35744.900000
115.054100 34426.900000
129.045000 29600.400000
140.049500 109877.600000
153.069900 336564.700000
163.054000 54622.800000
165.070100 62800.800000
166.065200 40188.500000
167.073000 88206.200000
167.085400 18071.800000
178.065000 83085.500000
178.077800 679736.000000
179.072700 34155.600000
179.085500 176642.300000
180.080800 2643799.000000
181.065000 22200.000000
181.076100 19755.900000
190.065200 1910004.000000
191.073100 221285.300000
192.068200 412789.800000
192.080700 456873.700000
193.088400 77161.100000
194.096400 509726.800000
195.080500 62963.300000
196.076000 41073.600000
205.076200 154175.900000
206.083900 1258885.400000
207.091700 11214352.000000
208.075600 788437.100000
209.107200 374739.500000
210.091200 524526.900000
221.107400 14691.400000
235.097700 1837225.300000
263.154300 23378.700000
273.138200 18249.400000
290.140600 40031.100000
291.149200 1814770.600000
306.171200 68798.000000

>ms2
77.038600 22535.700000
79.054100 36943.200000
80.049400 57823.700000
84.080800 15833.200000
105.044900 33070.100000
115.054200 64339.900000
117.057000 18508.600000
129.044600 55599.400000
129.069600 31571.900000
140.049500 227931.600000
141.070000 40720.800000
151.054100 31718.300000
152.062100 100367.600000
153.069900 1129125.800000
154.064800 11534.600000
163.054200 207010.200000
165.058100 14782.300000
165.069900 263142.700000
166.065000 115748.300000
166.077400 37585.300000
167.072900 151702.900000
167.085400 27530.600000
168.068200 25625.500000
177.057500 21347.100000
178.065500 202026.900000
178.077800 1389324.600000
179.060700 56560.100000
179.072800 254418.700000
179.085500 116109.300000
180.080800 4394200.000000
181.064800 113313.600000
181.076200 54184.300000
190.065200 2766882.300000
191.073000 508865.800000
192.068200 1092582.700000
192.080700 320751.200000
193.088700 168476.400000
194.059500 27041.200000
194.096400 206185.100000
195.080300 73324.300000
196.075700 135809.800000
205.076100 743613.600000
206.083900 2278536.300000
207.091700 4837701.500000
208.075700 906219.600000
209.107100 196109.200000
210.091300 251879.000000
221.107100 23313.100000
235.086400 174702.400000
235.098300 54566.800000
247.085900 25809.200000
290.140700 22946.000000
291.149400 120491.800000

>ms2
77.038600 62732.500000
79.054400 14910.300000
80.049400 49772.600000
84.081000 13694.300000
95.049100 13105.300000
105.044800 46038.100000
115.054200 68082.000000
116.049600 22303.800000
117.057400 19748.000000
129.044800 61510.100000
129.070200 24428.800000
139.054200 22397.900000
140.049500 255347.200000
141.069800 40987.100000
151.054200 160573.600000
152.062000 731899.000000
153.069800 1666528.400000
154.065000 87651.700000
155.060200 56986.200000
163.054200 301911.500000
164.049500 21363.200000
164.062200 52490.300000
165.058100 41175.700000
165.069800 544360.300000
166.065100 157201.000000
166.077600 65119.400000
167.072800 200395.200000
167.085200 26448.300000
168.067900 81104.700000
169.064700 37194.500000
176.061600 15708.900000
177.057200 97061.700000
177.069900 57484.600000
178.065200 337686.800000
178.077700 1726655.200000
179.060600 116785.400000
179.072900 572524.700000
179.085100 46585.700000
180.080700 3841414.600000
181.064600 65754.600000
181.075600 82237.800000
183.068000 19443.500000
189.057500 29139.100000
190.065100 2458353.500000
191.072900 525178.200000
192.068100 1367785.200000
192.080300 205163.300000
193.088500 137854.800000
194.059500 26863.000000
194.096400 57408.500000
195.080500 20502.700000
196.075700 75978.500000
205.076000 1617401.000000
206.083800 1597939.700000
207.091700 1117362.100000
208.075600 313773.400000
209.107400 36439.400000
210.091200 74041.400000
235.086300 14329.900000

>ms2
77.038600 140407.800000
80.049400 54342.000000
95.049300 15188.800000
105.044700 84506.000000
115.054300 82843.000000
116.049500 21785.000000
117.057200 24365.300000
127.054200 28504.400000
128.049400 22588.700000
128.061800 46715.600000
129.044600 71312.200000
129.069700 28272.200000
130.040000 33523.700000
139.054300 72390.300000
140.049500 336803.500000
141.057100 28648.900000
141.070100 20471.500000
151.054200 392848.900000
152.062000 2121176.000000
153.069800 1431640.500000
154.065100 109567.200000
155.060400 175254.700000
163.054300 498160.400000
164.049600 103941.500000
164.062000 133148.200000
165.057400 168036.400000
165.069800 709591.300000
166.065100 139763.500000
166.077300 46020.500000
167.072900 135655.900000
167.085400 11786.300000
168.068100 104994.100000
169.064700 63968.900000
176.062200 63626.800000
177.057300 181352.300000
177.069800 200010.800000
178.065200 382928.000000
178.077700 1556896.400000
179.060300 224377.200000
179.072900 668900.700000
180.080700 1887676.700000
181.064800 23730.200000
181.075900 87282.300000
182.060700 15722.100000
183.068100 31938.100000
189.057200 89439.600000
190.065100 2137227.600000
191.072900 345983.000000
192.068100 1041824.200000
192.080400 86975.000000
193.088600 80472.900000
194.060000 10040.700000
194.096500 14457.700000
196.075600 50843.700000
196.124500 13954.800000
205.076000 2147780.200000
206.083700 629944.800000
207.091600 139684.900000
208.075700 76318.100000
210.090600 17374.300000
247.085200 14435.600000

