>compound EA26672713
>parentmass 614.7769
>ionization [M+H]+
>formula C11H9I3N2O4
>rt 96.000000
>profile orbitrap
#smiles_iso CC(=O)NC1=C(C(=C(C(=C1I)C(=O)O)I)NC(=O)C)I
#smiles_can CC(=O)NC1=C(C(=C(C(=C1I)C(=O)O)I)NC(=O)C)I
#inchikey YVPYQUNUQOZFHG-UHFFFAOYSA-N
#pubchem_id 2140
#mb_accession EA023902,EA023903,EA023904,EA023905,EA023906,EA023907,EA023908,EA023909,EA023910,EA023911,EA023912,EA023913

>ms2peaks
293.900300 7117.500000
360.967700 593048.500000

>ms2peaks
192.053000 17497.600000
233.055600 295921.000000
234.063600 5218.200000
318.957900 8794.000000
342.957900 5024.600000
360.967800 410249.900000

>ms2peaks
148.039100 35014.300000
148.063700 3145.400000
180.052200 7053.200000
189.066100 17220.700000
191.058100 2969.700000
192.052900 77377.400000
215.044600 4270.600000
219.039400 13325.200000
233.055500 531440.000000
300.945500 3191.200000
318.957000 26949.500000
360.968200 44709.300000

>ms2peaks
120.044800 6282.900000
146.048100 5655.200000
148.039200 101155.900000
148.063200 15223.900000
149.034400 3763.300000
164.057900 2934.400000
174.041900 8188.100000
180.052600 21763.300000
187.050200 11038.600000
189.065900 21785.800000
191.057600 3513.600000
192.052800 85779.600000
205.059900 4558.400000
215.044500 7742.900000
219.039600 18463.300000
220.047800 5346.000000
233.055600 224568.600000
318.957300 13032.400000

>ms2peaks
78.033900 4164.700000
79.041400 6354.700000
106.028600 4720.400000
107.036800 8372.500000
118.052500 12776.900000
120.044000 12358.600000
120.068600 4485.500000
146.047200 18029.500000
148.039200 85829.700000
148.063000 17480.600000
159.055200 14968.100000
164.058200 3094.000000
165.041800 9607.400000
174.041900 6497.100000
180.052800 16653.500000
187.049700 11551.800000
189.066000 10215.500000
192.052700 46523.100000
203.930600 4253.700000
205.060700 13022.300000
215.044400 5475.000000
219.039600 12491.400000
233.055300 63905.500000
325.941600 2756.900000

>ms2peaks
77.026100 4774.700000
78.033900 5169.100000
79.017600 3455.500000
79.041800 5961.700000
91.041700 6459.000000
106.028900 4805.300000
107.036500 13525.700000
118.052400 11472.100000
119.060300 4318.400000
120.044300 14394.000000
120.068700 3551.200000
145.039400 7206.400000
146.047400 19165.800000
147.055200 4097.700000
148.039200 42376.600000
148.062900 9697.600000
159.054800 10438.800000
165.042000 7262.700000
180.052300 17102.100000
187.050500 4169.900000
189.066400 3198.000000
192.053000 13501.500000
203.930200 4402.300000
205.060500 13316.900000
219.040200 5348.900000
233.054700 11146.900000
293.902200 8685.900000

>ms2peaks
233.055500 1626.100000
325.953800 2125.100000
360.967800 489236.300000

>ms2peaks
192.052700 15424.000000
219.040200 3687.100000
233.055400 226063.100000
234.063300 3749.200000
293.899400 6145.400000
318.956500 7239.500000
325.953900 2558.500000
342.957300 3258.600000
360.967700 318424.600000

>ms2peaks
148.039100 22312.200000
148.063100 3486.100000
180.052600 3934.600000
187.049800 2672.600000
189.065800 10442.200000
192.052700 63325.100000
215.045200 3945.200000
219.039600 10632.100000
233.055400 390570.800000
234.063300 2080.400000
318.957000 19597.300000
342.956700 2655.900000
360.967700 30925.600000

>ms2peaks
120.044400 4782.800000
146.047400 4606.000000
148.039100 70586.000000
148.063000 10337.000000
149.034200 2146.500000
159.054900 3766.100000
174.042100 5882.000000
180.052800 14866.800000
187.049900 7000.000000
189.065500 15883.000000
191.057500 2310.100000
192.052700 60709.200000
205.061300 2900.900000
215.044600 2847.200000
219.039700 13749.100000
220.048800 2677.900000
233.055400 175088.900000
300.947100 2006.200000
318.956900 8191.300000

>ms2peaks
78.033600 2563.500000
79.017900 1683.900000
79.041500 2303.300000
106.028700 2834.000000
107.036600 5521.200000
118.052500 5148.800000
120.044200 8366.700000
120.068200 3354.000000
146.047300 16285.100000
147.031100 2716.900000
147.055400 2776.200000
148.039200 52936.900000
148.062900 10903.200000
159.055200 8570.100000
165.041900 4836.200000
174.042400 6026.000000
180.052800 13943.500000
187.049700 6130.400000
189.065600 6210.900000
192.052700 32021.000000
203.929800 1849.100000
205.060600 8028.600000
215.044700 4181.300000
219.040000 6520.400000
220.048200 3042.600000
233.055400 44602.500000

>ms2peaks
77.025900 1622.600000
78.033700 2803.100000
79.041500 2755.100000
91.041400 3135.400000
106.028600 3988.400000
107.036500 5785.300000
118.052500 9145.800000
119.060300 2883.200000
120.044300 5525.100000
145.039400 2924.900000
146.047500 8985.900000
147.031000 2198.500000
147.055100 3238.500000
148.039200 24690.100000
148.063200 5282.700000
159.055200 5857.600000
165.041800 5540.800000
180.052800 5758.900000
187.050400 3096.200000
189.065800 3533.900000
192.052900 10708.800000
203.930700 3822.000000
205.060500 7480.000000
233.055200 6882.200000
293.902700 6379.000000

