>compound EA27774271
>parentmass 216.10100000000008
>ionization [M+H]+
>formula C8H14ClN5
>rt 498.000000
>profile orbitrap
#smiles_iso CCNC1=NC(=NC(=N1)Cl)NC(C)C
#smiles_can CCNC1=NC(=NC(=N1)Cl)NC(C)C
#inchikey MXWJVTOOROXGIU-UHFFFAOYSA-N
#pubchem_id 2256
#mb_accession EA028802,EA028803,EA028804,EA028805,EA028806,EA028807,EA028808,EA028809,EA028810,EA028811,EA028812,EA028813

>ms2
216.101200 68056039.400000

>ms2
96.055600 231663.700000
104.001000 221190.500000
132.032500 129482.500000
174.054600 10458306.100000
216.101200 58985981.000000

>ms2
68.024300 949141.400000
71.060300 167093.100000
79.005800 1014555.800000
96.055700 1956578.000000
104.001000 2256202.500000
132.032400 1805661.300000
138.077900 349329.900000
138.102900 280901.600000
146.022800 1313633.200000
146.048100 263134.400000
174.054400 32958196.300000
216.101400 29362258.700000

>ms2
61.979300 202900.000000
68.024300 4323480.000000
71.060400 839888.300000
79.005800 3335467.100000
96.055700 4670056.100000
104.001100 5427034.000000
110.046000 329373.500000
132.032500 5069775.400000
138.077400 1402180.400000
146.022900 4026893.000000
146.048000 212621.500000
174.054100 24308514.400000
188.069600 175113.200000
216.101700 4413442.900000

>ms2
61.979000 425507.900000
68.024400 7225796.300000
71.060400 1881184.300000
79.005800 4600790.800000
90.010800 207114.900000
96.055700 5877259.900000
104.001100 9007053.600000
110.045900 413658.600000
132.032400 4571362.300000
138.077600 1485501.200000
146.022900 3901235.300000
174.053700 8177456.000000

>ms2
61.979100 614992.300000
68.024300 8660135.400000
71.060400 1900479.200000
79.005800 3622851.100000
96.055600 3484701.700000
104.001000 9304678.600000
110.046400 654374.000000
132.032400 2161002.000000
138.077000 653929.300000
146.022900 2004309.600000

>ms2
216.101200 67499888.300000

>ms2
96.055400 225016.900000
104.001000 170700.300000
174.054100 9698972.500000
216.101200 64108067.000000

>ms2
61.979200 41017.800000
68.024400 925017.500000
71.060400 126421.100000
79.005800 866817.400000
96.055700 1626824.600000
104.001100 1661710.400000
110.046100 33191.500000
132.032400 1330284.900000
138.077500 412263.800000
138.102800 229978.400000
146.022900 934598.000000
146.048000 188498.900000
174.054400 26094636.300000
180.124500 109076.800000
188.069700 166563.200000
216.101200 22558671.700000

>ms2
61.979300 131618.600000
68.024300 3840987.700000
71.060400 757870.900000
79.005800 2951267.700000
90.010400 165415.600000
96.055600 4399401.300000
104.001000 4750833.100000
110.046200 258656.100000
132.032300 4716821.700000
138.077400 1246086.200000
146.022800 3987987.300000
174.054200 25216167.200000
188.070600 115800.300000
216.100600 3667136.000000

>ms2
61.979200 348491.500000
68.024300 5438684.200000
71.060400 1131116.200000
79.005800 3272570.900000
90.010500 77829.200000
96.055700 3923127.200000
104.001100 6610210.300000
110.046200 424477.300000
132.032400 3336837.000000
138.077400 1015739.300000
146.022900 3240878.600000
172.038600 46211.100000
174.054200 6864107.800000
180.124400 41168.100000

>ms2
61.979200 479677.100000
68.024300 6399791.800000
71.060400 1254698.600000
79.005800 2704237.500000
90.010500 87644.700000
96.055700 2518857.200000
104.001100 6816893.000000
110.046100 380988.500000
132.032300 1660388.100000
138.077400 461870.200000
146.022800 1573941.900000
172.038500 18561.700000
174.054100 1328600.600000
216.101600 59596.800000

