>compound EA27475355
>parentmass 268.15430000000003
>ionization [M+H]+
>formula C14H21NO4
>rt 228.000000
>profile orbitrap
#smiles_iso CC(C)NCC(COC1=CC=C(C=C1)CC(=O)O)O
#smiles_can CC(C)NCC(COC1=CC=C(C=C1)CC(=O)O)O
#inchikey PUQIRTNPJRFRCZ-UHFFFAOYSA-N
#pubchem_id 62936
#mb_accession EA069702,EA069703,EA069704,EA069705,EA069706,EA069707,EA069708,EA069709,EA069710,EA069711,EA069712,EA069713

>ms2
268.154800 6595890.400000

>ms2
56.049500 34195.400000
72.080800 49970.700000
74.060100 37522.400000
98.096500 64882.400000
116.106900 143803.900000
145.064800 66621.400000
162.091700 8037.500000
165.054700 31969.800000
191.070200 360367.600000
208.096900 15776.700000
226.107400 332915.300000
233.116400 8546.300000
250.143500 107451.500000
268.154500 5025097.800000

>ms2
56.049500 157258.600000
58.065000 20835.400000
72.080800 189346.000000
74.060100 185544.600000
86.096600 7519.900000
91.054200 18634.200000
95.049400 7133.200000
98.096500 236436.800000
107.048700 9216.500000
109.065000 16821.300000
116.107000 298484.500000
119.048800 32083.500000
133.064700 14040.400000
137.059700 36098.500000
145.064800 573312.500000
162.091400 19106.900000
163.075000 32492.900000
165.054500 219599.800000
179.070300 27886.600000
191.070300 862037.900000
226.107300 294465.200000
250.143500 42153.400000
268.154400 953646.100000

>ms2
56.049500 177710.500000
58.065100 19370.900000
72.080900 147585.100000
74.060100 178270.200000
79.054300 27603.000000
89.038700 6551.000000
91.054300 85940.500000
95.049300 23415.800000
98.096500 112374.100000
107.049300 35826.400000
109.064800 35602.000000
116.107100 105446.700000
117.070200 26411.500000
119.049200 72470.200000
123.044200 15712.700000
133.065000 21474.100000
137.059800 73175.700000
145.064900 788185.800000
162.091500 10380.600000
163.050300 103584.500000
163.075500 28268.600000
165.054700 185522.900000
179.070100 15296.100000
191.070200 200873.100000
226.107700 23873.100000

>ms2
56.049500 116326.000000
58.065000 15583.300000
72.080800 64063.400000
74.060100 96911.200000
77.038600 10243.400000
79.054300 119186.200000
81.069900 17433.700000
89.038500 36026.400000
91.054200 122326.900000
93.070100 7075.400000
95.049300 43452.500000
98.096400 39492.000000
100.112200 8066.700000
105.069800 9524.500000
107.049200 58398.200000
109.064800 50072.100000
115.054200 21503.600000
116.107100 27256.700000
117.069900 62689.700000
119.049100 62808.800000
123.044100 25056.000000
133.065300 10333.600000
135.044000 23635.800000
137.059600 35225.600000
145.064800 539889.300000
163.050200 153320.200000
165.054600 48487.600000

>ms2
56.049500 87736.200000
58.065000 12189.200000
72.080800 29636.400000
74.060100 38044.500000
77.038600 32518.900000
79.054200 200540.200000
81.069900 12800.800000
84.080600 5478.000000
89.038600 93758.500000
91.054200 126107.600000
95.049100 34231.300000
98.096400 7182.400000
100.112000 7201.600000
105.044900 11078.400000
105.069900 8466.000000
107.049100 76515.400000
109.065100 19191.500000
115.054200 56761.100000
117.069900 73576.100000
119.049300 29253.900000
123.044300 8920.900000
133.065300 5036.200000
135.043800 17540.800000
137.059900 16732.200000
145.064800 278057.400000
155.060700 9677.600000
163.050100 64357.600000

>ms2
226.107600 7408.700000
268.154600 4186399.000000

>ms2
56.049400 13209.100000
72.080800 26316.600000
74.060100 21614.700000
98.096500 41335.300000
116.107000 91663.700000
145.064900 28094.300000
165.054600 19542.200000
191.070200 230609.500000
208.097300 11820.800000
226.107300 203764.900000
233.117300 7411.800000
250.143800 74709.200000
268.154500 3212457.500000

>ms2
56.049500 94912.600000
58.065100 13710.300000
72.080800 115177.200000
74.060100 104261.700000
91.054200 11719.100000
95.049200 4270.100000
98.096500 137495.400000
107.049200 4274.000000
109.065000 4891.800000
116.107000 180854.700000
117.070200 3596.900000
119.049200 19148.100000
123.044000 6683.800000
133.064700 8809.000000
137.059800 25044.900000
145.064800 328861.400000
162.091400 10993.200000
163.049700 5024.700000
163.075400 18084.900000
165.054700 123083.300000
179.070000 11839.000000
191.070300 508775.900000
208.096200 6014.100000
226.107300 171762.800000
233.117800 5632.400000
250.143900 35174.600000
268.154500 557374.800000

>ms2
56.049500 87507.400000
58.065100 10163.700000
67.054300 2183.500000
72.080800 72557.400000
74.060100 80366.700000
79.054200 14012.500000
81.069800 4370.200000
84.080800 3971.700000
89.038600 4063.600000
91.054200 51011.500000
93.069900 3478.100000
95.049200 15485.900000
98.096400 58858.900000
100.112100 8605.600000
105.069800 4672.300000
107.049100 19516.000000
109.064800 22117.200000
116.107000 55604.700000
117.069800 16796.400000
119.049100 41831.200000
121.064700 2249.800000
123.044000 15215.000000
133.064800 10209.300000
135.043900 5238.800000
137.059700 36162.700000
145.064900 426172.500000
147.044400 2964.900000
162.091500 5695.100000
163.050200 52974.200000
163.075400 16083.800000
165.054700 99993.000000
179.069900 4426.000000
191.070200 107531.800000
226.107200 13019.200000
268.154900 14706.400000

>ms2
56.049500 64029.800000
58.065200 7411.800000
67.054500 1852.400000
72.080800 35204.900000
74.060100 51354.200000
77.038700 5786.700000
79.054200 61390.600000
81.069900 6019.300000
84.080700 4204.800000
89.038600 21163.300000
91.054200 59157.500000
93.070100 3792.200000
95.049100 20223.900000
98.096400 19727.100000
100.112200 6745.200000
105.069700 2905.700000
107.049200 35854.200000
109.064800 21885.900000
115.054200 11107.900000
116.107100 13512.100000
117.069900 27698.800000
119.049200 27244.600000
121.064800 3769.000000
123.044100 11804.600000
133.064800 8740.100000
135.044100 11991.800000
137.059700 19177.100000
145.064800 300190.000000
147.043900 2885.900000
155.060500 4412.000000
163.050200 81601.400000
163.075200 6789.200000
165.054700 29392.700000

>ms2
56.049500 41307.000000
58.065100 5551.200000
67.054200 3211.700000
72.080800 12933.500000
74.060000 19557.500000
77.038500 14045.100000
79.054200 99934.100000
81.069900 7025.600000
84.080800 2802.100000
89.038600 38879.700000
91.054200 60269.100000
93.069800 1698.400000
95.049100 16932.900000
98.096400 3343.500000
100.112000 2869.900000
105.044700 3018.900000
105.069900 4910.900000
107.049100 43048.200000
109.064800 9078.800000
115.054200 29080.300000
116.107000 2033.000000
117.069900 32185.200000
119.049100 13821.800000
121.064800 2005.800000
123.044000 6903.700000
133.064800 4263.400000
135.044000 8598.300000
137.059700 5380.800000
145.064800 126355.400000
155.060300 3770.700000
163.050200 30282.500000
165.054600 2409.700000
226.108200 1743.300000

