>compound EA28671508
>parentmass 359.16350000000006
>ionization [M+H]+
>formula C16H26N2O5S
>rt 312.000000
>profile orbitrap
#smiles_iso CC1(C[C@@H]1C(=O)N/C(=C\CCCCSC[C@@H](C(=O)O)N)/C(=O)O)C
#smiles_can CC1(CC1C(=O)NC(=CCCCCSCC(C(=O)O)N)C(=O)O)C
#inchikey DHSUYTOATWAVLW-WFVMDLQDSA-N
#pubchem_id 6435415
#mb_accession EA255502,EA255503,EA255504,EA255505,EA255506,EA255507,EA255508,EA255509,EA255510,EA255511,EA255512,EA255513

>ms2peaks
97.064400 83793.000000
98.096400 7890.700000
113.041600 5383.800000
115.057400 15351.500000
130.068400 25777.600000
156.083700 10292.900000
166.086600 6069.600000
174.058000 12016.700000
184.097700 5625.000000
200.073300 7498.600000
202.089400 134671.200000
217.101000 9071.100000
219.116000 32437.900000
226.124800 6048.500000
238.144200 12721.000000
246.079000 13860.600000
263.105900 21991.400000
313.158400 15781.900000
315.173300 139572.700000
341.152800 29657.300000
342.136700 68319.200000
359.163600 2234148.300000

>ms2peaks
55.017900 14848.400000
67.054200 20478.000000
69.069800 138491.800000
79.054200 110626.700000
96.080400 8351.500000
97.064800 1000367.000000
98.096300 76072.100000
113.041900 75994.000000
114.091300 10032.200000
115.057500 24552.700000
130.068400 192268.000000
142.086000 21068.800000
156.084200 69804.500000
166.086100 9937.400000
174.057900 34604.600000
182.064000 11690.700000
184.096500 24500.900000
200.073700 62381.100000
202.089500 323738.400000
217.100300 14045.600000
219.115900 277871.200000
226.124800 13286.700000
238.143900 51577.800000
245.095300 23537.000000
246.079400 9993.300000
252.104700 7479.000000
263.106000 47933.000000
313.157100 9977.900000
315.173400 35437.300000
342.138000 11287.200000
359.164000 51165.800000

>ms2peaks
55.017800 20496.700000
67.054200 31207.700000
69.069900 150430.000000
79.054200 122835.000000
81.070000 5266.300000
96.080600 14327.900000
97.064800 1196675.200000
98.096400 91150.000000
113.041900 110498.200000
115.057200 5904.800000
122.096800 6333.800000
130.068400 137807.100000
142.085700 7853.200000
156.083900 32416.200000
174.058900 6300.200000
200.073700 29816.700000
202.089500 40210.700000
219.116200 24019.500000

>ms2peaks
55.017800 10679.900000
67.054200 27801.100000
69.069800 158954.400000
77.038300 6987.100000
79.054100 111010.500000
81.069900 10426.500000
96.080800 19801.900000
97.064700 903876.500000
98.096300 65252.200000
113.041800 87364.100000
115.057400 3674.100000
122.096200 4095.300000
130.068400 57963.600000
156.083700 8220.000000
202.089600 5612.100000

>ms2peaks
55.017800 5970.800000
67.054200 23046.700000
69.069800 138753.000000
77.038600 9174.100000
79.054200 99768.200000
81.069700 12540.600000
96.080800 13386.600000
97.064700 488443.100000
98.096300 24681.000000
105.045200 4749.600000
113.041900 41053.800000
130.068300 12563.800000

>ms2peaks
55.017900 9851.100000
67.054300 14603.500000
69.069900 78288.000000
77.038700 8841.100000
79.054200 54763.900000
81.070100 7215.300000
96.080800 7233.100000
97.064700 159287.600000
98.096400 9610.800000
105.044600 3281.900000
113.041900 19322.500000
130.068600 3469.100000

>ms2peaks
69.069700 3626.400000
97.064500 35696.000000
98.096600 5688.800000
115.057300 7310.600000
130.068400 10507.400000
142.086300 2338.900000
156.084100 6045.900000
174.058000 5319.900000
184.096800 2718.400000
200.074000 4841.800000
202.089300 68996.700000
217.100800 5346.000000
219.116000 18810.400000
238.143800 5739.600000
245.095800 3722.900000
246.078700 4574.400000
263.105800 10708.300000
313.157600 4844.300000
315.173300 81038.500000
341.153000 17206.300000
342.136500 31723.800000
359.163500 1090086.600000

>ms2peaks
55.017800 6108.500000
67.054200 7772.900000
69.069800 51837.400000
79.054200 47461.500000
96.080700 3423.800000
97.064800 440612.300000
98.096300 31988.200000
113.041800 25304.300000
114.091200 3466.100000
115.057600 8806.000000
122.096100 2109.300000
130.068400 89305.400000
142.086200 9146.400000
156.084000 32848.400000
166.085900 5125.400000
171.094300 1904.200000
174.058100 14507.700000
182.063100 5022.200000
184.096700 11860.300000
194.153900 3074.700000
200.073800 21839.800000
202.089400 122033.600000
217.100300 4905.700000
219.116000 118182.600000
220.133100 5555.700000
238.143300 16521.100000
245.095000 10542.000000
252.105100 3474.700000
263.106000 20226.200000
313.157200 4523.600000
315.173500 13194.600000
342.136100 4948.000000
359.162700 17652.900000

>ms2peaks
55.017700 3912.700000
67.054200 8273.000000
69.069800 57495.100000
79.054200 51100.000000
81.070000 3481.000000
96.080600 8299.000000
97.064800 481526.700000
98.096400 36462.100000
113.041800 38789.100000
130.068400 60031.900000
142.086000 4334.400000
156.084000 10651.700000
171.095700 1710.800000
184.096300 5580.200000
200.073900 9838.100000
202.089400 21469.400000
219.115800 8796.700000
220.132600 3029.800000

>ms2peaks
55.017800 3062.000000
67.054200 6373.300000
69.069800 53408.000000
79.054200 40461.700000
81.069900 2313.800000
96.080600 9751.700000
97.064800 346354.200000
98.096300 21066.100000
113.041800 28394.800000
130.068300 19866.400000
156.083500 2643.700000

>ms2peaks
67.054200 9319.000000
69.069800 40023.600000
77.038400 2819.200000
79.054200 30450.700000
81.069800 3024.500000
96.080700 7081.400000
97.064700 160014.900000
98.096400 8119.500000
113.041900 14253.400000
130.068600 5473.900000
202.090500 3095.800000

>ms2peaks
67.054200 4766.400000
69.069800 21961.900000
77.038600 2494.000000
79.054100 14503.700000
97.064700 41566.800000
113.041800 4021.700000

