>compound EA28007394
>parentmass 482.17559999999986
>ionization [M+H]+
>formula C22H28FN3O6S
>rt 552.000000
>profile orbitrap
#smiles_iso CC(C)C1=NC(=NC(=C1/C=C/[C@H](C[C@H](CC(=O)O)O)O)C2=CC=C(C=C2)F)N(C)S(=O)(=O)C
#smiles_can CC(C)C1=NC(=NC(=C1C=CC(CC(CC(=O)O)O)O)C2=CC=C(C=C2)F)N(C)S(=O)(=O)C
#inchikey BPRHUIZQVSMCRT-VEUZHWNKSA-N
#pubchem_id 446157
#mb_accession EA280202,EA280203,EA280204,EA280205,EA280206,EA280207,EA280208,EA280209,EA280210,EA280211,EA280212,EA280213

>ms2peaks
482.175100 587801.600000

>ms2peaks
217.100000 6917.800000
257.131800 7884.500000
258.139900 61719.500000
270.140000 25990.100000
271.146500 7804.300000
272.155600 28507.700000
282.138800 5728.900000
300.150400 20145.300000
376.148500 13151.600000
385.178800 6332.900000
402.163800 4330.600000
404.198100 13588.800000
422.154200 14943.400000
446.154400 13823.100000
482.175100 447625.700000

>ms2peaks
151.122200 3953.300000
189.082100 32723.400000
201.081700 7503.800000
203.097800 14845.200000
216.092300 4282.100000
217.100800 26698.400000
230.108700 17147.200000
239.095800 3640.300000
244.125700 6096.500000
246.139200 6709.800000
254.107500 7252.200000
256.123900 35007.100000
257.132500 20526.900000
258.140000 360199.200000
268.125000 7362.900000
270.139800 109478.900000
271.148100 6466.400000
272.155600 124643.200000
282.139600 39899.700000
298.133200 3225.700000
298.172300 3110.000000
300.150400 185196.200000
314.166300 20287.300000
344.177100 8590.100000
378.129200 17501.500000
402.181300 5608.400000
404.197800 31808.900000
422.154400 12796.700000
482.175900 18385.900000

>ms2peaks
109.076000 3199.400000
122.040100 3634.300000
133.044700 31194.800000
148.055700 5087.900000
149.107000 10966.300000
151.122700 8016.500000
160.056000 2654.200000
174.071200 9342.400000
175.055700 4237.200000
189.082200 69171.400000
201.082100 14787.600000
202.103000 7123.700000
203.097700 18528.100000
215.109900 10494.500000
216.092900 17145.100000
216.117200 9351.000000
217.100700 20056.500000
227.096900 8454.100000
228.093400 7788.500000
229.112800 6797.000000
230.108400 25896.100000
242.108600 23157.200000
243.116400 20207.800000
244.111300 11054.600000
244.125100 9267.400000
254.108900 11949.500000
255.116200 19792.300000
256.124200 58719.500000
257.132200 28425.700000
258.140000 185790.600000
268.125000 14682.100000
270.139900 91618.300000
272.155500 71415.300000
282.139500 33021.800000
300.150500 102048.600000
314.165100 5660.400000

>ms2peaks
108.081200 3037.100000
109.076000 5119.900000
122.040200 11315.600000
133.044700 57392.000000
147.060700 8069.400000
148.056000 8642.100000
149.107400 14811.000000
155.059600 3230.500000
160.055600 5015.800000
173.051500 2844.000000
174.071800 11209.800000
175.056100 3821.500000
175.081800 3518.600000
183.060700 2983.200000
186.071100 8951.700000
189.082400 15913.300000
198.070900 2947.600000
199.077600 5345.900000
202.102700 11527.200000
211.078300 4534.800000
214.100900 15051.200000
215.098700 4705.600000
216.093000 11840.900000
217.101900 5250.700000
225.082300 3421.800000
226.089500 8552.100000
227.097400 10792.600000
228.093300 16922.000000
230.108400 19051.700000
238.089800 2916.600000
240.093000 9589.600000
241.101500 10961.807210
242.108800 66425.500000
243.116300 14197.300000
244.125400 6941.500000
254.109000 35330.300000
255.116600 20169.200000
256.124300 70228.700000
257.131100 13511.600000
258.140400 44128.927750
266.109100 5604.700000
268.124300 18253.600000
270.140500 32373.821110
272.155700 17852.200000
282.138500 4985.900000
298.135800 4626.100000
300.152000 13356.200000

>ms2peaks
79.054400 3486.200000
107.060500 5224.000000
108.080500 3496.200000
109.044700 3923.000000
119.060500 3891.100000
122.039900 17979.100000
133.044700 62924.400000
133.076700 5267.500000
146.052100 11405.816580
147.060300 8215.600000
148.055800 11364.000000
149.106900 4739.800000
155.060100 10210.100000
160.054800 5902.800000
161.063600 5758.400000
173.052200 3890.800000
174.071100 8127.700000
183.060600 5572.500000
184.068500 5061.900000
185.063500 13180.600000
186.069800 15312.100000
188.086700 10686.100000
198.071200 7474.800000
199.078100 9963.100000
200.085700 16387.301710
201.082600 14785.100000
202.103100 4640.800000
203.097600 2640.300000
211.077900 6456.500000
213.080900 8971.700000
214.100700 9376.700000
216.093800 5078.900000
225.083800 5417.400000
227.096500 13140.700000
228.093700 13905.000000
230.109000 9225.100000
240.093400 13393.868620
241.100200 10552.400000
242.108700 57975.900000
254.108400 37661.000000
255.116200 8183.000000
256.124400 37503.100000
258.140000 4293.100000
268.124800 11881.900000
270.139700 7118.000000

>ms2peaks
482.175100 324772.100000

>ms2peaks
217.101500 2561.700000
257.132900 1965.300000
258.139800 35015.400000
270.140000 12225.600000
272.155600 14510.200000
282.140000 2679.500000
300.150000 7264.500000
314.165400 2435.300000
376.148600 8710.000000
404.198200 8170.700000
422.154900 7782.000000
446.153300 6847.900000
464.163400 5251.500000
482.175200 221019.400000

>ms2peaks
189.082100 13788.500000
201.082300 4157.600000
203.098100 5586.800000
217.100800 14815.900000
230.108600 6448.500000
244.113600 2733.600000
244.124900 4912.900000
256.124200 18543.900000
257.132200 9368.400000
258.139900 179641.200000
268.123200 3029.000000
270.140000 57778.100000
271.148200 3698.800000
272.155600 61407.700000
282.140100 16467.100000
296.155900 2476.700000
298.131500 2007.600000
300.150600 96720.300000
314.166100 13302.700000
344.176700 3229.300000
378.127700 8663.600000
402.182300 2532.600000
404.198000 15182.900000
422.154300 3735.600000
482.175600 8101.100000

>ms2peaks
133.044900 15584.300000
148.056400 3388.100000
149.107100 4926.000000
174.071700 4747.700000
189.082200 27306.900000
200.086900 1959.600000
201.081800 6391.100000
202.103100 3836.100000
203.097900 6473.400000
214.102400 2385.900000
215.109900 3929.000000
216.093400 6964.500000
216.117300 3233.400000
217.101000 10390.700000
227.097600 2735.300000
228.092900 3286.200000
230.108600 12096.100000
242.108800 13322.700000
243.116500 10639.400000
244.112800 5691.100000
244.125100 4747.800000
254.108100 6047.900000
255.116400 9687.200000
256.124400 30981.500000
257.132300 11717.600000
258.139900 86659.800000
268.124100 5873.600000
270.140100 38434.700000
272.155700 34324.600000
282.140100 16923.500000
300.150600 46515.500000
314.165900 3259.000000

>ms2peaks
108.080900 2234.700000
109.076100 1973.000000
122.040000 4967.900000
133.044700 24466.000000
148.055600 2703.300000
149.107200 4337.900000
160.055400 3088.900000
174.071100 3999.100000
186.058000 1800.800000
186.071300 2353.700000
187.079000 2107.000000
189.082400 8368.600000
189.975300 1701.900000
198.070900 2292.200000
200.086700 4712.200000
201.082600 4911.000000
203.097700 6058.800000
214.102400 9050.000000
216.093400 4025.800000
217.100900 4778.200000
226.089500 3111.300000
227.097700 5645.100000
228.092700 7939.900000
229.113100 2858.800000
230.109000 8563.300000
238.089300 2202.700000
239.095700 2826.000000
241.100400 4389.500000
242.108600 26710.800000
243.116200 5688.000000
244.111600 2319.000000
244.125100 2208.700000
254.108700 14745.200000
255.116500 11619.400000
256.124300 30594.900000
257.132000 3751.100000
258.139900 18568.800000
268.124800 8184.300000
270.139800 14348.400000
272.155700 10226.300000
282.139400 3292.600000
300.149400 4542.300000

>ms2peaks
79.054300 2405.100000
107.060100 1450.300000
109.044800 1819.400000
119.060500 2476.900000
122.040000 4473.300000
133.044800 25163.400000
133.076100 1708.500000
147.060600 2751.700000
148.055700 1801.800000
149.107400 2714.200000
155.060300 1972.700000
160.055600 1642.900000
161.063400 3517.900000
173.051000 2549.100000
174.071100 3856.100000
183.060300 3381.700000
184.068000 1925.500000
185.063400 6098.600000
186.059300 2304.900000
186.071200 4968.300000
187.079000 4218.300000
188.087000 4630.200000
198.071400 2414.600000
199.079300 3657.200000
200.087000 5383.500000
201.082100 5106.900000
213.082400 4836.300000
214.102400 2463.400000
215.096900 1579.600000
216.093200 3063.600000
225.081900 2050.600000
227.097600 4009.400000
230.108500 3779.800000
240.093100 7874.900000
242.108700 24212.400000
254.108600 16568.900000
255.116100 2969.600000
256.124400 16317.900000
266.109000 1716.600000
268.124400 2532.900000
270.140000 3850.600000

