>compound EA28928564
>parentmass 290.1387
>ionization [M+H]+
>formula C16H19NO4
>rt 276.000000
>profile orbitrap
#smiles_iso CN1C2CCC1C(C(C2)OC(=O)C3=CC=CC=C3)C(=O)O
#smiles_can CN1C2CCC1C(C(C2)OC(=O)C3=CC=CC=C3)C(=O)O
#inchikey GVGYEFKIHJTNQZ-UHFFFAOYSA-N
#pubchem_id 2340
#mb_accession EA282302,EA282303,EA282304,EA282305,EA282306,EA282307,EA282308,EA282309,EA282310,EA282311,EA282312,EA282313

>ms2
105.032500 18929.200000
290.138800 3956274.800000

>ms2
82.065100 18436.600000
93.069900 6858.100000
105.033200 62988.900000
122.096000 5199.600000
124.111900 36217.800000
150.091200 25498.100000
168.101900 1325171.200000
272.128100 90852.000000
290.138600 2440411.000000

>ms2
76.039200 5191.100000
77.038600 14780.700000
82.065200 130339.900000
83.073300 8208.300000
91.054300 24912.300000
93.069900 27971.400000
94.065000 5493.900000
96.080600 10111.600000
100.075700 24454.000000
105.033500 408986.400000
108.080700 10514.000000
119.049200 48275.100000
122.096400 32784.100000
124.112200 83656.900000
140.070500 7035.900000
140.107100 9880.700000
150.091400 129615.900000
168.102100 1925238.200000
272.128200 100914.900000
290.138700 325197.500000

>ms2
67.054300 13825.300000
68.049500 11039.000000
77.038600 41176.800000
79.054100 3924.500000
81.069900 7668.000000
82.065200 194099.600000
83.049100 7890.200000
83.073000 35288.800000
84.080700 8898.100000
91.054200 87052.400000
93.033300 8227.500000
93.069900 41400.600000
94.065000 17284.600000
95.048900 3953.700000
96.080800 27733.300000
100.075700 31843.400000
105.033600 657056.300000
107.073300 4501.300000
108.080700 24117.700000
109.064700 5496.700000
119.049200 96743.500000
122.096400 78795.800000
124.112000 58419.500000
132.080700 15275.100000
135.067600 12325.200000
140.071000 12706.100000
140.106800 4118.600000
150.091400 124128.700000
168.102000 803667.800000
272.128100 8629.100000

>ms2
56.049400 3775.300000
57.057200 4877.600000
65.038800 8932.000000
67.054200 33933.700000
68.049400 36535.700000
77.038600 120444.900000
79.054000 6906.700000
81.069800 8024.300000
82.065100 186951.400000
83.049200 16123.200000
83.073000 71637.800000
84.080800 8933.900000
91.054200 117537.900000
93.033100 5092.700000
93.069700 33918.200000
94.065100 27394.800000
95.049200 14045.000000
96.080700 27338.800000
100.075700 25886.300000
105.033500 647945.800000
107.073100 8336.200000
108.080600 18491.300000
117.057200 5657.300000
119.049100 77632.700000
122.096300 63195.600000
124.111900 29603.000000
132.080600 12578.400000
135.067800 21819.300000
140.070300 10045.600000
150.091200 43139.800000
168.101800 177071.800000

>ms2
57.057400 5712.200000
65.038400 13310.300000
67.054200 41473.400000
68.049400 38229.400000
70.065200 4129.900000
77.038600 219106.800000
79.054200 8109.000000
81.069900 8175.800000
82.065100 142552.700000
83.049000 13801.100000
83.073000 59017.400000
84.080700 4323.900000
91.054200 124457.800000
93.069800 18974.100000
94.065000 29395.300000
95.049000 22272.600000
96.080600 21978.700000
100.075600 13950.800000
105.033400 436135.700000
105.044600 62598.200000
107.072900 6942.200000
108.080800 13959.300000
109.064900 3779.000000
117.057600 6392.000000
119.049300 29841.300000
122.096300 22477.000000
124.111800 12065.700000
132.081300 5081.900000
135.067700 12989.900000
140.070000 6526.200000
150.091100 10177.900000
168.102100 22855.400000

>ms2
105.032200 6698.400000
168.102100 26535.700000
290.138800 1879426.100000

>ms2
82.065000 9668.000000
93.069900 2917.800000
105.033300 26779.100000
124.112000 13722.200000
150.091800 6307.200000
168.101900 625567.100000
272.128000 42726.800000
290.138600 1108298.600000

>ms2
76.039300 3223.200000
77.038600 9419.500000
82.065100 59287.000000
84.080600 2247.100000
91.054200 14339.500000
93.069900 14835.800000
94.065100 2742.200000
96.080800 5652.300000
100.075600 11663.900000
105.033500 200014.600000
108.081100 2929.000000
119.049100 22045.600000
122.096400 12600.200000
124.112100 36536.700000
132.080500 2922.500000
140.106800 5224.900000
150.091300 55095.300000
168.101900 933696.500000
272.127800 40864.500000
290.138700 150893.600000

>ms2
65.038600 2123.000000
67.054300 7105.000000
68.049500 6697.900000
77.038600 22178.400000
79.054100 2066.800000
81.069800 6168.900000
82.065200 88297.400000
83.049200 3169.200000
83.073000 16994.700000
84.080700 4660.700000
91.054200 39480.600000
93.069900 21040.200000
94.065000 7657.100000
96.080700 11699.400000
100.075600 15904.700000
105.033500 319408.700000
108.080700 8885.800000
109.065100 2945.500000
119.049200 47462.300000
122.096400 32425.900000
124.112100 29071.100000
132.080800 8409.000000
135.068000 4940.100000
140.070500 8868.300000
150.091400 55490.300000
168.101900 362776.900000
272.128400 2765.400000

>ms2
57.057500 2211.000000
65.038500 4312.600000
67.054200 18800.400000
68.049500 15913.700000
77.038600 40220.000000
79.054200 3385.600000
81.069800 4806.600000
82.065100 79007.800000
83.049200 7567.100000
83.073000 26414.300000
84.080900 3705.800000
91.054200 58132.300000
93.033400 3259.100000
93.069900 14095.600000
94.065000 9220.300000
95.049100 5083.600000
96.080800 8840.900000
100.075700 7998.800000
105.033500 284197.000000
105.044400 14790.300000
107.073100 3344.200000
108.080700 8895.700000
117.057200 2809.600000
119.049100 36261.400000
122.096400 26584.700000
124.112000 13699.100000
132.080800 4100.800000
135.067800 10837.300000
140.070600 4659.500000
150.091300 18912.900000
168.101800 77464.500000

>ms2
56.049400 1658.900000
57.057300 3110.200000
65.038600 6454.600000
67.054200 16777.100000
68.049500 18087.100000
70.065000 1376.700000
77.038600 92231.300000
79.054200 3168.900000
81.069900 6123.700000
82.065200 64521.800000
83.049100 8892.900000
83.073000 27788.600000
91.054200 48940.700000
93.069900 8553.100000
94.065200 8342.100000
95.049200 10950.300000
96.080700 5420.600000
100.075700 6480.400000
105.033500 185921.400000
105.044700 24519.400000
107.073000 3409.300000
108.080800 4793.900000
117.057300 1850.500000
119.049200 12437.500000
122.096400 10274.400000
124.112100 4950.500000
135.067800 6108.900000
140.070600 3328.800000
150.091400 3695.100000
168.101700 10883.100000

