>compound EA28176808
>parentmass 835.9032000000001
>ionization [M+H]+
>formula C20H28I3N3O9
>rt 96.000000
>profile orbitrap
#smiles_iso CN(CC(CO)O)C(=O)C1=C(C(=C(C(=C1I)NC(=O)C(CO)CO)I)C(=O)N(C)CC(CO)O)I
#smiles_can CN(CC(CO)O)C(=O)C1=C(C(=C(C(=C1I)NC(=O)C(CO)CO)I)C(=O)N(C)CC(CO)O)I
#inchikey YLPBXIKWXNRACS-UHFFFAOYSA-N
#pubchem_id 65985
#mb_accession EA289802,EA289803,EA289804,EA289805,EA289806,EA289807,EA289808,EA289809,EA289810,EA289811,EA289812,EA289813

>ms2
196.165200 2456.500000
293.885800 5387.100000
602.912800 16838.500000
733.871000 4585.300000
835.905900 35351.600000

>ms2
88.075700 7686.600000
196.170300 3270.600000
314.960600 1969.300000
321.108100 7001.600000
339.122100 2655.000000
400.999500 33233.700000
416.997700 3373.800000
431.010000 8172.600000
449.020500 19025.000000
474.999300 36044.800000
554.891400 5967.200000
602.912000 80225.200000
625.746900 5142.300000

>ms2
88.075500 3855.800000
170.023400 2326.900000
196.166200 3179.100000
200.035000 3211.600000
245.093100 2618.300000
273.087400 12787.000000
275.102300 5408.300000
293.895900 7319.300000
317.963000 5231.200000
325.931200 4843.400000
328.918500 8728.900000
339.123100 3150.600000
339.910300 4707.400000
343.941400 18675.400000
357.921700 4613.300000
358.929800 3116.500000
361.952400 5060.900000
369.918900 4064.200000
387.930200 5126.500000
400.999200 37309.300000
405.943700 6587.200000
423.832700 4218.600000
426.977800 5762.700000
431.008500 10604.600000
439.791600 13964.700000
451.821200 2525.800000
456.990800 3464.000000
457.800200 3269.900000
497.834000 17479.700000
554.891800 13198.100000
584.906000 3282.500000

>ms2
70.064800 3717.800000
101.997500 4160.000000
160.039100 2906.400000
170.023700 25220.100000
185.070900 6645.000000
186.018300 4719.100000
187.026400 5738.900000
188.033700 7966.000000
196.166500 2415.900000
200.034000 10510.300000
201.041700 7658.300000
202.049600 3824.000000
205.037200 2320.300000
213.065200 4065.000000
215.081500 2823.600000
218.044200 7667.900000
243.075600 2838.800000
269.941000 6902.400000
285.935900 14707.800000
293.897000 8731.300000
295.919400 6278.600000
299.953000 2454.900000
313.930600 13484.800000
317.962700 7836.700000
339.910300 3351.000000
343.940300 9229.600000
355.803300 3093.000000
357.921700 3265.200000
383.800200 9895.600000
385.816400 3116.100000
400.997700 4207.000000
423.833200 4046.800000

>ms2
101.997400 19526.700000
103.041900 3299.600000
104.049800 3037.200000
114.034000 6706.100000
115.041200 2153.400000
132.044200 4109.000000
141.020100 3924.000000
142.028200 3332.000000
144.045000 4585.500000
159.031400 5886.300000
160.003100 3431.900000
160.039000 9830.500000
170.023600 26786.200000
172.039000 4379.800000
185.071200 4887.200000
188.033800 7889.400000
196.169300 3057.300000
200.034900 4134.400000
242.917200 3060.800000
243.925800 3319.100000
256.896700 6930.100000
257.940900 6810.200000
269.941300 8105.800000
285.936300 12340.000000
293.899500 7767.900000
295.919700 5739.500000
313.930700 6198.200000
325.932300 2610.200000
355.804900 6115.000000

>ms2
76.018500 3694.200000
89.038600 4545.300000
101.997600 21356.400000
103.041800 4247.600000
104.012900 4329.300000
104.049800 2153.600000
114.034000 12911.300000
116.049000 3713.800000
132.044300 3855.500000
141.020000 3253.400000
142.028300 4816.100000
143.037200 3751.800000
159.032200 3375.400000
160.039500 10222.500000
170.023400 11613.100000
177.914300 3916.300000
188.919600 4244.500000
201.914400 3200.500000
202.050600 3840.800000
257.940900 2771.100000
269.940900 4444.300000
293.887200 8048.100000

>ms2
149.002000 1628.800000
293.896000 6417.100000
474.998400 2244.900000
522.075800 1961.800000
602.912900 14009.100000
733.866200 4055.600000
817.891600 4071.000000
835.904400 29077.800000

>ms2
88.075900 4590.700000
196.167600 3033.700000
293.885500 6000.100000
321.108300 5160.800000
325.929300 2051.500000
369.919900 1774.800000
400.999300 27820.000000
405.943500 2287.200000
416.997500 2844.700000
426.977900 1989.800000
431.010300 5801.300000
449.020100 20710.300000
456.990700 3457.900000
474.999600 31043.900000
497.831800 2346.700000
554.889200 5185.900000
584.902200 4695.800000
602.911800 61759.600000
625.744300 3006.000000
628.791300 5636.700000
689.982000 3563.000000

>ms2
88.075800 3980.300000
170.023600 3092.800000
200.033400 2543.000000
201.041600 2062.200000
218.045000 4200.600000
243.077600 2396.800000
245.092100 2461.600000
273.086600 8964.300000
275.103400 4454.500000
293.902800 5949.800000
297.935200 2485.500000
313.930400 3269.000000
317.962600 6761.500000
321.107800 5233.700000
328.917600 5225.700000
339.910200 6295.400000
343.941700 11755.300000
358.927800 2101.600000
361.952200 3913.300000
369.919700 3174.800000
387.932500 6494.500000
400.999100 32373.200000
405.942400 4703.800000
423.833000 4106.700000
426.978600 6705.000000
431.009700 7892.000000
439.791000 8895.800000
449.020800 2672.400000
451.825100 1774.900000
456.993700 2174.000000
457.798700 2328.300000
497.832700 14952.200000
554.890600 12928.200000

>ms2
88.075600 2436.200000
101.997300 2384.400000
149.001500 1971.100000
160.039600 2682.800000
161.047100 1598.200000
170.023700 16406.400000
171.055400 2518.200000
172.038800 2711.000000
185.071100 3382.400000
186.018800 2605.100000
187.026200 5363.500000
188.034100 8341.300000
196.167500 2707.400000
200.034200 7733.000000
201.042000 3941.800000
202.049900 2222.500000
205.037100 2866.200000
213.065900 2347.300000
215.081400 3876.700000
218.044500 5241.000000
243.075200 1536.500000
256.896800 2061.700000
269.940200 5258.500000
273.087500 2733.900000
275.101500 2023.900000
285.936100 10710.900000
293.902600 2989.100000
295.919900 4301.100000
297.934800 2254.600000
299.952000 2873.400000
313.931100 11500.100000
317.962600 7543.500000
325.931900 2766.800000
328.918300 5342.700000
339.909200 2485.600000
343.941000 8088.300000
357.919900 2249.900000
383.801100 9107.300000
385.817000 2955.500000
423.831400 3922.800000
439.790800 7312.900000

>ms2
70.064900 1720.500000
101.997400 12630.000000
103.041600 1610.500000
104.012700 1683.600000
114.033700 6696.900000
142.028800 3222.200000
144.044400 3232.300000
159.030800 1965.500000
160.002600 2071.400000
160.039100 7734.700000
161.047100 2430.000000
170.023500 20906.100000
171.055400 3947.000000
172.039100 4864.000000
185.070900 3685.000000
188.034400 5914.600000
196.169900 2097.500000
200.034700 2181.400000
201.042200 4023.800000
202.049700 3218.200000
204.914700 2329.900000
243.924900 1779.800000
256.896900 5581.900000
257.941100 4255.800000
269.940700 6289.400000
285.936300 8619.300000
295.920000 5456.200000
313.930700 4010.600000
325.932600 2651.400000
383.802600 2330.500000

>ms2
76.018000 1668.600000
89.038700 2321.900000
101.997400 16794.900000
103.041700 4103.600000
104.012700 2006.700000
104.049800 1676.400000
114.033700 7539.000000
115.041700 3274.400000
116.049900 1626.000000
142.029100 3082.600000
143.036800 2703.400000
159.031600 2490.500000
160.039400 6375.000000
170.023800 7043.200000
172.039200 6060.500000
177.914900 3211.400000
188.033800 3022.800000
188.919800 2952.800000
201.914900 1825.500000
202.049400 2067.900000
204.913700 2273.500000
242.918100 1781.700000
257.940300 2287.000000
269.940900 3130.600000
293.900300 8523.200000

