>compound EA28215188
>parentmass 199.08259999999999
>ionization [M+H]+
>formula C7H10N4O3
>rt 336.000000
>profile orbitrap
#smiles_iso CCNC(=O)NC(=O)/C(=N/OC)/C#N
#smiles_can CCNC(=O)NC(=O)C(=NOC)C#N
#inchikey XERJKGMBORTKEO-VZUCSPMQSA-N
#pubchem_id 5364079
#mb_accession EA011202,EA011203,EA011204,EA011205,EA011206,EA011207,EA011208,EA011209,EA011210,EA011211,EA011212,EA011213

>ms2peaks
53.013400 5339.100000
58.028800 84080.400000
71.023800 8502.400000
83.023900 42269.600000
110.035000 22878.000000
111.018900 702132.700000
128.045400 4641206.200000
129.029400 5682.500000

>ms2peaks
53.013400 22118.200000
57.044800 7672.100000
58.028800 141308.600000
71.024000 19013.400000
83.024100 455366.300000
85.039600 8644.800000
110.035000 49541.900000
111.019000 1356453.200000
128.045400 7109386.600000
129.029500 24444.900000

>ms2peaks
53.013400 113463.900000
58.028800 92953.100000
71.023900 17190.500000
83.024100 1592500.900000
85.039600 7545.100000
110.035000 54841.600000
111.018900 1689489.300000
128.045400 2882295.000000
129.029500 66789.100000

>ms2peaks
53.013400 233829.200000
58.028700 38933.000000
71.024000 5652.300000
83.024000 1810338.500000
85.039700 15839.900000
110.034900 37468.300000
111.018900 1396462.000000
113.022000 2916.100000
128.045500 658024.700000
129.029500 86301.700000

>ms2peaks
53.013400 286691.400000
58.028800 21016.900000
83.024100 1397757.600000
85.039600 12994.900000
110.035000 17689.400000
111.019000 655181.300000
128.045500 88519.400000
129.029500 43515.800000

>ms2peaks
53.013400 209151.400000
58.028800 10227.900000
83.024100 741803.200000
85.039700 13048.900000
111.018900 181903.500000
129.029500 10963.600000

>ms2peaks
53.013600 2858.900000
58.028700 34914.800000
71.024000 3243.700000
83.024100 20027.800000
110.034800 9890.500000
111.018900 311963.500000
128.045300 1966281.800000
129.029200 4994.700000

>ms2peaks
53.013400 8881.100000
58.028700 61377.900000
71.024000 4940.800000
83.024000 187509.900000
85.039600 4022.300000
110.034800 19411.200000
111.018900 544234.400000
128.045400 2801227.500000
129.029400 12281.900000

>ms2peaks
53.013400 47355.900000
58.028700 32661.300000
71.024000 3689.300000
83.024000 611286.100000
85.039700 2788.500000
110.034800 20391.500000
111.018900 661380.900000
128.045400 1110922.700000
129.029400 31969.000000

>ms2peaks
53.013400 89769.500000
58.028700 13274.300000
71.024000 3729.700000
83.024000 713179.000000
85.039600 6174.600000
110.034800 13175.700000
111.018900 523344.100000
128.045400 253614.000000
129.029400 26511.400000

>ms2peaks
53.013400 107170.200000
58.028700 7034.600000
81.069800 1987.500000
83.024000 504886.100000
85.039600 5417.600000
91.054000 2456.000000
110.034900 7300.000000
111.018900 226516.000000
128.045400 32327.300000
129.029400 14980.900000

>ms2peaks
53.013400 73298.300000
58.028600 3381.100000
83.024000 267902.100000
85.039700 3825.400000
91.054400 1635.200000
93.069500 2293.400000
111.018800 59788.000000
129.029600 4443.900000

