>compound EA29321354
>parentmass 379.2227
>ionization [M+H]+
>formula C20H30N2O5
>rt 540.000000
>profile orbitrap
#smiles_iso CC(C)(C)CCN[C@@H](CC(=O)O)C(=O)N[C@@H](CC1=CC=CC=C1)C(=O)OC
#smiles_can CC(C)(C)CCNC(CC(=O)O)C(=O)NC(CC1=CC=CC=C1)C(=O)OC
#inchikey HLIAVLHNDJUHFG-HOTGVXAUSA-N
#pubchem_id 9810996
#mb_accession EA281502,EA281503,EA281504,EA281505,EA281506,EA281507,EA281508,EA281509,EA281510,EA281511,EA281512,EA281513

>ms2
172.132700 64532.000000
319.200200 33998.900000
379.222900 4455833.000000

>ms2
85.101500 9432.400000
102.127900 6912.200000
120.080800 163062.400000
121.064400 12418.200000
128.143500 107540.800000
154.122900 22927.700000
163.076100 14955.800000
172.133400 2952211.300000
180.102000 436478.400000
200.070100 11007.200000
228.065300 7258.800000
259.180600 118090.700000
319.201700 927381.400000
333.218600 13194.000000
361.212100 32721.400000
379.223000 862899.100000

>ms2
57.069800 62059.200000
70.028900 19749.400000
85.101200 140387.000000
88.039300 48797.500000
91.054300 46613.100000
112.112500 46029.000000
120.080800 322233.800000
121.065400 17730.600000
128.143300 58175.700000
154.122800 60786.500000
172.133400 3547177.300000
175.087300 14955.500000
180.102000 158912.800000
200.071000 11104.300000
231.185800 83928.200000
245.082700 8596.100000
259.180600 606493.800000
319.201400 118792.300000

>ms2
57.069900 120259.400000
70.028800 48638.100000
85.101200 236388.500000
88.039300 121478.200000
91.054200 183524.900000
103.054400 15239.600000
112.111900 46138.500000
120.080800 479376.400000
121.064900 26321.700000
128.143300 20633.700000
130.064900 8498.700000
130.122500 27624.400000
154.122600 44211.100000
172.133300 1401459.300000
175.087400 12010.000000
231.185400 65316.000000
259.180500 143490.300000

>ms2
57.069800 127844.500000
70.028800 39818.700000
85.101200 120331.500000
88.039300 98114.500000
91.054200 189285.500000
103.054200 42648.300000
120.080800 429719.800000
121.064600 33201.400000
130.065300 11203.400000
130.122300 10225.800000
154.122900 7166.300000
172.133200 281713.000000
231.186600 12202.700000
259.180700 10900.100000

>ms2
57.069900 94660.500000
70.028800 27193.700000
85.100900 23261.900000
88.039200 40984.200000
91.054200 134558.300000
93.070000 14198.600000
103.054200 88225.500000
120.080800 324414.400000
121.064900 20916.200000

>ms2
120.080600 4154.100000
172.133000 34383.100000
180.102600 6839.700000
319.201200 21536.300000
361.211000 5155.500000
379.223100 2643837.300000

>ms2
57.069800 3596.400000
85.101200 4707.100000
102.127800 7149.400000
120.080800 91182.000000
121.064900 3312.100000
128.143500 56043.300000
154.122600 11416.300000
163.075900 4798.500000
172.133400 1652849.000000
180.102000 215959.300000
200.070700 4421.800000
259.180600 67750.400000
260.091900 7816.600000
273.196100 4936.200000
278.101800 2968.500000
301.189700 6035.000000
319.201800 500741.200000
333.217500 6656.400000
361.212200 14787.400000
379.222900 467962.000000

>ms2
57.069900 25696.100000
70.028800 7145.300000
85.101200 57347.400000
88.039400 29167.400000
91.054300 22134.000000
112.112100 20899.800000
120.080900 166149.700000
121.064800 10276.500000
128.143400 22373.600000
154.122800 38555.000000
163.075900 5154.100000
172.133500 1751429.900000
175.086800 6037.100000
180.102100 75620.800000
200.070900 8384.000000
231.185600 38603.600000
259.180700 295933.400000
319.201400 62607.700000

>ms2
57.069900 62812.200000
70.028800 25501.400000
85.101200 104604.200000
88.039300 60428.700000
91.054200 84375.500000
103.054200 9850.600000
112.112200 18443.800000
120.080800 232738.300000
121.064800 14897.700000
128.143200 7662.900000
130.064900 3426.600000
130.122700 8917.200000
131.048800 3327.100000
154.122500 20733.700000
172.133400 707444.000000
175.087000 4977.200000
180.101300 5548.800000
231.185500 36858.200000
259.180600 60610.100000

>ms2
57.069900 64693.200000
70.028800 17402.900000
85.101200 50073.100000
88.039300 48665.700000
91.054300 76025.500000
103.054300 11918.800000
112.112200 5937.400000
120.080800 197915.200000
121.064800 13502.900000
130.065000 3516.700000
130.122600 9106.300000
172.133200 124631.300000
231.184900 3146.100000

>ms2
57.069900 38249.500000
70.028800 8768.700000
85.101200 16177.300000
88.039300 17901.700000
91.054300 57074.300000
93.069800 3389.600000
103.054200 29305.000000
120.080800 125105.700000
121.064800 9963.000000
130.065200 3942.300000
130.122700 2931.800000
172.133200 8765.200000

