>compound EA30639945
>parentmass 184.11930000000004
>ionization [M+H]+
>formula C7H13N5O
>rt 210.000000
>profile orbitrap
#smiles_iso CCNC1=NC(=NC(=O)N1)NCC
#smiles_can CCNC1=NC(=NC(=O)N1)NCC
#inchikey YQIXRXMOJFQVBV-UHFFFAOYSA-N
#pubchem_id 135408659
#mb_accession EA066802,EA066803,EA066804,EA066805,EA066806,EA066807,EA066808,EA066809,EA066810,EA066811,EA066812,EA066813

>ms2
184.119300 146153841.300000

>ms2
97.039300 159014.500000
114.066200 3884722.000000
156.088300 155923.700000
184.119300 147585219.000000

>ms2
69.008400 1803827.200000
71.060500 1047411.100000
86.035200 292201.900000
97.039800 2053555.900000
113.082400 285578.300000
114.066200 40707686.800000
124.087100 461844.400000
141.113700 249129.100000
142.097500 125116.100000
156.088100 1533061.100000
166.108800 208112.600000
184.119400 103527144.600000

>ms2
68.024400 236959.100000
69.008400 9696113.800000
71.060400 2554913.600000
86.035000 1068013.200000
96.055700 587624.600000
97.039700 6330920.700000
113.082100 686785.100000
114.066200 64096259.900000
124.087100 804375.500000
139.061500 221357.500000
141.113300 404658.000000
142.097600 256236.800000
156.088100 2416332.000000
166.108700 340242.700000
167.092400 183069.900000
184.119300 31849840.800000

>ms2
68.024300 621165.800000
69.008400 21004032.000000
71.060400 3542293.800000
86.034900 2336987.900000
96.055700 872625.200000
97.039700 7780238.200000
113.082100 697575.900000
114.066200 46964971.000000
124.087000 666873.700000
139.061300 253582.000000
141.113500 197525.500000
142.097700 148786.700000
156.088000 1344304.400000
184.119300 5449618.000000

>ms2
68.024300 1017823.300000
69.008300 27436314.900000
71.060400 2430872.600000
86.034900 3239822.700000
96.055700 686244.700000
97.039600 4927535.700000
113.082100 540920.600000
114.066100 21328907.300000
124.086900 230017.900000
128.056900 121462.400000
139.061400 157471.800000
156.088200 390162.800000

>ms2
184.119400 122298968.800000

>ms2
114.066200 3136469.800000
156.088000 154396.400000
184.119300 133396243.700000

>ms2
69.008300 1321536.700000
71.060300 584103.600000
86.034800 248151.600000
96.055500 116549.800000
97.039600 1509168.600000
113.082100 202635.800000
114.066100 33624910.900000
124.086900 276731.000000
141.113300 119330.100000
142.097600 164141.000000
156.088000 1221450.500000
166.108800 191699.300000
167.092200 120507.600000
184.119200 87847078.100000

>ms2
68.024300 119707.200000
69.008400 7539172.400000
71.060400 1803121.700000
86.034900 752542.600000
96.055600 436772.600000
97.039600 4830808.700000
99.091800 53712.500000
113.082200 539648.600000
114.066200 50630376.500000
124.086900 761811.000000
128.056500 66212.200000
139.061400 141636.000000
141.113500 317561.400000
142.097400 179356.100000
156.088000 1814608.600000
166.108700 260689.100000
167.092700 221545.500000
182.103500 59414.400000
184.119300 25197276.800000

>ms2
68.024300 505207.300000
69.008400 17003220.700000
71.060400 2423374.400000
86.034900 1768259.100000
96.055700 587458.400000
97.039600 6334472.800000
113.082100 452502.400000
114.066200 37086962.600000
124.087000 470451.400000
139.061600 187125.400000
141.113200 109751.800000
142.097600 94651.700000
156.088000 895422.500000
166.108600 123104.500000
184.119400 3979783.100000

>ms2
68.024300 629685.900000
69.008300 21224538.600000
71.060400 1724555.600000
86.034900 2378647.900000
96.055600 470245.400000
97.039600 3707582.700000
113.082000 326926.300000
114.066100 15722828.700000
124.086800 204026.300000
128.056500 57533.200000
139.061400 88724.900000
141.112800 31167.400000
156.087800 248139.300000
184.119100 284354.300000

