>compound EA30271475
>parentmass 194.09639999999993
>ionization [M+H]+
>formula C14H11N
>rt 660.000000
>profile orbitrap
#smiles_iso C1=CC=C2C(=C1)C=CC3=CC=CC=C3N2
#smiles_can C1=CC=C2C(=C1)C=CC3=CC=CC=C3N2
#inchikey LCGTWRLJTMHIQZ-UHFFFAOYSA-N
#pubchem_id 9212
#mb_accession EA099202,EA099203,EA099204,EA099205,EA099206,EA099207,EA099208,EA099209,EA099210,EA099211,EA099212,EA099213

>ms2
179.072700 36117.700000
193.089300 421968.300000
194.096800 13861242.500000

>ms2
165.069400 29414.400000
193.089100 495271.200000
194.096700 14037277.600000

>ms2
179.072500 34594.000000
193.089400 531967.300000
194.096900 14446127.400000

>ms2
167.085800 93515.900000
177.069400 80559.800000
178.077900 20926.400000
179.073100 410690.800000
193.089200 1098297.800000
194.096600 12553227.600000

>ms2
91.054200 36907.600000
116.049700 63488.500000
117.057200 34469.100000
152.062300 93409.600000
165.070200 133015.000000
167.073400 173550.400000
167.085700 212206.400000
176.062400 42310.400000
177.070300 133754.400000
178.077700 58386.500000
179.073200 1562429.900000
191.072100 25529.200000
192.081500 301257.500000
193.089200 3063443.200000
194.096900 8424026.900000

>ms2
89.039000 25456.700000
90.046400 35013.900000
91.054300 105780.100000
116.049600 76121.400000
117.057300 151054.800000
128.049100 25664.600000
152.062100 334324.900000
154.065600 27803.400000
165.069900 324290.100000
167.073300 469803.100000
176.062300 104705.600000
177.069800 115539.700000
178.065700 242726.800000
179.073100 2744026.400000
191.073400 80965.800000
192.081300 809738.200000
193.089000 4796287.900000
194.096800 3769347.200000

>ms2
193.089200 334310.500000
194.096700 10990867.100000

>ms2
193.089100 413892.500000
194.096700 11428322.300000

>ms2
165.069500 13084.000000
179.072900 18529.400000
193.089000 434402.200000
194.096700 10842354.800000

>ms2
116.049500 16521.500000
152.062000 19607.700000
165.069900 14748.700000
166.077500 15258.100000
167.073200 39436.200000
167.085700 97676.000000
177.070000 71446.400000
178.065500 16019.000000
178.078000 22579.600000
179.073100 328789.300000
192.081300 58462.100000
193.089100 833105.000000
194.096700 9577539.000000

>ms2
89.038200 9722.300000
91.054400 38525.000000
116.049600 43022.800000
117.057400 31874.000000
152.062200 113273.700000
165.070300 97987.800000
166.065400 24370.500000
166.077900 41080.000000
167.073100 165349.400000
167.085800 193008.000000
176.062500 37597.400000
177.070100 123834.800000
178.065600 48616.500000
178.078200 50041.300000
179.073200 1293633.700000
191.072400 21909.700000
192.081300 233431.800000
193.089200 2473435.700000
194.096900 6673132.900000

>ms2
89.038700 21778.300000
90.046500 25495.300000
91.054300 74185.800000
116.049600 76083.300000
117.057400 128133.200000
128.049600 23051.100000
152.062200 231564.200000
154.065600 9196.700000
165.070000 255905.200000
166.065200 47812.900000
166.077800 79656.000000
167.073000 378338.700000
167.085700 93209.000000
168.080800 18689.000000
176.062300 75076.500000
177.070000 90653.400000
178.065300 190891.800000
178.077700 81014.800000
179.073200 2164828.700000
191.073100 59357.800000
192.081000 691105.200000
193.088900 3713669.000000
194.096600 3075279.400000

