>compound EA30902792
>parentmass 149.9775
>ionization [M+H]+
>formula C4H4ClNOS
>rt 222.000000
>profile orbitrap
#smiles_iso CN1C(=O)C=C(S1)Cl
#smiles_can CN1C(=O)C=C(S1)Cl
#inchikey DHNRXBZYEKSXIM-UHFFFAOYSA-N
#pubchem_id 33344
#mb_accession EA028002,EA028003,EA028004,EA028005,EA028006,EA028007,EA028008,EA028009,EA028010,EA028011,EA028012,EA028013

>ms2peaks
149.977500 31612876.700000

>ms2peaks
149.977700 169681964.100000

>ms2peaks
58.028700 165318.000000
70.995100 298462.000000
78.010700 231925.200000
78.940300 199949.300000
86.006000 294545.700000
94.971900 277119.000000
95.990400 587357.500000
102.994700 196033.100000
104.956200 461508.800000
106.005500 252408.700000
106.971800 563296.000000
115.008800 1895322.100000
116.997700 168403.300000
118.935500 769588.200000
120.951300 625297.400000
132.951100 367231.100000
134.954000 591516.700000
149.977700 164740821.100000

>ms2peaks
58.028800 489763.600000
58.995000 530156.500000
59.990300 286049.500000
62.999700 131902.200000
67.017900 219100.200000
70.995100 1152123.000000
72.984000 169223.200000
74.006000 218837.900000
78.010600 710802.800000
78.940500 439912.600000
83.966500 211928.400000
84.974300 316056.600000
86.006000 797278.600000
87.013800 387933.700000
92.956200 474706.100000
94.971800 969376.000000
95.990400 2577436.900000
102.940500 427860.400000
102.994600 812413.400000
104.956100 1611278.400000
106.005400 640453.800000
106.971800 1258768.000000
114.000900 275616.800000
115.008800 6408925.500000
115.989800 127499.100000
116.997700 405507.400000
118.935500 3572941.800000
120.951100 1635068.800000
121.982600 261691.400000
131.967500 147761.700000
132.951000 783847.300000
134.954100 3435343.000000
147.962100 221617.800000
149.977600 121741852.300000

>ms2peaks
58.028800 1206316.500000
58.995100 727331.500000
59.990400 366381.500000
60.003000 109292.900000
60.984100 71520.600000
62.006000 246678.800000
62.999700 177174.300000
63.994900 173603.300000
66.010600 127982.900000
67.017900 671403.300000
68.979500 183978.100000
69.974600 102017.400000
69.987200 72854.000000
70.995100 1912908.900000
72.003000 185444.500000
72.984100 355102.500000
74.006000 595262.200000
74.999800 308545.600000
75.994600 81511.500000
78.010600 1152999.000000
78.940500 781255.500000
79.948400 107259.600000
80.956200 105158.100000
82.028700 90666.300000
82.982500 204814.200000
83.966500 604418.300000
84.974300 554788.600000
86.006000 1269994.500000
86.963300 675030.300000
86.990100 134316.300000
87.013900 690623.600000
87.994900 352531.400000
88.978800 155185.100000
90.001000 241769.900000
90.940400 242575.800000
92.956100 1153446.600000
94.971800 1186100.700000
95.990400 4657759.100000
102.940500 641269.200000
102.994600 1942668.200000
104.956100 2347828.200000
106.005400 900825.700000
106.959200 632977.500000
106.971800 1265058.100000
114.000900 366383.300000
115.008700 9380284.900000
115.989900 128340.900000
116.997700 677182.900000
117.951500 160969.400000
118.935400 6318326.300000
119.967300 97394.500000
120.951100 2054795.800000
121.982800 313942.500000
122.966300 84627.900000
131.967200 271067.000000
132.951100 709311.300000
134.954100 9241509.100000
147.962100 262543.500000
149.977600 68937906.900000

>ms2peaks
57.987300 190804.300000
58.028800 1899808.500000
58.995000 722209.200000
59.990300 399964.200000
60.002700 169804.100000
60.984000 105429.300000
61.979300 87074.100000
62.006000 311212.600000
62.999800 228425.500000
63.994900 170358.600000
66.010700 154196.000000
67.017900 1498033.200000
68.979600 217061.600000
69.974800 169751.200000
69.987300 148190.600000
70.028900 79408.800000
70.995200 2024455.300000
71.990400 98446.500000
72.003000 386506.700000
72.984100 469611.000000
74.006000 971909.500000
74.999700 555214.900000
75.995100 98992.600000
78.010600 1122112.300000
78.940400 931362.200000
79.948200 280620.800000
80.956200 203204.400000
82.982500 574044.600000
83.966500 1188069.000000
84.974300 698245.900000
86.006000 1160201.400000
86.963400 3373085.700000
87.013800 936291.500000
87.995000 636124.900000
88.979000 129847.000000
90.000800 201990.600000
90.940600 439496.000000
92.956100 1276994.800000
94.971900 1005895.700000
95.990400 5383863.700000
102.001100 83274.700000
102.940600 732934.000000
102.994600 2501458.100000
104.956200 2095660.200000
106.005500 693519.700000
106.959200 1585214.900000
106.971800 891244.900000
114.000900 414743.700000
115.008800 8364646.500000
115.990100 103625.200000
116.997800 575590.900000
117.951400 295251.900000
118.935500 6923250.400000
119.966800 207436.800000
120.951000 1934129.900000
121.982800 137923.500000
131.967000 268975.700000
132.950700 560074.700000
134.954100 13818262.300000
147.962000 328387.400000
149.977600 32476608.700000

>ms2peaks
134.953700 52310.300000
149.977500 27222066.400000

>ms2peaks
149.977700 163127976.000000

>ms2peaks
70.995100 222530.600000
86.005900 199144.900000
94.971800 285365.600000
95.990300 498770.900000
102.994600 155777.100000
104.956100 419482.500000
106.005400 174612.600000
106.971800 407899.200000
115.008800 1322903.400000
116.997700 143151.000000
118.935400 626078.600000
120.951100 478182.000000
132.951100 332118.800000
134.954100 373053.200000
149.977700 141178550.100000

>ms2peaks
58.028800 499188.100000
58.995000 353387.000000
59.990300 178567.200000
66.010600 125445.000000
67.017900 159827.200000
70.995100 849293.200000
72.984000 119725.900000
74.006100 127861.000000
78.010600 561205.400000
78.940500 378087.100000
83.966400 128672.400000
84.974400 138342.400000
86.006000 604664.900000
87.013800 301282.200000
92.956100 441610.000000
94.971800 759427.700000
95.990300 2291449.000000
102.940600 230650.300000
102.994600 715040.100000
104.956100 1275951.700000
106.005600 474666.600000
106.971800 1088151.000000
114.001000 243921.900000
115.008800 5228136.300000
116.997800 428576.800000
118.935400 2896276.400000
120.951100 1158268.300000
121.982800 255193.000000
131.967100 162855.900000
132.951000 606849.100000
134.954200 2677306.600000
147.962200 112436.300000
149.977700 109389118.800000

>ms2peaks
58.028800 1036900.900000
58.995000 465351.800000
59.990300 294781.400000
60.002900 90976.200000
60.984000 77500.700000
62.005900 205015.600000
62.999600 167960.600000
63.994900 119558.800000
66.010600 101331.100000
67.017900 493616.400000
68.979400 110941.100000
70.995100 1423122.600000
72.002900 228050.400000
72.984000 229955.100000
74.005900 475779.700000
74.999700 229570.700000
75.994800 73849.900000
78.010500 856200.900000
78.940400 528449.300000
79.948300 78139.700000
80.956100 110829.600000
82.028900 65372.300000
82.982400 155526.700000
83.966400 344145.900000
84.974300 415678.000000
86.006000 879963.500000
86.963300 483003.500000
86.990000 113746.700000
87.013800 531981.400000
87.994800 197125.300000
88.979000 74466.400000
90.000900 153708.700000
90.940400 147805.900000
92.956100 725348.300000
94.971800 946655.900000
95.990300 3834041.000000
102.000800 75802.400000
102.940400 457941.500000
102.994600 1441347.700000
104.956100 1826840.200000
106.005500 560028.000000
106.959200 486015.400000
106.971700 891036.200000
114.001000 251041.700000
115.008700 7804662.600000
115.989900 128291.700000
116.997700 476408.800000
117.951400 123358.400000
118.935400 5138777.800000
119.966900 114800.200000
120.951100 1587614.100000
121.982700 191925.000000
122.967000 66397.800000
131.967100 174068.400000
132.951100 621103.900000
134.954100 7617967.300000
147.962100 230621.300000
149.977600 57993583.600000

>ms2peaks
57.987200 125032.300000
58.028800 1400598.000000
58.995000 439822.400000
59.990300 267523.700000
60.002900 159701.500000
60.984000 77524.900000
61.979300 59738.600000
62.005900 239878.700000
62.999700 141739.200000
63.994900 108768.700000
66.010500 95238.100000
67.017900 1107563.900000
68.979500 130286.900000
69.974700 102262.200000
69.987200 100959.100000
70.028900 35058.000000
70.995100 1427106.200000
71.990300 80969.100000
72.002900 240984.500000
72.984000 346835.400000
74.006000 650922.100000
74.999700 440610.300000
75.994800 41186.400000
78.010600 786448.100000
78.940400 610290.000000
79.948300 254389.600000
80.956100 166377.900000
82.028900 45645.000000
82.982500 495030.500000
83.966500 852965.300000
84.974400 529766.700000
86.006000 886707.000000
86.963300 2183542.500000
86.990000 168862.100000
87.013800 606307.900000
87.994900 393311.300000
88.978900 124942.700000
90.000800 160170.100000
90.940500 235465.600000
92.956100 975023.100000
94.971800 671022.500000
95.990400 4013447.400000
102.000800 62457.700000
102.940500 556863.000000
102.994600 1800018.800000
104.956100 1540309.900000
106.005600 480695.900000
106.959200 1171416.000000
106.971700 679963.400000
114.001000 285998.800000
115.008700 6654112.000000
115.989900 94989.300000
116.997700 444506.400000
117.951500 222018.200000
118.935400 5342522.400000
119.967000 81275.500000
120.951100 1342333.300000
121.982800 82592.300000
122.967000 34171.600000
131.967200 172345.900000
132.951100 395063.100000
134.954100 10755978.800000
147.962100 174753.700000
149.977600 25017690.100000

