>compound EA31907485
>parentmass 370.17950000000013
>ionization [M+H]+
>formula C17H27N3O4S
>rt 228.000000
>profile orbitrap
#smiles_iso CCN1CCCC1CNC(=O)C2=CC(=C(C=C2OC)N)S(=O)(=O)CC
#smiles_can CCN1CCCC1CNC(=O)C2=CC(=C(C=C2OC)N)S(=O)(=O)CC
#inchikey NTJOBXMMWNYJFB-UHFFFAOYSA-N
#pubchem_id 2159
#mb_accession EA285202,EA285203,EA285204,EA285205,EA285206,EA285207,EA285208,EA285209,EA285210,EA285211,EA285212,EA285213

>ms2peaks
242.050200 69821.300000
277.176900 15268.600000
370.180200 7100904.200000

>ms2peaks
112.112000 522981.600000
129.138900 43526.200000
155.117900 59344.600000
242.048000 1686163.100000
370.179700 6054534.900000

>ms2peaks
84.080800 17078.200000
98.096200 32960.700000
112.112200 1302907.900000
129.138600 84346.300000
149.046300 25858.600000
155.117900 61694.100000
196.006100 103372.600000
214.016800 80448.600000
242.048400 6553969.200000
370.181000 545149.600000

>ms2peaks
58.065200 19746.500000
84.080800 73075.600000
98.096500 43477.900000
112.112100 1058931.300000
129.138300 15954.100000
138.018100 21671.800000
147.030800 20319.300000
149.047000 131245.200000
150.054800 25445.500000
155.118400 18997.000000
168.011500 74734.500000
177.995300 13264.800000
196.006300 1655288.900000
214.016700 576989.500000
242.048100 4598210.400000

>ms2peaks
58.065100 21580.800000
66.046500 32543.200000
84.080700 153712.200000
85.010700 9561.800000
93.057200 9898.100000
95.036600 17079.400000
96.044500 31502.400000
97.051900 13748.500000
98.096500 43759.800000
107.989800 18132.900000
108.044200 37684.600000
110.006200 37880.900000
110.096900 11964.100000
112.112100 617516.700000
120.044000 15789.700000
121.052000 31846.700000
122.036100 35114.900000
124.039300 41456.900000
132.007500 37891.400000
136.039400 23817.400000
138.000700 22778.300000
138.018500 58345.900000
140.016300 85850.800000
147.031500 198306.400000
149.047100 562417.000000
150.054600 53041.400000
152.034000 26294.400000
168.011400 428065.400000
177.995700 149867.400000
196.006300 2798604.700000
197.014700 14149.300000
214.016700 373351.500000
242.047900 1056516.500000

>ms2peaks
54.033900 16629.700000
58.065100 21770.300000
66.033800 17336.400000
66.046400 181528.500000
67.041800 16115.800000
78.033600 16295.300000
82.995000 25456.600000
84.080800 166622.800000
85.010600 29710.900000
91.041600 21586.000000
92.049500 39479.600000
93.057200 66711.500000
94.028900 20130.900000
94.041300 27532.200000
95.036200 27413.600000
96.044600 48646.200000
97.052300 17500.900000
98.096500 35099.300000
107.012700 47659.200000
107.036600 29782.300000
107.990300 42374.500000
108.044400 67768.500000
110.005800 91738.200000
112.021200 15590.600000
112.112100 310401.200000
113.005400 24256.300000
120.044300 58309.100000
121.052300 101619.600000
122.006000 18798.000000
122.036200 141139.300000
124.039200 50576.400000
124.993200 25288.100000
132.008000 168453.300000
136.038600 29552.200000
138.000700 27850.300000
138.018700 67888.200000
140.016600 158678.100000
147.031400 316860.200000
149.047100 623839.100000
150.001000 37327.000000
150.055300 55519.900000
152.033500 35517.400000
163.026900 18501.800000
168.011400 485153.100000
177.995700 185018.300000
196.006300 1259035.000000
199.029600 15171.300000
242.048600 96948.900000

>ms2peaks
196.007000 18689.600000
242.050300 33319.000000
277.176800 9657.100000
370.179900 5131138.200000

>ms2peaks
112.112100 296526.400000
129.138600 25896.000000
149.046300 7548.000000
155.117900 26041.100000
242.048100 1112407.500000
370.179900 3833187.800000

>ms2peaks
58.065100 6118.600000
84.080600 9777.000000
98.096600 23239.000000
110.096500 5341.500000
112.112200 843262.600000
129.138600 48257.200000
149.046500 19309.500000
155.117900 47850.300000
196.006500 62331.600000
214.016900 57432.900000
242.048400 4156061.500000
370.179500 274308.600000

>ms2peaks
58.065200 15588.300000
84.080800 46893.200000
98.096400 29951.400000
112.112100 611063.100000
124.039000 8431.400000
129.138700 12421.000000
138.018300 7562.700000
140.016300 6884.700000
147.031600 6987.600000
149.047100 91300.100000
150.055200 17765.400000
155.117700 15176.800000
168.011300 42538.900000
177.995900 15311.600000
196.006400 1061844.400000
197.014800 6384.500000
214.016800 357976.800000
242.048400 2977662.800000

>ms2peaks
58.065100 14727.900000
66.046400 28089.900000
69.057100 4863.000000
78.033700 5450.000000
84.080800 95002.100000
85.010400 9264.100000
92.049600 7262.700000
93.057300 8617.100000
95.036600 15044.200000
96.044400 26500.800000
97.052400 5643.200000
98.096500 33650.100000
107.036700 6322.900000
107.990300 15055.700000
108.044400 27512.900000
110.005900 26698.000000
112.112100 377583.300000
121.052100 20095.400000
122.036200 29104.700000
124.039400 26494.500000
132.007900 18248.300000
135.031500 8585.000000
136.039400 10931.500000
138.001300 9790.800000
138.018600 45506.500000
140.016500 45147.400000
147.031500 105178.800000
149.047100 319483.500000
150.000500 6136.500000
150.055000 42658.200000
152.034200 14412.000000
158.026800 5862.400000
168.011400 262623.300000
177.995700 78439.700000
196.006400 1770068.600000
197.014000 6983.400000
199.029800 8405.200000
214.016700 206679.000000
242.048000 644117.500000

>ms2peaks
54.033800 7258.000000
58.065100 11059.800000
66.033800 8848.200000
66.046400 105229.300000
67.041700 9891.500000
69.057400 3536.500000
78.033900 9579.000000
82.995100 8762.900000
84.080800 111136.600000
85.010700 17734.400000
91.041700 15268.300000
92.049500 18984.700000
93.057300 27810.300000
94.028700 7094.900000
94.041300 10446.300000
95.036600 14703.600000
96.044400 25088.800000
97.052200 10672.300000
98.096500 24840.900000
107.012700 18870.600000
107.036600 17509.000000
107.990200 38239.400000
108.044400 34840.800000
110.005900 47363.500000
110.096500 8471.500000
112.021600 12387.500000
112.112100 164851.000000
113.005600 9212.700000
120.044400 34545.000000
121.052200 58498.200000
122.005900 11124.400000
122.036300 72552.300000
124.039300 37381.900000
124.993100 17331.200000
132.008000 100081.900000
135.031500 8008.300000
136.039300 9085.500000
138.000900 20145.600000
138.018600 40253.400000
140.016500 86423.200000
147.031500 175638.100000
149.047200 386758.300000
150.000800 24821.800000
150.055000 29778.800000
152.034200 21085.900000
158.027400 5197.300000
163.026400 9403.000000
168.011400 264802.900000
177.995700 103459.800000
196.006400 699720.800000
197.014200 8672.300000
199.029900 4368.600000
214.016800 36398.000000
242.047900 48352.100000

