>compound EA32832968
>parentmass 242.08449999999996
>ionization [M+H]+
>formula C11H15NO3S
>rt 294.000000
>profile orbitrap
#smiles_iso CC1=CC(=CC(=C1S(=O)C)C)OC(=O)NC
#smiles_can CC1=CC(=CC(=C1S(=O)C)C)OC(=O)NC
#inchikey FNCMBMZOZQAWJA-UHFFFAOYSA-N
#pubchem_id 17521
#mb_accession EA295302,EA295303,EA295304,EA295305,EA295306,EA295307,EA295308,EA295309,EA295310,EA295311,EA295312,EA295313

>ms2peaks
122.072800 82010.300000
168.060400 59368.700000
170.038200 105969.700000
185.063200 25833612.200000
242.084600 27002730.500000

>ms2peaks
122.072700 745384.300000
168.060400 494265.100000
170.039700 744025.000000
185.063100 52845327.700000
242.084700 1932775.600000

>ms2peaks
107.049100 178746.600000
121.064800 240312.500000
122.072600 5829416.800000
136.088400 179572.300000
137.059700 115988.800000
138.067500 131787.500000
141.036600 80236.600000
153.036700 93777.500000
168.060300 6606595.500000
170.039600 10942471.300000
185.063000 39492434.800000

>ms2peaks
79.054200 50102.300000
91.054300 106644.200000
93.069600 29996.600000
94.078000 30580.000000
103.054200 43027.100000
107.049200 683926.800000
108.056800 33256.300000
109.064900 155464.500000
121.064900 1085138.000000
122.072700 12073780.800000
123.044300 21867.800000
123.080800 62816.000000
136.088400 224794.300000
137.059800 124655.900000
138.067500 323037.100000
141.037200 81915.500000
152.029100 372834.900000
153.036900 2218813.100000
168.060400 11571730.500000
170.039700 18038922.800000
185.063000 10139999.500000

>ms2peaks
53.038600 32888.600000
77.038500 111532.300000
79.054200 169794.200000
91.054200 330537.800000
93.069900 72091.300000
94.077800 84898.200000
95.049400 104886.600000
103.054300 211356.000000
104.062000 34883.500000
105.044800 55016.800000
107.049100 2398906.500000
108.057000 92195.900000
109.064800 1156383.800000
121.064900 1567100.600000
122.072600 18212685.200000
123.044200 58628.700000
123.080800 45177.400000
125.042400 62799.000000
135.080200 33591.900000
136.088300 126138.300000
137.059700 95005.400000
138.067500 317049.200000
151.020700 92554.500000
152.029100 1137882.700000
153.036800 8585983.400000
168.060300 8095841.500000
170.039600 11119179.500000
185.063800 1618608.500000

>ms2peaks
53.038400 117710.200000
77.038600 241599.700000
79.054200 368533.700000
81.033500 35057.500000
81.070000 40466.100000
91.054200 596052.100000
93.069900 136098.100000
94.077700 161757.500000
95.049100 184098.200000
103.054200 273257.100000
104.062000 111167.800000
105.044700 179815.200000
105.069400 25283.000000
107.049100 5437568.500000
108.056900 142859.600000
109.064800 3371180.400000
121.064800 1807204.500000
122.072600 15345276.700000
123.026300 23360.200000
123.044200 136938.100000
125.041900 211685.600000
135.026300 33962.300000
135.080700 35588.800000
136.088400 28683.900000
137.059700 77610.300000
138.067500 163510.100000
151.021000 416558.500000
152.029000 1370527.900000
153.036800 10322120.300000
168.060300 2722370.700000
170.039600 3267558.300000

>ms2peaks
122.072800 71768.200000
170.039600 54565.100000
185.063000 27037465.900000
242.084500 28304647.000000

>ms2peaks
122.072600 733837.000000
168.060300 427835.200000
170.039600 620283.900000
185.063000 56364517.100000
242.084700 2125131.700000

>ms2peaks
107.049200 97745.800000
121.064800 207534.900000
122.072600 4968309.600000
123.080500 48112.800000
136.088200 104150.800000
137.059500 66004.900000
138.067400 108047.300000
141.036800 58642.500000
152.029100 43061.400000
153.036800 104713.400000
168.060300 5628092.600000
169.031800 51526.800000
170.039600 9154511.100000
185.063000 32434082.400000

>ms2peaks
77.038300 28105.700000
79.054100 32150.900000
91.054200 51391.300000
93.069700 37107.600000
103.054200 44178.500000
107.049100 518126.000000
108.056600 29481.000000
109.064800 117338.700000
121.064800 872063.700000
122.072600 11070176.200000
123.080300 48069.400000
135.080200 25524.400000
136.088200 157138.500000
137.059600 84183.500000
138.067600 291713.100000
139.057600 32140.900000
141.036800 70712.300000
152.029000 382837.900000
153.036800 1992880.000000
168.060300 10791701.100000
169.031100 30292.900000
170.039600 16803425.400000
185.063000 9148179.000000

>ms2peaks
53.038500 32222.900000
77.038500 59480.400000
79.054200 97278.100000
91.054200 207332.100000
93.070000 59415.700000
94.077800 43628.700000
95.049400 52048.700000
103.054300 132333.400000
104.062200 23350.000000
105.044700 55031.500000
107.049100 1576314.400000
108.056800 50614.600000
109.064800 757744.800000
121.064800 1253302.100000
122.072600 13709491.700000
123.044100 57451.700000
123.080400 44173.600000
125.041900 59031.100000
135.080600 39020.300000
136.088200 89943.100000
137.059800 49010.900000
138.067500 232932.100000
139.057400 14868.900000
151.020900 72528.600000
152.029100 816905.500000
153.036900 6271432.100000
168.060400 6085572.100000
170.039600 8353693.000000
185.063000 1120006.100000

>ms2peaks
53.038600 86128.700000
77.038500 165877.400000
79.054200 262196.200000
81.033200 21723.200000
81.069800 24677.300000
91.054200 452843.100000
93.069900 99552.300000
94.077700 97823.000000
95.049200 137119.400000
103.054200 186632.600000
104.062100 64554.500000
105.044700 137600.400000
105.069800 21560.700000
107.049100 4087876.700000
108.057000 100445.300000
109.064800 2482895.300000
121.064800 1283194.700000
122.072600 11577657.600000
123.026200 15188.600000
123.044000 90366.100000
125.041900 135855.600000
135.025800 16960.700000
135.080400 39618.200000
137.059800 40283.800000
138.067400 114604.500000
151.021200 293781.400000
152.029100 973320.900000
153.036900 7604488.200000
168.060300 1995704.600000
170.039600 2399223.000000
185.062900 131535.200000

