>compound EA32591608
>parentmass 393.2071999999999
>ionization [M+H]+
>formula C22H29FO5
>rt 570.000000
>profile orbitrap
#smiles_iso C[C@@H]1C[C@H]2[C@@H]3CCC4=CC(=O)C=C[C@@]4([C@]3([C@H](C[C@@]2([C@]1(C(=O)CO)O)C)O)F)C
#smiles_can CC1CC2C3CCC4=CC(=O)C=CC4(C3(C(CC2(C1(C(=O)CO)O)C)O)F)C
#inchikey UREBDLICKHMUKA-CXSFZGCWSA-N
#pubchem_id 5743
#mb_accession EA261202,EA261203,EA261204,EA261205,EA261206,EA261207,EA261208,EA261209,EA261210,EA261211,EA261212,EA261213

>ms2
107.085200 4788.100000
135.079800 3074.600000
147.080500 15484.700000
149.095600 3690.200000
171.081000 3390.500000
173.095900 4159.300000
177.090900 8889.100000
185.096200 8450.100000
235.111000 3797.700000
237.127500 33914.100000
239.142700 5907.500000
253.122400 6574.400000
255.138100 3570.400000
261.125600 3249.600000
263.142800 3147.800000
267.139300 5699.000000
267.175000 7792.800000
275.143800 9042.400000
277.158200 15561.300000
279.174500 27502.000000
289.159400 6421.000000
291.174200 30220.600000
295.169900 7656.000000
297.184500 10489.100000
301.158600 13410.400000
307.169000 18559.200000
309.185400 41732.500000
319.169300 64589.800000
325.179100 22940.200000
327.195900 15353.900000
337.180200 100702.700000
343.189800 5821.500000
355.190400 238534.400000
373.200900 391608.700000
393.209000 62031.700000

>ms2
95.085700 7778.600000
97.064800 4116.200000
107.085600 13300.200000
109.064500 2358.300000
119.085400 6558.600000
121.064700 10985.900000
121.101300 8033.100000
123.080400 4504.200000
125.059400 7216.600000
131.085600 3154.700000
133.101600 3511.900000
135.080200 14061.300000
137.096200 8459.100000
147.080400 60629.400000
149.096000 19832.600000
153.090600 11044.300000
159.080100 11427.600000
161.095900 14104.100000
167.106700 5605.300000
171.080400 28126.700000
173.096100 26932.200000
177.090800 13090.400000
185.096200 21054.600000
187.074500 10025.600000
187.111700 8658.900000
197.095400 6428.600000
199.112500 4523.600000
209.096500 4757.700000
211.112200 15986.600000
213.127000 12903.600000
215.107000 4377.400000
223.112200 13036.100000
225.127100 13085.500000
227.142700 8428.800000
235.111200 12701.000000
237.127400 84506.900000
239.106500 4089.600000
239.142900 31945.700000
241.121400 12205.100000
249.127700 7081.400000
251.142800 6796.300000
253.122500 15895.800000
253.158200 4952.800000
255.137000 16563.800000
261.125100 5385.400000
263.143800 14356.700000
265.158200 5980.100000
267.137500 15696.200000
267.175000 6445.700000
275.142700 12919.800000
277.158600 36641.300000
278.166600 8984.200000
279.174300 63175.100000
281.153500 4622.300000
281.189300 3331.200000
286.134800 3596.500000
289.159900 12755.300000
291.174800 41435.300000
295.169600 18334.600000
297.185000 10468.900000
301.158900 18786.600000
307.168500 19181.500000
309.184300 25814.300000
319.169800 44001.285360
325.179100 8049.700000
327.194000 6278.000000
337.180100 57843.500000
355.190300 66710.800000

>ms2
91.054300 3390.900000
93.069900 8676.100000
95.085600 10935.400000
105.070000 5831.300000
107.085600 22238.500000
109.101700 6971.500000
119.085500 15189.900000
121.064800 28685.300000
121.101000 9796.800000
123.080700 7068.100000
125.059900 7912.600000
131.085600 13988.200000
133.064700 4544.400000
133.101100 6366.600000
135.080500 26141.400000
137.096200 7185.400000
143.085400 6854.600000
145.064600 8396.600000
145.101000 4718.300000
147.080500 102499.400000
149.096100 10850.100000
153.090900 4948.800000
157.101000 4634.300000
159.080500 23099.100000
161.096300 14871.300000
171.080500 48565.100000
173.096100 27129.500000
177.091400 5264.800000
181.100800 2850.200000
183.081000 3800.800000
185.095900 18931.800000
187.075200 10616.200000
187.111300 11162.600000
195.117700 3525.500000
197.096500 14774.200000
199.112000 7726.600000
208.087200 3350.400000
209.096200 9674.900000
209.132000 8481.600000
211.112000 21509.800000
212.119300 4026.000000
213.127800 15544.800000
219.117000 6377.500000
221.096000 9201.100000
221.132500 3450.100000
222.103600 15280.200000
223.112000 23267.300000
225.127200 15025.300000
227.143200 11029.700000
235.111800 21346.000000
237.127200 61356.800000
239.142800 25824.300000
241.122600 6846.700000
248.119800 6229.700000
249.127700 7998.500000
251.143400 7767.600000
253.121700 7601.800000
253.158100 5948.200000
261.127100 8069.100000
262.134000 9669.200000
263.143000 26047.800000
265.157800 3529.600000
267.137300 6970.200000
274.137700 2980.800000
275.140500 5367.100000
276.150300 6635.500000
277.158000 17027.800000
278.166500 14663.600000
279.174400 31200.900000
286.135600 5138.300000
289.160000 3534.200000
291.174400 10719.000000
295.170500 4223.900000
301.158700 6043.600000
319.169800 6468.900000
325.180500 3290.300000
337.179700 3062.500000

>ms2
91.054100 9488.800000
93.070000 14209.300000
95.085400 10835.800000
105.069900 21569.600000
107.085600 23171.400000
109.064700 2289.300000
109.101200 9323.200000
117.069600 4000.200000
119.085400 22884.500000
121.064800 49452.400000
121.101200 6386.800000
123.080000 6004.900000
125.059500 6336.800000
128.061600 4618.500000
129.070300 5543.200000
131.085500 19784.700000
133.064900 5280.200000
133.100700 3870.700000
135.080600 22189.000000
141.069600 3934.800000
143.085600 14430.000000
145.064800 17467.200000
145.101300 9644.400000
147.080500 90975.000000
149.095600 6269.100000
155.085000 5836.700000
158.072000 7241.800000
159.080300 28289.600000
161.096300 15057.100000
167.085500 3556.300000
171.080400 39663.400000
173.096100 20048.300000
179.084900 6170.300000
182.073300 4029.700000
185.095400 11797.400000
187.074800 5426.900000
187.111200 5610.200000
193.100200 5427.500000
195.080400 6420.500000
195.117800 4703.400000
196.087500 4104.000000
197.096100 15043.900000
204.093500 8671.300000
207.116700 5412.300000
208.087200 8754.900000
209.096600 12791.800000
209.133200 3657.600000
210.104100 9505.800000
211.111300 10125.900000
212.119500 5041.800000
213.126600 4977.900000
219.117700 9185.300000
221.095500 10221.700000
222.103900 26197.100000
223.112200 15049.300000
224.119800 6254.900000
225.126800 4318.100000
234.102900 2925.100000
235.111800 12829.900000
237.126800 19100.800000
239.144000 3648.600000
245.096900 3829.000000
247.112100 5681.200000
248.117700 6431.600000
249.127800 10329.000000
261.127300 8377.200000
262.134300 6626.400000
263.143100 19561.200000

>ms2
77.038500 6248.100000
79.054300 5144.900000
81.069900 2450.500000
91.054100 21206.700000
93.070000 10600.500000
95.085600 9119.600000
105.069900 22212.700000
107.085500 15813.800000
109.101100 5304.200000
115.053900 7775.700000
117.069600 10931.100000
119.085400 26848.800000
121.064800 44802.400000
121.101500 2884.900000
128.062200 11409.300000
129.069700 6881.900000
131.085600 11400.500000
132.057000 7368.400000
133.065100 3813.500000
135.080300 9893.500000
141.069900 6641.700000
142.077900 6215.400000
143.085400 13798.700000
144.056400 4806.100000
145.064800 15550.500000
145.101700 4780.800000
146.072000 5389.000000
147.080500 47707.500000
155.060300 2913.400000
155.085400 8804.000000
158.072600 12482.800000
159.080400 17352.200000
161.095900 7233.000000
169.101000 2890.200000
171.080500 22211.600000
173.095800 7661.600000
178.076900 4937.100000
179.085900 12962.500000
180.095100 3944.800000
181.064600 4933.500000
182.072100 3967.800000
183.079800 4221.600000
185.097000 6803.500000
189.070600 3533.000000
191.086400 6981.300000
192.093100 3705.700000
193.101300 7372.400000
194.110500 4021.300000
195.080300 8047.000000
196.088300 9233.400000
197.095500 7633.600000
203.086400 4502.800000
204.093300 6195.100000
207.080400 8325.600000
208.089100 9551.600000
209.095700 11569.300000
211.112000 4802.900000
221.095600 7719.400000
222.103800 17714.800000
224.119300 2899.100000
233.095400 6729.400000
234.105100 4808.600000
235.112000 6926.300000
245.095700 3538.500000
246.103200 3221.100000
247.111800 6487.000000
248.120400 3794.000000
261.126800 6251.600000
263.143100 5922.900000

>ms2
77.038700 6840.700000
79.054100 8788.300000
91.054300 33060.600000
93.070100 7260.100000
95.085500 3293.900000
97.065100 2200.900000
103.054300 5977.300000
105.069900 22650.100000
107.049300 2750.400000
107.085500 5487.500000
115.054100 12004.500000
117.070200 8216.000000
119.085600 20081.900000
121.064800 36657.700000
128.062100 22635.300000
129.069700 9940.900000
131.049500 3448.700000
131.086200 7931.900000
132.057100 12065.400000
141.070300 12987.400000
142.077800 7349.700000
143.085500 11180.000000
144.056300 5846.600000
145.065100 11260.100000
146.072800 5049.300000
147.080600 17120.500000
155.060100 3768.200000
155.085800 5748.700000
158.072800 8937.200000
159.080000 4488.800000
161.095800 3288.800000
165.069800 9909.300000
166.077700 4051.300000
167.084800 3311.100000
169.064900 3264.000000
171.080000 11962.200000
178.077800 11515.700000
179.085400 17830.700000
181.065000 5331.300000
181.100400 3466.200000
182.072400 4594.600000
189.069500 7219.000000
190.078000 4482.100000
191.085600 11437.700000
192.094200 3176.700000
193.100400 4851.500000
194.074300 2617.000000
194.110700 3250.100000
196.088300 2808.100000
197.096800 3504.600000
202.077700 5270.100000
203.085500 5577.500000
207.080300 8915.400000
208.088100 6964.300000
209.096100 8703.800000
215.084700 4498.400000
219.080800 5539.600000
221.095600 10171.200000
222.104300 6742.800000
233.095100 6131.700000
246.103300 3673.500000
247.111400 4314.000000
248.120700 2918.100000

>ms2
123.080400 2571.500000
147.080500 11465.700000
149.095900 4629.700000
153.091500 2417.400000
159.080800 1763.800000
161.096000 3125.000000
171.080300 3913.000000
173.095600 2348.500000
177.091400 4499.200000
185.095700 2990.100000
187.111600 2333.200000
195.101700 3261.000000
225.126700 3247.000000
237.127500 25783.700000
239.142700 3521.300000
241.122400 2376.700000
253.121700 4600.800000
255.137600 2891.800000
267.138400 4585.300000
267.174200 6644.300000
275.143600 4175.000000
277.158400 12920.900000
279.174100 22132.700000
281.190100 3506.300000
289.158500 2512.800000
291.174400 24717.900000
295.168800 6357.800000
297.185600 8692.100000
301.158800 9795.300000
307.169100 11941.200000
309.185200 28370.800000
319.169600 42331.900000
325.180100 16688.400000
327.195600 9158.000000
337.179900 80299.700000
355.190500 177023.300000
373.201000 297747.900000
393.206800 61810.900000

>ms2
95.085400 4526.800000
97.064800 2433.200000
107.085500 8353.400000
109.101500 2004.300000
119.085500 4486.500000
121.064800 6116.700000
121.101100 2531.600000
123.080600 4247.100000
125.059900 4315.700000
131.085200 2802.600000
133.100900 2141.800000
135.080500 8628.800000
147.080400 38602.700000
149.096000 12079.900000
153.091000 5864.400000
159.080500 9943.500000
161.096200 9001.800000
167.107100 4379.700000
171.080400 19589.100000
173.095900 15955.900000
177.091400 6973.600000
185.096200 11944.000000
187.075100 6295.300000
187.112000 5652.000000
197.096000 4906.500000
199.112700 3848.500000
209.096600 2327.100000
211.111500 11883.000000
213.127300 9091.200000
215.106300 4154.000000
221.096900 3274.500000
223.111500 11971.500000
225.127100 6755.900000
227.143000 5575.700000
235.111600 9124.100000
237.127300 58675.400000
239.107100 2831.400000
239.142900 19409.500000
241.122400 8664.300000
249.126900 4754.100000
251.141900 3425.200000
253.121900 9130.700000
253.158300 5269.100000
255.138000 7784.200000
261.126900 4446.100000
263.142900 7632.300000
265.158100 2568.200000
267.137800 7205.100000
267.174400 4908.800000
275.143000 7897.800000
277.158600 24132.300000
278.166700 7552.100000
279.174200 45487.600000
281.154100 2011.500000
281.190400 3329.900000
289.159000 9588.300000
291.174300 31426.300000
295.168700 9633.500000
297.184700 6600.200000
301.158800 10990.200000
307.168800 11399.000000
309.184800 16337.100000
319.169400 28691.500000
325.180700 5828.600000
327.196100 4308.900000
337.180000 32810.000000
355.190400 47348.500000

>ms2
93.069900 7820.400000
95.048800 1988.100000
95.085500 7139.300000
97.064600 2456.300000
105.069900 3361.200000
107.085500 16307.200000
109.101100 3354.700000
119.085500 9969.200000
121.064900 15500.600000
121.101000 7753.900000
123.080700 4129.000000
125.059400 3787.900000
131.085400 7161.700000
133.065100 5089.900000
133.101300 3088.000000
135.080400 15811.200000
137.096100 3357.100000
143.085700 3228.900000
145.065000 4815.900000
145.100900 2962.700000
147.080400 56715.000000
149.096100 8435.600000
153.090800 3616.900000
159.080300 14149.900000
161.096200 9937.500000
171.080400 24115.600000
173.096000 16618.200000
175.111600 1790.000000
177.091200 2916.500000
183.080100 2269.400000
185.096100 11441.400000
187.075000 5509.700000
187.111800 6169.300000
193.101200 2473.200000
196.089000 2572.800000
197.096100 10484.900000
199.111200 4232.100000
209.096100 6201.100000
209.132000 3908.000000
210.103800 2216.100000
211.111700 12624.700000
212.119000 2676.600000
213.127200 8424.200000
215.106200 2986.100000
219.116700 6065.200000
221.095700 5276.500000
222.103700 10032.300000
223.111400 15300.500000
224.118900 4368.200000
225.127200 6057.600000
227.142400 5569.000000
234.103400 2284.300000
235.111600 9254.700000
237.127200 36052.200000
239.142900 13499.400000
241.122500 5789.600000
248.119800 1964.400000
249.127300 6539.000000
251.143600 4692.200000
253.122400 5170.900000
253.157900 3945.000000
255.138200 3888.700000
261.127500 5930.700000
262.134400 6150.400000
263.142800 15842.400000
274.136400 2394.300000
275.141300 3037.300000
276.150000 4516.800000
277.158500 12283.800000
278.166400 10555.600000
279.174300 16560.100000
286.134900 2355.500000
289.158400 6007.000000
291.174300 8105.100000
301.158300 2772.600000
307.169900 3732.700000
319.169700 5487.900000
393.208500 2869.200000

>ms2
79.054200 2639.500000
91.054200 3366.900000
93.069700 7001.900000
95.085600 7192.600000
97.064800 2892.400000
105.069900 9796.500000
107.085500 11555.800000
109.101100 3777.200000
117.070100 2375.100000
119.085700 13032.200000
121.064800 28433.300000
123.080200 2635.200000
125.060000 2995.000000
128.062400 2092.200000
129.069600 1888.100000
131.085400 9116.000000
133.064900 3611.400000
133.101000 3436.500000
135.080400 11347.100000
143.085500 11851.900000
145.064700 5509.500000
145.101200 3804.200000
147.080400 58484.100000
149.096100 2998.500000
155.085600 5357.900000
157.101300 2274.800000
158.072700 3503.900000
159.080500 16426.100000
161.096000 8457.100000
171.080500 22496.300000
173.096000 11203.700000
175.111600 1815.500000
179.085600 2632.100000
181.100700 1928.900000
183.080000 2821.500000
185.095800 9789.300000
187.075900 3311.800000
187.111700 3683.400000
191.085400 1966.300000
193.101300 2690.100000
194.108800 2240.500000
195.080400 3950.700000
196.088100 4744.100000
197.096000 7262.100000
199.112000 3549.100000
204.093400 3690.800000
206.109900 1861.000000
207.117100 3006.900000
208.088100 5031.000000
209.096200 8293.500000
209.132200 2144.200000
210.103700 6273.900000
211.111700 6088.100000
212.120100 3005.700000
213.127000 2812.400000
219.116800 5685.100000
221.096100 4095.600000
221.132700 1933.900000
222.103800 19411.500000
223.111800 8624.200000
224.119600 5074.600000
233.095600 2846.100000
234.103300 3031.900000
235.111600 7930.200000
237.127300 10750.500000
239.142800 4605.200000
245.095900 2278.600000
246.103200 2134.200000
247.112400 3084.600000
248.119400 6448.700000
249.127600 3235.000000
261.127000 3796.900000
262.135000 4269.400000
263.142900 9770.100000
279.173200 3344.200000

>ms2
67.054300 3192.300000
79.054100 4065.800000
81.069700 2274.100000
91.054200 12040.800000
93.069800 6015.300000
95.048900 2506.200000
95.085400 4933.800000
103.054200 1984.900000
105.069900 15768.800000
107.049100 2488.400000
107.085500 10769.700000
115.053800 2416.500000
117.069600 5524.000000
119.085500 17526.000000
121.064800 29037.800000
128.061900 10117.800000
129.069800 6334.500000
131.049200 2071.800000
131.085200 7263.100000
132.057000 5291.600000
133.064300 2001.700000
133.100800 2576.700000
135.080400 5910.700000
141.069700 6651.700000
142.078100 2634.300000
143.085500 10833.300000
144.057100 3063.600000
145.064600 9685.900000
145.100500 2085.700000
146.072900 3624.300000
147.080400 28117.800000
155.085300 3275.900000
157.101900 2567.800000
158.072600 2880.000000
159.080300 12335.100000
161.095800 4050.600000
165.069900 3523.800000
171.080300 12780.100000
178.077900 3333.800000
179.085400 7401.000000
180.093600 1836.600000
181.064700 3937.800000
181.101400 2491.500000
182.072100 3810.900000
183.080500 2203.400000
185.095800 5270.100000
189.070300 1695.600000
190.077900 1951.800000
191.085100 3453.500000
192.093500 4230.100000
193.101000 6121.300000
194.108800 3733.500000
195.080500 3501.800000
196.088300 5210.800000
197.096100 6406.200000
202.077200 1774.200000
203.085400 4313.800000
204.093000 3261.900000
206.109100 2508.700000
207.080500 5987.000000
207.116200 1935.800000
208.087900 7987.700000
209.095900 8668.000000
210.103600 3780.400000
211.112000 2676.500000
219.080600 2582.000000
219.116000 2444.800000
221.095800 6893.500000
221.132800 1909.600000
222.103700 11189.700000
223.111700 4107.700000
233.096100 3544.500000
235.111900 3495.300000
237.126300 2268.700000
246.103900 2534.400000
247.112200 2105.800000
248.118900 4316.500000
249.127600 3625.400000
261.127200 3642.100000
263.142600 3296.700000

>ms2
67.054100 1674.000000
77.038500 3373.600000
79.054200 4936.900000
91.054200 20501.200000
93.069900 4507.900000
95.085500 2006.300000
103.054100 2291.800000
105.069800 11753.000000
107.048900 2789.400000
107.085400 3510.800000
115.053900 4460.100000
117.070000 3229.300000
119.085500 11666.400000
121.064700 21154.200000
128.061900 14872.300000
129.069800 5306.800000
131.085500 2332.200000
132.057000 8302.700000
133.065000 1724.300000
135.080100 1986.400000
141.069900 4914.800000
142.077700 5053.600000
143.085400 6151.000000
144.056900 4864.500000
145.064800 9459.400000
146.072700 2462.500000
147.080300 10798.200000
155.060000 3831.600000
155.086000 2529.900000
158.072800 7326.700000
159.080400 3625.700000
165.070000 6304.200000
166.077800 3078.500000
167.085100 2418.500000
169.064900 3273.300000
169.101600 1917.200000
171.080300 5104.000000
178.077700 7285.300000
179.085600 8865.900000
181.064900 5087.200000
182.072100 2555.600000
183.080000 2776.500000
185.096300 2436.800000
189.069600 3841.800000
190.077800 2991.700000
191.085400 4894.700000
192.093300 3286.700000
194.073200 2204.100000
194.108700 2261.500000
195.080100 3590.800000
196.088400 3046.800000
202.077400 3716.300000
203.085400 4054.300000
204.093500 2221.500000
207.080500 4799.000000
208.088000 5323.900000
209.096000 6248.000000
215.084900 3721.000000
221.095800 5591.900000
222.103400 3127.400000
223.111800 2463.900000
233.095900 3240.600000
235.111400 2117.400000
245.095800 2039.300000
247.111900 2619.100000
248.117300 1965.200000

