>compound EA32968765
>parentmass 198.1349
>ionization [M+H]+
>formula C8H15N5O
>rt 294.000000
>profile orbitrap
#smiles_iso CCNC1=NC(=NC(=N1)OC)NCC
#smiles_can CCNC1=NC(=NC(=N1)OC)NCC
#inchikey HKAMKLBXTLTVCN-UHFFFAOYSA-N
#pubchem_id 12654
#mb_accession EA066702,EA066703,EA066704,EA066705,EA066706,EA066707,EA066708,EA066709,EA066710,EA066711,EA066712,EA066713

>ms2
198.135200 16658163.300000

>ms2
96.055500 23123.200000
114.066700 22713.200000
124.087000 83707.800000
128.082000 47659.600000
170.103900 58232.600000
198.135100 17303503.000000

>ms2
57.044600 82618.300000
68.024300 110761.700000
69.008400 128511.000000
71.060400 157828.900000
85.076100 133213.300000
96.055700 301289.100000
97.039500 80288.400000
100.050600 227669.400000
110.071500 35861.100000
114.066300 481165.200000
124.087000 1170379.900000
128.081900 1154447.600000
142.097300 44240.200000
166.108700 124982.400000
170.103700 703905.800000
173.021800 17467.100000
196.120200 22184.500000
198.135100 13257674.100000

>ms2
57.044600 203348.200000
58.028700 24611.000000
68.024300 508281.700000
69.008300 444276.500000
71.060400 487825.800000
75.055100 20878.300000
82.039900 21543.600000
83.024000 41185.800000
85.076000 339044.600000
86.034700 23440.700000
96.055600 853596.800000
97.039600 184502.600000
100.050600 1004164.000000
103.086800 26785.400000
110.071400 42470.700000
114.066200 761570.500000
124.086900 1833095.800000
128.081900 2188897.300000
141.113900 14789.200000
142.072500 82691.100000
142.097500 44494.800000
153.077000 32177.000000
166.108800 195044.700000
170.103600 890949.500000
196.119600 38043.600000
198.134900 4268817.900000

>ms2
57.044700 329659.200000
58.028700 62643.300000
68.024300 1279152.200000
69.008400 614478.100000
71.060400 653306.500000
75.055400 39161.100000
82.039800 50084.100000
83.024000 75459.100000
85.076100 251046.600000
86.034800 67455.900000
96.055700 1088643.500000
97.039700 167185.400000
100.050600 2023177.600000
110.071000 32266.800000
113.081900 19787.800000
114.066300 448428.200000
124.087000 1041843.000000
128.081900 1392041.100000
138.077900 26781.800000
142.072300 100773.400000
153.077800 17309.900000
166.108800 86507.300000
170.103700 355210.700000
198.134800 540143.100000

>ms2
57.044700 385455.000000
58.028700 141218.900000
68.024300 1726041.500000
69.008300 589069.200000
71.060400 580065.800000
75.055300 60706.100000
82.040100 37524.300000
83.024100 62482.900000
85.076000 155287.600000
86.034900 63817.600000
96.055600 734186.700000
97.039600 75606.500000
100.050600 1957446.500000
114.066200 144605.800000
124.086900 341625.700000
128.081800 463353.800000
138.077100 17159.000000
142.072100 53961.500000
170.103900 81516.500000

>ms2
183.111500 23742.400000
198.135000 12727376.900000

>ms2
114.066300 25561.400000
124.087000 46376.400000
128.082000 35835.300000
170.103600 33235.900000
183.110600 12847.300000
198.135000 12474743.100000

>ms2
57.044600 42363.000000
68.024300 71204.200000
69.008300 111022.200000
71.060300 108369.900000
82.039700 10310.600000
83.024000 15020.000000
85.076000 102893.100000
96.055700 212418.600000
97.039700 64062.600000
100.050600 120050.100000
103.086800 10683.600000
110.071300 27112.100000
114.066200 333519.100000
124.087000 765291.200000
128.081900 788656.200000
142.072500 9220.300000
142.097400 18222.600000
166.108700 87218.300000
170.103700 462213.500000
183.112300 10693.100000
196.120100 14125.700000
198.135000 8630154.400000

>ms2
57.044700 129066.100000
58.028600 14108.900000
68.024300 350959.600000
69.008300 299925.400000
71.060400 323267.000000
75.055400 24520.300000
82.039900 22170.400000
83.024100 40299.300000
85.076000 210734.400000
86.035100 15087.700000
96.055600 587789.100000
97.039600 144839.000000
99.091600 6980.700000
100.050600 671212.300000
103.086400 12848.200000
110.071300 38634.000000
114.066200 480460.000000
124.087000 1300854.400000
128.081900 1574698.400000
138.077400 11363.500000
141.113800 13519.600000
142.072400 67584.600000
142.097500 33458.800000
153.077100 14806.500000
166.108700 149288.600000
170.103600 573045.500000
183.111700 9347.800000
196.119400 38387.100000
198.135000 3035914.800000

>ms2
57.044700 211125.000000
58.028700 47058.600000
68.024300 811041.500000
69.008300 417709.000000
71.060400 434742.900000
75.055200 45522.300000
82.040000 21958.200000
83.024000 46321.500000
85.076000 155185.600000
86.034900 41299.400000
96.055600 730663.700000
97.039600 106052.700000
100.050600 1331729.200000
103.086500 10873.900000
110.071200 12003.000000
113.082200 15084.700000
114.066200 276047.300000
124.086900 723695.300000
128.081900 913675.400000
138.077700 11073.300000
142.072300 67691.000000
142.097600 16260.600000
153.076900 7112.700000
166.108900 43200.000000
170.103600 243281.900000
196.119300 12241.600000
198.135000 389703.100000

>ms2
57.044700 242334.300000
58.028700 59312.100000
68.024300 1092247.700000
69.008300 346190.700000
71.060400 370334.500000
75.055300 32876.700000
82.040000 19025.500000
83.024000 47875.900000
85.076000 72040.200000
86.034900 34096.500000
96.055600 476183.400000
97.039600 51706.000000
100.050600 1243824.100000
113.082200 8771.600000
114.066200 93508.100000
124.086900 181533.400000
128.081800 249413.000000
138.077400 7499.200000
142.072300 28688.900000
170.103600 45406.500000
198.134700 20002.000000

