>compound EA32645281
>parentmass 314.1387
>ionization [M+H]+
>formula C18H19NO4
>rt 750.000000
>profile orbitrap
#smiles_iso CC1=CC=CC=C1OCC2=CC=CC=C2/C(=N\OC)/C(=O)OC
#smiles_can CC1=CC=CC=C1OCC2=CC=CC=C2C(=NOC)C(=O)OC
#inchikey ZOTBXTZVPHCKPN-HTXNQAPBSA-N
#pubchem_id 6112114
#mb_accession EA015402,EA015403,EA015404,EA015405,EA015406,EA015407,EA015408,EA015409,EA015410,EA015411,EA015412,EA015413

>ms2
116.049600 21165.600000
131.072800 5382.300000
132.081200 8025.300000
162.090900 7139.100000
222.091000 23980.700000
235.076100 3463.000000
238.121900 9129.600000
250.085700 4031.500000
254.117100 3291.300000
282.112800 11347.300000

>ms2
116.049400 22145.700000
131.072900 21240.500000
132.080900 13677.500000
146.060600 2979.800000
162.091400 5384.400000
222.091000 39244.700000
223.099500 9614.600000
235.074700 8545.500000

>ms2
116.049300 20420.800000
131.072900 20404.000000
132.080500 9459.300000
146.060100 4039.000000
194.096900 5405.900000
222.090900 20104.200000
223.098900 4545.400000

>ms2
116.049300 18694.800000
131.072900 22284.400000
194.096200 5330.600000
222.090600 3482.700000

>ms2
89.038400 8077.400000
91.054100 4396.400000
116.049100 17935.600000
117.056900 6012.300000
118.064800 5006.500000
130.065000 6806.900000
131.072700 12271.300000
165.069300 3025.900000
178.077000 2636.300000
194.095600 4275.800000

>ms2
89.038400 7580.900000
91.054600 5608.600000
116.049400 10559.400000
117.057300 3576.100000
118.064700 5246.600000
130.065000 6424.600000
131.073300 6541.600000
165.070300 2620.200000

>ms2
116.049300 15391.900000
131.072700 4414.400000
132.080700 8982.700000
162.091200 7257.100000
206.081400 3598.600000
222.091100 16489.300000
223.099100 2320.200000
235.075400 2672.700000
238.122700 5317.700000
250.086000 2652.100000
267.100800 8788.800000
282.112200 6631.800000

>ms2
116.049400 12505.800000
118.065400 2242.400000
131.072800 13936.400000
132.080600 9841.800000
162.091100 3568.000000
194.096300 3429.400000
222.091100 19025.900000
223.099400 2780.700000
235.075100 5818.100000
238.122500 2990.600000
254.116400 1993.600000
267.102300 2592.100000

>ms2
91.054000 2019.800000
116.049400 11035.000000
118.065100 3407.700000
131.072800 12765.600000
132.080600 7234.600000
222.090800 11550.000000
223.099200 4405.800000
235.075300 3745.500000

>ms2
116.049300 12817.400000
118.064800 2634.900000
131.072900 11233.900000
194.096200 3622.600000
222.091100 5017.000000

>ms2
89.038400 2543.300000
116.049300 6004.300000
117.057200 2779.000000
118.065000 2242.200000
130.065000 2846.800000
131.072900 6948.900000
194.096200 2726.400000

>ms2
89.038500 5068.100000
91.054200 2157.500000
116.049300 5521.800000
117.057200 2093.400000
118.065000 2872.900000
130.065000 3538.200000
131.072800 2298.600000
165.069600 1562.900000
178.077300 1973.100000

