>compound EA33560876
>parentmass 253.09720000000002
>ionization [M+H]+
>formula C15H12N2O2
>rt 378.000000
>profile orbitrap
#smiles_iso C1=CC=C2C(=C1)C3C(O3)C4=CC=CC=C4N2C(=O)N
#smiles_can C1=CC=C2C(=C1)C3C(O3)C4=CC=CC=C4N2C(=O)N
#inchikey ZRWWEEVEIOGMMT-UHFFFAOYSA-N
#pubchem_id 2555
#mb_accession EA091602,EA091603,EA091604,EA091605,EA091606,EA091607,EA091608,EA091609,EA091610,EA091611,EA091612,EA091613

>ms2
180.080700 125354.700000
182.097200 5083.900000
208.075900 23315.300000
210.091500 267932.000000
236.070700 421460.500000
253.097500 1345549.100000

>ms2
180.080900 516277.700000
182.096700 53813.800000
192.080000 5470.800000
208.075900 92238.600000
210.091600 736856.600000
236.070800 549689.800000
253.097300 119341.700000

>ms2
180.080900 911374.100000
181.088700 35558.300000
182.096500 219384.600000
192.080600 7747.700000
208.075900 35290.000000
210.091500 620878.900000
236.070500 70276.000000

>ms2
165.069800 9506.500000
167.073400 26625.900000
180.081000 1007150.500000
181.088700 42377.900000
182.096700 342008.200000
192.080200 5860.300000
193.089500 6964.800000
208.075900 3307.800000
210.091600 198269.900000
236.070000 2749.000000
253.097900 4525.400000

>ms2
165.070000 12812.700000
167.072900 81363.200000
179.072600 6850.000000
180.080800 1071402.600000
181.088900 14851.500000
182.096400 210755.300000
192.081400 5331.600000
193.088400 14369.600000
210.091600 29796.700000

>ms2
152.062100 21437.100000
153.070200 6043.000000
165.070100 19529.700000
167.073200 130915.200000
179.072900 33006.600000
180.081000 932234.800000
181.088900 6741.300000
182.096600 67773.900000
193.089200 16157.400000

>ms2
180.080600 56887.400000
182.096100 2918.500000
208.075800 13704.100000
210.091300 124702.600000
236.070600 216670.600000
253.097300 659937.200000

>ms2
180.080800 240838.300000
182.096400 26441.000000
208.075900 38361.700000
210.091400 349467.800000
236.070600 265155.100000
253.097100 53438.500000

>ms2
180.081000 426689.900000
181.088800 14035.600000
182.096500 103567.900000
192.079900 2245.100000
208.075800 14635.600000
210.091400 260924.100000
236.070700 35752.000000

>ms2
165.069500 2189.500000
167.072800 9239.200000
180.080800 470552.100000
181.088600 20282.900000
182.096400 151261.400000
192.080800 2891.300000
208.075200 4107.500000
210.091400 93481.700000

>ms2
165.069900 7251.000000
167.073000 39540.400000
179.073100 5525.800000
180.080900 494466.100000
181.088400 8917.400000
182.096400 88252.800000
192.081000 2924.300000
193.088300 4514.800000
210.091700 16317.900000

>ms2
152.062200 6144.800000
153.070300 2585.600000
165.069900 9482.600000
167.073000 53477.600000
179.072900 9915.400000
180.080900 418162.400000
181.088600 2732.500000
182.096400 26582.000000
192.080500 1466.000000
193.088700 7491.400000

