>compound EA33009639
>parentmass 298.27410000000003
>ionization [M+H]+
>formula C18H35NO2
>rt 606.000000
>profile orbitrap
#smiles_iso CCCN(CC)CC1COC2(O1)CCC(CC2)C(C)(C)C
#smiles_can CCCN(CC)CC1COC2(O1)CCC(CC2)C(C)(C)C
#inchikey PUYXTUJWRLOUCW-UHFFFAOYSA-N
#pubchem_id 86160
#mb_accession EA278902,EA278903,EA278904,EA278905,EA278906,EA278907,EA278908,EA278909,EA278910,EA278911,EA278912,EA278913

>ms2
144.138600 168521.800000
298.274300 9696791.600000

>ms2
72.080700 16914.300000
100.112200 317676.100000
144.138500 4236781.600000
298.274200 5849319.600000

>ms2
58.064900 25743.900000
72.080700 132778.300000
100.112100 1491663.100000
102.091100 26366.700000
126.128100 21231.100000
144.138300 6760129.500000
160.133200 35009.400000
298.274600 622576.800000

>ms2
58.065200 82957.000000
72.080800 370804.800000
84.080800 38141.900000
86.096400 21781.800000
100.112200 2763730.800000
102.091400 124028.000000
116.107200 12587.100000
126.127900 71031.800000
144.138400 4344239.000000

>ms2
58.065100 209840.100000
67.054500 8180.500000
72.080800 669204.400000
84.080900 83396.500000
86.096600 39029.500000
100.112200 3165485.600000
102.091500 131050.500000
116.106900 13801.900000
126.127900 66556.800000
144.138400 1692039.700000
298.275200 10284.400000

>ms2
56.049200 10652.700000
58.065100 332991.900000
72.080800 757676.700000
84.080700 76921.400000
86.096400 35416.600000
100.112100 2524905.600000
102.091300 104087.500000
126.127700 36625.200000
144.138200 411644.800000

>ms2
144.138100 89413.500000
298.274100 6984477.400000

>ms2
72.080800 14372.000000
100.112100 227416.600000
144.138400 3016204.800000
298.274200 4411891.100000

>ms2
58.065100 16627.800000
72.080800 101952.700000
84.080800 7786.600000
86.096500 6854.900000
100.112100 1117339.700000
102.091400 18593.600000
126.127800 14759.600000
144.138400 4662074.300000
160.133300 19312.000000
298.274100 417269.000000

>ms2
57.069900 5494.100000
58.065000 57779.500000
72.080800 247927.800000
84.080700 35596.900000
86.096400 15327.100000
98.096800 4181.800000
100.112100 1971752.300000
102.091300 90111.700000
116.106900 9394.700000
126.127700 59246.800000
144.138300 2999393.800000
160.132900 14076.100000

>ms2
56.049500 5922.800000
57.069900 4762.200000
58.065100 157700.000000
72.080800 508633.600000
84.080900 62176.200000
86.096500 17194.800000
98.096500 7775.800000
100.112200 2353243.500000
102.091400 108662.200000
116.107100 5544.000000
126.127800 58153.700000
144.138400 1306712.700000

>ms2
56.049400 10509.700000
58.065100 267022.100000
67.054300 4089.100000
72.080800 597429.900000
84.080800 63206.700000
86.096400 21786.600000
98.096400 11147.700000
100.112100 1869662.700000
102.091300 62792.500000
126.127700 22163.700000
144.138300 335038.300000

