>compound EA34372646
>parentmass 141.0771
>ionization [M+H]+
>formula C5H8N4O
>rt 102.000000
>profile orbitrap
#smiles_iso CC1=NC(=NC(=N1)OC)N
#smiles_can CC1=NC(=NC(=N1)OC)N
#inchikey NXFQWRWXEYTOTK-UHFFFAOYSA-N
#pubchem_id 15466
#mb_accession EA012502,EA012503,EA012504,EA012505,EA012506,EA012507,EA012508,EA012509,EA012510,EA012511,EA012512,EA012513

>ms2
141.077100 16411732.100000

>ms2
56.049400 69571.700000
57.044500 68416.600000
85.039500 44097.600000
100.050500 31560.800000
141.077000 19394647.400000

>ms2
56.049400 233195.200000
57.044600 684204.300000
58.028600 35315.000000
83.024000 47597.900000
84.055800 28337.800000
85.039500 292410.800000
100.050400 346275.100000
141.077100 16608509.800000

>ms2
56.049400 384257.900000
57.044700 1465366.600000
58.028600 160342.800000
68.024200 90961.900000
83.024000 90540.100000
84.055600 67613.800000
85.039600 655242.300000
100.050500 880554.300000
141.077100 10254815.800000

>ms2
56.049400 351846.600000
57.044600 1900906.000000
58.028600 370232.800000
68.024200 229824.800000
83.023900 127835.400000
84.055600 86766.900000
85.039600 604698.900000
100.050400 989472.200000
141.077000 4228838.000000

>ms2
56.049400 321680.700000
57.044600 1688776.500000
58.028600 457703.500000
68.024200 332143.900000
83.023900 74161.900000
84.055400 98664.100000
85.039500 389120.100000
100.050400 704393.300000
141.077100 1278654.700000

>ms2
56.049300 16070.100000
57.044700 23426.300000
141.077000 13104066.600000

>ms2
56.049300 61187.500000
57.044600 65143.400000
85.039600 43895.000000
100.050200 19117.900000
141.076900 16528992.100000

>ms2
56.049400 203423.100000
57.044600 471050.900000
58.028600 34991.600000
68.024000 19256.600000
83.023800 38613.900000
84.055500 22867.200000
85.039500 270007.400000
100.050400 302632.000000
141.077000 13313002.000000

>ms2
56.049400 326687.700000
57.044700 1227952.900000
58.028600 116163.600000
68.024300 66181.400000
83.023900 68205.800000
84.055600 58888.000000
85.039600 484746.000000
100.050400 691076.900000
141.077000 8234969.600000

>ms2
56.049400 285400.000000
57.044600 1475958.200000
58.028600 253591.200000
68.024200 151873.800000
69.008200 17226.100000
83.023900 63631.400000
84.055500 80005.200000
85.039500 477243.300000
100.050400 825583.200000
141.076900 3266174.600000

>ms2
56.049400 192470.000000
57.044600 1357418.200000
58.028600 387658.800000
68.024200 208838.600000
69.008300 10143.400000
83.023800 47178.700000
84.055500 61851.900000
85.039500 280229.200000
100.050400 616416.100000
141.076900 1008423.900000

