>compound EA34733165
>parentmass 226.13389999999995
>ionization [M+H]+
>formula C14H15N3
>rt 564.000000
>profile orbitrap
#smiles_iso CC1=CC(=NC(=N1)NC2=CC=CC=C2)C3CC3
#smiles_can CC1=CC(=NC(=N1)NC2=CC=CC=C2)C3CC3
#inchikey HAORKNGNJCEJBX-UHFFFAOYSA-N
#pubchem_id 86367
#mb_accession EA014802,EA014803,EA014804,EA014805,EA014806,EA014807,EA014808,EA014809,EA014810,EA014811,EA014812,EA014813

>ms2peaks
226.134000 40923737.700000

>ms2peaks
226.134200 57094250.400000

>ms2peaks
93.057300 49624.500000
108.080800 275291.400000
119.060600 68182.400000
133.075900 230403.600000
144.080700 121167.900000
185.107300 179341.100000
209.106600 113024.100000
210.102800 60782.400000
211.111000 51153.300000
224.118500 72572.700000
226.134000 43812551.800000

>ms2peaks
65.038700 66064.800000
67.054200 122604.100000
68.049700 45558.500000
77.038500 48153.900000
79.054400 86394.000000
80.049500 87675.600000
81.070100 87536.600000
84.080700 60168.600000
91.054300 287821.300000
92.049600 274130.800000
93.057300 611781.000000
94.064900 44806.300000
106.065200 532352.000000
107.059900 42242.200000
108.068400 146337.000000
108.080800 1861382.100000
109.075900 134510.200000
109.088500 85807.300000
116.049600 93451.800000
117.057400 88200.400000
118.052500 254834.800000
118.065400 232262.000000
119.060400 726709.600000
123.092000 188711.000000
124.076000 51152.400000
131.060500 123942.600000
132.067900 159962.400000
133.076100 1327539.400000
134.060000 77244.300000
142.065800 52352.300000
143.060000 188051.700000
144.080800 786707.700000
145.076000 176281.600000
151.087100 58840.700000
158.096100 69421.300000
159.091800 284263.100000
167.073000 58592.100000
168.081100 169643.900000
169.075700 90762.100000
171.091800 58876.000000
182.084200 47597.600000
183.091200 128668.000000
184.087000 487547.500000
185.107200 663505.600000
194.083900 201845.900000
197.094000 92366.900000
198.102700 220976.800000
207.091300 66706.300000
208.100500 84346.200000
209.107400 899584.600000
210.102500 749214.100000
211.110100 210903.600000
224.118200 178955.700000
226.134200 31031784.000000

>ms2peaks
65.038500 323254.500000
67.054200 305139.300000
68.049500 178233.500000
77.038600 288654.500000
79.054300 397405.500000
80.049500 225616.500000
81.069900 304174.800000
82.065000 160098.600000
83.060100 58984.400000
84.080800 129999.300000
91.054200 977329.700000
92.049500 733819.800000
92.062000 102504.000000
93.057300 2504269.000000
94.064900 152413.200000
104.049700 194581.300000
105.044700 115439.000000
106.065200 1319544.900000
107.073200 60105.600000
108.068400 309825.000000
108.080800 2873095.200000
109.076100 218681.600000
109.088600 69416.600000
110.060200 94473.600000
116.049600 348547.200000
117.044600 57494.800000
117.057300 234531.500000
118.052600 930765.500000
118.065100 452322.600000
119.060400 1374578.600000
123.091800 198786.300000
124.075600 107653.200000
128.049500 48597.000000
130.065100 38083.300000
131.060400 318696.100000
132.068200 576372.700000
133.076000 1519348.400000
134.059900 101516.400000
142.065300 178253.300000
143.060400 564886.800000
144.055900 70753.000000
144.080800 841864.500000
145.076000 272956.500000
149.071500 64035.300000
157.076200 93352.400000
159.091700 435430.800000
167.072800 238902.400000
168.068000 176665.800000
168.081000 266044.000000
169.076300 194099.300000
170.083600 69112.300000
171.091500 70826.100000
181.076200 82691.400000
182.084000 156884.000000
184.087200 641458.500000
185.107300 485016.700000
191.072700 51481.900000
193.076200 228675.100000
194.084000 617540.400000
197.095000 149842.800000
198.102900 166346.000000
206.082900 42735.300000
207.091700 211420.200000
208.099500 195452.100000
209.107400 772274.200000
210.102500 1214888.700000
211.110100 277485.700000
224.118500 218490.700000
226.134400 10256427.700000

>ms2peaks
53.038500 44727.600000
65.038600 663896.500000
67.029000 39064.200000
67.041600 41376.000000
67.054200 264378.200000
68.049500 237811.300000
77.038600 871695.100000
79.054200 776714.200000
80.049500 350102.900000
81.069900 374726.200000
82.065100 242433.700000
84.080900 72167.000000
89.038500 100110.800000
91.054200 1657552.000000
92.049500 919381.200000
92.062000 187036.500000
93.057300 3989735.400000
94.065100 295228.500000
95.049200 149481.900000
96.044100 43939.100000
104.049500 308114.800000
105.044800 265851.800000
106.065100 1387539.700000
107.073000 116676.800000
108.068400 327855.800000
108.080800 1977829.300000
109.076000 156517.400000
110.060200 88802.200000
115.054600 71150.500000
116.049400 431210.900000
117.045200 58469.000000
117.057300 339431.900000
118.052500 1303549.700000
118.065000 375608.000000
119.060400 1225193.500000
124.075400 101012.400000
130.040600 45875.400000
130.065400 66887.300000
131.060400 483523.300000
132.068200 673976.300000
133.076000 786549.900000
140.048800 59047.600000
142.065100 166102.000000
143.060400 547078.300000
144.055100 52675.500000
144.080700 360866.100000
145.076000 287314.000000
148.086600 60959.400000
154.065000 66047.100000
157.075600 68385.400000
159.091600 208197.100000
165.069900 48637.400000
166.065000 49952.800000
167.073000 318110.300000
168.068000 177301.300000
168.081600 181273.300000
169.064000 56623.200000
169.076300 171151.900000
170.083400 62088.900000
171.091700 53514.500000
180.080600 46367.600000
181.076400 127516.000000
182.084100 172388.900000
183.081200 163684.400000
184.086700 316690.700000
185.107600 167368.800000
191.073200 74078.900000
192.081500 46557.500000
193.076300 495200.700000
194.083800 564213.900000
198.101900 64310.200000
199.109700 46338.500000
207.091600 442097.500000
208.099700 186476.600000
209.107100 237676.600000
210.102500 827571.400000
211.110000 104735.500000
224.118100 221429.200000
226.134800 1981985.800000

>ms2peaks
226.133900 39170254.300000

>ms2peaks
226.134000 39388795.600000

>ms2peaks
93.057400 68215.100000
106.064800 39874.900000
108.080800 196391.600000
133.076000 155941.300000
144.080600 104762.600000
159.091800 41792.500000
184.086600 72711.200000
185.107400 174044.300000
209.107700 114580.700000
210.102400 103235.600000
211.110600 66526.900000
226.133900 38976347.400000

>ms2peaks
65.038700 70641.000000
67.054300 91879.100000
68.049600 38944.200000
77.038600 50657.100000
79.054300 78405.000000
80.049500 48120.700000
81.069900 66640.700000
82.065300 79393.900000
84.080700 37999.300000
91.054300 287155.700000
92.049600 239745.300000
92.062400 44205.200000
93.057400 574342.700000
94.064700 32843.400000
104.049500 40054.200000
106.065200 435666.700000
107.060500 29176.800000
107.073300 29381.600000
108.068200 93023.200000
108.080900 1626704.600000
109.076100 107047.800000
109.088600 54724.800000
116.049600 99098.300000
117.057200 58755.200000
118.052500 190445.800000
118.065200 250396.600000
119.060500 541522.800000
123.091700 188965.400000
124.076000 50402.400000
131.060500 117039.800000
132.068400 176113.000000
133.076100 1042622.200000
134.060300 47104.900000
142.065500 49644.200000
143.060500 183878.300000
144.080900 708678.700000
145.076100 182378.800000
151.086900 40911.400000
158.096700 44064.700000
159.091800 288170.600000
167.073400 53746.000000
168.067900 47262.100000
168.080900 143494.500000
169.076100 128527.300000
171.091000 31152.800000
181.076100 34479.100000
182.096900 38510.100000
183.080100 32934.600000
183.091600 99187.600000
184.087100 378029.800000
185.107500 469449.900000
193.075700 32606.600000
194.083800 194983.900000
197.094800 49286.600000
198.103200 116025.200000
199.110400 29355.700000
207.091600 62385.800000
208.099300 71684.000000
209.107400 630095.900000
210.102700 606695.100000
211.110500 217899.600000
224.118500 123935.500000
226.134100 26334057.300000

>ms2peaks
65.038600 262614.100000
67.041700 27707.000000
67.054300 237427.300000
68.049500 127977.000000
77.038600 267883.400000
79.054300 346852.700000
80.049500 202562.700000
81.069900 260170.200000
82.065200 210217.700000
83.060500 48227.900000
84.080900 53908.000000
91.054300 875930.900000
92.049500 672013.600000
92.062100 123404.600000
93.057400 2051876.900000
94.065200 201403.300000
95.049100 22748.300000
104.049400 105906.600000
105.044700 97018.800000
106.065200 1140812.400000
107.060400 63278.100000
107.073000 98828.400000
108.068300 263549.300000
108.080800 2575446.100000
109.076100 164507.600000
109.088500 82318.900000
110.059900 48373.100000
115.054300 50612.100000
116.049500 313922.300000
117.044700 42919.900000
117.057300 221136.300000
117.069700 35747.700000
118.052600 759077.000000
118.065200 382340.800000
119.060400 1061755.600000
123.091700 139935.000000
124.075800 96084.400000
130.065300 36329.100000
131.060400 321345.600000
132.068300 479003.300000
133.076100 1335142.900000
134.060200 74769.200000
140.049100 29050.300000
141.070400 32050.100000
142.065100 185334.100000
143.060400 442952.900000
143.072900 39391.200000
144.055800 41160.600000
144.080800 702365.400000
145.076100 254442.400000
148.087000 33542.500000
149.070800 47118.900000
151.086500 34564.100000
154.065300 39672.500000
156.068100 32682.500000
157.076100 67715.600000
158.096100 64482.700000
159.091700 338190.900000
165.070400 44600.400000
167.072900 193889.400000
168.068100 119034.600000
168.080900 260124.500000
169.076300 139886.100000
170.084300 46722.100000
171.092100 51098.600000
181.076200 63261.800000
182.084000 93026.400000
182.096100 72178.200000
183.078800 94933.900000
183.091800 150541.300000
184.087100 483319.400000
185.107500 385596.700000
191.073100 29740.300000
193.076000 196350.300000
193.088200 59441.800000
194.083800 523607.500000
195.091600 28392.000000
196.086900 55636.800000
197.095000 99762.700000
198.102500 149009.800000
199.110400 60996.900000
199.122500 42325.800000
207.091700 189737.800000
208.099600 165445.500000
209.107300 748871.100000
210.102600 905845.700000
211.110500 202017.900000
224.118100 233013.700000
226.134100 8641006.200000

>ms2peaks
53.038500 29925.100000
65.038600 481090.700000
67.029000 65881.300000
67.041600 48066.800000
67.054200 197688.800000
68.049400 193489.900000
77.038600 598198.200000
79.054200 624110.200000
80.049500 224060.400000
81.069900 412319.500000
82.065100 160316.600000
83.060300 32546.000000
84.080800 86940.400000
89.038600 86995.000000
91.054200 1179806.200000
92.049500 685493.500000
92.062000 125821.900000
93.057300 3126702.100000
94.065100 210800.300000
95.049100 72493.900000
96.044400 22558.000000
104.049500 156873.300000
105.044700 188454.500000
106.065100 1086799.500000
107.060300 37849.300000
107.072900 101667.000000
108.068200 254393.800000
108.080800 1582757.100000
109.076000 98961.800000
109.088700 18288.400000
110.060000 55050.500000
115.054200 79211.400000
116.049500 335999.500000
117.044700 52982.600000
117.057300 207089.800000
117.069700 19486.400000
118.052500 1015031.100000
118.065100 263721.800000
119.060400 941910.200000
123.091600 34800.000000
124.075700 84086.400000
128.049500 44071.600000
130.040000 35083.000000
130.065100 24739.600000
131.060400 374772.900000
132.068200 554473.500000
133.076000 550812.400000
134.060000 56705.500000
140.049500 52264.400000
141.069600 20722.100000
142.065100 130436.700000
143.060300 402234.700000
143.072900 23553.600000
144.055600 59545.400000
144.080800 244400.700000
145.076000 190421.400000
148.087100 42381.800000
149.071000 24653.200000
154.065100 39588.200000
156.068100 68383.500000
157.076000 58330.500000
159.091700 180747.200000
165.069700 51012.300000
166.065100 27021.200000
167.073000 268786.500000
168.068200 130005.900000
168.080700 181180.500000
169.063600 37380.300000
169.076100 103364.500000
170.083700 50688.700000
171.091600 35621.500000
180.080400 39530.100000
181.076000 97486.600000
182.083800 136288.200000
182.096400 25407.400000
183.079100 96314.300000
183.091600 118310.700000
184.086900 216359.600000
185.107300 99695.200000
191.072900 47248.500000
192.080500 16627.000000
193.076000 261088.400000
193.088500 24858.400000
194.083800 397275.300000
195.091700 20026.800000
196.086700 32867.200000
197.094600 57499.000000
198.102600 74448.200000
199.110200 28420.200000
199.122700 16229.600000
206.083700 21856.300000
207.091600 266303.500000
208.099300 123864.000000
209.107300 217700.900000
210.102500 554898.800000
211.110500 86469.600000
224.118000 195061.400000
226.133700 1090215.900000

