>compound EA34876120
>parentmass 232.10809999999995
>ionization [M+H]+
>formula C12H13N3O2
>rt 222.000000
>profile orbitrap
#smiles_iso CC1=C(C(=O)N(N1C)C2=CC=CC=C2)NC=O
#smiles_can CC1=C(C(=O)N(N1C)C2=CC=CC=C2)NC=O
#inchikey WSJBSKRPKADYRQ-UHFFFAOYSA-N
#pubchem_id 72666
#mb_accession EA103802,EA103803,EA103804,EA103805,EA103806,EA103807,EA103808,EA103809,EA103810,EA103811,EA103812,EA103813

>ms2
104.049100 11112.800000
187.087300 16524.200000
204.113600 372873.400000
214.097000 285086.700000
232.108500 7659756.200000

>ms2
56.049400 198267.700000
77.038400 22914.300000
83.060400 410692.700000
85.076000 50048.800000
94.065200 56357.000000
104.049400 263641.900000
111.055300 21310.100000
145.076200 22911.000000
146.060300 16420.100000
159.091600 180290.600000
173.071100 60934.500000
187.086500 225836.300000
189.089900 41109.500000
204.113100 1654070.700000
214.097500 2228952.900000
232.108200 3673725.000000

>ms2
53.038500 10463.700000
56.049500 670855.400000
58.065100 16434.800000
77.038700 103238.000000
83.060500 1252937.200000
85.076100 139672.400000
94.065200 213809.300000
104.049600 1254074.700000
105.044500 15528.300000
111.055400 27124.200000
118.065300 12437.800000
145.076100 44409.100000
146.060000 84428.900000
158.060400 28143.900000
159.091700 251238.000000
169.076200 9128.000000
171.091500 17120.000000
173.070900 78289.000000
185.071400 10689.600000
186.102900 12328.000000
187.086700 244293.800000
189.089800 58210.900000
199.073900 23328.200000
204.113200 613841.900000
214.097600 971541.100000
232.108500 388202.400000

>ms2
53.038700 15247.800000
56.049500 865395.000000
58.065100 27224.800000
68.049400 18695.900000
77.038600 221983.900000
83.060500 1119823.200000
85.076100 75612.600000
94.065100 264882.200000
95.048900 16948.700000
104.049500 1427134.000000
105.044700 58621.800000
111.054800 18077.800000
118.065200 29663.400000
128.049300 10649.000000
130.065000 22951.100000
145.076100 49335.900000
146.059900 95330.800000
158.060300 21557.100000
159.091600 173413.600000
171.091200 8091.300000
173.071100 26114.300000
187.086800 55381.900000
189.089900 33877.600000
199.074000 19506.500000
204.113300 75683.200000
214.097500 112394.300000

>ms2
53.038600 47976.100000
56.049500 908478.700000
58.065000 26069.000000
68.049500 11807.300000
77.038600 443834.200000
83.060400 914205.200000
85.075900 35303.300000
94.065100 257550.100000
95.049200 57995.300000
104.049500 859028.100000
105.044700 107544.300000
118.065100 30785.500000
128.049200 29406.100000
130.065300 16495.900000
131.060300 11570.500000
132.044600 10619.900000
132.080900 11546.300000
145.075900 20859.900000
146.060200 60699.200000
158.060000 12747.000000
159.091700 55746.600000
199.073400 10058.900000

>ms2
53.038600 69443.300000
56.049500 841395.400000
58.065200 30036.300000
77.038700 529711.700000
81.045000 7350.700000
83.060500 698373.800000
85.076200 11567.600000
91.054000 8645.800000
94.065200 208323.300000
95.049300 69047.200000
104.049600 366248.300000
105.044800 163327.000000
118.065000 18838.500000
128.050000 30332.900000
130.064700 22501.400000
132.080500 22762.700000
145.076100 10423.100000
146.059600 24906.200000

>ms2
83.060200 6942.100000
159.092300 9572.400000
187.086700 14883.900000
204.113300 300819.200000
214.097700 346115.700000
232.108400 6566814.200000

>ms2
56.049400 157691.600000
77.038600 20587.800000
83.060400 335460.500000
85.076100 38807.200000
94.065100 50016.600000
104.049500 210722.000000
111.055400 16652.700000
145.075800 17659.700000
146.059900 18616.000000
159.091800 141620.700000
173.070800 57605.300000
186.102300 7931.100000
187.086600 228170.000000
189.089400 24098.800000
199.074100 7529.000000
204.113300 1403707.000000
214.097700 1922202.800000
232.108300 3255996.400000

>ms2
56.049500 548150.300000
58.065100 13945.500000
68.049400 8451.600000
77.038600 71651.400000
83.060400 1003656.800000
85.076000 97769.600000
94.065100 150761.400000
104.049500 974790.400000
105.044800 11822.200000
111.055300 36817.200000
118.065200 12037.600000
130.065100 8189.800000
145.076100 39712.800000
146.060000 72881.800000
158.060000 21159.500000
159.091700 197599.600000
169.076200 7290.200000
171.055100 7444.700000
172.063600 5585.300000
173.070900 69413.800000
176.118700 6703.000000
185.071000 7672.200000
186.102000 6879.500000
187.086600 216167.100000
189.089700 54234.900000
199.073600 18250.500000
204.113100 507172.600000
214.097500 813634.900000
232.108300 273569.000000

>ms2
53.038600 7549.300000
56.049500 664888.200000
58.065100 20679.300000
68.049500 8733.600000
77.038600 138975.900000
83.060400 907730.100000
85.076000 62677.400000
94.065200 202216.300000
95.049100 12756.000000
104.049500 1087915.100000
105.044800 32601.800000
111.055400 15995.900000
118.065100 11753.000000
128.049700 7367.500000
130.065100 15917.200000
132.044700 6216.700000
132.080400 7929.700000
145.076000 34384.900000
146.060000 62757.700000
158.060200 8514.700000
159.091700 110730.000000
169.076200 7754.000000
173.071300 17171.100000
185.070600 8984.700000
187.086700 50404.700000
189.089700 36172.300000
199.074400 15558.600000
204.113100 57089.700000
214.097500 91959.500000

>ms2
53.038600 26672.500000
56.049500 580757.000000
58.065100 20806.400000
68.049400 8665.900000
77.038600 287431.600000
81.033500 6640.200000
83.060400 669036.800000
85.076100 21317.900000
92.049400 4455.000000
94.065100 185557.200000
95.049200 31062.300000
104.049500 588501.700000
105.044700 81725.000000
118.065100 20514.200000
128.049500 17810.400000
130.065300 15302.500000
132.044500 6971.300000
132.080600 10346.600000
145.076100 20926.700000
146.060000 38895.200000
159.091800 46443.100000
172.063500 3904.100000
189.089600 12930.900000
199.073600 7119.000000

>ms2
53.038600 39935.000000
56.049500 530640.300000
58.065100 9673.600000
68.049400 6658.900000
77.038600 338559.900000
81.033500 9666.100000
81.044700 5250.800000
83.060400 461873.300000
85.076100 6050.800000
91.054200 7742.500000
92.049500 3852.500000
94.065100 126129.900000
95.049200 44999.000000
104.049500 235207.700000
105.044700 126195.600000
118.065100 10658.900000
128.049400 17141.200000
130.065000 9857.100000
131.060300 2744.300000
132.080800 11828.800000
145.076100 5935.200000
146.059900 12926.000000
159.091700 14261.200000
171.054600 3794.600000
172.063500 2971.500000

