>compound EA35340979
>parentmass 180.0689
>ionization [M+H]+
>formula C6H13NO3S
>rt 216.000000
>profile orbitrap
#smiles_iso C1CCC(CC1)NS(=O)(=O)O
#smiles_can C1CCC(CC1)NS(=O)(=O)O
#inchikey HCAJEUSONLESMK-UHFFFAOYSA-N
#pubchem_id 7533
#mb_accession EA281302,EA281303,EA281304,EA281305,EA281308,EA281309,EA281310

>ms2peaks
55.054100 5814.000000
83.085500 19980.600000
107.070100 3014.700000

>ms2peaks
55.054100 9097.100000
83.085600 42871.600000
89.059500 2684.600000

>ms2peaks
55.054100 8274.700000
83.085500 30072.500000

>ms2peaks
55.054300 8323.200000
83.085400 14939.600000

>ms2peaks
55.054000 1655.000000
83.085500 13374.400000
107.070200 3516.800000

>ms2peaks
55.054200 5458.100000
83.085500 21407.400000

>ms2peaks
55.054200 3847.100000
83.085500 10661.000000

