>compound EA35482904
>parentmass 136.11210000000003
>ionization [M+H]+
>formula C9H13N
>rt 210.000000
>profile orbitrap
#smiles_iso CC(CC1=CC=CC=C1)N
#smiles_can CC(CC1=CC=CC=C1)N
#inchikey KWTSXDURSIMDCE-UHFFFAOYSA-N
#pubchem_id 3007
#mb_accession EA282202,EA282203,EA282204,EA282205,EA282206,EA282207,EA282208,EA282209,EA282210,EA282211,EA282212,EA282213

>ms2peaks
91.054300 3035783.500000
119.085600 3771478.200000
136.112200 3530625.500000

>ms2peaks
91.054300 7974648.000000
119.085600 3011443.500000
136.112200 1303514.200000

>ms2peaks
65.038700 24349.500000
91.054400 10192303.400000
119.085500 1383873.100000
136.111800 192030.700000

>ms2peaks
65.038500 31506.200000
91.054300 10435078.500000
119.085400 378345.500000

>ms2peaks
65.038400 40808.000000
91.054400 10019911.100000

>ms2peaks
65.038600 73924.900000
91.054300 10099895.800000

>ms2peaks
91.054300 2717299.900000
119.085600 3398860.300000
136.112200 3297537.100000

>ms2peaks
65.038600 15601.000000
91.054300 6915945.600000
119.085600 2738876.800000
136.112200 1179096.700000

>ms2peaks
65.038600 19632.900000
91.054300 8737427.900000
119.085600 1189368.700000
136.112200 147221.800000

>ms2peaks
65.038600 30840.700000
91.054300 8697766.000000
119.085600 314280.800000
136.111600 10474.300000

>ms2peaks
65.038600 25286.800000
79.054000 9985.900000
91.054300 8169850.400000
119.085800 84497.100000

>ms2peaks
65.038600 52765.900000
79.054200 8767.600000
89.038800 11750.400000
91.054300 7599592.200000
119.086100 23157.900000

