>compound EA35069674
>parentmass 240.11499999999992
>ionization [M+H]+
>formula C13H18ClNO
>rt 348.000000
>profile orbitrap
#smiles_iso CC(C(=O)C1=CC(=CC=C1)Cl)NC(C)(C)C
#smiles_can CC(C(=O)C1=CC(=CC=C1)Cl)NC(C)(C)C
#inchikey SNPPWIUOZRMYNY-UHFFFAOYSA-N
#pubchem_id 444
#mb_accession EA280302,EA280303,EA280304,EA280305,EA280306,EA280307,EA280308,EA280309,EA280310,EA280311,EA280312,EA280313

>ms2
131.073000 71338.500000
166.041900 906886.300000
167.025800 440308.700000
184.052400 10440520.300000
240.115300 26021467.600000

>ms2
57.069800 208238.100000
131.073100 347589.700000
139.031200 221344.000000
166.041900 5786351.500000
167.025800 2521566.200000
184.052500 22986296.800000
240.114100 2940873.400000

>ms2
57.069900 487801.400000
103.054500 47288.100000
130.065300 112410.300000
131.073000 3372557.700000
139.030900 1688092.600000
166.042000 12857952.000000
167.025800 5435471.600000
184.052400 9381134.900000

>ms2
57.069900 659317.500000
103.054300 391253.200000
130.065300 398132.600000
131.073100 10671239.500000
132.057200 118600.200000
139.031100 4355840.200000
151.018400 105057.900000
166.042000 7628536.300000
167.026000 3044444.700000
184.052800 1009465.200000

>ms2
57.069900 670286.300000
103.054300 1760743.600000
104.062400 44064.100000
130.065200 1704222.200000
131.073000 12581861.000000
132.057100 154132.500000
138.994700 282223.500000
139.031000 4279886.400000
148.076100 38272.200000
151.018600 311064.500000
158.071600 61013.600000
166.041800 1882147.800000
167.025700 566267.700000

>ms2
57.069900 564906.300000
77.038700 151941.800000
103.054400 3123361.600000
104.062200 144153.400000
130.065300 5496078.700000
131.073100 9323286.700000
132.057100 148832.000000
138.994800 325144.400000
139.005000 115989.400000
139.031100 2222089.800000
151.018600 484181.600000
166.041900 226965.600000
167.025700 68187.900000

>ms2
139.030300 50131.100000
166.041900 737626.500000
167.025800 369349.200000
184.052500 8944023.100000
240.115200 21524891.700000

>ms2
57.069900 155165.500000
131.072900 237789.600000
139.030900 192293.500000
166.042000 4900963.200000
167.025900 2009341.700000
184.052500 20654697.400000
240.114900 3203620.000000

>ms2
57.069900 400034.900000
103.054200 39411.400000
130.065300 93464.400000
131.073000 2636912.000000
139.031000 1337346.800000
151.018300 23068.500000
166.042000 10758621.700000
167.025900 4756319.200000
184.052400 7613406.900000
240.114700 55805.300000

>ms2
57.069900 484567.600000
103.054200 316668.700000
130.065200 362161.700000
131.073000 8655085.400000
132.057000 93185.100000
139.031000 3635221.600000
151.018400 127960.300000
158.071700 28343.900000
166.041900 6119712.800000
167.025800 2350368.900000
184.052100 833321.100000

>ms2
57.069900 471044.300000
77.038400 26615.300000
103.054300 1280931.200000
104.062300 43288.000000
130.065200 1262921.900000
131.073100 9774811.800000
132.057000 133133.100000
138.994400 222766.700000
139.031000 3395685.900000
151.018400 207597.200000
158.071000 35334.100000
166.041900 1278839.500000
167.025800 456324.900000

>ms2
57.069900 331271.000000
77.038600 79588.100000
103.054300 2155491.800000
104.062100 76281.800000
130.065300 3558957.600000
131.073000 6388738.400000
132.057000 80633.800000
138.994600 208764.700000
139.005700 82844.000000
139.031000 1375949.900000
148.075700 10817.900000
151.018400 311773.400000
158.071300 23616.800000
166.041900 180548.800000
167.025900 47986.300000
184.052900 15388.800000

