>compound EA35713448
>parentmass 189.15979999999993
>ionization [M+H]+
>formula C9H20N2O2
>rt 144.000000
>profile orbitrap
#smiles_iso CCCOC(=O)NCCCN(C)C
#smiles_can CCCOC(=O)NCCCN(C)C
#inchikey WZZLDXDUQPOXNW-UHFFFAOYSA-N
#pubchem_id 32490
#mb_accession EA294502,EA294503,EA294504,EA294505,EA294506,EA294507,EA294508,EA294509,EA294510,EA294511,EA294512,EA294513

>ms2
102.054600 315087.700000
144.102100 732187.800000
189.159700 46891759.800000

>ms2
58.065000 68225.100000
74.023800 411693.200000
86.096000 82969.600000
102.055100 14401323.200000
129.102400 106910.500000
144.102000 9223185.800000
147.112900 314092.100000
189.159700 57092365.400000

>ms2
58.065100 409439.700000
74.023700 1828099.200000
86.096500 536095.300000
102.054900 42537451.000000
103.123200 136965.200000
129.102100 406052.200000
144.101900 7957853.200000
147.112800 491222.300000
189.159700 13768347.200000

>ms2
58.065100 1300574.400000
74.023700 3405666.100000
84.080600 58325.800000
86.096400 1057752.700000
102.054900 45073455.000000
103.123400 110416.600000
129.102200 427873.700000
144.101800 1544166.600000
147.112400 212871.400000
189.159700 1078055.900000

>ms2
58.065100 1646054.700000
74.023700 3727765.000000
84.080800 74084.800000
86.096400 977814.100000
102.054900 25242785.900000
103.123100 39544.200000
129.102400 228972.200000
144.100400 70757.100000

>ms2
58.065100 1940674.300000
74.023700 3864513.000000
84.080900 51618.900000
86.096400 757773.000000
102.055000 12714812.100000
129.102200 97837.900000

>ms2
102.055000 344657.100000
144.101900 596272.200000
189.159500 43122933.700000

>ms2
74.023700 390199.700000
86.096400 58339.500000
102.055000 11684519.800000
129.102200 116114.600000
144.102000 8177244.000000
147.112800 258792.100000
189.159700 49984416.100000

>ms2
58.065100 414263.500000
74.023700 1656908.100000
86.096400 431335.700000
102.054900 38914325.800000
103.122900 124586.400000
129.102200 327005.900000
144.101900 7162439.600000
147.112800 555574.900000
189.159800 11776988.400000

>ms2
58.065100 974299.500000
74.023700 2430548.700000
86.096400 812503.200000
102.054900 38253202.100000
103.123000 102131.800000
129.102200 318068.300000
144.101900 1329220.600000
147.112700 169156.700000
189.159300 742025.900000

>ms2
58.065100 1434887.100000
74.023700 3438097.300000
84.080600 61193.600000
86.096400 814894.900000
102.054900 22709420.900000
129.102200 220872.500000
144.100500 102209.000000
189.158800 47319.900000

>ms2
58.065100 1593605.500000
74.023700 3114480.100000
84.080800 56205.900000
86.096400 643776.600000
102.054900 9999090.600000
129.102000 67624.100000

