>compound EA36585345
>parentmass 280.15430000000003
>ionization [M+H]+
>formula C15H21NO4
>rt 558.000000
>profile orbitrap
#smiles_iso CCC1=CC=CC(=C1N(C(C)COC)C(=O)C(=O)O)C
#smiles_can CCC1=CC=CC(=C1N(C(C)COC)C(=O)C(=O)O)C
#inchikey LNOOSYCKMKZOJB-UHFFFAOYSA-N
#pubchem_id 15842092
#mb_accession EA026502,EA026503,EA026504,EA026505,EA026506,EA026507,EA026508,EA026509,EA026510,EA026511,EA026512,EA026513

>ms2peaks
73.064800 103436.000000
150.027500 14895.700000
162.091600 15937.600000
206.153800 20378.400000
208.096800 45750.400000
234.148900 249624.600000
248.128000 12370007.600000
280.154300 7714705.300000

>ms2peaks
73.064800 446516.700000
144.081100 22288.600000
146.096400 158302.900000
148.112400 53240.700000
160.076100 26856.000000
160.111600 20623.200000
162.091300 238972.100000
174.127400 45529.400000
176.143200 93876.500000
202.123200 80178.000000
204.138200 74732.300000
206.154100 73585.700000
208.096800 105221.000000
220.133800 43251.000000
234.148800 76735.700000
248.127900 17279577.800000
280.154800 123871.300000

>ms2peaks
73.064800 568069.300000
91.053900 22682.400000
93.069900 38498.400000
117.069800 21881.300000
118.064800 69746.300000
119.085600 91266.900000
120.081200 22290.900000
129.070000 27708.400000
131.073000 204437.500000
132.080700 141805.800000
133.088800 63587.500000
134.060400 53321.900000
134.096500 302787.500000
135.080200 10462.900000
136.111800 13089.900000
142.064800 10559.100000
144.080800 334584.000000
145.088600 82430.800000
146.096400 1609909.500000
147.104100 51055.500000
148.112100 1059202.100000
149.023100 18723.700000
159.103800 37027.800000
160.075700 129369.100000
160.112100 230203.900000
162.091300 443173.900000
174.091200 46622.900000
174.127700 307697.900000
175.134800 17138.600000
176.143300 965208.300000
184.112200 39011.000000
202.122500 256985.800000
204.138100 157936.000000
206.154600 23949.500000
220.133100 400887.400000
248.127900 8464993.600000

>ms2peaks
73.064800 454485.100000
91.054300 213424.800000
93.069800 131997.800000
103.053900 19411.000000
105.069900 51996.600000
106.065200 44081.800000
108.080800 38795.100000
117.057500 28636.500000
117.069800 178332.800000
118.065100 213375.300000
119.072900 100034.800000
119.085500 406842.500000
120.080800 110355.100000
129.069800 112669.300000
130.065200 69510.900000
130.077400 15772.700000
131.073000 948976.900000
132.080700 404252.300000
133.088600 330130.500000
134.060300 137266.000000
134.096400 906700.700000
135.080500 26157.300000
135.104700 18313.400000
136.075500 20915.000000
136.111800 14128.300000
142.065100 28882.300000
144.080800 699031.100000
145.088700 222633.800000
146.096400 2076819.100000
147.104100 94758.600000
148.112000 1571460.600000
150.026500 13867.600000
158.096400 40646.800000
159.104300 108816.400000
160.075500 132567.600000
160.112100 358471.600000
161.119700 39782.800000
162.091300 377780.600000
171.104200 15145.400000
174.091100 65037.400000
174.127700 182508.300000
176.143300 767657.900000
202.122500 133389.700000
204.137900 50721.800000
220.133300 190380.500000
248.127900 984331.400000

>ms2peaks
73.064800 251824.000000
77.038700 15865.000000
79.054200 41820.500000
91.054200 583511.200000
92.061700 11506.000000
93.057700 11915.200000
93.069800 152154.800000
103.054400 76046.800000
104.062200 62701.100000
105.069900 109856.300000
106.065200 88257.200000
107.073100 31357.000000
107.085600 23809.200000
108.080600 63337.700000
115.054300 89257.100000
117.057400 71638.500000
117.069900 403240.300000
118.065100 340863.500000
119.073000 280355.700000
119.085500 405913.300000
120.080600 143733.700000
128.062000 22735.400000
129.069900 115734.800000
130.065200 246202.000000
130.077400 14008.600000
131.072900 1411187.500000
132.080700 586049.800000
133.088600 493433.800000
134.060300 80072.100000
134.096400 673737.700000
135.080500 20416.800000
136.075300 16737.100000
142.065100 54155.000000
144.080800 813024.400000
145.088700 252987.900000
146.096400 1150685.500000
147.091600 18593.200000
147.104500 44835.600000
148.112000 701014.900000
155.060800 14932.800000
158.096500 36865.000000
159.104500 65536.500000
160.075500 53866.400000
160.112000 313643.700000
161.120600 26768.100000
162.091400 110325.000000
174.092000 25578.800000
174.127200 35707.300000
176.143300 174607.500000
202.122800 28087.300000
248.128300 50974.300000

>ms2peaks
73.064800 106114.300000
77.038600 64752.000000
79.054200 56434.400000
91.054200 904217.600000
93.057500 22374.300000
93.069800 137054.400000
103.054300 149523.000000
104.062000 121777.200000
105.044400 24827.400000
105.070000 122546.400000
106.065200 113836.000000
107.072900 28491.000000
107.085200 21595.100000
108.080700 41607.700000
109.064400 12510.300000
115.054200 183482.500000
116.050000 14596.200000
116.061800 19896.900000
117.057400 126818.800000
117.069900 381587.000000
118.065100 402312.500000
119.060500 35401.600000
119.073000 382181.700000
119.085500 252147.400000
120.080800 127919.400000
128.062200 54453.500000
129.069900 82230.000000
130.065200 527375.900000
131.073000 1229787.000000
132.080700 609579.300000
133.088500 304133.900000
134.060500 49134.600000
134.096500 334292.800000
142.065000 51525.700000
143.073100 21212.200000
144.080800 749683.000000
145.088700 202264.900000
146.096500 559479.200000
147.067800 13764.900000
148.112100 228244.600000
155.060400 22192.400000
156.080600 9354.000000
158.096500 49701.100000
159.104700 22545.800000
160.075400 10727.700000
160.112100 156278.700000
162.091200 25697.800000
176.142700 23125.700000

>ms2peaks
73.064700 80069.700000
149.023100 22920.800000
150.026600 16079.400000
162.091300 16210.200000
206.154300 13670.100000
208.096800 48558.900000
234.148700 204349.900000
248.128000 11580202.300000
280.154300 7031938.000000

>ms2peaks
73.064800 389963.500000
144.080600 17544.400000
146.096400 125970.300000
148.112100 45594.700000
149.023200 17947.700000
162.091300 180649.900000
174.127700 41641.100000
176.143100 77145.500000
202.122400 79969.500000
204.138400 64752.900000
206.153900 44122.100000
208.096800 84309.600000
208.169600 16745.100000
220.133300 42853.300000
234.148700 81366.800000
248.127900 15952545.000000
280.154100 116365.300000

>ms2peaks
73.064800 465693.200000
91.054100 11721.800000
93.069900 19081.100000
117.069700 15064.100000
118.065200 52240.400000
119.085400 72631.800000
120.080400 15381.400000
129.070100 13077.100000
131.072900 154125.800000
132.080800 113217.500000
133.088500 46941.900000
134.060000 52817.800000
134.096400 258240.600000
135.080600 10670.500000
144.080800 284282.900000
145.088600 68539.000000
146.096400 1464070.700000
147.104100 29447.800000
148.112000 917414.100000
149.023000 19629.900000
150.026800 14205.500000
158.096500 10466.000000
159.104300 25808.200000
160.075600 92165.200000
160.112100 177357.000000
162.091300 359530.000000
163.076100 10842.300000
171.104500 7736.800000
174.091100 55629.200000
174.127600 240474.400000
175.135000 11649.200000
176.143300 816737.500000
184.112000 25479.700000
202.122600 203895.300000
204.138200 151260.000000
206.154300 22416.700000
208.097500 10076.500000
220.133200 302713.800000
248.127900 7205612.500000

>ms2peaks
73.064800 371038.100000
91.054200 148875.600000
93.069800 100831.000000
103.054200 14495.000000
105.069800 32454.900000
106.065200 32308.600000
107.072900 9753.700000
107.085600 12925.300000
108.080800 26247.800000
117.057400 14394.200000
117.069900 129983.300000
118.065100 161839.300000
119.072900 73655.000000
119.085500 309462.800000
120.080700 71556.800000
129.069900 79738.900000
130.065000 49077.400000
130.077600 11152.100000
131.072900 789948.600000
132.080800 330114.100000
133.088500 268977.000000
134.060000 101330.300000
134.096400 695306.000000
135.080600 27209.100000
135.104500 12913.900000
136.075600 13182.200000
142.065100 19947.200000
144.080800 559623.800000
145.088600 195040.900000
146.096400 1639371.800000
147.091400 16149.700000
147.104100 80746.700000
148.112000 1202120.100000
149.022600 8782.600000
150.026800 11508.700000
158.096500 30044.100000
159.104300 64527.000000
160.075600 100185.400000
160.112000 270262.000000
161.120200 21045.300000
162.091300 271522.900000
163.075700 9425.100000
172.112800 10930.300000
174.091200 40847.400000
174.127600 133660.100000
176.143300 637434.300000
184.112100 19458.100000
187.099400 11249.100000
202.122600 122494.100000
204.138000 50181.100000
220.133100 137331.000000
248.128000 824567.000000

>ms2peaks
73.064700 189193.100000
77.038600 12677.900000
79.054100 22293.300000
91.054200 412378.800000
93.069800 103579.700000
103.054200 62886.800000
104.062100 42848.100000
105.069800 77453.700000
106.065100 81216.300000
107.072900 23028.000000
107.085400 20298.800000
108.080700 47695.800000
109.064500 11674.400000
115.054300 58676.700000
116.062400 14990.300000
117.057300 63888.900000
117.069900 288309.000000
118.065100 243330.200000
119.072900 193450.000000
119.085500 303319.700000
120.080800 97860.400000
128.061900 15665.300000
129.069900 75266.900000
130.065100 163408.700000
130.077600 15472.200000
131.072900 1163967.900000
132.080700 478291.700000
133.088500 390564.700000
134.059900 69603.400000
134.096400 601569.100000
135.080700 16340.700000
135.104300 8851.300000
136.075600 18884.000000
142.065100 45231.800000
144.080700 683083.400000
145.088500 198364.500000
146.096400 946403.400000
147.067500 11416.500000
147.091500 14929.700000
147.104100 31794.600000
148.112000 608892.100000
158.096500 33421.900000
159.104000 48191.800000
160.075500 34791.700000
160.112100 227242.600000
161.119800 18363.100000
162.091300 96283.000000
172.112300 6446.400000
174.091300 20820.800000
174.127600 32905.400000
176.143300 141482.400000
184.111400 8126.300000
187.099200 11321.200000
202.122500 28026.600000
220.133200 14588.600000
248.128300 32451.300000

>ms2peaks
73.064800 88407.500000
77.038600 43518.000000
79.054100 46609.100000
91.054100 649245.900000
92.062100 13437.100000
93.057200 13215.300000
93.069800 86258.100000
103.054200 114143.700000
104.062000 89645.900000
105.044700 28255.200000
105.069800 91643.200000
106.065100 84224.900000
107.073000 27260.700000
107.085600 17972.500000
108.080600 35947.600000
109.064800 7709.600000
115.054200 137007.700000
116.049700 7845.200000
116.061900 19863.300000
117.057300 91732.100000
117.069800 272026.800000
118.065100 263576.600000
119.060200 25451.600000
119.072900 302855.800000
119.085400 165547.500000
120.080600 88379.800000
128.062000 33628.200000
129.069800 49059.700000
130.065100 407383.700000
131.072900 956521.900000
132.080700 477516.000000
133.088500 237245.900000
134.060000 26869.100000
134.096300 221955.100000
136.075400 6724.000000
142.065100 38155.900000
143.073200 17400.600000
144.080700 555463.800000
145.088500 155614.000000
146.096300 374459.600000
147.068000 8995.900000
147.091800 4858.700000
147.103900 9107.500000
148.111900 158374.600000
155.060200 13964.600000
156.081000 7502.300000
158.096400 36940.400000
159.103700 11395.700000
160.075200 12096.800000
160.111900 105152.800000
161.119600 5874.300000
162.091200 11858.500000
174.128000 5569.700000
176.143200 11988.000000

