>compound EA37280107
>parentmass 315.14850000000007
>ionization [M+H]+
>formula C13H22N4O3S
>rt 114.000000
>profile orbitrap
#smiles_iso CN/C(=C\[N+](=O)[O-])/NCCSCC1=CC=C(O1)CN(C)C
#smiles_can CNC(=C[N+](=O)[O-])NCCSCC1=CC=C(O1)CN(C)C
#inchikey VMXUWOKSQNHOCA-UKTHLTGXSA-N
#pubchem_id 3001055
#mb_accession EA019602,EA019603,EA019604,EA019605,EA019606,EA019607,EA019608,EA019609,EA019610,EA019611,EA019612,EA019613

>ms2peaks
98.083500 8669.100000
124.075400 51395.600000
130.055600 17997.000000
144.076600 17998.000000
170.063600 7945.000000
176.048400 96939.700000
215.120700 5104.300000
224.097200 15564.700000
270.090400 79429.800000
315.148600 2559633.200000

>ms2peaks
81.033500 16152.200000
83.060600 5316.900000
88.021500 39290.300000
95.049000 22163.100000
97.075900 20977.000000
98.083800 167858.400000
102.037100 73054.700000
110.096500 18833.000000
113.070800 4235.200000
114.078700 20120.100000
118.032100 7601.100000
124.075600 232462.700000
125.005500 130320.400000
130.055900 295025.100000
138.091100 35030.300000
144.076700 165615.800000
145.043300 9970.700000
147.022100 7797.100000
153.036900 29392.200000
164.094100 15783.600000
165.102000 51462.100000
167.063900 18526.400000
170.063400 63088.200000
176.048800 1086652.600000
177.102400 9619.000000
178.110300 10558.300000
181.079400 29764.500000
191.117800 81141.800000
193.055500 29640.400000
195.071400 10757.400000
215.121500 9053.500000
224.097700 210891.800000
270.090400 113229.300000
315.149100 202728.000000

>ms2peaks
71.060300 4895.100000
81.033500 69642.800000
83.060100 16226.800000
84.068300 14528.600000
88.021300 16288.800000
95.049000 24177.800000
97.076000 78104.400000
98.083800 174192.700000
102.037200 386773.900000
110.059900 7247.400000
110.096500 35070.800000
114.079100 7113.000000
115.033000 8777.900000
117.048300 11154.800000
118.032000 18365.300000
124.075700 50363.000000
125.005500 390911.100000
129.047900 18183.100000
130.055800 279100.000000
135.026200 5643.200000
135.091800 19739.700000
138.091400 29617.700000
144.076800 25641.500000
145.043500 9720.100000
148.075400 31025.200000
149.070700 7749.200000
153.037000 31027.500000
154.056300 5630.200000
164.094200 22291.300000
165.102200 66482.500000
167.063700 27845.800000
170.063200 37768.700000
176.048700 444278.000000
177.102100 41282.900000
178.032000 5312.700000
178.110500 18880.100000
181.079400 55867.700000
191.117800 120832.700000
192.048100 16890.700000
193.055300 36579.800000
194.063600 4443.900000
209.074200 4258.700000
223.089900 6170.200000
224.097700 60269.800000

>ms2peaks
55.041500 6329.200000
56.049600 9071.200000
61.010700 6416.900000
71.060100 7702.500000
81.033500 112068.500000
83.060400 16180.400000
84.068300 16155.700000
88.021900 7823.300000
94.065200 5766.500000
95.049000 21421.200000
97.076000 122509.700000
98.083800 152325.300000
101.029100 8047.500000
102.037200 549138.900000
107.049200 32683.000000
108.080700 7235.100000
110.059900 10383.400000
110.096500 47378.100000
117.048400 13616.600000
118.032300 6374.500000
121.075900 24990.100000
124.075700 28995.200000
125.005600 438406.100000
129.048100 16876.500000
130.055800 189880.300000
132.044300 7022.900000
133.052200 11841.400000
135.026700 8755.100000
135.091600 47965.100000
138.091300 10042.100000
147.068200 9385.900000
148.075600 79269.300000
149.070800 20478.500000
151.021400 9382.600000
163.086700 31115.700000
164.094300 26505.300000
165.102100 59212.000000
167.064100 16573.900000
176.048700 49524.100000
177.102200 70828.700000
178.032100 18328.400000
178.110100 5499.600000
181.079700 34063.600000
191.118000 59392.700000
192.047400 19002.000000
193.055200 11503.800000
223.088500 9355.700000
224.097200 4236.100000

>ms2peaks
55.041600 10736.700000
56.049300 12807.500000
57.044700 4563.900000
58.065100 6575.400000
60.003000 3862.300000
61.010600 12578.900000
68.049400 7288.900000
71.060500 4840.000000
79.054400 5313.000000
81.033500 193943.900000
82.064900 8722.000000
83.060400 18227.100000
84.068100 11831.500000
88.021500 8351.300000
91.053900 6062.300000
94.041300 4680.100000
94.065300 12755.500000
95.049200 19028.700000
95.072700 4491.000000
97.076000 164266.200000
98.083800 75170.000000
101.029200 6569.200000
102.037200 432363.100000
106.065300 6502.600000
107.049100 61730.200000
108.057300 4668.600000
108.080800 8613.900000
109.076100 4276.800000
110.059800 12531.600000
110.096400 39441.600000
115.032200 4626.400000
117.048200 17391.400000
118.065100 8027.200000
120.081200 5212.300000
121.076000 48594.300000
122.060100 6082.900000
124.075600 12156.600000
125.005500 309061.700000
129.048200 19160.500000
130.055800 78859.200000
133.052100 23115.100000
134.059200 5262.300000
135.026200 8621.800000
135.091700 56567.900000
136.075700 4278.100000
147.068200 9225.400000
147.091000 6438.200000
148.075600 93256.500000
149.070700 20960.100000
151.021500 10229.100000
159.045300 6587.500000
163.086400 26595.100000
165.102300 18341.600000
167.063000 9684.600000
177.102100 41853.000000
178.032200 15737.300000
181.080000 9327.000000
191.117800 13094.900000
192.047500 12056.500000
252.082300 2680.700000

>ms2peaks
55.041600 15170.000000
56.049400 16061.500000
57.044800 8095.600000
58.065100 5749.400000
61.010600 30704.000000
68.049400 11129.500000
78.046400 3819.400000
79.054300 9502.900000
80.049200 5585.400000
81.033400 273309.800000
82.064900 9154.400000
83.060300 19420.200000
88.021300 7984.600000
91.053900 11552.700000
94.041100 6152.800000
94.065100 25065.200000
95.049100 13412.200000
95.072700 4589.600000
96.068400 4599.900000
97.010800 14067.300000
97.075900 176283.800000
98.083800 29585.300000
101.029400 4884.400000
102.037100 335445.600000
106.065400 5170.200000
107.049100 84089.100000
108.057000 5417.700000
108.080800 6485.300000
109.075800 4920.000000
110.059700 5967.600000
110.096100 19454.600000
115.032400 8275.900000
117.047700 13063.700000
118.064900 17583.500000
120.080700 7529.100000
121.075800 41581.700000
122.059800 5729.000000
125.005500 128587.700000
129.048100 18060.500000
130.055800 30215.800000
132.044300 45639.400000
133.052100 33937.700000
134.059600 9431.600000
135.091500 46338.100000
147.092000 4266.800000
148.075500 56391.800000
150.037300 9165.500000
151.020500 6441.700000
163.086300 19122.900000
167.063900 5232.500000
177.101900 12708.900000
178.031700 14077.200000

>ms2peaks
88.021400 3868.000000
98.083800 9157.500000
124.075600 56958.500000
125.004400 4291.500000
130.055500 14493.600000
144.076600 15485.100000
170.063200 5926.900000
176.048600 90763.500000
188.049200 2721.900000
215.121200 6812.600000
224.097600 12459.400000
241.100600 4205.000000
270.090400 67709.000000
315.148600 2098610.400000

>ms2peaks
81.033500 16393.600000
83.060300 5612.200000
88.021500 35174.800000
95.049100 15674.100000
97.076000 13935.400000
98.083800 151003.200000
101.029300 4601.500000
102.037200 57432.200000
110.059800 3871.500000
110.096300 14227.400000
113.070800 6585.300000
114.078700 11255.200000
117.048200 10703.900000
118.032000 9215.400000
124.075700 199660.300000
125.005500 111101.100000
130.055900 229830.300000
135.091600 5788.500000
138.091300 30084.100000
144.076700 142971.400000
145.043400 7119.300000
147.022300 5108.200000
153.036800 23171.800000
154.055900 3524.900000
164.094300 10079.300000
165.102100 42454.400000
167.063800 15380.000000
170.063400 49526.300000
176.048800 903644.200000
177.102300 4400.700000
178.110200 7675.400000
181.079400 20950.000000
188.048800 2605.800000
191.117800 59786.700000
193.055600 30781.700000
195.071400 7242.300000
196.042600 5506.600000
215.121200 6293.200000
224.097700 170426.700000
270.090600 86566.300000
315.148400 143409.100000

>ms2peaks
55.041600 4002.600000
56.049500 3867.000000
60.998100 2978.700000
71.060300 5307.700000
81.033500 66801.700000
83.060300 14769.900000
84.068200 12220.400000
88.021500 16629.800000
95.049100 22306.500000
97.076000 65883.900000
98.083800 166889.200000
101.029500 6330.600000
102.037200 329343.100000
107.048900 7540.400000
110.059900 5736.600000
110.096400 36494.200000
114.078500 7300.500000
115.032300 5551.700000
117.048100 8478.200000
118.032000 11608.000000
121.076000 5669.500000
124.075600 43132.200000
125.005600 315246.500000
129.048000 14947.800000
130.055900 223579.000000
135.026200 4332.200000
135.091700 12806.200000
138.091300 19484.200000
144.076500 18056.500000
145.042900 10531.000000
148.075600 29316.300000
149.070900 4726.300000
153.036800 21214.900000
163.086400 10185.300000
164.094300 17857.500000
165.102100 68422.700000
167.063700 29190.900000
170.063400 35047.900000
176.048800 390802.400000
177.102100 32098.200000
178.032000 4907.900000
178.110000 13533.900000
181.079300 49125.600000
191.117800 97156.300000
192.047700 16035.700000
193.055400 36112.300000
194.063900 3166.000000
223.090300 5113.200000
224.097700 46955.000000

>ms2peaks
55.041600 8265.700000
56.049400 5944.000000
61.010500 4297.600000
71.060300 3810.900000
81.033500 94363.000000
83.060400 12123.900000
84.068200 15376.800000
88.021400 7523.000000
95.049100 20318.900000
97.076000 101860.300000
98.083800 104990.800000
101.016800 2679.600000
101.029300 7540.400000
102.037200 422049.500000
107.049100 23957.400000
108.057200 2836.600000
108.080700 3757.600000
110.060100 7292.300000
110.096400 41471.600000
115.032400 3491.300000
117.048100 11307.700000
118.032100 5972.200000
121.076000 17251.300000
124.075700 25645.400000
125.005600 353627.600000
129.048200 16890.700000
130.055800 134397.600000
131.063600 5056.800000
132.044200 5868.300000
133.051900 10008.400000
134.084000 3500.500000
135.025800 4079.100000
135.091600 40784.500000
138.091100 5967.400000
145.042700 4911.200000
147.068000 6182.300000
147.091500 3008.400000
148.075600 61792.300000
149.071000 18108.700000
151.021200 6798.700000
153.036600 7063.500000
159.045900 4570.600000
160.075500 2719.900000
163.086500 24316.000000
164.094200 13639.300000
165.102200 49593.600000
167.063800 14083.700000
170.063400 6147.000000
176.048700 48132.600000
177.102100 51264.900000
178.032200 14948.300000
178.110300 4379.300000
181.079300 27879.400000
191.117800 49911.900000
192.047600 14843.800000
193.055900 6365.500000
194.062800 5717.200000
209.074000 4042.500000
223.090000 7472.700000
224.098700 3947.600000

>ms2peaks
54.033600 2322.400000
55.041600 10244.000000
56.049500 8996.300000
57.044700 3617.200000
58.065000 5392.200000
60.002900 3007.000000
60.998100 2291.800000
61.010600 12958.500000
68.049500 4361.900000
71.060400 3607.100000
79.054200 4602.600000
80.049500 2967.300000
81.033500 154056.400000
82.065100 4775.100000
83.060300 12963.300000
84.068200 4463.900000
88.021500 5874.000000
91.054200 5001.000000
94.041200 3128.100000
94.065200 6966.100000
95.049100 15424.100000
95.072900 6423.800000
97.076000 129617.900000
98.083800 65879.500000
101.029400 3443.100000
102.037200 339062.400000
106.064800 2854.000000
107.049100 40676.200000
108.056800 4764.300000
108.080700 8419.800000
109.028300 2591.000000
109.076200 2268.100000
110.060100 10070.100000
110.096400 24608.000000
115.032300 4808.400000
117.048100 13256.900000
118.064900 7751.500000
120.080800 6474.100000
121.076000 29827.700000
123.026400 2270.200000
124.075700 6969.800000
125.005600 240637.100000
129.048000 10656.800000
130.055900 53272.400000
131.064000 3110.100000
132.044400 21840.600000
133.052200 20569.000000
133.075900 2840.100000
134.060200 5063.700000
134.084300 2381.800000
135.026300 4995.100000
135.091600 44845.800000
136.075700 3037.600000
137.107200 2406.900000
147.067800 11119.800000
147.091900 5394.800000
148.075600 66548.200000
149.070900 18154.900000
149.107500 2543.300000
150.037500 2416.900000
150.092100 2147.500000
151.021100 7225.300000
159.045900 5662.400000
163.086500 23507.600000
165.102300 16969.600000
167.063700 9713.600000
176.049500 7404.600000
177.102200 34570.100000
178.032000 14218.200000
181.079300 4937.500000
191.117900 8821.400000
192.047700 8273.000000
209.074500 3481.900000
223.089800 2696.800000

>ms2peaks
54.033700 1623.200000
55.041600 5977.600000
56.049400 15908.400000
57.044600 1946.700000
58.065000 4521.900000
60.002800 2193.000000
60.998000 1855.200000
61.010600 16571.400000
68.049400 6162.400000
71.060400 2268.000000
78.046300 1946.200000
79.054200 6750.300000
80.049400 5006.600000
81.033500 201430.300000
82.065100 5269.600000
83.060300 15691.300000
84.068100 1718.500000
88.021500 5467.500000
91.054200 7458.900000
94.041200 3524.500000
94.065100 16119.400000
95.049000 11088.300000
95.072800 4374.800000
96.068300 2591.100000
97.010600 7041.300000
97.076000 129741.900000
98.083800 22031.500000
101.016900 1848.000000
101.029300 1987.500000
102.037200 226823.800000
106.065100 5933.400000
107.049100 49830.100000
108.056900 4295.800000
108.080700 7691.100000
109.028300 1706.300000
109.075800 1632.400000
110.060000 4886.200000
110.096400 12759.400000
115.032400 5513.300000
117.048000 7791.300000
118.032100 1568.700000
118.065000 12891.800000
120.080600 6675.100000
121.075900 30763.700000
122.059800 4006.000000
123.026200 5015.900000
124.075500 1974.600000
125.005500 102734.700000
129.048000 12196.200000
130.055800 24933.500000
131.063700 3122.800000
132.044300 33643.400000
133.052100 27005.400000
133.075900 3603.500000
134.060000 3715.000000
134.083600 1486.000000
135.026100 2361.400000
135.091600 34965.100000
136.075700 4432.900000
137.107200 1843.000000
147.067800 2168.400000
147.091400 4796.000000
148.075600 35710.800000
149.070900 7194.400000
149.107400 2151.900000
150.037100 4733.900000
150.091200 1264.100000
151.021100 7495.800000
160.075600 3408.100000
163.086500 11586.600000
165.102000 2355.800000
167.063600 4076.800000
176.050200 2038.000000
177.102100 12856.400000
178.032000 6100.700000
181.078900 1466.800000
192.047600 4111.000000

