>compound EA37639346
>parentmass 278.21149999999994
>ionization [M+H]+
>formula C17H27NO2
>rt 372.000000
>profile orbitrap
#smiles_iso CN(C)CC(C1=CC=C(C=C1)OC)C2(CCCCC2)O
#smiles_can CN(C)CC(C1=CC=C(C=C1)OC)C2(CCCCC2)O
#inchikey PNVNVHUZROJLTJ-UHFFFAOYSA-N
#pubchem_id 5656
#mb_accession EA064502,EA064503,EA064504,EA064505,EA064506,EA064507,EA064508,EA064509,EA064510,EA064511,EA064512,EA064513

>ms2
58.065100 930525.300000
121.064400 108804.700000
260.201600 3991938.600000
278.211800 19583099.800000

>ms2
58.065200 5339473.600000
121.064900 663124.500000
135.079800 32095.500000
147.080900 152518.200000
152.143900 48406.400000
173.096500 37354.300000
215.143200 1393187.000000
260.201200 4806787.700000
278.212000 3616641.700000

>ms2
58.065200 5495058.000000
79.054300 52059.900000
91.054500 64260.600000
107.085700 85334.900000
121.065000 1832992.700000
135.080700 82910.800000
147.080600 949809.000000
152.143200 45518.600000
159.080500 241829.200000
173.096200 381536.700000
178.122400 47513.200000
215.143200 1135328.500000
260.200200 384957.000000

>ms2
58.065200 4440344.700000
79.054300 128230.600000
81.070100 150426.000000
91.054500 147685.100000
93.070100 60117.600000
107.085800 93308.500000
121.065000 2446474.200000
132.057500 91879.200000
135.080600 145584.100000
147.080700 1244587.500000
159.080700 293022.900000
161.095700 33265.200000
173.096300 434558.400000
177.114800 75521.800000
178.122700 38041.600000
183.117500 34719.700000
215.143400 177607.600000

>ms2
58.065200 3858862.000000
67.054400 23759.100000
69.069900 37338.800000
77.038600 37758.500000
79.054400 126294.200000
81.070100 183961.800000
91.054300 408492.000000
93.069600 55577.700000
105.070000 50384.500000
107.085500 33997.700000
117.069600 41946.700000
119.085200 40837.200000
121.064900 2571843.900000
132.056900 94195.500000
135.080500 132714.600000
144.056900 39886.200000
147.080500 864485.900000
158.072900 111947.400000
159.080400 209053.600000
161.096400 29084.300000
162.091700 51245.900000
173.096300 243254.300000
177.114800 29920.200000

>ms2
58.065200 3396907.200000
77.038700 83516.200000
78.046500 41311.700000
79.054300 160151.700000
81.070000 192274.000000
91.054400 779513.900000
93.070300 34474.800000
105.070300 52539.300000
106.041400 27439.300000
107.049400 72591.000000
115.054300 119356.900000
117.069900 69041.300000
119.085900 42058.700000
121.065000 2310633.000000
128.062000 37567.700000
129.070500 31607.900000
132.057100 130845.300000
135.080400 69450.200000
141.070300 34696.600000
144.057500 68897.800000
146.072500 22527.400000
147.080700 300289.800000
158.072800 106724.600000
159.080700 107108.700000
162.091600 97729.000000
173.096000 100148.400000

>ms2
58.065100 650141.100000
215.143400 45191.600000
260.201100 2644757.900000
278.212000 15369148.900000

>ms2
58.065200 4038587.900000
91.054200 13989.000000
121.064900 446185.500000
147.080600 122566.400000
152.143800 24610.400000
159.080500 22757.900000
173.096300 28249.500000
215.143300 1099962.000000
260.201200 3825592.500000
278.212100 2797795.600000

>ms2
58.065200 4085181.300000
79.054300 51141.500000
81.070000 42364.500000
91.054400 45357.400000
93.070000 34826.500000
107.085600 59481.300000
121.064900 1394247.400000
132.057000 46919.700000
135.080500 83454.000000
147.080600 775075.800000
152.143300 36785.400000
159.080500 178586.400000
161.096500 17431.300000
173.096100 232052.000000
177.115000 19657.900000
178.122800 41888.500000
183.116800 27660.200000
215.143200 819020.100000
260.200700 239859.500000

>ms2
58.065200 3218007.100000
69.069800 25271.700000
77.038400 12716.600000
79.054200 87655.300000
81.069900 96428.900000
91.054300 126579.100000
93.070000 55124.300000
107.049200 16628.500000
107.085600 62868.300000
119.060700 14294.700000
121.064900 1760506.700000
132.057300 52760.000000
135.080600 124220.800000
144.057000 16129.000000
145.064500 18386.900000
147.080600 869595.800000
152.143800 36505.400000
158.072500 30954.500000
159.080500 208769.100000
161.096400 32005.000000
163.099000 37824.000000
173.096300 317896.900000
177.114900 39319.700000
178.122700 27073.200000
215.143400 129763.500000
278.210800 12215.000000

>ms2
58.065200 2741155.800000
67.054500 14706.500000
69.069900 20381.900000
77.038700 30256.500000
79.054300 105152.300000
81.069900 112266.800000
91.054300 279910.900000
93.070000 41294.200000
105.069900 24449.600000
106.041600 16974.700000
107.049300 27394.800000
107.085600 34102.100000
115.054300 18656.600000
117.070100 27463.500000
119.060200 20401.800000
119.085700 14934.200000
121.064900 1747337.800000
132.057000 72280.600000
135.080500 89195.600000
141.069600 25223.800000
144.057300 41210.700000
145.064800 17397.900000
147.080600 558025.800000
155.060800 13871.800000
158.072700 70972.400000
159.080600 96980.700000
161.096300 19916.500000
162.091500 42054.500000
163.099000 29297.100000
173.096300 142343.100000
177.114700 26677.100000

>ms2
58.065200 2199794.000000
67.054300 10473.800000
69.069900 12413.800000
77.038600 33851.100000
78.046400 17282.200000
79.054300 119120.800000
81.069900 86234.200000
91.054300 487173.300000
93.070000 29447.300000
105.069900 37154.100000
106.041500 10727.300000
107.049100 32684.800000
107.085600 12105.000000
115.054300 55324.900000
117.070000 45317.800000
119.060500 15171.100000
119.085600 25192.400000
121.064900 1498749.900000
128.062100 21217.500000
129.069900 18420.800000
132.057100 82500.500000
135.080600 47196.500000
141.069800 22705.500000
144.057100 32608.700000
145.065000 20052.400000
146.072600 13293.500000
147.080500 171160.700000
155.060600 17910.900000
158.072700 92568.500000
159.080500 58617.100000
162.091400 35714.500000
163.099200 20103.800000
173.096000 48668.300000

