>compound EA37559451
>parentmass 322.07769999999994
>ionization [M+H]+
>formula C12H19NO5S2
>rt 402.000000
>profile orbitrap
#smiles_iso CC1=CSC(=C1N(C(C)COC)C(=O)CS(=O)(=O)O)C
#smiles_can CC1=CSC(=C1N(C(C)COC)C(=O)CS(=O)(=O)O)C
#inchikey YMYKMSAZEZQEER-UHFFFAOYSA-N
#pubchem_id 6426850
#mb_accession EA026002,EA026003,EA026004,EA026005,EA026006,EA026007,EA026008,EA026009,EA026010,EA026011,EA026012,EA026013

>ms2peaks
73.064600 7601.600000
290.051800 7180890.500000
322.078200 4917893.500000

>ms2peaks
73.064900 51604.700000
150.049700 15590.500000
152.052500 12284.900000
166.068600 117735.800000
167.076500 35669.900000
168.084200 187963.300000
170.063700 16823.600000
209.087000 122074.500000
210.095000 1578575.200000
226.089900 22881.500000
250.020500 35984.500000
290.051400 9642108.600000
322.079300 101221.600000

>ms2peaks
73.064900 110828.400000
82.065200 47428.200000
93.069400 3380.000000
111.026400 91829.400000
112.034200 52518.900000
113.029900 5757.000000
113.042100 8628.500000
125.042100 71162.900000
126.037400 59707.700000
127.021300 14785.800000
127.044900 24470.700000
127.057500 9903.500000
128.052900 66221.600000
129.036800 4723.100000
134.096600 71161.200000
135.026500 13459.500000
135.104500 12876.100000
136.112400 11639.200000
137.042500 4332.200000
138.037300 56954.600000
139.057000 5612.500000
140.053300 9051.200000
149.041900 11351.800000
150.037000 23701.800000
150.049900 205890.300000
151.045100 28980.900000
151.057700 31679.200000
152.053000 391666.900000
153.036800 5053.300000
153.060700 7548.500000
155.040100 8364.400000
162.091600 13185.900000
163.099100 10788.400000
164.107100 19497.800000
165.072700 4634.700000
166.068700 1360879.500000
167.076500 615576.300000
168.047900 137006.900000
168.084300 990538.600000
169.056300 13993.000000
170.063800 30490.500000
176.107100 84519.500000
192.084200 12568.500000
194.063600 98484.400000
195.956500 7126.100000
206.064000 6398.300000
208.079600 16258.100000
209.087100 375149.700000
210.095100 3133768.200000
224.074200 7640.900000
226.089600 84438.500000
250.020000 9118.200000
272.041400 20917.700000
290.051800 2312455.700000

>ms2peaks
73.064900 120915.900000
82.065200 66581.500000
83.049300 7355.000000
91.054000 6901.600000
93.069900 8837.000000
94.065400 11291.000000
95.073000 25667.900000
97.010400 10268.900000
99.026300 11190.800000
107.085000 4386.200000
108.080800 20686.900000
111.026400 304757.200000
112.034200 115800.500000
113.029300 28388.300000
113.041900 39596.500000
114.037300 20971.200000
117.070000 9661.600000
118.065400 5303.700000
119.073100 21755.100000
120.080700 19540.800000
122.096600 15476.600000
124.034200 16359.500000
125.029500 33556.600000
125.042000 163239.600000
126.037300 289643.100000
126.049900 15955.900000
127.021300 51851.300000
127.045100 79169.600000
127.057600 17840.600000
128.053000 137773.600000
129.036500 5095.800000
132.080500 10163.200000
133.088600 33879.500000
134.096500 371076.600000
135.026200 60850.900000
135.104400 59527.200000
136.034100 4129.000000
136.112000 18527.700000
137.028900 12601.900000
137.041800 8054.300000
138.037300 267075.400000
139.045100 19421.200000
139.057600 12765.500000
140.053000 31123.900000
148.112300 10168.200000
149.042000 63677.700000
150.037100 84204.200000
150.049900 229934.500000
151.045000 51390.700000
151.057600 67295.700000
152.016800 108722.800000
152.053000 1194728.200000
153.036800 8037.500000
153.060800 36928.300000
154.032300 7691.700000
154.068500 18084.300000
155.040600 4912.800000
162.091400 22952.800000
163.099600 14055.400000
164.051500 5037.700000
164.107200 18408.400000
166.068700 1618949.400000
167.039800 51550.700000
167.076400 619923.500000
168.047800 196507.100000
168.084200 887776.000000
169.055700 24107.500000
170.063800 8913.200000
176.107100 110235.800000
177.115500 6054.700000
180.048100 7783.700000
192.083200 8652.600000
194.063500 182560.800000
206.064500 7842.000000
208.079400 21267.300000
209.087000 67814.900000
210.094900 737957.700000
224.073800 9524.400000
226.089700 27581.400000
290.052000 120340.400000

>ms2peaks
58.994900 11718.200000
65.038600 4002.700000
67.054100 7353.700000
73.064800 75313.400000
77.038600 7070.700000
79.054300 17606.900000
80.049400 3944.300000
81.057100 3824.000000
82.065100 24066.900000
83.049200 12386.500000
85.010500 8858.100000
91.054300 21992.900000
93.070000 20173.800000
94.065200 35987.100000
95.073000 63487.600000
97.010800 31469.700000
98.018700 3724.000000
99.026400 27297.200000
105.057400 5609.900000
105.070100 15011.800000
106.065000 9817.300000
107.073400 4906.800000
107.085700 7776.400000
108.080700 32777.900000
111.026300 347753.100000
112.021400 14188.800000
112.034100 106901.900000
113.029300 34932.200000
113.042100 41999.400000
114.037300 21066.300000
115.053700 4233.900000
117.069900 24847.200000
118.065000 29312.900000
119.073000 73699.300000
120.080800 49967.700000
121.089000 8965.500000
122.096500 22162.800000
123.026200 7958.400000
124.021700 10410.900000
124.034200 29740.300000
125.029400 83623.400000
125.042000 223387.200000
126.037200 493958.000000
127.021300 44491.700000
127.045000 82667.200000
127.057500 11383.600000
128.052900 102984.700000
132.080800 31431.900000
133.088700 89531.100000
134.096500 468344.900000
135.026400 90861.000000
135.104200 62626.100000
136.034000 4038.500000
137.029400 32455.500000
137.042600 8658.000000
138.037300 352267.900000
139.045100 30778.100000
139.058000 11236.200000
140.052900 39948.000000
148.112500 14577.300000
149.042000 90230.400000
150.037300 102323.200000
150.049700 85309.600000
151.020500 8082.500000
151.045100 101022.200000
151.058000 35932.600000
152.016500 307446.800000
152.052900 1206057.800000
153.060900 43770.200000
154.068300 16752.000000
162.091300 13879.100000
163.099800 5038.400000
164.052000 8851.800000
164.107000 4020.000000
166.031800 92716.700000
166.068600 880065.700000
167.039700 18472.800000
167.076400 143149.600000
168.047600 65723.300000
168.084200 234413.100000
169.055600 6394.000000
176.107000 46048.800000
180.084000 4272.800000
192.083900 5114.200000
194.063500 98307.300000
195.956400 5683.200000
208.079100 17526.900000
210.094700 54805.700000
290.061100 22237.700000

>ms2peaks
58.995100 11474.500000
65.038600 10661.800000
67.054300 17105.000000
70.995000 9020.700000
73.064900 37560.900000
77.038700 15244.700000
79.054300 23810.000000
80.049600 17945.200000
81.057100 3307.000000
82.065100 13888.700000
83.049200 7984.900000
85.010700 12474.000000
91.054300 42403.900000
93.057400 23102.500000
93.069900 27193.200000
94.065200 74574.300000
95.073000 91520.000000
97.010700 68918.800000
98.018400 8706.800000
99.026400 43030.100000
104.049400 12253.400000
105.044900 5631.400000
105.057400 26423.000000
105.069800 23296.800000
106.065200 23131.100000
107.073100 12508.600000
107.085500 9960.900000
108.080800 46895.000000
110.018600 8952.800000
111.026400 328487.100000
112.021600 19613.200000
112.034200 73209.700000
113.029400 26515.900000
113.042000 31241.500000
114.037200 13661.200000
115.054500 15100.100000
117.057400 13101.800000
117.069900 28547.800000
118.065200 74593.500000
119.073000 167416.600000
120.080800 71059.100000
121.088900 8859.200000
122.096600 24553.700000
123.026500 14111.400000
124.021600 39201.200000
124.034300 21269.200000
124.075500 5528.000000
125.029500 104529.200000
125.042100 179618.600000
126.037300 547863.200000
127.021300 19023.700000
127.045100 53258.000000
128.053000 46016.200000
132.080800 57521.800000
133.088600 98179.100000
134.096500 315456.000000
135.026400 89227.100000
135.104300 24746.300000
136.021400 14512.900000
136.034600 5077.800000
137.029500 64232.100000
137.042600 8973.000000
138.037300 322813.800000
139.045100 20922.800000
139.057600 9925.500000
140.052900 36284.200000
148.020900 5392.700000
148.112200 11436.700000
149.042000 81380.200000
150.037300 130875.400000
150.050500 18911.500000
151.045100 150355.900000
152.016600 402690.100000
152.052900 773792.600000
153.036100 3993.800000
153.060900 26605.500000
154.031900 5130.500000
154.068100 10044.500000
162.091500 8423.900000
164.053000 15993.100000
166.032100 106538.900000
166.068600 333041.000000
167.039500 3935.900000
167.076400 15610.100000
168.047800 14180.200000
168.084300 31109.400000
176.106900 17721.700000
194.063400 26516.300000
208.078900 10909.300000
210.097500 7185.700000
290.072700 3122.100000

>ms2peaks
166.070800 5304.700000
210.094700 8005.400000
290.051300 4572277.100000
322.077700 2896016.900000

>ms2peaks
73.064800 28216.700000
128.053000 6234.600000
150.049700 8297.100000
151.057500 5671.800000
152.052900 6106.600000
166.068500 56908.900000
167.076400 17926.000000
168.084200 95230.100000
170.063500 6609.300000
209.087000 65008.100000
210.095000 893078.200000
226.089600 14189.800000
250.020300 18415.700000
290.051400 5380852.200000
322.077100 39734.700000

>ms2peaks
73.064800 61601.600000
82.065100 21427.700000
95.072800 1711.800000
111.026300 47727.300000
112.034100 23648.400000
113.029200 3001.100000
113.041800 4970.100000
114.036900 2767.700000
122.096700 1836.000000
124.034000 1613.300000
125.041900 37383.500000
126.037200 30751.600000
127.021200 10005.400000
127.045100 12496.800000
127.057600 4763.300000
128.052800 34649.100000
134.096400 36308.800000
135.026300 7915.200000
135.104100 6515.300000
136.112000 6285.400000
138.037200 30849.100000
139.057800 2455.200000
140.052800 5794.400000
149.042100 3846.900000
150.037100 17570.400000
150.049700 96999.000000
151.045000 14641.100000
151.057600 19583.200000
152.052800 210347.300000
153.037100 2071.500000
153.060300 2797.100000
154.067800 1652.400000
155.040000 5307.900000
162.022000 2198.100000
162.091300 6789.700000
163.099200 5647.300000
164.107000 9222.300000
165.073000 1750.900000
166.068600 684454.200000
167.076300 318094.200000
168.047600 64566.100000
168.084200 504847.400000
169.055700 5436.100000
170.063300 14645.800000
176.107000 41868.800000
177.115300 1959.400000
180.048100 1880.100000
180.084400 3686.600000
192.083800 4458.500000
194.063300 45803.000000
195.957700 2478.100000
200.110600 2404.200000
206.063300 3474.600000
208.078900 9240.700000
209.087000 185934.500000
210.094700 1522106.200000
226.089600 39430.300000
250.020200 6557.200000
272.041100 8597.200000
290.051600 1151499.000000

>ms2peaks
73.064800 52800.400000
82.065200 29338.900000
83.049000 2579.400000
91.054100 1998.100000
93.069900 4919.800000
94.065100 4991.900000
95.072900 10835.400000
97.010700 2288.000000
99.026400 8228.800000
106.064800 1742.300000
107.085800 2466.400000
108.080800 9665.900000
111.026300 130371.500000
112.034100 46983.000000
113.029400 10666.700000
113.041900 20517.600000
114.037300 8697.200000
117.069900 4954.200000
118.065000 5727.700000
119.072900 11356.500000
120.080800 9542.600000
121.088700 3879.100000
122.096400 7110.200000
124.034200 7879.800000
125.029500 13161.700000
125.042000 84206.500000
126.037200 130529.600000
126.049500 9379.300000
127.021100 21393.200000
127.045100 30896.300000
127.057600 9092.400000
128.052900 63032.500000
132.080800 5781.700000
133.088600 10630.900000
134.096500 168565.000000
135.026300 27237.200000
135.104300 28336.800000
136.033800 1620.000000
136.112100 8299.600000
137.029700 4258.000000
137.041600 2884.700000
138.037200 115960.800000
139.045000 9078.900000
139.057600 5396.700000
140.052900 16764.200000
148.112200 5510.800000
149.042000 30016.000000
150.037200 37711.200000
150.049800 119794.200000
151.021200 2482.100000
151.045000 24160.100000
151.057600 30546.900000
152.016500 48833.200000
152.052900 570103.600000
153.060700 17177.500000
154.031900 4202.000000
154.068300 6705.500000
162.091500 9890.800000
163.099300 8065.600000
164.053000 4716.100000
164.107000 6045.200000
166.068600 755523.600000
167.040000 23498.700000
167.076300 286786.600000
168.047700 92320.600000
168.084200 403579.300000
169.055600 11568.500000
170.063200 5974.200000
176.107000 48591.300000
180.047900 3382.700000
180.084500 2840.900000
192.084100 4516.700000
194.063400 88901.100000
206.063100 2900.700000
208.078800 10204.200000
209.086900 32409.200000
210.094900 356214.900000
224.074000 8247.300000
226.089900 7851.700000
290.051100 43283.300000
290.073400 6524.100000

>ms2peaks
58.995100 2862.300000
65.038600 1574.300000
73.064800 36461.000000
77.038600 3686.000000
79.054300 6147.300000
82.065200 11385.700000
83.049200 5188.200000
85.010800 5260.600000
91.054300 9108.200000
93.070000 8807.400000
94.065100 15138.800000
95.073000 30200.000000
97.010700 9224.500000
99.026400 9636.100000
105.057400 3594.300000
105.069900 4503.900000
106.065200 2295.200000
107.085500 4283.200000
108.080800 13221.700000
111.026400 151651.700000
112.021600 4808.500000
112.034200 51758.800000
113.029400 12709.400000
113.042000 19894.100000
114.037300 6515.900000
117.069900 8743.500000
118.065100 9337.600000
119.073000 35296.200000
120.080800 18548.000000
121.088500 3569.200000
122.096600 6724.900000
123.025900 3109.000000
124.021600 3998.200000
124.034100 10594.800000
124.075400 2449.100000
125.029400 33447.600000
125.042000 96380.700000
126.037200 225329.300000
127.021300 18322.500000
127.045100 34435.200000
127.057500 5783.700000
128.052900 47256.500000
132.080700 14025.200000
133.088700 33357.400000
134.096500 199981.200000
135.026300 42103.200000
135.104200 25710.300000
136.022000 2009.500000
136.111900 3527.500000
137.029400 13389.800000
137.042100 4672.100000
138.037200 142178.100000
139.045100 11167.600000
139.057600 6226.500000
140.052900 18725.900000
148.021500 1639.300000
148.112100 4816.900000
149.042000 40054.000000
150.037200 45904.100000
150.049800 34285.100000
151.021100 3272.100000
151.045100 49877.800000
151.057600 15439.300000
152.016500 128142.600000
152.052900 526668.300000
153.060700 17403.500000
154.032400 3728.300000
154.068700 6712.000000
162.091500 8037.300000
164.053800 3499.500000
165.073000 1648.000000
166.032200 43092.100000
166.068500 376089.900000
167.039800 11760.000000
167.076400 56356.700000
168.047800 25485.100000
168.084200 97239.200000
176.107100 21886.800000
194.063400 45791.800000
208.079600 7225.100000
210.094700 22989.300000
290.059900 8294.600000

>ms2peaks
58.995000 4177.300000
65.038700 3569.900000
67.054300 5902.700000
70.994900 3102.200000
73.064800 16353.300000
77.038600 6773.500000
79.054300 7544.100000
80.049400 3273.400000
82.065200 4672.500000
83.049200 2876.800000
85.010700 5725.000000
91.054300 14744.400000
93.057200 5620.400000
93.069900 10324.100000
94.065100 28455.200000
95.073000 34477.400000
97.010600 22406.300000
98.018300 4078.700000
99.026300 13891.900000
104.049500 3311.400000
105.045000 1864.700000
105.057400 9495.200000
105.070000 7514.700000
106.065200 6819.800000
107.073000 4209.500000
107.085600 4151.300000
108.080800 19655.200000
110.018600 2267.800000
111.026400 127104.500000
112.021500 7626.200000
112.034100 26592.600000
113.029400 8341.400000
113.041900 9869.200000
114.037400 4646.400000
115.054000 5436.300000
117.057600 4064.000000
117.069900 12430.700000
118.065200 21095.000000
119.073000 62047.300000
120.080800 22516.500000
121.088500 2554.000000
122.096500 7416.800000
123.026300 7169.500000
124.021500 15434.800000
124.034000 9880.000000
124.075800 3241.900000
125.029500 35753.800000
125.042000 68313.100000
126.037200 202072.300000
127.021200 7113.400000
127.045000 20576.600000
127.057500 2584.900000
128.052800 20195.200000
132.080900 18348.500000
133.088600 38070.400000
134.096500 120756.600000
135.026300 28961.600000
135.104200 10441.000000
136.021400 4327.500000
137.029400 25674.700000
137.042200 3602.800000
138.037300 121032.200000
139.045100 9076.600000
139.057800 4683.300000
140.052900 14061.200000
148.112100 3885.200000
149.042000 30662.700000
150.037300 45506.000000
150.049700 5222.400000
151.045000 64363.600000
151.057300 4358.300000
152.016500 149360.800000
152.052900 297083.500000
153.036600 2060.900000
153.060700 10887.600000
154.068800 2820.900000
162.091500 2733.200000
164.053400 6282.000000
166.032200 38347.800000
166.068500 138564.700000
167.040300 2636.100000
167.076200 5920.500000
168.048000 3864.000000
168.084100 13630.400000
176.107000 6232.900000
194.063600 10223.100000
208.078800 3723.800000

