>compound EA38613494
>parentmass 321.1016
>ionization [M+H]+
>formula C14H16N4O3S
>rt 270.000000
>profile orbitrap
#smiles_iso CC1=CC(=NC(=N1)NS(=O)(=O)C2=CC=C(C=C2)NC(=O)C)C
#smiles_can CC1=CC(=NC(=N1)NS(=O)(=O)C2=CC=C(C=C2)NC(=O)C)C
#inchikey LJKAKWDUZRJNPJ-UHFFFAOYSA-N
#pubchem_id 66855
#mb_accession EA024702,EA024703,EA024704,EA024705,EA024706,EA024707,EA024708,EA024709,EA024710,EA024711,EA024712,EA024713

>ms2peaks
321.101700 2521242.300000

>ms2peaks
65.038600 5130.200000
93.033400 4332.400000
108.044400 44107.200000
118.065200 31064.100000
123.078500 12075.800000
124.086900 143684.100000
134.060000 76340.400000
136.075700 32370.000000
150.054800 14723.000000
162.066300 23623.400000
186.033200 280679.700000
198.021900 154165.600000
204.043700 106669.600000
255.124000 94726.500000
279.091100 4422.000000
303.092100 4305.600000
321.101700 1787121.300000

>ms2peaks
65.038600 60423.200000
80.049600 3650.900000
81.044900 7118.200000
92.049600 13834.500000
93.033600 33543.100000
93.057400 8525.200000
95.060200 18592.000000
96.068100 6556.100000
108.044400 241507.600000
118.065400 12633.200000
122.071400 23513.600000
123.079100 126975.000000
124.087000 426287.900000
134.060100 593882.400000
136.075600 52085.200000
150.055400 17980.200000
156.011400 42995.600000
162.066200 73203.400000
186.033200 408305.100000
198.021900 176935.400000
204.043800 157692.500000
213.113300 26893.700000
255.124000 258474.400000
321.101900 203478.000000

>ms2peaks
65.038600 254775.900000
68.049500 13006.400000
79.054100 3517.600000
81.044700 17691.200000
92.049500 40269.300000
93.033500 39351.000000
93.057300 17383.400000
94.065100 14158.500000
95.060300 57514.700000
96.068200 39504.900000
106.065200 7807.300000
107.060100 8344.300000
108.044400 256453.000000
122.071400 45047.500000
123.079100 201635.700000
124.087000 373528.600000
125.070800 22157.100000
134.060100 609572.900000
136.075700 19688.000000
150.055600 4616.400000
156.011600 27821.700000
162.065900 21363.100000
186.033400 120069.100000
196.087400 5044.700000
198.022000 18024.500000
204.043600 46894.400000
212.105500 21612.400000
213.113500 66931.700000
214.098300 17137.300000
255.124100 97305.100000

>ms2peaks
54.033700 3445.300000
65.038600 346561.900000
68.049400 13292.300000
79.054200 10309.200000
80.049500 7646.500000
81.044800 17871.100000
82.065300 6119.200000
83.060600 8762.900000
92.049500 75535.800000
93.033500 27848.900000
93.057100 16796.200000
94.065200 17321.400000
95.060400 86627.700000
96.068200 102571.800000
106.065200 25663.600000
107.060700 12581.400000
108.044400 213306.100000
110.060100 7423.000000
122.071200 24903.000000
123.079100 135333.800000
124.086900 264991.900000
125.071200 18788.900000
134.060100 258492.900000
156.011700 7084.900000
186.032900 17363.300000
196.086100 9627.000000
198.089100 6324.400000
204.043600 5703.900000
212.105500 35577.900000
213.113500 68291.300000
214.097400 12944.200000
255.124500 12764.900000

>ms2peaks
65.038600 343644.400000
66.033600 8260.100000
68.049400 13930.500000
77.038500 10682.900000
78.033800 8243.100000
79.054400 17607.300000
80.049500 25259.100000
81.044700 10003.200000
82.064900 13254.300000
83.060200 12076.900000
92.049400 86254.200000
93.033500 12082.800000
93.057300 18223.200000
94.065200 17690.900000
95.060300 80888.000000
96.068100 123482.500000
105.044900 8738.700000
106.065000 26282.300000
107.060200 20878.600000
108.044300 156266.800000
110.059800 13763.000000
123.079100 54397.300000
124.086800 159967.600000
125.070900 26979.900000
134.060000 59237.800000
196.086800 13596.200000
198.090300 9495.100000
211.097600 4642.600000
212.105300 15153.800000
213.113300 24977.800000
214.097400 4795.700000

>ms2peaks
186.033400 2780.900000
321.102000 1965430.200000

>ms2peaks
93.033500 3574.400000
108.044400 28066.600000
118.065200 17725.600000
124.086900 106429.200000
134.060000 54460.500000
136.075700 21331.000000
150.055000 10051.300000
156.011400 5522.700000
162.066200 18212.100000
186.033200 201741.600000
198.021900 100992.100000
204.043700 74433.700000
255.123900 69993.600000
321.101900 1339365.400000

>ms2peaks
65.038600 35440.500000
81.044800 2884.200000
92.049600 8251.800000
93.033500 20640.100000
93.057400 5090.700000
94.065200 6233.800000
95.060400 10474.600000
96.068200 4700.200000
108.044400 147539.500000
118.065100 9578.100000
122.071300 15460.400000
123.079100 92097.500000
124.087000 267752.400000
125.070900 2867.400000
134.060100 356224.600000
136.075700 34356.600000
150.055000 14284.900000
156.011500 22998.700000
162.066200 35963.200000
186.033200 258577.500000
198.022000 109969.000000
204.043700 99989.500000
213.113400 13637.000000
214.097300 6334.100000
255.124000 153913.900000
321.101500 115124.500000

>ms2peaks
65.038600 126494.100000
68.049500 7021.500000
80.049500 2590.100000
81.044700 8163.800000
92.049500 22743.700000
93.033500 23424.900000
93.057400 9170.800000
94.065100 9411.900000
95.060400 34346.900000
96.068200 18820.500000
105.045000 2751.300000
106.065100 7084.700000
107.060300 2300.500000
108.044400 144904.800000
116.057700 1569.000000
118.065500 3689.300000
122.071300 26816.700000
123.079100 119272.000000
124.087000 197857.400000
125.070900 8842.400000
134.060100 363522.100000
136.075600 9983.500000
150.055000 3070.700000
156.011200 16432.700000
162.066100 11365.900000
186.033200 63751.300000
198.021900 10918.600000
204.043700 32465.300000
212.105500 14197.900000
213.113400 36186.300000
214.097400 9298.600000
255.123900 62547.800000

>ms2peaks
65.038600 194935.800000
68.049500 7598.700000
78.033800 2216.600000
79.054100 4481.900000
80.049300 5433.400000
81.044700 12248.600000
83.060500 4909.200000
92.049500 38521.000000
93.033500 17804.800000
93.057300 9820.400000
94.065100 11378.100000
95.060400 42317.200000
96.068200 62129.500000
106.065000 12655.300000
107.060300 7577.700000
108.044400 107667.300000
110.060100 4279.900000
122.071300 7467.400000
123.079100 61853.300000
124.086900 146497.900000
125.070800 10686.200000
134.060000 127187.300000
156.011400 2357.100000
186.033300 9773.600000
196.087300 4518.600000
198.090100 1914.700000
204.043700 2258.700000
212.105600 18869.900000
213.113500 26833.900000
214.097700 7859.500000
255.123800 4628.600000

>ms2peaks
54.033800 1680.100000
65.038600 160994.900000
66.033800 2765.500000
68.049500 2649.300000
77.038600 4217.700000
78.033900 4491.800000
79.054200 7691.200000
80.049500 8846.200000
81.044700 2374.200000
82.065100 4827.200000
83.060300 4755.000000
92.049500 40865.600000
93.033500 5076.500000
93.057300 7275.500000
94.065100 6715.900000
95.060400 38449.900000
96.068200 60510.500000
105.044700 2725.300000
106.065100 11780.400000
107.060400 9939.200000
108.044400 70661.700000
110.060000 5708.300000
122.071300 3534.600000
123.079100 21883.600000
124.086900 69424.000000
125.070900 10885.900000
134.060000 21304.000000
196.086800 5843.600000
198.089800 3333.900000
211.098000 1512.400000
212.105700 9044.800000
213.113400 7495.700000

