>compound EA38422178
>parentmass 198.1349
>ionization [M+H]+
>formula C8H15N5O
>rt 264.000000
>profile orbitrap
#smiles_iso CCNC1=NC(=O)NC(=N1)NC(C)C
#smiles_can CCNC1=NC(=O)NC(=N1)NC(C)C
#inchikey NFMIMWNQWAWNDW-UHFFFAOYSA-N
#pubchem_id 135398733
#mb_accession EA027902,EA027903,EA027904,EA027905,EA027906,EA027907,EA027908,EA027909,EA027910,EA027911,EA027912,EA027913

>ms2peaks
198.134900 144994871.200000

>ms2peaks
86.034500 220885.500000
114.066200 556988.700000
128.082000 333975.500000
156.088200 9390364.300000
198.135000 166339318.500000

>ms2peaks
69.008400 716406.000000
71.060600 236378.700000
86.035000 5070633.600000
96.055900 96155.700000
97.039600 731443.900000
113.082300 361263.200000
114.066300 7590262.100000
128.056400 421514.600000
128.082000 2686285.800000
156.088200 64402987.000000
198.135200 86692969.400000

>ms2peaks
68.024500 217796.600000
69.008400 5910127.500000
71.060500 1086403.500000
85.050900 404223.800000
86.035000 17572563.500000
96.055600 376394.800000
97.039700 3912045.800000
113.082300 1220173.500000
114.066300 21789020.600000
128.056700 1915765.600000
128.082000 2888908.900000
138.077700 285894.700000
139.061500 289446.500000
156.088100 66347100.400000
198.135300 19354568.900000

>ms2peaks
68.024400 607363.900000
69.008400 16274147.500000
71.060400 1984295.800000
85.051000 710734.700000
86.035000 24411156.600000
96.055700 634678.700000
97.039700 8295981.000000
111.030200 106693.100000
113.082200 1454905.400000
114.066300 27371716.700000
128.056700 2688093.900000
128.082000 1360403.200000
138.077500 532050.100000
139.061400 309470.700000
156.088200 30036749.700000
198.135300 1907595.100000

>ms2peaks
68.024400 1018915.100000
69.008400 22945620.300000
71.060400 1845752.700000
85.051000 1166110.100000
86.035000 20817271.100000
96.055800 578950.400000
97.039700 7285886.300000
111.030600 148482.000000
113.082300 935354.500000
114.066300 18034230.400000
128.056700 1953852.300000
128.082300 278273.800000
138.077400 206665.700000
139.061400 245982.100000
156.088100 6603359.800000

>ms2peaks
156.088200 194886.300000
198.135000 146674864.600000

>ms2peaks
86.035200 202652.500000
114.066300 437564.900000
128.082000 255497.500000
156.088200 9140110.300000
198.135100 162328908.000000

>ms2peaks
69.008400 723059.600000
71.060500 272358.400000
86.035000 4628838.500000
97.039800 444877.100000
113.082300 285599.800000
114.066300 6848359.400000
128.056700 342000.200000
128.082000 2453859.800000
156.088100 57299342.600000
170.103700 97412.800000
198.135100 81984925.700000

>ms2peaks
68.024400 149371.000000
69.008400 5451814.000000
71.060400 814553.400000
85.050900 251863.200000
86.035000 14746834.900000
96.055700 232816.400000
97.039700 3391031.100000
113.082300 973219.400000
114.066300 18405027.200000
128.056700 1600898.700000
128.081900 2379173.600000
138.077600 243203.800000
139.061400 217917.000000
156.088000 57950191.800000
198.135100 15843724.100000

>ms2peaks
68.024400 384065.500000
69.008400 12189567.000000
71.060500 1333367.600000
85.050900 732863.400000
86.035000 18137991.700000
96.055700 509582.000000
97.039700 6155711.400000
110.046400 55460.000000
111.030500 54184.300000
113.082300 1101247.800000
114.066300 21002196.900000
128.056800 2226162.100000
128.081900 899732.600000
138.077500 357842.900000
139.061500 249818.700000
156.088100 21544462.900000
198.134900 1321521.900000

>ms2peaks
68.024400 810411.900000
69.008400 17690053.500000
71.060400 1469958.900000
85.051000 843199.400000
86.035000 15857147.300000
96.055700 490321.700000
97.039700 5274250.300000
110.046000 116806.200000
111.030300 73049.900000
113.082300 685709.000000
114.066300 14275873.700000
128.056800 1453073.400000
128.082000 260773.800000
138.077400 139265.300000
139.061400 94743.400000
156.088100 5377174.500000

