>compound EA39047593
>parentmass 136.02150000000003
>ionization [M+H]+
>formula C7H5NS
>rt 396.000000
>profile orbitrap
#smiles_iso C1=CC=C2C(=C1)N=CS2
#smiles_can C1=CC=C2C(=C1)N=CS2
#inchikey IOJUPLGTWVMSFF-UHFFFAOYSA-N
#pubchem_id 7222
#mb_accession EA034302,EA034303,EA034304,EA034305,EA034306,EA034307,EA034308,EA034309,EA034310,EA034311,EA034312,EA034313

>ms2
136.021600 2514111.200000

>ms2
136.021700 16221448.500000

>ms2
136.021700 15932606.700000

>ms2
109.010800 206100.700000
136.021700 16037319.100000

>ms2
53.038600 20102.800000
65.038600 21676.000000
77.038700 44831.300000
105.044900 42432.800000
109.010700 1271351.100000
136.021700 13768573.200000

>ms2
53.038600 53865.400000
65.038700 119798.100000
68.979300 12727.800000
77.038700 122470.600000
105.044900 97894.500000
109.010800 3237544.300000
136.021700 10023993.000000

>ms2
136.021600 1904664.400000

>ms2
136.021700 12394737.800000

>ms2
136.021700 12422009.800000

>ms2
109.010700 140795.400000
136.021700 12946640.100000

>ms2
53.038600 12019.600000
65.038600 11067.200000
77.038600 30343.900000
105.044800 21341.900000
109.010800 893441.100000
136.021700 9654873.800000

>ms2
53.038600 35049.100000
65.038600 75067.000000
77.038600 72694.100000
105.044800 57920.600000
109.010800 2359114.700000
136.021700 7448000.700000

