>compound EA40561795
>parentmass 295.1288
>ionization [M+H]+
>formula C14H18N2O5
>rt 288.000000
>profile orbitrap
#smiles_iso COC(=O)[C@H](CC1=CC=CC=C1)NC(=O)[C@H](CC(=O)O)N
#smiles_can COC(=O)C(CC1=CC=CC=C1)NC(=O)C(CC(=O)O)N
#inchikey IAOZJIPTCAWIRG-QWRGUYRKSA-N
#pubchem_id 134601
#mb_accession EA277002,EA277003,EA277004,EA277005,EA277006,EA277007,EA277008,EA277009,EA277010,EA277011,EA277012,EA277013

>ms2
70.028700 22736.100000
120.080800 187835.600000
163.075400 13396.600000
175.086700 84767.200000
180.101900 621966.200000
189.102200 11446.700000
190.086000 7236.900000
200.070500 80387.100000
217.097300 60655.800000
218.081400 14061.600000
228.065300 36630.500000
235.107800 935576.900000
245.091900 307249.800000
246.075100 9012.900000
249.123900 12284.100000
260.091500 366641.300000
263.102500 207710.800000
277.118000 677935.200000
278.101800 36020.500000
295.128900 2448853.200000

>ms2
70.028800 74178.900000
88.039300 137696.700000
91.054100 66090.900000
98.023600 9468.100000
103.054300 19379.900000
120.080800 1137373.300000
121.064700 83744.200000
130.064900 61805.900000
131.049200 51088.900000
157.064400 18295.900000
163.075300 83860.700000
172.075700 74897.100000
175.086600 490869.100000
180.102000 1804454.800000
182.059700 50051.700000
189.102400 53919.500000
190.086100 49970.200000
200.070500 489064.200000
203.081400 43489.000000
217.097200 156531.400000
218.081600 41131.100000
228.065700 81985.600000
235.107700 1264485.000000
242.081300 15247.400000
245.092300 77247.900000
260.091500 274304.000000
263.103200 12183.400000
295.128700 68172.200000

>ms2
70.028800 132446.000000
88.039400 248378.400000
91.054300 198549.800000
93.069500 8133.800000
103.054300 74176.500000
120.081000 2416839.500000
121.064800 216836.400000
129.069700 9759.500000
130.065200 173744.400000
131.049200 77400.000000
135.080300 13897.200000
144.080900 27109.100000
157.064800 42466.100000
163.075500 57746.500000
172.075800 129525.400000
175.086700 547870.900000
180.102100 588130.200000
182.059900 93003.700000
189.102100 22023.400000
190.086500 98748.400000
200.070700 394769.900000
217.097000 32801.000000
218.081400 22559.900000
235.108100 132502.700000

>ms2
70.028800 131538.700000
88.039300 273469.300000
91.054200 364089.900000
93.070000 12679.600000
98.023500 20216.200000
99.008000 11326.400000
103.054300 129274.700000
120.080800 2801196.500000
121.064800 265070.900000
129.069700 17162.500000
130.065100 197181.400000
131.049300 42924.900000
135.080000 24863.300000
144.080800 76835.400000
147.091800 37632.200000
154.065800 13603.900000
157.064800 50649.800000
163.075800 12229.000000
172.075400 124010.400000
175.086500 161493.200000
180.101700 48956.500000
182.060200 113422.900000
190.086200 35379.800000
200.070300 110448.800000
235.108700 16510.300000

>ms2
70.028800 106844.400000
77.038900 13939.800000
88.039300 188547.900000
91.054200 406200.100000
93.069900 43932.300000
98.023700 16780.300000
103.054200 270005.400000
117.070200 12233.700000
118.064900 16876.400000
119.073300 9574.600000
120.080800 2700498.300000
121.064800 273758.100000
129.069700 32854.900000
130.065100 172861.300000
135.080500 17863.200000
144.080700 76212.800000
147.091200 24727.100000
154.065100 39149.900000
155.060800 10235.100000
157.064400 18674.900000
172.075500 45748.200000
175.087100 12320.300000
182.060400 51675.300000
200.070300 21514.400000

>ms2
70.028800 90129.000000
77.038600 26317.000000
88.039400 113278.500000
91.054300 390634.000000
93.069900 93752.400000
98.023600 9799.600000
103.054400 629439.200000
104.049600 9084.600000
105.044500 7118.500000
117.069900 16048.400000
118.065700 10352.700000
120.081000 1936695.900000
121.064900 175242.800000
128.062500 10342.300000
129.070000 22622.900000
130.065200 113039.600000
135.080400 12219.800000
144.080800 51678.000000
146.059700 10414.600000
154.065200 43569.300000
155.059800 14182.000000
172.076500 8314.000000
182.060000 17496.000000

>ms2
70.028800 8471.400000
88.039000 13286.100000
120.080800 172266.400000
163.075600 11630.400000
175.086600 77311.600000
180.102000 547979.800000
189.102400 10863.300000
190.086000 7422.900000
200.070600 77943.200000
203.081500 14851.100000
217.097200 61037.600000
218.081800 11893.800000
228.065800 35423.300000
235.107800 874225.700000
245.092000 265030.600000
246.075900 7679.700000
249.122600 10903.600000
260.091800 290260.700000
263.102600 168044.400000
277.118300 685834.700000
278.102300 23088.700000
295.129200 2256144.900000

>ms2
70.028800 59462.400000
88.039300 122762.500000
91.054200 53276.700000
103.054000 18354.300000
120.080800 906344.400000
121.064800 59631.000000
130.065000 37716.500000
131.049100 39035.700000
147.091800 6737.000000
157.064700 15862.700000
163.075300 69602.600000
172.075700 46114.200000
175.086600 404537.700000
180.102000 1469985.700000
182.060100 46287.500000
189.102200 47543.300000
190.086200 41114.800000
200.070500 384394.400000
203.081600 42089.800000
217.097000 119470.800000
218.081200 44373.800000
228.065500 57274.800000
235.107800 975530.900000
242.080400 11252.800000
245.091800 52908.100000
260.091600 199108.500000
263.103200 9208.700000
277.118300 27459.200000
295.129300 57549.200000

>ms2
70.028800 96499.900000
88.039300 184960.000000
91.054200 146424.600000
98.023700 8684.800000
99.007900 6140.900000
103.054200 57430.600000
119.072900 9458.600000
120.080800 1793103.500000
121.064800 159713.900000
130.065100 136423.200000
131.049100 63001.000000
135.080500 9960.000000
144.080600 15032.600000
147.091600 26625.000000
157.064800 33099.000000
163.075400 32971.500000
172.075700 100491.300000
175.086600 411771.100000
180.101900 406972.800000
182.060000 75946.800000
189.102400 14321.800000
190.086200 66268.800000
200.070600 290751.100000
217.097000 24608.600000
218.080900 19685.000000
228.066000 5588.800000
235.107700 89271.900000
260.091000 6909.900000

>ms2
70.028800 99697.500000
88.039400 173755.100000
91.054300 225754.300000
93.070000 6462.700000
98.023700 8700.000000
99.007500 5838.900000
103.054300 104732.600000
119.072900 11801.700000
120.080900 1917947.100000
121.064800 167920.300000
129.069900 14586.200000
130.065200 139358.100000
131.049300 25996.500000
135.080400 16981.500000
144.080800 58356.200000
145.064500 5696.200000
147.091700 30164.300000
154.065300 11363.400000
157.064900 36090.600000
163.075800 8712.200000
172.075700 86897.700000
175.086700 119981.500000
180.101900 30591.700000
182.060100 80502.000000
190.086200 27881.300000
200.070700 69603.300000
245.091200 5923.400000

>ms2
70.028800 60595.800000
88.039300 122667.600000
91.054300 251961.900000
93.070000 23881.900000
98.023600 6217.200000
99.007800 6139.800000
103.054300 193012.600000
104.049500 3311.700000
117.069700 4421.400000
118.065100 5689.600000
119.073000 6966.300000
120.080900 1560757.700000
121.064800 129972.000000
128.062200 4325.600000
129.070000 19771.700000
130.065200 103898.500000
131.049300 5469.800000
135.080300 9145.000000
144.080800 51817.500000
145.064600 6331.500000
146.059700 4402.000000
147.091600 8494.900000
154.065200 24900.400000
157.064600 10672.100000
172.075800 23757.900000
175.086600 12221.700000
182.060200 34765.200000
200.070400 9069.900000

>ms2
70.028800 26470.200000
77.038600 10359.400000
88.039300 66343.300000
91.054300 213441.300000
93.069900 51297.800000
98.023600 3887.300000
99.007700 4097.100000
103.054300 353565.200000
104.049700 2119.400000
105.044800 6410.700000
117.069800 4147.500000
118.065200 4285.400000
119.073000 7151.900000
120.080800 1025368.300000
121.064800 81894.700000
128.062000 4555.700000
129.069900 8717.300000
130.065100 60713.300000
135.080400 6595.100000
144.080700 22834.600000
145.064700 2042.500000
146.059800 3949.000000
154.065100 22631.700000
155.060400 10364.300000
172.075700 6293.300000
182.060000 10094.800000

