>compound EA40308067
>parentmass 302.1387
>ionization [M+H]+
>formula C17H19NO4
>rt 756.000000
>profile orbitrap
#smiles_iso CCOC(=O)NCCOC1=CC=C(C=C1)OC2=CC=CC=C2
#smiles_can CCOC(=O)NCCOC1=CC=C(C=C1)OC2=CC=CC=C2
#inchikey HJUFTIJOISQSKQ-UHFFFAOYSA-N
#pubchem_id 51605
#mb_accession EA294002,EA294003,EA294004,EA294005,EA294006,EA294007,EA294008,EA294009,EA294010,EA294011,EA294012,EA294013

>ms2peaks
88.039300 11728962.600000
116.070700 19386195.900000
230.118000 93446.000000
256.096700 6388653.900000
302.138600 19665126.400000

>ms2peaks
70.028800 93609.500000
88.039300 23791065.300000
94.041500 44667.100000
116.070700 11574162.700000
163.062600 108252.400000
183.079600 42262.400000
185.059500 56995.300000
186.067900 41259.400000
187.074800 99660.600000
211.075200 372890.800000
213.054300 154553.600000
213.090900 196814.400000
230.117300 96323.700000
238.085300 49351.500000
256.096800 7451638.600000

>ms2peaks
66.046400 84405.100000
70.028700 379323.100000
72.080700 57623.900000
88.039200 23599226.000000
91.054300 39228.600000
94.041300 255704.100000
107.048900 42974.000000
116.070600 2620022.400000
118.041600 65705.200000
118.064900 27011.700000
119.049200 84509.700000
119.072800 38970.300000
120.057000 199351.500000
129.070300 29568.700000
134.035700 27778.300000
141.069400 41318.300000
146.059500 32723.000000
163.062800 278814.800000
167.085100 63143.800000
169.065000 78678.100000
183.080400 259758.900000
185.059600 289212.100000
185.096500 93893.500000
186.067300 278723.100000
187.075300 140503.900000
195.080400 128609.300000
211.075200 328719.300000
213.054500 520086.200000
213.090900 184118.500000
238.086500 74128.900000
256.096700 1349580.500000

>ms2peaks
66.046500 153940.200000
70.028800 436399.100000
72.080800 30591.500000
77.038600 43812.300000
79.054200 36357.000000
88.039300 17496334.400000
91.054400 76829.300000
94.041300 277126.000000
107.049200 103665.700000
115.053900 26639.000000
116.070600 451025.300000
118.041400 128135.200000
119.048900 52421.800000
120.057100 284919.800000
129.070000 199873.500000
134.036000 57343.700000
141.069900 198761.100000
157.064700 75019.500000
163.063000 101269.200000
165.070200 60227.800000
167.085700 68239.400000
169.064600 119657.700000
170.073000 29077.500000
183.080400 104659.500000
185.060000 210920.100000
185.096800 23011.100000
186.067600 352983.100000
187.075700 41453.000000
195.080700 59932.300000
211.074500 48944.200000
213.054700 401149.700000
213.091000 20513.100000
238.085400 21131.500000

>ms2peaks
65.038500 38101.000000
66.046500 89248.300000
70.028800 336904.400000
72.080800 17695.400000
77.038600 103619.500000
79.054000 45073.400000
88.039400 12012609.700000
91.054300 127805.600000
92.062000 33171.900000
94.041400 224993.100000
105.033600 80896.100000
105.044900 62412.700000
107.049200 148790.400000
109.028500 39990.200000
115.054400 116257.500000
118.041400 115011.600000
119.049100 36552.100000
120.057000 171628.600000
128.062200 48227.400000
129.069900 269490.200000
133.028900 20946.500000
134.036300 45309.700000
141.070000 304910.200000
152.062500 60107.400000
157.065000 97833.200000
158.072800 57461.800000
165.069800 84899.300000
167.085700 24153.000000
169.065000 64290.200000
170.072700 24792.200000
183.080500 24634.900000
185.059900 97791.200000
186.067700 281323.100000
213.054400 136604.500000

>ms2peaks
53.038400 15230.400000
65.038700 16281.600000
66.046400 64911.000000
70.028800 254579.600000
77.038600 200905.500000
79.054100 38258.600000
81.033500 23557.400000
88.039400 6978488.200000
91.054100 157173.500000
92.062000 31416.600000
94.041300 186617.600000
95.049600 17437.500000
105.033600 96481.000000
105.044800 80187.400000
107.049100 82159.600000
109.028400 75418.400000
115.054200 265472.700000
116.070800 19067.900000
118.041300 57207.900000
119.049600 25780.600000
120.057000 88662.800000
128.062000 108919.600000
129.069900 203201.700000
131.049000 17877.200000
134.036100 26065.100000
139.054100 21923.100000
141.069800 232685.800000
152.062100 70027.500000
155.060300 48660.400000
157.064600 109487.800000
158.072000 42788.800000
165.069700 73675.300000
168.056700 21684.700000
169.064000 21094.100000
181.064400 11384.900000
185.059000 23538.600000
186.067600 111345.500000

>ms2peaks
88.039400 6790763.400000
116.070600 11704397.900000
230.117600 72092.500000
256.097000 3814234.900000
258.149000 37227.100000
302.138800 10995844.600000

>ms2peaks
70.028800 46453.800000
72.080900 20773.100000
88.039400 14323966.200000
94.041300 28911.300000
116.070700 6242751.000000
120.056900 14663.300000
163.062900 45525.500000
183.080300 32830.100000
185.059400 21687.700000
186.067500 23767.700000
187.075500 43749.000000
195.080600 22010.300000
211.075600 185245.300000
213.054600 74410.400000
213.091200 131237.000000
230.117600 58877.200000
238.086700 30776.000000
256.097100 4032801.900000

>ms2peaks
66.046400 33102.700000
70.028800 212916.500000
72.080800 32020.800000
88.039300 14120429.100000
91.054300 18385.400000
94.041300 151913.400000
107.049000 20566.700000
116.070600 1477597.700000
118.041400 43435.400000
119.049200 27992.100000
119.073000 24938.600000
120.056900 101857.900000
129.069500 14331.300000
141.069900 21492.000000
146.059900 19194.600000
163.062800 183975.100000
165.069700 22620.900000
167.085600 39452.800000
169.065000 40698.600000
183.080500 132515.600000
185.059700 157954.100000
185.096100 42177.900000
186.067500 139525.700000
187.075400 84779.100000
195.080500 58311.700000
198.067300 26049.600000
211.075400 196512.800000
213.054600 299693.200000
213.091100 85883.200000
238.086900 42482.900000
256.096900 686583.600000

>ms2peaks
65.038500 12284.000000
66.046400 88558.700000
70.028800 240561.400000
72.080800 22793.000000
77.038600 16687.300000
88.039300 11248648.600000
91.054200 47388.700000
92.062100 12827.100000
94.041300 138987.700000
105.033500 16203.900000
107.049200 71900.900000
116.070700 303255.700000
118.041400 58336.900000
119.049300 28256.100000
119.072900 12285.900000
120.057000 170971.300000
129.069900 105318.800000
134.036200 37182.500000
141.069900 109121.600000
152.062200 23398.800000
157.064900 38435.700000
163.062800 53582.100000
165.069800 48860.200000
167.085600 45929.900000
169.064800 64457.200000
170.072500 14089.300000
177.070300 16701.200000
183.080400 53617.400000
185.059700 138353.200000
186.067500 216384.000000
187.075500 18531.300000
193.075500 12384.800000
195.080400 29059.400000
198.067200 15257.100000
211.075600 20787.600000
213.054700 222686.300000
238.085900 13553.100000
256.096700 30585.700000

>ms2peaks
65.038600 12622.300000
66.046400 51005.500000
70.028800 200853.900000
72.080700 10264.500000
77.038600 65318.000000
79.054300 22747.900000
88.039300 6482585.900000
91.054200 67039.900000
92.062100 12342.300000
94.041300 115174.500000
105.033600 41438.200000
105.044700 23744.700000
107.049200 71791.000000
109.028400 23230.700000
115.054300 52547.200000
116.071000 36710.400000
118.041400 45764.100000
119.049000 20725.000000
120.057000 89436.700000
128.062200 34487.000000
129.069900 162923.300000
131.049400 6709.200000
133.029000 8518.800000
134.036300 24926.000000
141.069900 137292.700000
142.077700 9984.500000
152.061900 24751.200000
155.060100 8533.900000
157.064800 49051.500000
158.072500 29545.700000
165.069800 36490.500000
166.077600 9383.100000
167.085100 9961.400000
169.064700 19775.600000
170.072300 8279.400000
177.069400 14152.500000
183.080400 15198.300000
185.059700 43475.500000
186.067500 155575.100000
197.059900 9127.000000
213.054700 55317.300000

>ms2peaks
53.038600 8733.800000
65.038500 18190.500000
66.046400 30139.300000
70.028700 126676.600000
72.080700 8946.100000
77.038600 84411.500000
79.054100 23609.300000
81.033400 9872.500000
88.039300 3171688.600000
91.054200 81954.900000
92.062300 10767.800000
94.041300 91161.100000
95.048900 10143.700000
105.033500 46228.400000
105.044600 42561.700000
107.049100 38714.300000
109.028300 40212.100000
115.054200 138208.400000
116.070800 5556.600000
118.041300 35085.800000
119.048900 15409.300000
120.056900 39333.100000
128.062000 63051.200000
129.069800 93056.500000
131.049000 8163.600000
134.036100 12271.100000
139.054200 6607.900000
141.069800 120715.200000
152.062100 25573.100000
155.060100 25995.900000
157.064700 55125.600000
158.072500 24650.800000
165.069800 38076.000000
166.077400 4981.300000
168.056900 20011.100000
169.064400 10406.500000
176.062000 13745.200000
181.065000 6867.300000
185.059400 11850.800000
186.067300 59830.800000
197.059500 6348.800000
213.054800 9349.600000

