>compound EA41339654
>parentmass 254.14339999999996
>ionization [M+H]+
>formula C11H19N5S
>rt 552.000000
>profile orbitrap
#smiles_iso CC(C)(C)NC1=NC(=NC(=N1)NC2CC2)SC
#smiles_can CC(C)(C)NC1=NC(=NC(=N1)NC2CC2)SC
#inchikey HDHLIWCXDDZUFH-UHFFFAOYSA-N
#pubchem_id 91590
#mb_accession EA030202,EA030203,EA030204,EA030205,EA030206,EA030207,EA030208,EA030209,EA030210,EA030211,EA030212,EA030213

>ms2
198.083000 219691.000000
254.143500 13238364.300000

>ms2
198.080700 4598414.800000
254.143200 9142947.400000

>ms2
56.049300 34732.500000
68.024100 13063.300000
74.005700 26606.400000
83.060300 100696.200000
87.026200 10027.000000
91.032400 218196.300000
108.055500 66133.800000
114.037000 27257.300000
116.027800 54850.200000
125.082200 152020.700000
150.077700 59531.900000
156.059000 86196.200000
170.049700 33953.000000
171.070300 29688.200000
183.056600 26308.900000
198.080800 9586732.800000
254.144000 1636118.100000

>ms2
55.028800 15314.900000
56.049400 228947.700000
57.069900 19973.500000
58.065000 57497.900000
68.024300 96141.700000
74.005800 145508.100000
81.044800 96400.700000
83.060300 493035.500000
87.026300 50939.700000
91.032400 954543.200000
98.071000 11909.000000
108.055600 508844.000000
114.012200 17880.200000
114.037200 92535.500000
116.027600 296701.700000
125.082100 414069.200000
150.077400 258592.400000
152.092800 26182.100000
156.033700 89400.500000
156.058900 430956.300000
158.049100 30688.200000
168.033100 11728.400000
170.049600 90393.600000
171.069600 48277.000000
198.080800 5448088.300000
254.143800 55992.500000

>ms2
54.033900 16347.800000
55.029000 25198.100000
56.049400 438788.600000
57.069900 18413.600000
58.065000 70643.400000
68.024200 274535.900000
70.039900 22511.200000
74.005800 335131.200000
81.044700 159651.100000
83.060300 831701.900000
85.050700 32639.000000
87.026200 86693.000000
91.032400 895126.500000
108.055500 906289.900000
114.037000 113443.000000
116.027600 318862.200000
125.082100 293228.800000
150.077300 218447.500000
152.093100 11297.500000
156.034100 34713.800000
156.058900 386368.300000
158.049000 34344.800000
168.033300 30402.300000
170.049400 79666.000000
171.069700 24333.400000
198.080400 1048256.300000

>ms2
54.033800 16127.500000
55.029200 36594.100000
56.049400 475149.900000
57.069900 29249.700000
58.065000 63211.700000
68.024300 526632.400000
70.040000 13861.700000
74.005900 535110.500000
81.044700 164780.400000
83.060400 619718.700000
85.051000 26689.300000
87.026500 43633.200000
91.032400 489344.500000
108.055600 682223.700000
114.037300 49753.900000
116.027700 208778.600000
125.082100 85930.600000
150.077300 50097.300000
156.059100 134610.900000
168.033600 26812.500000
170.048900 20466.300000
182.050000 13202.700000
198.082700 107547.800000

>ms2
198.080500 142398.200000
254.143300 9838596.900000

>ms2
198.080800 3719186.200000
254.143400 7004769.500000

>ms2
56.049400 28883.800000
68.024300 13804.100000
74.005700 20336.400000
81.045000 9383.000000
83.060300 80084.300000
91.032400 201044.000000
108.055600 60152.000000
114.037100 19430.600000
116.027700 34043.000000
125.082100 90112.500000
150.077300 37251.900000
156.033900 32215.800000
156.059000 68500.100000
170.049300 35424.100000
171.070000 28161.000000
198.080700 7604789.800000
254.143300 1038745.400000

>ms2
55.029000 10943.300000
56.049400 175596.100000
57.069700 6667.200000
58.065000 34869.300000
68.024200 81572.500000
70.040100 6313.700000
74.005800 100796.900000
81.044700 67634.400000
83.060300 400376.900000
85.010300 6590.500000
87.026200 48375.000000
89.041800 10395.500000
91.032400 689607.100000
108.055600 376260.300000
114.012100 16834.700000
114.037100 68789.200000
116.027600 183804.500000
123.066600 11806.500000
125.082100 330795.900000
127.006700 7572.700000
143.038500 13449.400000
150.077300 187265.900000
152.093200 12820.300000
156.033700 73411.000000
156.058900 370938.400000
158.049500 21520.700000
168.033600 15662.100000
170.049400 100531.400000
171.069800 55686.400000
198.080700 4066203.000000

>ms2
55.029000 22750.800000
56.049400 330563.400000
57.069800 18430.300000
58.065000 45945.000000
68.024300 213967.900000
70.039800 14192.300000
74.005800 250844.000000
81.044700 120953.400000
83.060300 620206.700000
85.010800 10285.600000
85.050800 12086.000000
87.026200 57805.900000
89.041800 11692.700000
91.032400 686518.000000
98.071200 7685.500000
99.001100 8117.100000
108.055600 658906.900000
114.011800 8811.500000
114.037100 91375.900000
116.027600 247249.800000
123.066600 14257.300000
125.082100 231799.000000
143.037900 7519.600000
150.077300 152000.700000
152.093200 8305.500000
156.033600 29414.100000
156.058900 291452.500000
158.048900 16628.900000
168.033700 28437.300000
170.049300 77944.600000
171.069200 7168.200000
198.080600 786282.000000

>ms2
54.033700 8673.600000
55.029000 25887.200000
56.049400 319059.000000
57.069800 14699.100000
58.065000 37329.400000
68.024300 394488.000000
70.039900 12511.300000
74.005900 394123.600000
81.044700 110898.700000
83.060300 469330.500000
85.010600 5253.500000
85.050800 24009.500000
87.026200 23555.200000
91.032400 335829.000000
98.071200 4827.400000
99.001200 10825.500000
108.055600 511331.500000
114.037100 45542.100000
116.027600 163839.400000
125.082100 70552.300000
127.007300 4749.300000
150.077300 44048.300000
156.058800 93685.800000
158.049500 9466.000000
168.033600 18011.100000
170.049300 24301.900000
171.069800 4898.200000
182.049100 5953.600000
198.080500 62282.600000

