>compound EA41914378
>parentmass 252.14170000000001
>ionization [M+H]+
>formula C14H21NOS
>rt 864.000000
>profile orbitrap
#smiles_iso CCCN(CCC)C(=O)SCC1=CC=CC=C1
#smiles_can CCCN(CCC)C(=O)SCC1=CC=CC=C1
#inchikey NQLVQOSNDJXLKG-UHFFFAOYSA-N
#pubchem_id 62020
#mb_accession EA007102,EA007103,EA007104,EA007105,EA007106,EA007107,EA007108,EA007109,EA007110,EA007111,EA007112,EA007113

>ms2peaks
86.060100 103907.800000
91.054000 473326.200000
128.107000 417493.200000
192.174900 8328.900000
252.141800 7677826.900000

>ms2peaks
65.038400 14150.800000
86.060100 282110.900000
91.054400 3806931.700000
128.107000 324286.700000
192.174600 18346.300000
252.141500 1748004.700000

>ms2peaks
65.038600 26500.200000
86.060100 45616.300000
89.038600 8221.200000
91.054300 5249460.000000
128.107000 54354.000000

>ms2peaks
65.038500 22494.200000
91.054300 5400561.500000

>ms2peaks
65.038600 47235.900000
91.054300 5148959.200000

>ms2peaks
65.038600 160915.000000
91.054400 4845975.900000

>ms2peaks
86.060100 93882.900000
91.054100 385636.000000
128.107100 381115.500000
192.174800 9649.400000
252.141900 6287340.400000

>ms2peaks
65.038500 14439.900000
86.060100 235752.100000
91.054300 3220843.400000
100.112100 8093.600000
128.107000 257600.900000
192.174400 14516.000000
252.141800 1621621.600000

>ms2peaks
65.038700 13308.000000
86.060100 31847.400000
90.046600 7321.100000
91.054300 4043786.100000
100.112000 5038.900000
128.107000 32934.300000
252.140600 21727.600000

>ms2peaks
65.038500 14788.200000
91.054300 3826202.500000

>ms2peaks
65.038600 30462.500000
89.038400 4779.900000
91.054300 3799183.900000

>ms2peaks
65.038600 90387.400000
91.054300 3284465.700000

