>compound EA41701446
>parentmass 328.0791
>ionization [M+H]+
>formula C15H12F3NO4
>rt 654.000000
>profile orbitrap
#smiles_iso CC(C(=O)O)OC1=CC=C(C=C1)OC2=NC=C(C=C2)C(F)(F)F
#smiles_can CC(C(=O)O)OC1=CC=C(C=C1)OC2=NC=C(C=C2)C(F)(F)F
#inchikey YUVKUEAFAVKILW-UHFFFAOYSA-N
#pubchem_id 91701
#mb_accession EA014702,EA014703,EA014704,EA014705,EA014706,EA014707,EA014708,EA014709,EA014710,EA014711,EA014712,EA014713

>ms2
328.079000 2907672.000000

>ms2
91.054100 32278.100000
119.049200 10386.000000
238.046800 14494.600000
254.042800 16880.800000
254.078300 98576.200000
255.050000 156602.300000
256.057800 106895.700000
282.073500 1270340.600000
328.078800 1615042.100000

>ms2
65.038600 16533.000000
91.054200 355386.600000
93.033300 7417.500000
119.049100 70156.900000
121.028500 20664.700000
121.064300 3650.900000
147.028500 5628.500000
164.031600 19268.600000
179.018600 12007.900000
213.078800 9481.200000
226.083800 16253.300000
227.055100 100984.200000
236.067300 12303.600000
238.047200 230221.200000
239.055500 4228.500000
254.042400 196299.600000
254.078600 397033.000000
255.050000 359971.500000
256.057700 279968.900000
264.062700 8059.300000
282.073500 894101.500000
328.078500 82516.900000

>ms2
65.038600 79896.700000
91.054300 407038.900000
92.025500 8019.700000
93.033500 29879.800000
94.041200 4881.600000
111.044500 6117.500000
119.049100 50219.600000
121.028400 15055.900000
121.064800 5831.500000
141.056800 5210.700000
146.021200 6910.900000
147.029000 39172.300000
148.036800 4112.300000
158.060000 7861.300000
163.024000 11884.500000
164.031700 66728.800000
179.018900 74917.200000
186.052800 10008.900000
198.052200 17391.800000
199.060800 4123.400000
210.051700 5217.100000
211.060100 10705.600000
213.079100 8516.800000
218.040800 11806.800000
226.047300 17958.200000
226.083800 15475.000000
227.055100 323740.200000
235.061200 4484.200000
236.067500 17147.500000
238.047300 517758.000000
240.060900 4798.600000
254.042300 325287.000000
254.078500 137189.900000
255.050200 99273.500000
256.057800 200194.300000
264.061700 5356.700000
282.073600 93735.000000

>ms2
63.022700 4969.300000
64.030700 7572.400000
65.038600 122753.100000
75.022600 4257.700000
81.033500 4703.300000
91.054300 272948.100000
92.025600 14929.500000
93.033500 33637.300000
94.041300 12336.500000
109.028500 5089.200000
110.036300 10040.000000
111.043900 11000.900000
119.049300 11466.500000
121.028300 7631.900000
121.039600 13343.500000
130.065000 10428.100000
131.049000 19068.900000
141.057400 43913.900000
146.020900 20475.500000
147.029000 56501.400000
158.059900 35958.800000
163.024000 23204.700000
164.031800 129372.300000
169.052600 11012.300000
179.018800 112728.400000
180.038400 13509.700000
185.045000 7435.700000
186.052400 8532.500000
190.046300 21056.800000
198.052500 39093.900000
199.060000 4151.400000
207.048800 14768.000000
208.057000 7424.800000
209.045000 9139.700000
211.059700 10243.900000
218.041200 51040.400000
226.047400 22974.800000
226.084400 4065.400000
227.055100 254226.500000
235.062700 5760.600000
236.067100 5661.600000
238.047300 352677.100000
254.042400 268637.900000
256.057700 38554.500000
264.059100 3412.100000

>ms2
63.023000 7562.800000
64.030800 10453.500000
65.038600 132680.300000
75.022900 13700.800000
77.038600 8107.100000
78.033500 5176.300000
81.033100 5866.000000
91.054200 144583.900000
92.025600 20418.700000
93.033200 10068.500000
94.041300 19230.500000
103.054100 5121.400000
104.013100 6026.500000
109.028300 8189.500000
110.035900 7113.300000
111.043700 5463.400000
119.049100 2891.000000
120.043800 8155.400000
121.027900 3516.300000
121.039300 9131.400000
126.014700 9754.100000
127.022900 18497.500000
130.065100 21648.500000
131.049100 57414.900000
133.045200 5447.600000
140.049500 8365.200000
141.057200 84840.400000
142.042300 3011.500000
145.033000 8224.900000
146.021100 42134.000000
147.029000 65210.600000
148.036900 4681.000000
151.035700 4447.600000
152.043700 5897.900000
158.060000 49276.200000
159.047800 6293.800000
163.024100 12009.700000
164.031700 142780.600000
168.044100 18213.400000
169.051900 8646.200000
177.058400 4910.600000
178.047100 7461.900000
179.018800 98089.200000
180.038300 18702.100000
185.045600 11014.200000
187.042300 5495.100000
188.050800 16713.000000
190.046200 28160.800000
198.052300 41966.400000
199.035900 3607.900000
199.060500 3457.500000
206.039800 4453.500000
207.049000 14682.100000
208.057300 8686.400000
209.044500 23767.100000
210.052600 15272.000000
211.060500 8638.500000
218.041300 42935.400000
226.047200 23479.500000
227.054900 82917.600000
235.062100 4756.300000
238.047200 110968.600000
254.042200 176067.600000
256.059200 5130.600000

>ms2
282.074700 17204.100000
328.079100 1835536.100000

>ms2
91.054200 18993.800000
119.049100 6933.800000
227.055200 1824.000000
238.047900 7419.100000
254.042400 9731.600000
254.078500 54945.900000
255.049900 94153.500000
256.057800 63105.000000
282.073600 741421.200000
328.078900 927810.100000

>ms2
65.038500 11577.300000
91.054200 205420.100000
93.033600 5234.400000
119.049100 40907.600000
121.028400 14791.800000
147.028800 3371.700000
163.024700 2780.000000
164.031700 11493.300000
179.018700 7668.700000
213.078400 6203.100000
226.046900 2721.300000
226.083900 10870.300000
227.055100 59274.400000
236.068000 4911.100000
238.047300 115380.900000
240.061900 3981.500000
254.042400 115495.500000
254.078600 220358.500000
255.050000 220652.900000
256.057800 170890.000000
264.062400 5350.800000
282.073600 509190.700000
328.078900 53586.300000

>ms2
65.038600 42380.300000
91.054200 213960.000000
92.025500 3705.100000
93.033500 17445.000000
94.041300 2633.900000
109.028300 2705.200000
111.044000 6546.600000
119.049100 27121.600000
121.028500 7830.300000
121.064800 3228.500000
141.057200 4114.100000
146.021400 3638.000000
147.028900 21734.000000
158.060100 5363.800000
163.023800 7944.500000
164.031800 37526.300000
167.072500 3413.700000
179.018900 39780.800000
186.052600 3373.700000
190.046500 2186.400000
198.052500 7333.100000
210.052400 4649.400000
211.060100 6153.300000
213.078200 4792.600000
218.040900 7855.400000
226.047200 7194.300000
226.083400 7576.300000
227.055200 177581.800000
236.068200 10641.100000
238.047400 278710.200000
239.055300 3213.600000
254.042300 186968.900000
254.078400 65586.800000
255.050000 52949.400000
256.057800 109450.300000
264.062400 4158.300000
282.073500 62035.600000

>ms2
64.030800 3474.800000
65.038600 73486.300000
75.023100 2772.200000
77.038400 2183.200000
81.033600 2374.200000
91.054300 149647.200000
92.025700 12161.300000
93.033500 11604.100000
94.041400 6401.400000
109.028700 3278.100000
110.036200 2897.400000
111.043900 5651.500000
119.049200 8337.500000
121.028400 4437.400000
121.039600 5433.600000
121.064500 2984.100000
131.049100 9934.500000
141.057300 26793.300000
142.041900 1739.000000
144.026000 2270.400000
146.021200 13918.900000
147.029000 31960.500000
152.043900 2154.900000
158.060100 22218.200000
163.024000 11696.200000
164.031800 70490.500000
167.072500 3066.300000
168.044600 4039.300000
169.052400 6205.300000
179.018900 60434.000000
180.038100 5551.800000
185.045300 2744.300000
188.050700 6682.500000
190.046200 14431.900000
191.041000 2901.000000
198.052400 21567.200000
199.059600 2771.100000
207.049300 5977.600000
208.056400 5125.500000
209.044800 4368.100000
210.052300 11657.600000
211.060700 6833.200000
218.041200 31717.300000
226.047300 11468.800000
227.055200 135250.300000
236.068000 3589.400000
238.047400 194711.500000
254.042300 149528.800000
256.057800 27172.400000

>ms2
63.022900 3791.600000
64.030800 4519.100000
65.038600 67587.700000
75.022900 4446.000000
77.038500 3055.500000
78.033800 1370.000000
81.033500 3574.100000
91.054200 76807.600000
92.025600 9518.500000
93.033500 3587.800000
94.041300 9171.300000
103.054200 2934.100000
104.013000 3210.100000
109.028400 3716.500000
110.036300 4127.100000
120.044200 1820.500000
121.039600 4502.200000
126.014900 5356.300000
127.022700 10417.600000
130.065100 9435.400000
131.049100 26019.800000
133.044800 2504.100000
140.049400 4049.900000
141.057300 42414.500000
144.025300 1579.300000
145.033300 3269.300000
146.021200 25970.100000
147.029000 32801.700000
151.035100 1612.500000
152.043100 3465.300000
158.060000 24692.000000
159.047900 2053.700000
163.023900 6059.500000
164.031800 73204.900000
167.072700 2158.600000
168.044400 12738.500000
169.052000 5852.300000
177.058500 1540.400000
178.046100 1335.600000
179.018800 53565.000000
180.038100 11133.100000
185.044700 3095.000000
186.052000 1773.700000
187.043100 2118.600000
188.050600 8172.400000
190.046200 17222.900000
191.041900 2330.400000
198.052400 22630.400000
199.036500 2720.600000
206.040900 2242.700000
207.049000 5079.200000
208.056900 4203.800000
209.044600 6566.400000
210.052300 7156.300000
211.060200 4713.500000
218.041100 21986.100000
226.047400 12544.200000
227.055200 40218.700000
235.059900 2446.400000
238.047200 52270.700000
254.042200 80590.100000
256.057200 1633.100000

