>compound EA41876901
>parentmass 235.1441
>ionization [M+H]+
>formula C13H18N2O2
>rt 516.000000
>profile orbitrap
#smiles_iso C1CCC(CC1)N2C(=O)C3=C(CCC3)NC2=O
#smiles_can C1CCC(CC1)N2C(=O)C3=C(CCC3)NC2=O
#inchikey ZTMKADLOSYKWCA-UHFFFAOYSA-N
#pubchem_id 16559
#mb_accession EA294902,EA294903,EA294904,EA294905,EA294906,EA294907,EA294908,EA294909,EA294910,EA294911,EA294912,EA294913

>ms2
153.065900 11462709.800000
235.144000 26929506.500000

>ms2
83.085400 119170.600000
153.065700 39374945.900000
235.144300 5684643.500000

>ms2
55.054300 87773.700000
83.085500 415561.200000
135.055200 95249.200000
136.039600 163385.000000
153.065700 39955887.800000

>ms2
55.054200 174695.300000
82.065100 470874.700000
83.085500 443853.700000
109.076100 65893.900000
110.060000 614378.600000
135.055200 972751.500000
136.039300 1712653.200000
153.065700 35477898.000000

>ms2
53.038400 27532.300000
55.054200 222260.000000
80.049400 106661.900000
82.065100 1667176.900000
83.085500 284139.800000
108.044300 58780.400000
109.076000 243715.000000
110.060000 2612347.500000
125.071200 42637.100000
135.055300 3351559.900000
136.039300 5785660.300000
153.065700 24907940.900000

>ms2
53.038500 53294.300000
55.054100 277036.000000
65.038600 120734.200000
67.041600 184869.700000
80.049400 599045.800000
82.065100 2944184.400000
83.085500 164977.300000
92.049600 45115.000000
107.060300 67858.200000
108.044300 139927.600000
109.075900 337514.000000
110.060000 4752604.000000
125.071300 40626.100000
135.055300 5336640.600000
136.039300 8673735.800000
151.050000 37067.800000
153.065700 13201494.800000

>ms2
135.055600 50982.100000
153.065800 14909438.800000
235.144000 34729466.900000

>ms2
83.085600 128054.700000
153.065900 36375218.300000
235.144300 4839665.900000

>ms2
55.054200 78036.200000
83.085600 379366.200000
135.055200 68601.100000
136.039300 128927.900000
153.065800 39753773.100000
235.144200 206734.000000

>ms2
55.054200 154023.800000
82.065100 402351.500000
83.085500 397701.000000
109.076000 66198.800000
110.060100 562424.700000
135.055300 821514.800000
136.039300 1579485.500000
153.065800 35012833.500000

>ms2
55.054200 180129.200000
65.038600 25134.300000
80.049500 80553.000000
82.065200 1254801.900000
83.085500 246922.900000
108.044400 50758.800000
109.076000 188684.900000
110.060100 2066355.400000
125.070900 33881.600000
135.055300 2719455.500000
136.039300 4654865.100000
151.050000 28122.900000
153.065800 22384517.700000

>ms2
53.038600 34239.400000
55.054200 171215.300000
65.038600 118530.000000
67.041700 122112.900000
80.049500 415604.900000
82.065200 2082127.500000
83.085500 134728.000000
92.049400 34319.200000
107.060400 21590.000000
108.044300 142237.300000
109.076000 238109.500000
110.060100 3212688.600000
125.070700 41230.300000
126.054700 20031.400000
135.055300 3970115.700000
136.039200 6378115.500000
151.050100 37579.400000
153.065700 10001493.900000

