>compound EA42654853
>parentmass 388.1059
>ionization [M+H]+
>formula C19H18ClN3O4
>rt 804.000000
>profile orbitrap
#smiles_iso COC(=O)N(C1=CC=CC=C1COC2=NN(C=C2)C3=CC=C(C=C3)Cl)OC
#smiles_can COC(=O)N(C1=CC=CC=C1COC2=NN(C=C2)C3=CC=C(C=C3)Cl)OC
#inchikey HZRSNVGNWUDEFX-UHFFFAOYSA-N
#pubchem_id 6422843
#mb_accession EA277902,EA277903,EA277904,EA277905,EA277906,EA277907,EA277908,EA277909,EA277910,EA277911,EA277912,EA277913

>ms2peaks
118.065200 12906.400000
119.036900 3998.000000
132.044500 16731.500000
133.052200 9609.200000
134.060000 31245.500000
149.047200 48638.600000
156.043900 3081.500000
162.055000 94481.500000
163.062900 180181.900000
164.070700 383704.200000
166.086500 8318.600000
194.081200 540380.600000
216.064500 3877.800000
296.058300 182280.700000
324.052600 23091.900000
328.083200 4890.600000
353.111900 2429.600000
356.079500 98962.900000
357.085900 4887.000000
388.105500 169625.000000

>ms2peaks
75.044300 4764.000000
104.049100 4683.700000
105.057400 8808.600000
118.065300 25953.200000
119.036700 15788.200000
120.044900 5602.100000
128.049400 5010.000000
132.044500 34581.000000
133.052200 99342.300000
134.060100 62681.600000
146.061000 4348.600000
149.047200 232749.000000
162.055100 143442.300000
163.063000 553403.000000
164.070700 359776.100000
166.086100 20521.500000
174.055100 4663.000000
179.057900 9946.500000
194.081300 187816.100000
261.089200 8262.700000
268.065400 4198.400000
281.047200 4468.900000
296.058600 131968.300000
324.052800 20685.400000

>ms2peaks
75.043800 5269.400000
91.054300 9373.300000
104.049500 15988.500000
105.057200 24632.100000
106.065100 10006.400000
107.072800 6626.300000
109.064900 3756.900000
116.049000 5164.400000
118.065300 22333.700000
119.036500 36972.800000
120.044300 20561.600000
128.049400 6760.600000
130.029300 5191.300000
132.044400 71018.500000
133.052200 235334.400000
134.059900 63774.000000
146.060000 13114.800000
149.047200 258303.800000
151.063500 2899.800000
162.055000 106681.800000
163.062900 737978.200000
164.070600 98652.800000
166.086200 6327.500000
179.057500 12006.600000
193.016200 4913.000000
194.081400 13190.400000
253.052800 8284.600000
268.064100 3478.200000
296.058200 47582.200000
324.053400 3986.000000

>ms2peaks
77.038700 6317.900000
91.054300 23370.700000
104.049500 60191.700000
105.057300 127280.000000
106.065100 22916.100000
107.073000 11861.800000
108.043900 3022.500000
116.049500 7531.800000
117.057400 9434.200000
118.065200 22609.000000
119.036600 66093.300000
120.044400 78774.000000
121.052100 3137.400000
121.064700 25650.900000
123.067400 5499.600000
128.049300 9297.900000
130.028600 13561.200000
132.044400 113290.800000
133.052200 333202.700000
134.060000 39261.000000
139.005900 7885.600000
146.060400 10204.800000
148.038800 11876.400000
149.047200 240014.300000
151.063100 4572.400000
156.044500 2704.100000
162.054900 84340.500000
163.062800 397648.300000
218.084200 8129.400000
243.078900 9808.700000
253.052400 13519.500000
261.089200 6197.400000

>ms2peaks
66.046400 3887.000000
77.038600 18597.200000
78.046400 8457.400000
79.054300 3296.100000
91.041300 3854.600000
91.054300 27276.400000
92.025900 2654.300000
92.049600 5412.500000
94.041100 3270.700000
104.049500 127277.000000
105.057300 200744.500000
106.028600 8251.600000
106.065200 31851.400000
107.073000 7890.200000
108.044300 4247.200000
116.049900 6066.000000
117.057400 6542.800000
118.065100 21724.200000
119.036600 79723.200000
120.044400 132307.800000
121.064700 36992.200000
123.068100 7802.300000
128.049600 5233.600000
130.028300 15070.500000
132.044400 137718.500000
133.052200 168819.100000
134.023800 19119.800000
134.060000 22358.400000
138.011000 3526.600000
139.005600 11963.600000
146.059900 3866.200000
148.039400 31276.900000
149.047100 119774.700000
162.054900 87647.300000
163.062900 89180.400000
218.084300 7470.700000
243.077100 7323.700000
253.052800 10620.300000

>ms2peaks
53.038600 2429.000000
65.038600 9572.400000
77.038500 30308.100000
78.033900 6706.400000
78.046400 24246.000000
79.054400 7240.000000
91.041600 15729.200000
91.054200 30357.000000
92.025700 5471.100000
92.049500 13555.100000
93.057200 3192.900000
94.041000 3740.000000
95.048700 4927.400000
104.049400 228483.300000
105.057200 141928.700000
106.028700 24152.000000
106.065100 33860.300000
107.073000 4427.900000
108.044400 7261.200000
116.049400 5383.400000
117.057100 10497.600000
118.065000 22695.800000
119.036500 81984.400000
120.044300 153905.000000
121.064600 40924.300000
123.067500 3968.200000
128.049900 6334.600000
130.028600 21506.200000
130.040500 9953.100000
132.044300 152399.600000
133.052200 51868.000000
134.023600 46184.700000
134.059800 11368.300000
139.005800 13606.500000
148.039200 26697.400000
149.046900 40346.700000
162.054900 78555.100000
163.062800 14433.200000
253.052000 4679.800000

>ms2peaks
118.065000 8142.300000
132.044200 12531.400000
133.052100 6314.900000
134.059800 16177.100000
149.047000 39426.300000
162.054800 81735.300000
163.062600 141230.800000
164.070500 317833.800000
166.086100 5274.500000
194.081100 446803.400000
216.065100 3872.500000
296.058100 146287.000000
298.072300 2417.000000
324.053000 19974.700000
328.085000 3734.900000
356.079000 81956.100000
388.104900 133076.100000

>ms2peaks
75.044100 2400.600000
104.049400 5411.500000
105.057300 4557.300000
106.065100 2867.200000
118.065100 19302.100000
119.036600 11533.100000
120.044000 4063.300000
128.049400 4462.900000
132.044300 26805.800000
133.052100 72608.300000
134.060000 47733.200000
146.060200 5256.600000
149.047100 177266.300000
162.054900 113799.600000
163.062800 450040.600000
164.070500 272903.300000
166.086100 17292.100000
174.054800 5747.100000
179.057500 5682.700000
191.081200 3711.300000
193.016200 3871.500000
194.081000 140320.500000
216.065900 5752.900000
253.053500 3080.500000
261.089000 6064.500000
296.058200 102238.600000
324.053200 14916.900000

>ms2peaks
75.044100 2796.400000
91.054100 6097.200000
104.049400 9102.800000
105.057300 20261.200000
106.065200 8114.700000
107.073200 3935.600000
109.064600 3563.100000
117.056900 4181.500000
118.065100 15759.700000
119.036500 25805.500000
120.044400 21498.800000
121.064900 5314.000000
128.049600 3494.900000
130.029100 3446.500000
132.044400 56547.000000
133.052200 171893.100000
134.060000 44133.600000
138.009900 1775.300000
146.060100 9534.000000
149.047100 201704.000000
151.063000 3567.700000
162.055000 72599.500000
163.062800 559015.000000
164.070500 75575.800000
166.086400 5793.000000
179.057600 7247.900000
194.081300 11948.100000
216.065400 1956.200000
218.083300 4228.100000
253.052900 10304.800000
261.089200 9986.600000
281.046000 2051.500000
296.058400 32345.500000
324.052300 2920.600000

>ms2peaks
75.044000 1661.000000
77.038600 2656.300000
78.046400 2453.100000
79.054300 4151.000000
91.054200 15434.300000
104.049500 42014.300000
105.057300 95105.800000
106.065100 16521.100000
107.072900 6547.700000
116.050000 3983.600000
117.057400 4724.600000
118.065200 14189.800000
119.036600 48133.400000
120.044400 51446.400000
121.064800 18914.200000
123.067800 5948.500000
128.049500 6798.700000
130.028500 8188.800000
132.044400 84189.600000
133.052200 236228.800000
134.023900 3168.300000
134.060100 23572.500000
138.010300 3180.800000
146.060100 7859.000000
148.039300 6431.500000
149.047200 160971.700000
151.062300 3046.100000
162.055000 56309.600000
163.062800 262749.200000
164.070600 9145.000000
204.081400 1957.200000
218.083900 8510.500000
243.079000 4786.400000
253.052100 7096.100000
296.058200 3661.000000

>ms2peaks
77.038600 10768.600000
78.046400 5738.500000
79.054100 4957.800000
91.041400 3442.800000
91.054200 17535.300000
92.025800 2875.500000
92.049500 3405.400000
93.057500 2350.000000
95.049300 2788.500000
103.041500 2417.200000
104.049500 96120.300000
105.057300 136928.000000
106.028800 3354.500000
106.065100 19800.500000
107.072600 5814.600000
108.044300 5432.200000
116.049500 5368.900000
117.057200 4689.900000
118.065100 16468.000000
119.036500 51980.000000
120.044300 99981.400000
121.064800 26719.400000
123.068300 3535.900000
128.049500 5078.100000
130.028600 12039.300000
132.044400 102436.900000
133.052200 125673.700000
134.023700 15875.800000
134.060000 14362.500000
139.005700 9195.400000
146.060300 2282.500000
148.039300 20674.800000
149.047100 81875.500000
162.054900 58847.400000
163.062700 55473.000000
218.083600 4603.100000
243.078600 4034.300000
253.052300 5277.100000
353.112100 2455.500000

>ms2peaks
53.038600 1575.300000
65.038600 4420.200000
66.046400 2896.500000
77.038600 16002.800000
78.033800 1958.500000
78.046400 10997.800000
79.054200 3693.200000
91.041600 6720.100000
91.054200 21456.800000
92.025600 2255.800000
92.049400 8036.000000
93.057200 2623.400000
95.049100 3003.000000
103.041700 2166.600000
104.049500 139360.500000
105.057300 92692.900000
106.028700 11188.400000
106.065100 18695.800000
107.072900 3026.200000
108.044200 3019.800000
116.049400 1960.500000
117.057200 4795.900000
118.065100 16341.900000
119.036600 56291.400000
120.044400 92498.700000
121.052100 1668.300000
121.064800 23338.000000
128.049400 4350.900000
130.028800 15882.600000
130.039900 6161.600000
132.044400 99298.200000
133.052200 31205.700000
134.023600 24163.400000
134.060000 9376.800000
139.005700 7697.500000
148.039400 17343.500000
149.047100 24855.600000
162.054900 43785.800000
163.062700 6777.300000
204.081000 1782.500000
218.083800 4565.200000
253.052700 3110.600000

