>compound EA42143458
>parentmass 296.07000000000005
>ionization [M+H]+
>formula C12H13N3O4S
>rt 330.000000
>profile orbitrap
#smiles_iso CC1=CC(=NO1)NS(=O)(=O)C2=CC=C(C=C2)NC(=O)C
#smiles_can CC1=CC(=NO1)NS(=O)(=O)C2=CC=C(C=C2)NC(=O)C
#inchikey GXPIUNZCALHVBA-UHFFFAOYSA-N
#pubchem_id 65280
#mb_accession EA029902,EA029903,EA029904,EA029905,EA029906,EA029907,EA029908,EA029909,EA029910,EA029911,EA029912,EA029913

>ms2
136.075500 11625.400000
236.048800 7855.000000
296.069900 1465258.600000

>ms2
65.038500 6979.000000
92.049400 5509.200000
93.033800 6442.900000
93.057500 15406.400000
94.064800 4080.300000
99.055200 24923.200000
108.044500 65133.300000
134.060100 91875.200000
135.067800 5489.500000
136.075700 127644.200000
146.071600 9883.100000
147.078600 6524.700000
150.055200 20727.300000
156.011500 15795.600000
160.087000 36225.700000
162.066200 34556.000000
176.028100 3787.100000
188.081900 103618.100000
189.090100 17516.100000
190.097600 51094.600000
194.038200 54366.700000
198.022000 196885.800000
202.097300 9354.500000
214.097900 5332.800000
218.038800 4484.700000
230.092800 7883.000000
232.108400 16668.400000
236.048800 48154.600000
254.058800 7308.300000
296.070000 543507.300000

>ms2
65.038500 42206.200000
92.049400 12924.900000
93.033400 22602.300000
93.057200 43013.400000
94.064900 9847.300000
99.055200 39154.400000
107.060500 5684.000000
108.044300 162590.300000
134.060000 417179.900000
135.067900 3864.600000
136.075600 71109.600000
146.071200 31341.400000
147.078900 22802.400000
148.086500 9935.900000
150.054800 19001.200000
152.070300 2793.700000
156.011200 32251.700000
160.086700 65936.000000
161.001900 9988.800000
162.066100 58332.400000
176.027900 10221.100000
188.081800 52186.900000
189.089900 11869.400000
190.097400 19068.900000
194.038200 35263.200000
198.021700 138655.200000
201.065600 7106.000000
236.047900 6481.600000
296.069700 18785.500000

>ms2
65.038500 147104.600000
80.049200 3407.900000
92.049400 28047.000000
93.033400 24969.400000
93.057200 52060.400000
94.065000 18990.000000
99.055200 28590.700000
106.064900 8939.200000
107.060300 6811.200000
108.044300 152947.400000
134.060000 377830.700000
136.075400 19895.200000
146.071100 35947.800000
147.078900 28585.400000
148.087000 6327.400000
156.011200 21795.500000
160.086800 55009.400000
162.065900 14750.000000
176.027500 9119.700000
188.081000 6950.700000
198.021800 10413.400000
201.066000 7217.700000

>ms2
65.038600 222463.000000
79.054300 9094.900000
80.049400 7861.200000
92.049400 56784.700000
93.033600 18430.800000
93.057300 43908.800000
94.065000 20620.900000
99.055300 15694.200000
106.065200 16747.100000
107.060700 9769.700000
108.044300 122732.300000
110.059600 4108.300000
131.060000 4685.200000
132.068500 5308.800000
134.060000 136510.300000
146.071200 22438.200000
147.079200 18522.000000
156.011100 4047.200000
160.086800 26988.300000
161.001800 3173.200000

>ms2
65.038600 213035.900000
77.038500 8828.100000
79.054200 12027.100000
80.049400 18449.400000
92.049400 59751.600000
93.033500 8733.500000
93.057300 39003.500000
94.065100 16687.000000
99.055200 5773.100000
106.065100 17484.000000
107.060200 9355.800000
108.044300 86008.500000
110.059600 5683.500000
131.060400 6098.100000
132.068400 2784.800000
134.060100 27165.600000
146.071200 14149.000000
147.079200 7765.300000
160.086500 8249.800000
296.070000 3940.400000

>ms2
136.075700 6564.700000
198.021900 7463.000000
230.093400 2392.000000
232.106900 2061.000000
236.049200 3952.400000
296.070200 931494.800000

>ms2
65.038600 2002.600000
92.049400 4837.300000
93.033400 4560.800000
93.057300 13787.500000
94.065000 2129.100000
99.055200 13820.500000
108.044400 32771.400000
134.060000 58936.100000
136.075700 79397.000000
146.071100 7057.800000
147.079300 3542.000000
149.071200 2964.000000
150.054900 12148.100000
156.011200 10674.900000
160.086900 18199.300000
161.000800 2579.900000
162.066100 19756.800000
176.027400 2309.300000
188.081800 62121.700000
189.089700 9640.100000
190.097400 26803.400000
193.043200 1913.100000
194.038000 28596.500000
198.021900 121514.300000
202.097800 4281.900000
214.097800 3098.000000
218.038000 2985.100000
230.092300 5118.800000
232.108000 6837.100000
236.048700 27830.400000
254.059700 3403.800000
296.069900 326064.200000

>ms2
65.038500 22585.100000
92.049400 9075.300000
93.033500 12113.300000
93.057200 22944.000000
94.065300 4238.300000
99.055200 20821.200000
107.060400 3539.700000
108.044300 86027.400000
134.060000 240684.600000
135.067500 2113.400000
136.075600 40167.100000
146.071200 18846.600000
147.078900 13323.800000
148.087100 4299.500000
150.054700 6814.600000
156.011300 19029.500000
160.086800 39512.800000
161.001500 4560.800000
162.066200 31303.900000
176.027400 3588.200000
188.081700 31686.600000
189.089600 7172.900000
190.097200 9798.300000
194.038000 20012.900000
198.021800 78299.200000
201.065800 2268.000000
218.037500 2770.500000
236.049400 3460.100000
296.069700 9657.000000

>ms2
65.038600 81387.300000
92.049400 18849.800000
93.033600 13141.600000
93.057300 26345.800000
94.065100 8986.900000
99.055300 15146.700000
106.065300 4949.300000
107.060400 3499.900000
108.044400 81134.700000
132.068700 1742.500000
134.060000 204757.200000
136.075600 8324.700000
146.071300 16083.200000
147.079100 14230.400000
156.011300 9465.100000
160.086900 34149.300000
161.001300 2986.100000
162.066400 6306.100000
176.027500 4752.500000
177.012200 1817.100000
189.089600 1992.300000
194.037400 2009.000000
198.021700 4474.800000
201.066200 4565.900000

>ms2
65.038600 118694.700000
79.054000 3304.700000
80.049400 5719.100000
92.049400 24562.000000
93.033400 7145.700000
93.057200 21388.500000
94.065100 5212.000000
99.055200 8839.100000
106.065100 10657.500000
107.060300 5616.200000
108.044300 59759.600000
110.059700 2324.000000
131.060300 3178.700000
134.059900 68683.200000
143.060000 1807.200000
146.071100 10915.500000
147.078900 10181.400000
156.011200 2211.200000
160.086900 14688.000000
176.027700 2666.400000

>ms2
65.038600 102283.600000
77.038600 2346.800000
79.054200 5244.000000
80.049500 6900.300000
92.049400 31889.200000
93.033600 2389.800000
93.057300 22825.300000
94.065100 7684.400000
99.055300 3153.600000
106.065100 8276.100000
107.060400 3410.300000
108.044400 40440.200000
110.060000 2877.700000
132.068100 1354.600000
134.060000 13185.000000
143.060400 1926.800000
146.071300 5967.900000
147.079000 3740.700000
160.086800 3578.700000

