>compound EA43981055
>parentmass 256.0596
>ionization [M+H]+
>formula C9H10ClN5O2
>rt 288.000000
>profile orbitrap
#smiles_iso C1CN(C(=N1)N[N+](=O)[O-])CC2=CN=C(C=C2)Cl
#smiles_can C1CN(C(=N1)N[N+](=O)[O-])CC2=CN=C(C=C2)Cl
#inchikey YWTYJOPNNQFBPC-UHFFFAOYSA-N
#pubchem_id 86418
#mb_accession EA270902,EA270903,EA270904,EA270905,EA270906,EA270907,EA270908,EA270909,EA270910,EA270911,EA270912,EA270913

>ms2
84.055600 465887.500000
128.025900 101881.700000
173.081900 40669.400000
174.090000 590948.900000
175.097700 3621462.700000
194.048000 32684.700000
209.058800 4452416.300000
210.066700 3795351.000000
212.058400 2965081.000000
226.061200 84987.300000
256.059600 26496295.300000

>ms2
56.049400 114220.100000
71.060300 19176.500000
72.068200 35849.600000
84.055600 2112706.200000
97.063400 79677.800000
98.071300 88821.700000
99.055300 248243.600000
126.010400 209071.800000
127.018200 20524.000000
128.026100 1171093.500000
151.018200 207485.400000
159.078800 17835.700000
167.024600 79875.500000
168.033100 34616.100000
173.082300 169446.900000
174.090000 1817290.100000
175.097700 13540005.800000
181.041000 22108.700000
193.040200 80376.300000
194.048200 77556.800000
196.064400 21590.700000
209.058800 13896709.300000
210.066600 2998719.500000
212.058300 4265540.100000
226.062200 25522.900000
238.049400 26776.900000
256.058900 2377341.300000

>ms2
56.049400 147318.200000
71.060500 56880.200000
72.068000 57903.600000
84.055600 2199027.700000
97.063300 192312.300000
98.071300 172427.900000
99.055100 432830.700000
126.010500 800464.600000
128.026100 2274535.300000
133.076500 78957.700000
141.021100 92334.000000
146.058700 100759.100000
146.071400 188277.500000
147.066600 136552.300000
148.086600 54583.400000
151.018300 309869.000000
158.071500 33546.900000
159.066700 33564.800000
159.079600 35202.600000
160.087300 31131.700000
167.024100 161818.300000
167.037700 155965.800000
168.031900 48831.600000
168.045100 42928.400000
173.082100 391025.000000
174.090000 2109841.200000
175.097700 17899780.300000
176.082300 81338.800000
180.031700 75669.200000
181.027700 140099.900000
193.039700 183030.500000
194.047800 130413.600000
209.058700 14640945.300000
210.066700 947198.400000
212.058400 1176104.500000

>ms2
56.049400 120770.900000
71.060300 65695.600000
72.068300 29832.900000
84.055600 1665769.900000
90.033700 28345.400000
92.049200 32249.700000
93.057400 26322.700000
97.063400 127743.100000
98.071200 167525.800000
99.055200 338655.500000
99.066400 25112.800000
105.045000 25451.200000
106.065100 49720.200000
107.060400 62760.000000
110.060400 20437.500000
113.003100 30179.000000
114.010500 85900.200000
119.060400 58329.400000
120.055100 25285.700000
126.010500 1167159.100000
127.018400 90623.200000
128.026100 1573310.600000
131.060300 59040.900000
132.055900 37734.300000
132.068400 24584.600000
133.063400 134201.000000
133.076000 302224.300000
134.071000 115011.600000
139.005600 72232.100000
141.021400 295380.600000
144.020600 18640.700000
144.992300 27489.000000
146.058600 214517.000000
146.071200 716970.800000
147.066500 622150.800000
147.079600 39073.600000
148.086800 216857.600000
151.018200 164180.000000
152.013500 34690.100000
153.021400 59048.900000
155.037600 36352.800000
158.071200 262474.000000
159.066100 89846.700000
159.078900 217634.700000
160.086600 25595.300000
166.029200 40924.200000
167.023800 70435.900000
167.037000 343317.200000
168.031700 43227.900000
173.082200 875668.600000
174.089900 1818264.700000
175.097700 15255695.000000
176.082100 71099.500000
180.032600 83519.800000
181.027500 362151.100000
191.092500 45987.900000
192.032500 23020.400000
193.040000 132815.000000
194.047800 233691.200000
209.058700 11931293.200000
210.067100 158246.300000
212.058400 163142.100000

>ms2
56.049400 119765.800000
65.038700 29709.700000
69.044900 50619.700000
71.060400 73219.200000
80.049700 58521.600000
84.055600 1399867.400000
90.033900 116757.100000
92.049500 89305.800000
93.057200 92331.000000
97.063500 45123.800000
98.071200 127073.300000
98.999500 74939.700000
99.055200 189275.200000
104.049200 37577.600000
105.044700 196376.500000
106.065100 301135.800000
107.060200 291102.600000
108.068100 50356.000000
110.060200 60710.000000
113.002600 56264.800000
114.010600 156908.600000
117.045300 27278.900000
118.052400 34942.800000
119.047900 96086.900000
119.060400 266241.900000
120.055900 156263.400000
120.068100 44697.600000
121.075700 33911.700000
122.071100 73201.500000
123.055100 50543.400000
126.010500 1289788.400000
127.018500 208724.500000
128.026100 981183.000000
131.060300 224983.700000
132.055500 172584.300000
132.068200 59711.400000
133.063400 500364.300000
133.076100 638402.800000
134.071200 427865.800000
135.055400 42659.700000
135.079300 91853.100000
138.010300 53619.400000
139.005600 115434.700000
139.018700 42429.700000
140.013900 59039.800000
140.026000 82333.400000
141.021400 531306.000000
144.020700 81095.800000
144.992100 94737.700000
145.051000 46363.900000
146.058300 252935.600000
146.071200 1356941.700000
147.066500 1577966.500000
148.074000 37283.200000
148.086900 713337.300000
151.018200 71247.800000
153.021400 78219.900000
154.016400 49329.100000
155.037600 56726.800000
157.063500 70387.500000
158.071200 718260.900000
159.066000 155777.400000
159.079100 993740.400000
160.074700 37320.200000
160.087600 56576.800000
166.016800 149078.800000
167.037100 460138.500000
173.082200 1881113.600000
174.090000 1627606.600000
175.097700 10094786.400000
180.032500 114197.800000
181.027600 576430.700000
182.047800 26762.600000
191.092700 209159.100000
194.047800 289601.800000
207.042600 58917.200000
208.051000 264448.300000
209.058800 10252692.200000
212.058500 44220.700000

>ms2
56.049400 78751.500000
63.022700 29785.400000
65.038600 80840.600000
69.044700 69176.900000
71.060400 57152.000000
72.983900 22336.200000
78.033800 47690.500000
79.054300 31522.600000
80.037200 18962.600000
80.049400 157488.400000
84.055600 981305.900000
90.033900 193504.900000
91.041600 63977.700000
92.036700 39782.900000
92.049400 193422.000000
93.044800 55567.500000
93.057200 91491.800000
95.060400 38331.200000
96.044300 110631.600000
96.055300 20403.300000
97.063100 15424.600000
98.071200 79424.300000
98.999600 168222.000000
99.055300 108481.600000
104.049400 108901.100000
105.044700 605645.300000
106.052500 57591.200000
106.065100 506611.400000
107.060300 439328.900000
108.068200 124505.700000
109.063300 70291.300000
110.060100 37574.800000
111.994800 31859.600000
113.002400 53279.200000
114.010400 168844.000000
117.044600 85310.600000
117.056900 29129.000000
118.039800 38702.700000
118.052500 203926.100000
119.047800 154558.500000
119.060300 454524.500000
120.055600 464092.300000
120.068600 40480.300000
121.040100 33063.000000
121.063500 32795.300000
121.076100 57342.200000
122.071300 116521.400000
123.055300 130589.600000
126.010400 815314.200000
127.018300 244859.700000
128.026100 405469.100000
130.005600 30256.800000
130.039500 37659.100000
131.047700 71108.300000
131.060300 453661.300000
132.055600 296485.800000
132.068300 141087.100000
133.063400 689838.500000
133.076000 494963.000000
134.071300 427843.700000
135.055200 94957.100000
135.079100 191743.200000
138.010400 55677.000000
139.005600 174473.200000
139.018500 22455.800000
140.013700 31767.100000
140.026300 92996.900000
141.021400 665830.800000
142.029200 21996.100000
144.020900 101328.800000
144.992400 134675.300000
145.050800 119746.500000
146.058600 169370.000000
146.071200 1090302.300000
147.066400 1585294.000000
147.079600 89123.300000
148.074000 91456.900000
148.086900 664992.800000
150.066400 44210.400000
151.005900 36514.800000
151.018600 38761.100000
152.012900 43569.000000
153.020700 77076.400000
154.016400 61876.600000
155.037000 33939.500000
157.063400 178004.400000
158.071200 770733.100000
159.079100 1391791.500000
160.074600 44859.900000
160.087700 58382.100000
163.061300 57800.900000
165.021300 54718.200000
166.016700 370244.900000
167.037000 281311.300000
168.033000 21750.200000
172.074100 28001.800000
173.082100 2491193.300000
174.089900 1092049.400000
175.097700 3317574.700000
180.019800 241442.200000
181.027500 470639.600000
182.047100 23059.900000
191.092400 253578.600000
192.031600 26657.700000
193.027500 37018.900000
194.048000 218540.100000
207.043100 144935.900000
208.050700 469430.200000
209.058700 4838825.600000

>ms2
84.055600 408212.100000
128.026100 108084.100000
174.089900 521293.600000
175.097700 3735427.900000
194.047100 33882.700000
209.058700 4478819.000000
210.066500 3624763.800000
212.058400 2872437.600000
226.061500 105311.300000
256.059400 26949346.900000

>ms2
56.049400 102425.000000
71.060300 18127.100000
84.055600 1912801.200000
97.063400 71850.800000
98.071300 57653.600000
99.055300 189094.800000
126.010500 188543.200000
127.018200 25252.600000
128.026100 1108299.100000
129.053400 14537.300000
151.018300 178030.100000
167.024500 46718.300000
167.036800 29484.300000
168.032400 20451.400000
173.082400 139247.700000
174.090000 1637557.700000
175.097800 12518516.700000
176.082400 24374.000000
180.045400 13507.300000
181.040100 26767.900000
193.040100 70885.100000
194.047800 59851.800000
195.032000 54671.700000
195.043300 35836.800000
196.063500 17074.200000
209.058800 12966538.700000
210.066500 2876108.600000
212.058400 3795958.900000
226.061400 42262.300000
238.049200 30076.900000
256.059400 2385160.900000

>ms2
56.049400 108253.700000
71.060300 54310.100000
72.068100 38716.400000
84.055600 1942625.300000
97.063500 176604.500000
98.071200 149942.900000
99.055300 350007.900000
114.010400 32112.000000
126.010500 612081.200000
127.018400 42981.300000
128.026100 1827083.000000
133.076000 47419.500000
139.006000 15638.900000
141.021400 82661.200000
146.058700 85365.300000
146.071200 152520.700000
147.066400 104211.100000
148.086900 31577.300000
151.018300 216794.100000
152.013400 17831.800000
153.021200 27612.900000
158.071300 41065.500000
159.066400 26980.900000
166.029800 22932.600000
167.024500 105437.000000
167.037100 125300.900000
168.032100 41105.000000
168.044700 41755.100000
169.052700 23899.000000
173.082100 316215.200000
174.089900 1910860.400000
175.097800 15536532.900000
176.082300 62891.700000
180.032100 68148.800000
181.027500 114604.700000
181.040000 78314.800000
193.040000 164532.300000
194.047900 128151.200000
195.031900 62724.800000
195.043200 67117.700000
209.058800 12471195.300000
210.066500 768529.200000
212.058300 934346.500000
256.058900 42314.100000

>ms2
56.049500 106986.500000
71.060300 64665.000000
72.068300 21484.900000
84.055600 1380083.600000
90.033800 17847.300000
92.049400 19293.100000
93.057500 21408.900000
97.063400 92634.200000
98.071200 137723.800000
99.055300 234139.400000
99.066400 17006.500000
105.044500 17559.300000
106.065000 37937.600000
107.060300 40962.000000
110.059600 17678.700000
113.002800 26581.800000
114.010500 70643.800000
119.047800 23459.400000
119.060100 45497.600000
120.055600 14929.700000
122.071000 16283.100000
126.010500 1029847.100000
127.018300 93045.500000
128.026100 1310407.300000
131.060300 34430.900000
132.055700 34369.000000
132.068300 17859.700000
133.063300 85684.300000
133.076000 226958.100000
134.071200 78079.800000
139.005800 52350.000000
140.013500 16277.700000
140.026300 25757.000000
141.021300 271465.600000
144.021100 31612.300000
144.992500 41270.600000
146.058700 183541.700000
146.071200 651012.900000
147.066500 494847.100000
147.078800 34199.100000
148.086900 200956.800000
151.018300 137169.500000
152.013700 30662.300000
153.021300 62015.100000
154.016700 24164.300000
155.036800 23065.500000
158.071100 221324.400000
159.066600 51971.600000
159.079000 175635.000000
160.087000 31982.700000
166.016500 15860.100000
166.029000 14019.600000
167.000500 17839.900000
167.024500 78319.200000
167.037000 285741.300000
168.032000 38686.700000
168.044300 14409.700000
169.052000 13465.400000
173.082100 666514.700000
174.090000 1662908.500000
175.097700 13424472.300000
176.082100 38211.100000
180.032400 74538.800000
181.027500 319566.600000
181.039700 31357.000000
191.093200 28097.200000
192.032200 16147.200000
193.039900 95274.100000
194.047900 185794.800000
195.032100 18690.600000
195.043300 49653.100000
209.058800 10289931.600000
210.066500 131272.600000
212.058300 132251.500000

>ms2
56.049400 96440.600000
65.038600 18364.800000
69.044600 25482.200000
71.060300 50554.300000
72.068000 12268.400000
78.033800 17832.400000
79.054000 10114.400000
80.049400 36774.100000
84.055600 1062589.700000
90.033700 76015.600000
91.041500 12216.400000
92.049400 84902.400000
93.057300 55958.400000
96.044300 16384.100000
97.063500 42229.500000
98.071200 78681.700000
98.999600 49844.100000
99.055200 152535.300000
102.042700 9642.600000
104.049300 24448.200000
105.044700 142877.500000
106.052500 21157.600000
106.065100 197197.400000
107.060300 191554.100000
108.068000 47969.800000
109.063800 12952.600000
110.059700 24972.700000
113.002700 31159.100000
114.010400 97186.400000
117.044700 15402.400000
117.057600 17128.100000
118.052500 36282.400000
119.047700 65977.600000
119.060300 197883.200000
120.055500 117735.800000
120.068100 16129.300000
121.063300 21372.700000
122.071400 40336.700000
123.055200 35694.700000
126.010400 962970.300000
127.018300 142513.300000
128.026100 756093.700000
128.997700 12703.300000
131.047600 26884.700000
131.060300 140071.800000
132.055500 132837.000000
132.068000 58333.500000
133.063400 378059.400000
133.076000 429060.100000
134.071200 314366.000000
134.083600 28801.300000
135.055300 14698.300000
135.079000 67173.800000
138.010100 19314.200000
139.005700 85200.500000
139.018400 14978.600000
140.013600 29262.600000
140.026000 37823.800000
141.021300 417056.500000
142.005500 18826.500000
142.029400 19265.300000
144.021000 50238.700000
144.992400 72244.200000
145.050700 25112.400000
146.058700 211110.000000
146.071200 927952.600000
147.066400 1149450.400000
147.078800 66544.300000
148.074300 38410.100000
148.086800 485468.100000
150.065900 19389.400000
151.006100 17589.800000
151.018400 56370.200000
152.013300 42683.000000
153.021400 59163.000000
154.016500 31838.300000
155.036700 44220.800000
157.063500 52738.500000
158.071100 559433.000000
159.066700 100533.300000
159.079000 750453.100000
160.074500 22632.500000
160.086800 42430.200000
165.021100 32476.600000
166.016500 107156.400000
167.000300 19296.900000
167.037000 322813.000000
168.032200 16960.600000
173.082100 1454787.800000
174.089900 1249473.700000
175.097700 7747661.500000
176.081900 22828.100000
180.019800 36694.600000
180.032000 94717.200000
181.027400 451246.400000
182.047900 25873.500000
191.092600 171248.800000
192.031800 26608.400000
193.040000 42237.400000
194.047900 209670.700000
195.043500 26460.600000
207.043200 41810.200000
208.051000 170185.500000
209.058800 7759471.000000

>ms2
56.049400 50788.100000
63.022900 17701.000000
65.038500 50446.000000
69.044700 60128.400000
71.060300 47365.100000
72.984000 19946.500000
78.033700 41766.900000
79.054100 33765.400000
80.036900 17567.600000
80.049400 119943.600000
84.055600 706716.900000
85.039200 9223.200000
90.033700 139069.100000
91.041500 43773.100000
92.036900 29783.200000
92.049400 122106.400000
93.044600 28103.200000
93.057200 80684.500000
95.060300 26115.800000
96.044300 73269.600000
96.055700 31144.700000
97.063500 10519.200000
98.071300 32880.800000
98.999500 145854.600000
99.055200 65379.700000
102.042900 8725.500000
104.049400 71062.400000
105.044700 434484.400000
106.052400 53911.000000
106.065100 364303.300000
107.060300 332600.600000
108.068200 80623.900000
109.063400 46674.300000
110.060100 36876.600000
111.995000 17190.100000
113.002600 38034.000000
114.010400 99208.100000
117.044600 42079.800000
117.057200 12270.100000
118.040000 26529.600000
118.052400 150455.000000
119.047700 103416.700000
119.060300 329572.400000
120.055600 354009.500000
120.068100 35628.900000
121.039500 35067.100000
121.063200 20447.500000
121.076100 36772.300000
122.071200 70391.400000
123.055200 98871.700000
126.010500 650676.100000
127.018300 180675.400000
128.026200 267626.500000
128.997600 13245.000000
130.005300 12273.000000
130.040100 27401.300000
131.047700 72148.700000
131.060300 322119.000000
132.055600 220496.800000
132.068100 108226.600000
133.063400 530690.400000
133.076000 361187.600000
134.071200 348966.800000
134.083600 28357.600000
135.055100 54272.200000
135.079000 148455.300000
138.010400 53144.300000
139.005700 152002.600000
139.017800 12915.600000
140.013600 22066.700000
140.026000 64940.900000
141.021400 480214.100000
142.029100 19278.800000
144.021000 107770.500000
144.992400 98849.700000
145.050700 114895.800000
146.058700 100567.000000
146.071100 856429.800000
147.066400 1257884.700000
147.078800 97901.000000
148.074100 59226.400000
148.086800 535387.700000
150.066100 18444.600000
151.005700 19678.400000
151.018300 31885.700000
152.013500 30798.400000
153.021300 63069.400000
154.016500 29233.300000
155.037200 40459.500000
157.063300 154548.800000
158.071200 546490.000000
159.067000 64811.400000
159.079000 1056868.200000
160.074400 33980.700000
160.086700 32322.900000
163.061300 46135.600000
165.021200 33344.700000
166.016500 245069.600000
167.037000 238343.000000
168.032800 18170.300000
172.074400 29519.100000
173.082000 1922061.900000
174.089900 909961.100000
175.097700 2663530.200000
180.019600 169839.500000
180.032100 69153.700000
181.027400 369413.200000
182.047700 20803.000000
191.092600 227483.100000
193.028000 12177.300000
194.047700 166361.000000
195.043500 10048.900000
207.043300 119700.200000
208.051000 346366.200000
209.058700 3826045.400000

