>compound EA43621796
>parentmass 226.1662000000001
>ionization [M+H]+
>formula C10H19N5O
>rt 402.000000
>profile orbitrap
#smiles_iso CCNC1=NC(=NC(=N1)OC)NC(C)(C)C
#smiles_can CCNC1=NC(=NC(=N1)OC)NC(C)(C)C
#inchikey BCQMBFHBDZVHKU-UHFFFAOYSA-N
#pubchem_id 36584
#mb_accession EA034602,EA034603,EA034604,EA034605,EA034606,EA034607,EA034608,EA034609,EA034610,EA034611,EA034612,EA034613

>ms2peaks
226.166500 36509899.800000

>ms2peaks
170.103800 11638254.900000
226.166400 28123966.900000

>ms2peaks
69.008400 102134.300000
71.060300 57723.900000
75.055400 111098.100000
85.076000 83188.800000
97.039700 40982.800000
100.050800 55854.700000
114.066200 365679.600000
128.081700 158343.400000
142.072400 401855.000000
170.103900 28321458.000000
226.166400 6870992.100000

>ms2peaks
57.044700 364184.900000
57.069900 55685.700000
58.028900 50703.000000
68.024300 260739.600000
69.008400 664731.800000
71.060400 245676.100000
75.055400 872158.500000
82.039600 41654.000000
83.024200 88153.400000
85.076100 441899.300000
86.035000 473892.700000
96.055600 262144.700000
97.039700 366724.200000
99.066500 51747.200000
100.050600 786343.100000
110.071200 44010.600000
114.066300 1633526.900000
127.097900 35211.200000
128.081900 889679.400000
138.077500 160948.400000
142.072500 1722091.100000
170.103900 20779367.200000

>ms2peaks
57.044700 743727.700000
57.069900 73491.500000
58.028600 83133.700000
68.024300 827125.900000
69.008300 1888030.100000
71.060400 544458.800000
75.055300 1633043.000000
82.040100 129179.500000
83.024100 215347.700000
85.051100 38660.300000
85.076100 564348.900000
86.034900 962845.800000
96.055600 827500.100000
97.039700 634385.800000
99.066700 148300.000000
100.050600 2168815.300000
110.071500 46124.000000
113.082200 66364.200000
114.066200 1752157.700000
127.097900 52360.800000
128.081900 1480860.600000
138.077600 279286.000000
142.072400 2363833.700000
168.088100 74011.900000
170.103500 7108653.600000

>ms2peaks
57.044700 992872.200000
57.069800 59654.100000
58.028800 191623.400000
68.024300 1433932.100000
69.008400 2065217.900000
71.060500 591610.100000
75.055300 1507885.400000
82.040000 150516.100000
83.024100 211137.900000
85.050900 76340.900000
85.076100 422275.900000
86.034900 904103.700000
96.055600 719474.000000
97.039700 459981.800000
99.066500 109279.800000
100.050600 2709396.300000
110.046000 91411.700000
114.066300 810602.600000
125.046000 42245.000000
128.081900 799891.000000
138.077500 141042.000000
142.072400 1186275.000000
153.076500 29301.100000
168.088100 39755.100000
170.103700 1348482.700000

>ms2peaks
170.103700 543595.600000
226.166400 27311004.600000

>ms2peaks
170.103900 8579223.500000
226.166500 20033703.900000

>ms2peaks
57.044600 33649.200000
69.008400 22851.300000
71.060300 24456.100000
75.055300 84841.300000
85.076000 33382.900000
86.035000 38534.400000
97.039800 30881.800000
100.050600 95508.400000
114.066300 229575.900000
128.081900 84815.800000
142.072400 279772.500000
170.103900 18991223.300000
226.166400 4399557.300000

>ms2peaks
57.044700 192253.900000
57.069900 32912.000000
68.024400 155981.800000
69.008400 500878.600000
71.060400 173515.400000
75.055400 572560.300000
82.040000 26339.500000
83.024100 69452.700000
85.076100 236579.000000
86.035000 316796.400000
96.055700 192922.900000
97.039700 246652.800000
99.066400 27590.700000
100.050600 529712.100000
110.071400 28301.800000
113.082300 29932.500000
114.066300 956801.500000
127.097700 36850.300000
128.082000 550207.600000
138.077500 129963.300000
142.072500 1309821.400000
153.077600 22028.100000
168.088200 46622.800000
170.103800 13541758.300000
226.166400 254914.300000

>ms2peaks
57.044700 515208.700000
57.069800 40108.700000
58.028700 55214.500000
68.024300 516566.700000
69.008400 1122030.800000
71.060400 304531.100000
75.055300 975255.100000
82.040100 74299.600000
83.024000 113721.100000
85.050800 21961.400000
85.076000 376413.900000
86.034900 609231.700000
96.055600 474062.400000
97.039700 439414.100000
99.066600 69230.100000
100.050600 1327711.400000
110.046100 34322.800000
110.071400 30082.600000
113.082100 24078.400000
114.066200 1074889.800000
125.045800 29144.100000
127.097700 36505.800000
128.081900 922859.200000
138.077400 199813.300000
142.072400 1465367.900000
153.077200 43069.800000
168.087800 46301.500000
170.103700 4660378.900000

>ms2peaks
57.044700 653195.200000
58.028700 101890.400000
68.024400 902297.900000
69.008400 1244375.500000
71.060400 348610.100000
75.055300 928253.500000
82.040000 91672.000000
83.024000 97248.900000
85.050900 38459.600000
85.076100 205695.100000
86.034900 512459.900000
96.055700 434634.400000
97.039700 247705.100000
99.066500 76805.300000
100.050600 1588812.800000
110.046200 31693.500000
110.071300 8907.800000
113.082200 19660.100000
114.066200 468951.500000
125.045900 12699.000000
127.097800 8876.600000
128.081900 511298.900000
138.077500 82758.300000
142.072400 704071.400000
153.077300 15028.600000
168.088400 20829.000000
170.103700 853509.400000

