>compound EA43739603
>parentmass 182.04819999999998
>ionization [M+H]+
>formula C5H11NO4S
>rt 60.000000
>profile orbitrap
#smiles_iso CC(=O)NCCCS(=O)(=O)O
#smiles_can CC(=O)NCCCS(=O)(=O)O
#inchikey AFCGFAGUEYAMAO-UHFFFAOYSA-N
#pubchem_id 71158
#mb_accession EA284802,EA284803,EA284804,EA284805,EA284806,EA284807,EA284808,EA284809,EA284810,EA284811,EA284812,EA284813

>ms2
123.011400 13565.800000
140.037700 856022.500000
182.048300 1128454.900000

>ms2
100.075700 18887.000000
122.026800 6274.600000
123.011000 86471.600000
140.037600 2463390.600000
182.048100 387815.000000

>ms2
58.065000 3497.200000
59.049300 7641.800000
100.075700 46941.100000
122.026900 15808.600000
123.011000 295065.800000
140.037600 1862696.700000
182.048300 28342.800000

>ms2
58.065100 8367.600000
59.049100 19535.700000
100.075700 40513.600000
122.026900 26541.600000
123.011000 592821.600000
140.037600 828957.700000

>ms2
58.065100 18416.200000
59.049100 23932.200000
100.075600 18806.600000
101.004400 2134.700000
122.026900 17487.600000
123.011000 429300.300000
140.037400 184340.100000

>ms2
58.065000 12762.600000
59.049100 17001.400000
100.075500 5643.800000
122.027600 6712.300000
123.010900 168775.200000
140.037100 25067.000000

>ms2
123.011300 5767.600000
140.037600 544352.200000
182.048100 689634.700000

>ms2
100.075600 13105.300000
122.026800 3822.300000
123.011000 68431.400000
140.037500 1611048.800000
182.048100 245863.400000

>ms2
59.049100 6135.400000
100.075600 31932.200000
122.026800 9941.900000
123.010900 208987.400000
140.037500 1208746.100000
182.048300 15401.300000

>ms2
58.065100 6595.500000
59.049100 10267.600000
100.075600 23581.300000
122.026900 14661.900000
123.011000 363161.200000
140.037600 492845.900000

>ms2
58.065100 7554.800000
59.049100 13178.700000
100.075600 11592.800000
122.026900 10945.500000
123.011000 256373.800000
140.037500 104330.800000

>ms2
58.065100 9230.400000
59.049100 8262.000000
100.075600 3969.700000
122.027200 3243.700000
123.011000 90917.600000
140.037600 17074.200000

