>compound EA43726623
>parentmass 306.1448
>ionization [M+H]+
>formula C15H19N3O4
>rt 342.000000
>profile orbitrap
#smiles_iso CC(C)C1(C(=O)NC(=N1)C2=C(C=C(C=N2)COC)C(=O)O)C
#smiles_can CC(C)C1(C(=O)NC(=N1)C2=C(C=C(C=N2)COC)C(=O)O)C
#inchikey NUPJIGQFXCQJBK-UHFFFAOYSA-N
#pubchem_id 86137
#mb_accession EA293902,EA293903,EA293904,EA293905,EA293906,EA293907,EA293908,EA293909,EA293910,EA293911,EA293912,EA293913

>ms2peaks
260.140600 254579.000000
261.131400 421988.900000
264.109400 434171.500000
306.144500 149195174.200000

>ms2peaks
69.069700 224753.000000
86.096400 1478678.500000
149.070300 267753.200000
192.077600 157137.300000
193.060900 836633.400000
210.087500 156203.500000
217.133700 1621166.200000
220.107900 171600.400000
234.159800 399629.300000
235.095600 161322.400000
243.113500 168248.700000
246.087500 1545414.300000
260.139500 3159514.400000
261.123500 10425987.800000
262.154900 397934.500000
263.089300 302789.200000
264.097900 11384054.000000
278.149900 10894025.400000
288.134100 1779412.900000
306.144500 113765418.700000

>ms2peaks
58.065200 152256.100000
69.069900 3271106.200000
86.096500 12436437.700000
97.064900 512332.500000
114.091700 161724.900000
149.071000 2232504.700000
163.050200 1499527.700000
175.050200 533748.500000
176.106700 152070.200000
177.102100 73685.600000
187.086100 184792.400000
191.081500 1417600.300000
192.076800 4479015.300000
193.060800 17082670.600000
195.076800 132244.400000
205.060400 135239.600000
210.087400 265320.700000
217.133600 4106395.300000
218.092300 4015113.100000
219.112600 1086447.300000
220.107600 792418.700000
221.092200 244239.000000
234.159700 245764.300000
235.095100 1042921.100000
236.102600 79259.200000
243.112800 3198680.100000
245.079400 589862.800000
246.087500 18615988.600000
260.139500 7553816.400000
261.123500 31435390.000000
262.154500 167126.600000
263.090000 1276298.100000
264.097900 15281996.500000
278.149800 6264912.100000
288.134100 830889.800000
306.145000 15520918.600000

>ms2peaks
58.065300 127713.800000
67.054200 211782.400000
69.069900 5560587.400000
84.080600 70088.600000
86.096500 15592110.300000
94.065200 63071.400000
97.064700 388488.400000
109.064900 115237.100000
119.060800 136114.400000
120.044800 101249.100000
122.060100 308924.000000
140.070200 79462.000000
145.039800 449322.500000
147.054700 140069.400000
148.063200 506468.200000
149.070900 2339309.300000
150.055000 96183.300000
159.054800 164808.100000
160.050600 130179.900000
161.058100 241430.700000
161.070900 464186.400000
162.042700 258147.800000
162.066000 131281.100000
163.050200 8285562.300000
168.065000 114797.900000
175.050300 2344312.900000
177.065800 904730.800000
177.102300 170955.700000
180.065500 121724.200000
187.073600 218537.500000
191.081500 4900662.200000
192.076800 6051434.600000
193.060800 17500615.100000
212.094200 136476.700000
213.101600 116189.900000
215.069000 455325.200000
216.077100 412742.600000
217.084500 504027.300000
217.133400 762722.100000
218.092400 11255321.200000
219.112500 926734.600000
220.107100 380625.500000
221.091900 209220.500000
228.089600 66008.200000
235.095100 995049.700000
243.112700 2120390.400000
245.079400 847396.000000
246.087400 11891229.900000
260.139400 1011212.600000
261.123500 3583094.500000
263.090000 369496.700000
264.097700 1148275.400000

>ms2peaks
58.065200 64693.400000
65.038600 69506.000000
67.054200 213794.100000
69.069900 4544905.900000
70.065100 81276.400000
71.073000 208637.200000
79.041700 71866.500000
79.054300 76501.100000
84.080600 62090.100000
86.096500 11883637.800000
88.018000 92796.500000
90.033800 76691.000000
92.049500 491132.800000
94.052200 106982.200000
97.064800 118065.700000
105.045000 109202.600000
106.028500 57666.500000
107.036700 67284.100000
107.060400 482022.500000
108.044100 124143.800000
109.064700 153972.700000
110.060100 153368.300000
111.043900 104708.300000
115.028600 91535.700000
117.044600 378094.500000
118.052500 579470.000000
119.060400 767642.100000
120.044400 334868.000000
121.039700 177764.700000
122.060100 1715122.700000
123.068100 207348.700000
131.060600 124384.100000
132.031200 59755.200000
133.039900 108871.900000
133.075900 72679.800000
134.047300 163169.900000
135.055400 258517.000000
140.070700 780526.100000
144.031700 126200.900000
144.080700 77210.900000
145.039600 2790574.600000
146.023900 121328.200000
147.055300 696628.500000
148.063000 1331586.000000
149.035000 150262.900000
149.070900 1808425.900000
150.042000 91032.800000
150.055100 195034.600000
151.087000 113708.800000
158.070900 71258.000000
159.055200 282144.500000
159.079100 98618.900000
160.050500 379699.800000
160.063300 514038.300000
161.058000 910990.000000
161.071000 1764757.000000
162.042400 1311906.900000
162.066100 269370.900000
163.050300 12953984.400000
165.066000 322593.000000
168.065400 473442.600000
171.091600 110733.700000
175.050300 5116509.300000
176.058100 222905.000000
177.065800 1345550.700000
180.065000 71379.300000
184.099100 146215.500000
186.065800 119380.200000
187.074000 844877.800000
188.082200 410588.900000
191.081500 5643729.300000
192.076800 2630091.900000
193.060700 6062847.700000
203.069400 206239.000000
212.095200 136111.500000
213.101700 69461.600000
215.068800 1143547.000000
216.076600 454170.200000
217.084500 220690.200000
218.092300 4524384.000000
219.113200 284199.700000
220.097400 83905.100000
230.094400 79464.900000
235.094500 277976.200000
243.112300 284932.100000
245.078900 150006.300000
246.087300 2508932.500000
260.140300 100930.500000
261.132300 63083.400000

>ms2peaks
56.049400 128778.600000
58.065300 56862.400000
63.022700 89360.900000
65.038500 348254.400000
67.041600 80944.000000
67.054200 227992.100000
69.069900 3033355.100000
70.065000 166622.900000
71.073000 576338.200000
78.033900 72321.900000
79.041500 213983.400000
80.049300 164744.600000
81.033200 68068.300000
86.096400 6375413.600000
88.018200 798221.500000
90.033800 328600.600000
91.041800 128194.100000
92.049500 1506242.400000
94.052800 114259.000000
105.044700 343347.800000
106.028700 121881.400000
106.065600 86604.900000
107.036800 115359.200000
107.060300 873372.200000
108.044400 330466.000000
109.064900 119152.100000
110.060200 321397.200000
111.044300 124807.500000
115.029100 340291.100000
116.037000 102855.200000
117.044800 1187834.000000
118.052500 2015941.300000
119.060400 1097946.800000
120.044300 624699.000000
120.068400 113107.300000
121.039500 197874.200000
122.060000 3535571.000000
123.067900 310721.100000
131.059900 223302.500000
132.032100 120594.600000
132.056100 50146.700000
133.039700 431204.300000
133.075900 275003.500000
134.047300 198073.200000
135.055300 469253.500000
140.070600 1797761.700000
144.031700 719768.700000
144.080700 104573.500000
145.039600 3988593.200000
146.023700 205102.900000
146.047500 299682.200000
147.055200 1005822.800000
148.063000 1207853.700000
149.034300 315268.200000
149.070900 804475.200000
150.042400 122830.100000
150.054900 123830.500000
151.050200 66000.000000
151.086300 103968.900000
155.057500 242547.900000
158.070500 103149.900000
159.055100 280410.900000
159.079500 127964.500000
160.049800 266322.100000
160.063100 1306351.300000
161.058100 1261136.800000
161.071300 1586112.300000
162.042400 2011763.400000
162.066000 188498.200000
163.050200 6890878.800000
164.034000 95276.700000
165.065700 276919.500000
168.065600 288971.300000
171.092200 118758.000000
173.070900 118102.900000
175.050500 2877216.600000
176.058400 172915.400000
177.065900 481675.500000
179.045100 107539.400000
184.099100 77225.500000
186.066000 112053.400000
187.074000 736581.900000
188.082300 156187.300000
191.081300 2039306.100000
192.076700 496887.200000
193.060900 923754.100000
197.070600 60730.800000
204.089400 39936.900000
212.094200 46032.000000
215.068900 556648.900000
216.076500 111906.200000
218.092100 663112.800000
230.092800 75526.800000
306.145500 74134.600000

>ms2peaks
306.144500 132894166.800000

>ms2peaks
69.069900 138505.200000
86.096500 1110979.000000
149.070900 195537.000000
192.076800 210522.900000
193.060800 745682.700000
217.133600 1572887.400000
220.108200 113089.200000
234.160300 361732.900000
235.095300 127583.700000
243.111800 161292.200000
246.087100 1126801.400000
260.139400 2592406.200000
261.123400 8437606.000000
262.155200 247687.500000
263.090000 328082.000000
264.097900 9562728.800000
278.150000 9504736.000000
288.134200 1435584.000000
306.144500 93646882.000000

>ms2peaks
58.065100 125211.300000
67.054300 65788.800000
69.069900 2064074.300000
86.096500 8669593.000000
97.064900 370168.800000
114.091300 97581.200000
149.071000 1597970.800000
163.050300 1004858.000000
175.050300 335296.200000
176.107300 68182.300000
177.066400 55093.800000
177.102700 44096.900000
187.086800 98556.500000
191.081600 896770.700000
192.076800 3261115.300000
193.060900 12161377.600000
210.087100 178341.000000
217.133600 2936069.800000
218.092500 2864698.700000
219.112800 787236.400000
220.096200 165909.300000
220.108100 593923.800000
221.092000 167206.100000
234.159800 190133.800000
235.095100 665972.000000
236.102600 81108.800000
243.112800 2171621.700000
245.079500 415430.300000
246.087500 13052867.200000
260.139400 4967088.800000
261.123500 21580073.600000
262.155300 131493.200000
263.089900 899246.700000
264.097900 9809447.200000
278.149800 4504865.100000
288.134300 545277.500000
306.145000 10754120.600000

>ms2peaks
58.065200 88209.500000
67.054200 125258.200000
69.069900 4075963.000000
71.072800 37001.100000
86.096500 10837759.900000
97.064800 281677.600000
109.064900 48085.100000
114.091800 35058.300000
118.052800 41767.900000
119.060400 107018.500000
120.044700 38742.400000
121.039300 61250.900000
122.060000 189026.400000
135.054700 34027.300000
140.070700 51396.900000
145.039600 348750.300000
147.055100 95778.500000
148.063100 490249.000000
149.071000 1860098.700000
150.042800 46685.700000
150.054800 62834.100000
151.086600 58416.600000
159.055200 86186.900000
160.050800 60208.300000
161.058500 188749.400000
161.071000 354842.500000
162.042300 199235.000000
162.066100 95550.400000
163.050200 6156770.900000
165.065500 54145.300000
168.065400 81600.700000
175.050200 1881584.700000
177.065900 631071.400000
177.102200 108660.900000
180.065300 95732.100000
187.073900 121802.300000
187.086800 98573.500000
188.081900 87218.000000
189.101900 77596.200000
191.081600 3634720.800000
192.076800 4661634.600000
193.060900 13224935.300000
195.076600 36198.500000
203.068600 74006.200000
204.089000 34132.600000
205.060900 60494.200000
212.094000 111468.000000
213.102400 78293.100000
215.068900 300549.700000
216.077000 242778.100000
217.084500 309634.100000
217.133500 608992.600000
218.092500 8320806.200000
219.112800 732154.400000
220.096800 136299.000000
220.107900 252947.400000
221.091800 160007.000000
228.089400 38451.800000
235.095100 639807.300000
243.112900 1536028.600000
245.079300 542667.700000
246.087400 8766970.800000
260.139000 633767.200000
261.123300 2646117.400000
263.090000 299481.600000
264.097900 1022486.000000

>ms2peaks
58.064900 37105.600000
63.022800 32670.200000
65.038800 63531.100000
67.041500 39199.800000
67.054300 107098.400000
69.069900 2835212.600000
70.065200 35087.800000
71.072900 121504.400000
79.041600 59528.100000
79.054200 49834.800000
86.096500 7076269.700000
88.018100 75693.700000
92.049500 344313.700000
94.052700 85573.400000
97.064600 45294.800000
105.044700 79092.800000
106.029100 36799.600000
107.060400 224482.100000
108.044200 77836.400000
109.064900 85502.300000
111.044000 45461.200000
115.029100 65499.000000
117.044700 250709.300000
118.052600 294894.200000
119.060300 429205.300000
120.044300 199469.400000
121.039500 114962.200000
122.060000 998908.400000
123.067800 151469.600000
131.060400 67598.700000
134.047300 76658.000000
135.055300 163543.100000
140.070600 432702.100000
144.032000 58640.500000
144.080400 47302.900000
145.039600 1730244.300000
146.023500 70949.100000
146.048100 50552.100000
147.055200 453736.700000
148.063100 763575.000000
149.034400 110759.000000
149.070900 1167663.100000
150.042400 56088.100000
150.054800 126634.000000
151.086600 106605.300000
155.057600 109719.500000
159.055200 154117.700000
159.079500 65307.100000
160.050500 193588.000000
160.063100 332962.400000
161.058300 616634.500000
161.070900 1043759.100000
162.042400 786613.600000
162.066100 188282.800000
163.050200 7966157.600000
165.066000 143872.400000
168.065400 281429.500000
175.050200 3318564.400000
175.061300 180463.700000
176.058100 83806.600000
177.065800 752482.000000
179.044700 47467.200000
186.066000 74495.800000
187.074000 409695.600000
188.081700 166978.000000
188.094500 102568.500000
189.101900 88221.600000
191.081500 3494396.400000
192.076700 1554927.600000
193.060700 3533420.500000
197.071300 38404.100000
203.069300 60696.500000
212.094500 90995.900000
213.102500 48126.900000
215.069000 672519.600000
216.076800 233053.700000
217.084900 91563.900000
217.134500 77161.100000
218.092300 2901248.100000
219.112500 129186.100000
230.093300 38324.300000
235.095600 133766.700000
236.103400 34361.500000
243.113700 130954.000000
245.078900 65936.800000
246.087300 1555969.800000
264.101300 51959.800000

>ms2peaks
56.049500 69706.300000
63.023100 55018.400000
65.038600 248941.100000
67.054300 134116.300000
69.069900 1893312.600000
70.065200 129396.300000
71.073000 411501.900000
78.033800 130526.600000
79.041600 176933.000000
80.049500 115623.600000
81.033300 46705.000000
86.096400 4328600.200000
88.018200 550156.100000
90.033900 173416.800000
91.041700 41417.200000
92.049500 945960.200000
94.052500 51938.600000
94.065000 32872.800000
105.044700 215423.900000
106.028800 66219.200000
106.065300 60824.400000
107.036700 101672.700000
107.060300 588640.100000
108.044400 194444.600000
110.060100 181409.200000
111.044200 83461.100000
115.029000 215984.900000
116.037000 67658.300000
117.044700 764497.100000
118.052600 1081566.100000
119.060300 721697.300000
120.044400 357828.300000
120.067900 40222.700000
121.039600 99507.400000
122.060000 2361085.900000
123.067900 217553.400000
131.060300 152467.000000
132.031800 101777.600000
132.055000 44489.500000
133.039600 236100.000000
133.075900 163981.500000
134.047400 172978.000000
135.055300 281674.900000
140.070600 1227415.100000
144.031800 490624.900000
144.080600 37393.000000
145.039600 2726595.000000
146.023700 141239.600000
146.047200 213644.100000
147.055200 660564.300000
148.063000 737484.600000
149.034500 187490.000000
149.070900 513382.100000
150.042600 93384.900000
150.055000 103615.500000
151.050000 54826.600000
151.086500 54736.700000
155.057700 159057.500000
158.071700 60159.900000
159.055200 178335.500000
159.079300 68655.300000
160.050800 138063.200000
160.063100 781156.500000
161.058400 856221.000000
161.070900 1113104.500000
162.042400 1386855.600000
162.066100 152630.400000
163.050100 4634577.200000
164.035000 43302.500000
165.066000 256493.700000
168.065600 94993.300000
171.091800 59734.500000
173.070800 80369.800000
175.050100 2034065.600000
175.061300 401249.900000
176.058100 146660.400000
177.065700 287183.400000
179.045000 88200.000000
184.099000 61711.700000
186.066200 41803.300000
187.074100 487956.200000
188.081200 73336.300000
188.095100 62489.200000
191.081500 1350830.400000
192.076700 350993.200000
193.060800 616818.600000
203.068800 83386.500000
215.068700 336709.200000
216.075900 86405.600000
218.092300 337684.500000
230.093100 56397.700000
246.086500 163004.900000

