>compound EA43924408
>parentmass 273.12669999999997
>ionization [M+H]+
>formula C12H20N2O3S
>rt 96.000000
>profile orbitrap
#smiles_iso CC(C)NCC(C1=CC=C(C=C1)NS(=O)(=O)C)O
#smiles_can CC(C)NCC(C1=CC=C(C=C1)NS(=O)(=O)C)O
#inchikey ZBMZVLHSJCTVON-UHFFFAOYSA-N
#pubchem_id 5253
#mb_accession EA017002,EA017003,EA017004,EA017005,EA017006,EA017007,EA017008,EA017009,EA017010,EA017011,EA017012,EA017013

>ms2
176.130300 10361.200000
213.068800 48280.000000
255.116600 2216384.700000
273.127200 1565070.400000

>ms2
106.065400 5210.800000
133.076100 63219.300000
134.083700 13399.200000
176.130800 95890.900000
198.058400 5083.600000
213.069400 940315.200000
255.116400 2721729.300000
273.126800 70440.800000

>ms2
106.065000 47158.900000
107.072900 24130.800000
116.049600 5407.200000
117.057300 12455.900000
118.065100 15306.100000
119.060000 5142.300000
132.067800 6162.300000
133.076000 800210.000000
134.083800 239315.200000
161.107600 4140.200000
175.123100 11922.700000
176.130700 370877.100000
198.058300 7298.100000
213.069300 1638774.900000
255.116100 565211.200000

>ms2
79.054100 8018.600000
106.065100 198800.300000
107.072900 103444.500000
116.049600 24333.900000
117.057200 33727.200000
118.065100 53509.900000
119.060200 17213.900000
132.068500 16210.400000
133.076100 1498296.600000
134.083900 535480.000000
161.106500 7196.100000
175.122500 5772.100000
176.130700 225704.500000
213.069300 401186.400000
255.117200 22997.300000

>ms2
79.054300 26769.600000
92.049200 3735.100000
93.057400 16952.900000
106.065200 387986.700000
107.073000 245142.900000
116.049600 46163.700000
117.057300 80195.700000
118.052600 3923.300000
118.065100 71205.000000
119.060400 34239.700000
132.068300 62265.200000
133.076100 1339494.900000
134.059500 20715.100000
134.083900 303786.300000
144.055800 17547.400000
176.130800 42095.500000
213.069900 32930.200000
255.122300 8389.500000

>ms2
77.038500 8570.900000
79.054200 55957.900000
80.049500 11072.600000
81.057300 7140.000000
89.038500 6593.100000
92.049500 9390.500000
93.057400 16771.900000
106.065200 556659.500000
107.073000 288603.100000
116.049500 76780.700000
117.057300 90054.600000
118.052500 8532.800000
118.065100 76953.000000
119.060200 46162.500000
132.068300 89528.800000
133.076100 880406.600000
134.060100 29288.000000
134.083800 88091.400000
144.055500 22243.500000
161.107100 4104.800000
176.130000 5656.800000
255.121200 18542.500000

>ms2
133.075200 6027.300000
176.130500 5740.700000
213.068700 34606.000000
255.116400 1768769.600000
273.126900 1261776.000000

>ms2
106.065100 4168.200000
133.075900 47585.100000
134.083500 12529.900000
176.130700 82260.000000
198.058000 3100.600000
213.069300 806008.000000
255.116200 2306436.000000
273.126200 40123.600000

>ms2
106.065000 38801.000000
107.072900 17950.200000
116.049600 2902.700000
117.057200 11259.600000
118.065100 13522.200000
119.060200 4330.400000
132.067600 2284.800000
133.076000 637453.000000
134.083800 192561.000000
161.964000 1650.300000
175.122900 8732.500000
176.130800 301536.900000
198.058400 6794.400000
213.069300 1259380.900000
255.116200 430899.000000

>ms2
79.054200 6275.200000
93.057300 3219.100000
106.065200 144732.600000
107.073000 75679.000000
116.049500 15879.000000
117.057300 27469.400000
118.065200 36312.200000
119.060400 14604.100000
132.068200 16136.300000
133.076100 1111223.500000
134.083900 391017.900000
144.056000 4060.100000
161.107300 5738.800000
175.123200 9219.300000
176.130800 192002.600000
198.058400 1908.900000
213.069300 321006.300000
255.116000 16456.100000

>ms2
77.038700 2392.700000
79.054300 17895.700000
80.049500 2866.400000
92.049500 2548.800000
93.057300 9036.200000
106.065200 324495.200000
107.073000 185364.000000
116.049500 35576.900000
117.057300 58236.300000
118.065100 53916.300000
119.060400 33051.400000
119.072900 3695.000000
132.068100 45010.800000
133.076100 1026127.000000
134.059900 18042.000000
134.083800 216073.200000
144.055500 13541.900000
161.107500 2842.100000
161.964500 2184.900000
175.123200 3337.600000
176.130800 37165.500000
213.069100 26822.200000

>ms2
77.038500 5299.300000
79.054200 39548.200000
80.049500 9124.000000
81.057300 4173.900000
89.038600 5421.600000
92.049400 6387.100000
93.057300 9403.900000
106.065200 412479.400000
107.073000 239166.500000
116.049500 48122.400000
117.057300 62425.400000
118.052600 6048.600000
118.065100 48053.600000
119.060400 32806.800000
119.072900 2256.400000
132.068200 65461.300000
133.076100 652049.600000
134.060000 18678.600000
134.083800 63377.200000
144.055600 14374.100000
161.107700 2150.800000
172.978100 1642.000000
213.069200 2699.200000

