>compound EA44060452
>parentmass 184.11930000000004
>ionization [M+H]+
>formula C7H13N5O
>rt 174.000000
>profile orbitrap
#smiles_iso CC(C)(C)NC1=NC(=O)NC(=N1)N
#smiles_can CC(C)(C)NC1=NC(=O)NC(=N1)N
#inchikey NUISVCFZNCYUIM-UHFFFAOYSA-N
#pubchem_id 135612794
#mb_accession EA067202,EA067203,EA067204,EA067205,EA067206,EA067207,EA067208,EA067209,EA067210,EA067211,EA067212,EA067213

>ms2
128.056500 1936051.500000
184.118900 25319345.400000

>ms2
86.035000 302212.300000
128.056600 63039927.800000
184.119000 52769903.700000

>ms2
57.069800 506891.000000
85.050700 97609.900000
86.034800 2213767.900000
128.056500 91249502.100000
184.119200 6662272.600000

>ms2
57.069800 688152.600000
68.024400 89295.400000
69.008200 218259.200000
85.050800 946590.700000
86.034800 12067844.200000
110.046200 119568.600000
128.056600 71635429.800000

>ms2
57.069800 851433.800000
60.055600 91787.500000
68.024300 259788.200000
69.008300 733919.900000
85.050800 1877840.600000
86.034800 24799859.200000
110.046000 341303.000000
128.056500 38687365.600000

>ms2
57.069800 662058.400000
60.055600 153236.500000
68.024300 628183.500000
69.008300 1615996.300000
85.050800 2414724.300000
86.034800 28183194.300000
110.046100 419093.900000
128.056500 15709531.200000

>ms2
128.056500 1556274.400000
184.119000 21202274.500000

>ms2
57.069800 96216.300000
86.034800 265997.600000
128.056600 54854766.800000
184.119100 45204501.400000

>ms2
57.069800 359553.800000
85.050900 80394.000000
86.034800 1622762.300000
128.056600 76508745.300000
184.119000 5044652.100000

>ms2
57.069800 511109.000000
69.008200 126919.800000
85.050800 648615.400000
86.034800 9248928.600000
110.046000 78771.500000
128.056500 56715489.300000
184.119100 273754.200000

>ms2
57.069800 722115.300000
60.055500 81737.700000
68.024200 154090.000000
69.008200 455053.400000
85.050800 1659372.400000
86.034800 19858226.400000
110.046100 214864.100000
111.030200 56114.100000
128.056500 31937434.500000

>ms2
57.069800 565623.500000
60.055500 184915.000000
68.024200 388094.400000
69.008200 1123923.400000
85.050700 1826986.600000
86.034800 21746320.500000
110.046000 322311.200000
111.030100 123166.500000
128.056500 11911072.700000

