>compound EA44637483
>parentmass 230.05360000000005
>ionization [M+H]+
>formula C9H6F3N3O
>rt 234.000000
>profile orbitrap
#smiles_iso C1=CN=CC(=C1C(F)(F)F)C(=O)NCC#N
#smiles_can C1=CN=CC(=C1C(F)(F)F)C(=O)NCC#N
#inchikey RLQJEEJISHYWON-UHFFFAOYSA-N
#pubchem_id 9834513
#mb_accession EA294302,EA294303,EA294304,EA294305,EA294306,EA294307,EA294308,EA294309,EA294310,EA294311,EA294312,EA294313

>ms2peaks
230.053300 75590111.600000

>ms2peaks
148.036400 409764.700000
174.016000 5851817.900000
176.031700 378807.000000
183.036100 194411.400000
203.042800 11182124.500000
230.053300 57907245.600000

>ms2peaks
98.040100 88924.300000
126.035200 44507.100000
128.030100 92591.200000
129.038200 124323.500000
131.023800 49686.900000
134.047300 277268.900000
135.035500 40845.900000
144.025400 112015.000000
146.020600 293578.900000
147.029000 112888.100000
148.036800 5250426.600000
155.041500 191028.400000
162.046600 60632.600000
174.016200 13897348.800000
175.048000 101928.700000
176.031800 4760570.800000
183.036400 2379738.200000
187.047700 44183.100000
190.041400 90641.400000
192.027300 29907.100000
201.028000 35864.200000
203.042800 27355405.500000
210.047400 66766.400000
230.053800 16456382.400000

>ms2peaks
79.041400 73860.500000
98.040000 1208643.200000
115.022300 36805.000000
126.035000 207835.600000
128.030600 1184559.900000
129.038500 1055774.700000
131.023800 205689.900000
134.047400 660482.400000
135.035200 173377.800000
136.043100 83141.500000
140.031300 55527.100000
144.025700 582788.800000
146.021300 1878665.600000
147.029100 535419.500000
148.036900 15393736.800000
153.045800 151231.100000
155.041500 1276903.400000
156.024900 101661.100000
160.037600 53327.600000
162.046500 83047.400000
163.030200 130659.200000
164.031700 186712.700000
173.031500 54764.400000
174.016200 11051548.200000
175.047800 507647.200000
176.031800 10020294.100000
179.018800 361709.400000
183.036400 5523153.400000
185.031700 120520.400000
190.042000 73272.900000
192.026900 43982.900000
203.042800 15145756.400000

>ms2peaks
68.994400 39503.100000
75.004000 31701.800000
79.041600 537670.200000
98.040000 4478904.900000
101.019700 524619.500000
103.028800 32739.600000
104.013100 39876.500000
105.044600 115238.600000
106.052900 46474.500000
108.024000 49240.000000
110.040200 48213.500000
111.031800 101806.700000
115.022900 108105.600000
117.045000 40719.600000
119.010500 45565.000000
121.026100 116779.400000
126.015200 76977.800000
126.034900 630513.600000
128.030600 3126562.500000
129.038500 2126915.500000
131.023900 202104.900000
134.047400 645554.400000
135.035200 451946.600000
136.043000 258660.400000
140.030800 146402.100000
144.025500 981918.000000
146.021200 5731360.000000
147.029000 1361286.800000
148.036800 18822117.200000
153.045800 221383.400000
155.041500 1716416.200000
156.025300 193698.500000
160.036500 65172.300000
161.044700 88702.000000
162.046000 88984.300000
163.029900 178458.600000
164.031700 619328.900000
165.026600 57640.400000
170.028400 45618.600000
173.032200 154157.400000
174.015900 4219244.800000
175.047800 503549.400000
176.031700 5902165.500000
179.018900 941230.500000
183.036300 2869985.300000
185.032200 215783.400000
203.042800 3022400.800000
230.053700 76083.100000

>ms2peaks
75.004100 169827.000000
77.019900 33429.600000
78.033900 216364.400000
79.041700 1385677.700000
83.024200 53261.800000
96.024400 46063.400000
97.032300 36779.600000
98.040100 7966626.500000
101.019700 1433869.100000
103.029200 54882.500000
104.013200 138174.100000
105.044900 125771.600000
108.024400 185935.500000
110.039700 60352.200000
111.031400 534883.200000
115.022900 108835.500000
119.010200 296793.200000
121.026000 163477.300000
124.019400 73757.700000
126.015100 410017.900000
126.035000 710703.300000
128.030600 3495875.600000
129.038500 2071583.700000
131.023600 77880.400000
133.026400 37147.400000
134.047500 438583.600000
135.035200 436202.800000
136.043100 238431.100000
140.030800 192579.500000
142.039900 35650.400000
144.025500 951944.000000
146.021200 6997819.600000
147.029000 2165577.500000
148.036800 14220036.100000
153.045700 212454.900000
155.041600 945793.500000
156.025400 170185.800000
161.044800 167166.900000
162.046100 53962.800000
163.030100 103541.400000
164.031700 658892.500000
173.032400 168027.800000
174.015700 1090456.500000
175.047700 189123.700000
176.031600 1542303.900000
179.018800 1371367.200000
183.036200 776298.200000
185.032300 177061.400000
203.043300 423242.800000

>ms2peaks
174.016500 235541.100000
203.042500 490959.300000
230.053500 60598238.200000

>ms2peaks
148.036700 325969.400000
174.016200 4617409.500000
176.031900 302318.400000
183.037000 110873.400000
203.042800 7857157.900000
230.053400 41700982.300000

>ms2peaks
98.040300 20688.700000
126.035000 37268.900000
128.030800 75669.300000
129.038400 61634.900000
131.024000 47964.700000
134.047500 206721.700000
135.035300 29869.700000
144.025700 60667.700000
146.021300 183011.900000
147.029000 71218.200000
148.036900 3525585.900000
155.041500 154339.400000
162.046300 21382.700000
163.030100 20817.000000
174.016200 8463365.300000
175.047800 86525.200000
176.031800 2979617.100000
179.019500 18368.600000
183.036500 1539472.900000
190.040800 52133.300000
192.027100 21662.400000
201.027200 35525.900000
203.042700 17158101.300000
210.047200 37656.300000
230.053700 9935531.400000

>ms2peaks
79.041600 27322.300000
83.023900 12088.800000
98.040000 561897.900000
101.019800 44588.800000
126.035000 154599.600000
128.030600 722415.200000
129.038400 526591.100000
131.023900 142389.000000
134.047400 369223.600000
135.035300 126012.500000
136.043000 34149.600000
140.030600 34165.200000
144.025500 310414.000000
146.021200 1027524.900000
147.029000 255579.800000
148.036800 8142832.600000
151.030500 19771.600000
153.045900 65519.700000
155.041500 706530.300000
156.025600 50923.800000
160.037000 18274.600000
160.050400 15057.000000
161.045000 12891.600000
162.046100 53546.600000
163.030100 73607.100000
164.031700 82839.500000
173.032000 51068.000000
174.016200 5795481.700000
175.047700 332066.000000
176.031800 5394515.500000
179.018800 195991.400000
181.040500 48597.900000
183.036400 2972705.400000
185.032200 60022.200000
190.040900 26358.500000
192.026900 38111.800000
201.027400 22417.400000
203.042800 8086542.600000
213.027200 19675.400000
230.053600 1057360.100000

>ms2peaks
75.004200 14142.400000
77.019700 15433.200000
78.033700 23130.000000
79.041700 234444.000000
83.024000 18506.500000
98.040100 2436698.200000
101.019700 263656.000000
103.029100 16573.900000
105.044600 48915.300000
106.052500 25411.700000
108.024500 39683.900000
110.040100 31419.200000
111.031400 85495.900000
115.022800 52547.900000
117.044800 29251.900000
119.010000 14128.400000
121.025900 54464.000000
124.019300 11550.500000
126.014700 63821.900000
126.034900 305241.500000
128.030700 1618136.000000
129.038500 1207432.600000
131.024000 111915.200000
133.025600 27431.000000
133.039400 12714.800000
134.047400 368104.200000
135.035300 274583.600000
136.043100 116095.300000
140.030600 95158.300000
144.025600 590450.900000
146.021300 2992676.100000
147.029100 773750.500000
148.036800 10151936.700000
153.045800 111897.000000
155.041500 926442.700000
156.025500 117548.300000
158.021300 15638.200000
160.036900 43363.200000
160.050600 15873.700000
161.044500 55190.400000
162.046000 41361.200000
163.030000 91604.100000
164.031700 322410.400000
165.026000 15609.100000
170.028300 14551.700000
173.032300 97733.800000
174.016200 2542712.300000
175.047700 250412.800000
176.031800 3365105.200000
179.018800 495553.700000
181.040500 24836.600000
183.036400 1676653.700000
185.032000 104931.900000
190.041400 13336.000000
192.026700 15203.600000
203.042800 1759126.500000

>ms2peaks
68.994700 20155.900000
75.004100 100443.400000
77.019800 19858.100000
78.033800 97089.000000
79.041700 672587.900000
83.024000 27323.400000
96.024400 42413.000000
97.032000 13293.900000
98.040100 3766965.300000
101.019700 752697.300000
103.029100 37476.800000
104.013100 90564.100000
105.044700 88227.400000
106.052600 28596.600000
108.024400 100262.400000
110.040000 26171.600000
111.031500 249116.800000
115.022800 41400.100000
117.044700 31531.800000
119.010200 148842.400000
121.025900 102698.600000
124.019300 44397.700000
126.014900 289243.300000
126.034900 365939.100000
128.030600 1802597.700000
129.038400 1087854.200000
131.023800 45278.500000
133.025900 28651.800000
133.039400 21810.100000
134.047400 218109.300000
135.035200 225100.400000
136.043100 135937.400000
140.030600 97336.700000
142.040100 12415.700000
144.025500 463315.300000
146.021200 3603894.800000
147.029000 1052588.500000
148.036800 6806697.600000
151.030400 12123.900000
153.045700 92112.500000
155.041500 485596.400000
156.025300 71671.300000
158.020900 10465.300000
160.036200 20172.700000
161.044700 80952.200000
162.046400 15380.400000
163.030300 47811.000000
164.031700 345513.700000
165.026000 44076.500000
173.032000 106277.700000
174.016100 586967.000000
175.047600 95765.500000
176.031700 867696.200000
179.018800 691540.500000
183.036300 408673.200000
185.032100 61345.900000
203.042300 160367.100000

