>compound EA44523458
>parentmass 296.1412
>ionization [M+H]+
>formula C16H22ClNO2
>rt 690.000000
>profile orbitrap
#smiles_iso CCOCCN(C(=O)CCl)C(=C(C)C)C1=CC=CC=C1
#smiles_can CCOCCN(C(=O)CCl)C(=C(C)C)C1=CC=CC=C1
#inchikey CSWIKHNSBZVWNQ-UHFFFAOYSA-N
#pubchem_id 6450826
#mb_accession EA070002,EA070003,EA070004,EA070005,EA070006,EA070007,EA070008,EA070009,EA070010,EA070011,EA070012,EA070013

>ms2peaks
73.064800 26902.300000
91.053800 9626.400000
131.085500 113940.000000
148.052400 10290.000000
220.169500 10753.000000
250.099400 1743124.100000
296.141300 3147038.700000

>ms2peaks
73.064800 76515.200000
91.054200 169617.700000
115.054600 9192.100000
116.062100 19136.400000
120.020900 6118.600000
129.069800 90449.500000
131.085600 1823227.200000
134.036600 24669.500000
147.104500 6898.200000
174.127900 18009.200000
176.106700 34871.800000
219.161200 19198.500000
220.169400 134185.900000
250.099400 1863716.000000
296.140800 731352.200000

>ms2peaks
73.064800 49097.300000
91.054200 291347.800000
103.054400 11907.100000
105.069800 30945.100000
115.054400 18020.600000
116.062100 38748.400000
120.020900 7784.300000
129.069900 149241.600000
131.085600 3007572.600000
134.037000 11323.900000
147.104300 23359.800000
160.112100 77847.000000
174.127900 38910.100000
190.122500 14078.300000
219.162500 11700.900000
220.169400 207932.700000
250.099000 152972.600000
296.141700 28858.200000

>ms2peaks
65.038700 4737.500000
73.064800 21954.100000
77.038800 4169.800000
91.054300 821215.500000
103.054300 20779.400000
104.049700 11202.700000
105.069900 64072.000000
115.054100 30338.100000
116.062100 145093.600000
129.069800 240480.900000
131.085600 2039419.400000
143.061000 8600.100000
145.088400 5395.500000
146.096000 13316.000000
147.104500 12597.600000
148.112400 13814.800000
159.103800 8246.300000
160.112100 140918.600000
172.111900 5471.900000
174.127800 40670.000000
190.122500 11068.100000
220.169700 79955.200000
250.099200 11864.600000

>ms2peaks
91.054300 1364606.600000
103.054200 48446.700000
104.049900 20706.600000
105.070000 68900.300000
115.054200 62790.900000
116.062000 297739.900000
128.061900 11224.100000
129.069900 251943.700000
130.065200 6686.100000
131.085600 889840.600000
132.080900 8724.900000
143.060300 16070.300000
145.088900 16228.900000
146.097000 9456.500000
148.112200 10131.000000
158.096100 6670.000000
160.112100 100137.100000
172.112100 5658.600000
174.127400 13446.300000
190.122800 4907.500000

>ms2peaks
65.038700 8856.200000
77.038600 6653.000000
79.054300 8302.900000
91.054300 1514617.000000
103.054300 44218.400000
104.049400 24250.500000
105.069900 56974.700000
115.054200 96376.700000
116.062100 329462.300000
119.085300 4953.300000
128.062000 43609.900000
129.069900 198466.400000
130.065200 10028.600000
131.085500 289978.800000
132.080800 5565.600000
143.060400 10931.200000
144.080100 10468.000000
145.088300 8817.000000
146.096900 7843.300000
155.060200 12109.900000
158.096100 8265.500000
160.112100 27610.100000

>ms2peaks
73.064800 20667.500000
91.054600 14161.400000
131.085500 79856.300000
134.037000 4011.200000
148.052300 3795.900000
220.169200 8766.400000
250.099400 1217646.100000
296.141300 2306581.700000

>ms2peaks
73.064800 53914.600000
91.054200 107193.900000
103.054200 2775.400000
115.054100 10184.200000
116.062000 9853.800000
120.020900 3237.700000
129.069900 59259.100000
131.085600 1299791.600000
134.036900 17917.700000
147.104100 3709.500000
174.127400 13549.700000
176.107100 22632.200000
219.161700 11732.500000
220.169500 93925.500000
250.099300 1267325.400000
296.140900 516853.600000

>ms2peaks
73.064800 26340.700000
91.054300 178140.500000
103.054300 6353.000000
104.049700 3403.100000
105.069800 20459.200000
115.053900 8451.100000
116.062000 24610.600000
120.020900 5190.600000
128.062400 1896.800000
129.070000 100519.700000
131.085600 1843369.900000
134.036800 4361.900000
146.096400 2643.400000
147.104300 16047.900000
148.112000 2606.200000
160.112100 46382.300000
174.127800 27816.300000
190.122500 8865.000000
219.161700 7228.900000
220.169600 132135.700000
250.099200 97616.200000
296.140400 19059.800000

>ms2peaks
73.064800 10301.100000
91.054300 468389.900000
103.054200 15105.500000
104.049400 9076.200000
105.069900 39975.500000
115.054200 15292.400000
116.062000 80429.700000
120.020900 4084.600000
128.061700 2482.400000
129.069900 144242.200000
130.065300 2362.500000
131.085600 1215868.100000
143.060500 4927.600000
146.096600 9031.700000
147.104000 6016.300000
148.112200 8976.700000
158.096200 3912.000000
159.104000 5173.500000
160.112000 87502.100000
172.112100 4608.800000
174.127600 19635.600000
190.122500 9235.500000
220.169500 43466.800000

>ms2peaks
65.038400 1978.700000
73.064800 4159.100000
77.038500 2921.600000
79.054300 2521.900000
91.054300 793226.900000
103.054200 22864.200000
104.049500 13764.500000
105.069900 39845.100000
115.054300 37692.100000
116.062100 172728.800000
119.085000 2003.900000
120.021100 2149.300000
128.062100 4686.200000
129.069900 149105.600000
130.065300 2824.000000
131.085600 507021.000000
132.080600 3140.300000
143.060500 7237.400000
145.088500 8840.800000
146.096600 5546.000000
148.112200 5070.100000
155.060500 2498.400000
158.096600 4896.400000
159.104400 2914.100000
160.112100 53284.100000
172.112300 3202.600000
174.127500 4535.200000
190.122700 4238.800000
220.170500 2892.000000

>ms2peaks
65.038600 4945.800000
77.038600 3792.500000
79.054300 3953.900000
91.054300 804743.600000
103.054300 23904.200000
104.049500 10894.900000
105.069900 25769.800000
115.054300 51408.200000
116.062100 180783.800000
128.062000 22695.900000
129.069900 101900.900000
130.065000 2419.600000
131.085600 149649.900000
132.080700 5584.000000
143.060500 4343.700000
144.080700 4539.100000
145.088600 6823.600000
146.096500 6155.200000
148.111800 2301.300000
155.060400 6264.900000
158.096400 2631.800000
160.112100 11295.800000
172.111600 2518.200000

