>compound EA44958177
>parentmass 202.2165
>ionization [M+H]+
>formula C12H27NO
>rt 624.000000
>profile orbitrap
#smiles_iso CCCCCCCCCC[N+](C)(C)[O-]
#smiles_can CCCCCCCCCC[N+](C)(C)[O-]
#inchikey ZRKZFNZPJKEWPC-UHFFFAOYSA-N
#pubchem_id 62452
#mb_accession EA278402,EA278403,EA278404,EA278405,EA278406,EA278407,EA278408,EA278409,EA278410,EA278411,EA278412,EA278413

>ms2peaks
202.216300 51941407.500000

>ms2peaks
58.065100 4358768.300000
62.060000 748609.000000
184.206200 2563621.100000
202.216500 183125822.000000

>ms2peaks
57.069900 790522.800000
58.065100 24214794.400000
62.060100 3681067.300000
71.085500 484682.000000
83.085600 94306.500000
85.101100 493511.400000
184.206000 7265478.300000
202.216400 76191314.700000

>ms2peaks
56.049300 55555.500000
57.069900 1234475.000000
58.065100 27773869.800000
62.060000 3502937.800000
71.085500 545434.800000
72.081000 50818.500000
85.101100 360047.600000
100.112000 62487.500000
114.127700 104323.700000
128.143900 56982.500000
170.190300 61920.600000
184.205900 3602246.300000
202.216400 7334490.300000

>ms2peaks
57.069800 1297804.600000
58.065100 22694750.600000
62.060000 2149730.400000
71.085600 252842.400000
72.080600 68708.800000
85.101300 55109.900000
184.205900 1026367.100000

>ms2peaks
57.069800 876997.200000
58.065100 18666960.000000
62.060000 1075933.900000

>ms2peaks
202.216300 43664539.300000

>ms2peaks
58.065100 4303763.200000
62.060000 551682.500000
184.205900 2302632.800000
202.216400 177462281.800000

>ms2peaks
56.049300 63676.900000
57.069900 555870.300000
58.065100 20587378.400000
62.060000 2884743.000000
71.085400 317652.200000
85.101100 404746.100000
184.205800 5773133.600000
202.216300 61119860.300000

>ms2peaks
57.069800 985993.100000
58.065100 23298597.700000
62.060000 2492077.300000
71.085400 389928.900000
72.080600 83441.400000
85.101100 250223.600000
114.127500 62996.300000
128.143200 75929.900000
184.205700 2825352.600000
202.216400 6016832.800000

>ms2peaks
56.049400 36305.000000
57.069800 985642.000000
58.065100 17841491.000000
62.060000 1526901.300000
71.085500 197223.800000
114.127900 48311.000000
184.205700 773839.400000
202.216700 155050.800000

>ms2peaks
57.069800 822620.400000
58.065100 15829006.400000
62.060000 848932.200000
72.080800 38922.000000
184.206100 263079.100000

