>compound EA46257976
>parentmass 353.22240000000005
>ionization [M+H]+
>formula C22H28N2O2
>rt 744.000000
>profile orbitrap
#smiles_iso CCC1=CC=C(C=C1)C(=O)NN(C(=O)C2=CC(=CC(=C2)C)C)C(C)(C)C
#smiles_can CCC1=CC=C(C=C1)C(=O)NN(C(=O)C2=CC(=CC(=C2)C)C)C(C)(C)C
#inchikey QYPNKSZPJQQLRK-UHFFFAOYSA-N
#pubchem_id 91773
#mb_accession EA295203,EA295204,EA295205,EA295206,EA295208,EA295209,EA295210,EA295211,EA295212,EA295213

>ms2peaks
196.180200 4328.100000
297.160000 4988.900000

>ms2peaks
133.064700 13551.600000
196.178000 3036.500000

>ms2peaks
133.064700 11666.600000

>ms2peaks
105.069800 6895.600000
133.064200 7625.600000
133.076000 3309.400000
196.180000 3821.800000

>ms2peaks
133.064700 17702.800000
196.179900 2663.400000
203.154600 2155.500000
297.159700 24458.500000

>ms2peaks
133.064600 16032.100000
196.180400 2095.100000

>ms2peaks
133.064700 66537.900000
196.180900 2599.000000

>ms2peaks
79.054300 3562.300000
105.069800 17682.900000
123.080500 2536.000000
133.064700 142412.700000
133.075900 14088.400000
297.161200 1978.100000

>ms2peaks
79.054200 11558.100000
103.054200 3928.300000
105.069800 42231.500000
123.080400 6942.800000
133.064700 72380.900000
133.075900 27960.100000
196.180400 2138.400000
298.157200 2074.600000

>ms2peaks
79.054200 31812.400000
103.054200 22146.700000
105.069800 75501.300000
123.080400 3779.300000
133.064700 28777.900000
133.075900 23622.500000
196.177900 3782.600000

