>compound EA46969201
>parentmass 235.18049999999997
>ionization [M+H]+
>formula C14H22N2O
>rt 252.000000
>profile orbitrap
#smiles_iso CCN(CC)CC(=O)NC1=C(C=CC=C1C)C
#smiles_can CCN(CC)CC(=O)NC1=C(C=CC=C1C)C
#inchikey NNJVILVZKWQKPM-UHFFFAOYSA-N
#pubchem_id 3676
#mb_accession EA257202,EA257203,EA257204,EA257205,EA257206,EA257207,EA257208,EA257209,EA257210,EA257211,EA257212,EA257213

>ms2peaks
86.096200 1237859.100000
235.180500 18501367.700000

>ms2peaks
58.065000 155517.200000
86.096400 8428840.000000
235.180500 9081783.600000

>ms2peaks
58.065100 228655.200000
86.096500 11670456.500000
235.181400 768312.000000

>ms2peaks
58.065100 273064.400000
86.096500 11260247.100000

>ms2peaks
58.065100 488357.800000
86.096400 9513071.200000

>ms2peaks
58.065100 824470.700000
86.096400 7436772.300000

>ms2peaks
86.096400 1114023.600000
235.180500 14641909.200000

>ms2peaks
58.065000 112449.500000
86.096400 6589292.700000
235.180600 6831861.700000

>ms2peaks
58.065100 163812.300000
86.096500 9154833.000000
235.179700 458251.300000

>ms2peaks
58.065100 206283.800000
86.096400 8250904.200000

>ms2peaks
58.065100 399381.800000
86.096400 6798320.000000

>ms2peaks
58.065100 528497.500000
86.096400 4999812.500000

