>compound EA46615971
>parentmass 250.01600000000005
>ionization [M+H]+
>formula C6H8ClN5O2S
>rt 294.000000
>profile orbitrap
#smiles_iso CN=C(NCC1=CN=C(S1)Cl)N[N+](=O)[O-]
#smiles_can CN=C(NCC1=CN=C(S1)Cl)N[N+](=O)[O-]
#inchikey PGOOBECODWQEAB-UHFFFAOYSA-N
#pubchem_id 213027
#mb_accession EA293302,EA293303,EA293304,EA293305,EA293306,EA293307,EA293308,EA293309,EA293310,EA293311,EA293312,EA293313

>ms2
86.005800 5299.900000
110.071200 35735.600000
113.016600 185206.800000
131.967000 2376286.900000
142.043100 6706.000000
143.051300 28259.900000
146.977700 52618.100000
147.962000 4644.900000
148.993400 12247.400000
152.028100 6628.000000
167.038600 5634.300000
168.046400 1161290.100000
169.054200 3285730.000000
172.980800 65299.100000
174.972800 32865.700000
185.049700 9689.300000
186.996500 25338.600000
203.015300 50114.300000
204.022900 263839.400000
206.014800 477497.000000
220.017900 67936.100000
250.016100 3857045.800000

>ms2
70.994900 4593.700000
78.940600 4435.100000
86.005800 46422.300000
109.063200 11027.800000
110.071300 101062.600000
111.078700 5716.800000
113.016800 449504.500000
119.966800 21454.900000
131.966900 3918657.900000
142.042900 8604.300000
143.051000 33089.400000
146.977900 67214.900000
147.962000 9609.300000
147.985700 62688.900000
148.993400 22134.100000
152.027600 14562.000000
167.038700 22590.100000
168.046500 1030473.800000
169.054300 3943138.500000
172.980900 60790.000000
174.972600 133750.200000
186.996600 11113.300000
188.004800 7959.600000
203.015700 16509.100000
204.023100 167091.700000
206.014800 211779.300000
250.016100 139252.700000

>ms2
54.033800 4264.500000
57.044700 17359.400000
63.994600 7018.400000
69.044500 4625.000000
70.994900 9650.300000
78.940200 3671.000000
86.005900 69533.500000
87.013600 3751.000000
109.063400 23960.600000
110.071300 425822.800000
111.079000 59295.200000
112.008500 5483.100000
113.016800 1032884.700000
118.959000 4082.700000
119.966800 37474.500000
121.982600 11447.500000
127.019800 21718.800000
131.967000 3466426.700000
132.974600 21797.800000
135.066600 6668.700000
141.035200 6469.100000
142.043400 30170.200000
143.051100 35857.000000
146.977800 96547.600000
147.985600 160861.900000
148.992900 6322.800000
152.027700 12922.100000
153.022700 31404.300000
167.038400 50686.000000
168.046400 489337.400000
169.054400 2429696.800000
171.973400 5044.100000
172.980900 70950.800000
174.972700 165347.900000
203.014900 10262.800000
204.022800 33472.000000
206.015000 24020.300000

>ms2
54.033800 19455.300000
57.044700 25808.900000
63.994800 7539.700000
70.995000 59073.200000
78.940200 10475.600000
86.005900 79752.400000
87.013700 5102.700000
87.995100 4609.100000
96.056000 6540.700000
97.063600 4403.200000
98.071200 4312.600000
108.055700 8556.400000
109.063500 25370.100000
110.071300 715841.000000
111.079100 272443.600000
112.009200 15634.100000
113.016900 1404069.200000
115.033000 3386.500000
118.959000 6084.100000
119.967000 54465.600000
121.982400 12072.400000
125.082000 12776.900000
126.011600 8652.900000
127.019900 44814.300000
131.967100 2951472.100000
132.974700 55740.000000
135.066600 6159.600000
138.012200 9627.800000
142.043300 72191.000000
143.051200 16043.300000
145.969800 4311.900000
146.977800 116811.800000
147.985700 133448.200000
149.976700 3243.800000
152.027500 13027.300000
153.023000 57764.900000
154.030800 7199.100000
167.038600 57860.100000
168.046300 128504.500000
169.054200 955350.300000
171.973300 15282.000000
172.980800 50474.600000
174.972800 115720.700000
203.015800 3403.600000
206.014700 5620.800000

>ms2
54.033800 28431.500000
57.044700 34709.900000
58.995100 3984.800000
59.990200 7464.600000
61.979300 3313.000000
63.995000 3785.100000
68.037100 5206.600000
69.044700 21600.300000
70.995000 164809.100000
78.010600 6184.800000
78.940300 13121.500000
79.029200 5253.500000
81.044600 8719.500000
82.052800 4560.100000
83.060500 12449.700000
86.005900 110487.500000
87.013800 9701.800000
87.994800 22033.500000
90.010500 6559.100000
95.990500 3422.500000
96.055600 30639.300000
97.040000 4109.000000
97.063500 4961.800000
98.005900 4687.300000
98.071100 9208.900000
99.001100 11219.100000
100.009300 4408.500000
101.016700 6135.600000
108.055700 16183.200000
109.063600 17255.800000
110.071300 593805.900000
111.079100 387518.400000
112.009000 15852.000000
113.016800 1264212.500000
115.032300 7328.800000
118.959000 8897.400000
119.966900 63955.500000
121.982300 7191.800000
123.066800 3125.400000
125.082300 19016.700000
126.012100 27536.500000
127.020000 22565.400000
128.027400 3125.500000
128.040500 3431.500000
131.967100 1957614.400000
132.974700 85595.700000
134.954500 6595.700000
135.066000 5523.900000
138.011900 11925.300000
142.043300 51263.200000
143.051800 3892.400000
146.977800 88685.700000
147.961900 3273.600000
147.985700 56388.300000
152.028000 4347.000000
153.022900 52834.500000
154.031000 11485.600000
167.038600 43562.900000
168.046900 26321.200000
169.054400 206513.700000
171.973100 20105.600000
172.980600 13278.100000
174.972700 65376.300000

>ms2
54.033800 25778.300000
57.044700 39459.800000
58.995000 12532.500000
59.990300 7305.100000
61.979400 3856.800000
63.994600 2740.600000
68.037100 5914.000000
69.044700 39646.500000
70.995000 224553.200000
71.990300 5934.500000
78.010500 3322.700000
78.940400 21164.100000
79.028900 8667.500000
81.044700 13611.600000
82.052700 6674.800000
83.060300 22144.400000
83.990200 8794.600000
86.005900 179210.900000
87.013900 5833.800000
87.994800 33363.900000
90.010100 3709.800000
95.047900 4094.400000
95.990200 4891.400000
96.055700 78429.400000
97.039500 8767.000000
97.063500 5405.100000
98.005900 14099.900000
98.071300 13355.500000
99.001100 13736.200000
100.008900 3885.500000
101.016900 7678.400000
108.055700 19158.900000
109.063200 8506.800000
110.071300 395938.900000
111.079100 323505.900000
112.009000 8794.200000
113.016800 883424.800000
115.032400 7326.800000
118.959200 9186.100000
119.966900 57491.500000
123.066300 2748.700000
125.082100 7372.800000
126.012000 28732.000000
127.019800 10632.400000
128.027700 3106.800000
131.967000 1072678.500000
132.974700 103749.400000
134.953800 4288.500000
135.066400 3146.300000
138.012100 12674.400000
142.043300 19873.800000
146.977700 61461.400000
147.985500 15598.700000
153.023000 41733.400000
154.030700 6341.200000
167.038600 26219.400000
169.054600 38615.100000
171.972800 12508.700000
174.972600 21991.800000

>ms2
110.071200 16158.500000
113.016800 96295.800000
119.966900 4117.300000
131.966900 1150637.400000
143.051200 12680.400000
146.977700 19787.300000
148.993400 6331.200000
152.027300 3700.700000
167.038500 2432.900000
168.046400 573519.400000
169.054100 1551182.600000
172.980800 32350.700000
174.972600 13234.200000
185.049200 5824.500000
186.996500 13366.500000
203.015200 23294.500000
204.023000 114293.600000
206.014800 235499.400000
220.017700 26980.100000
250.016000 1787647.200000

>ms2
70.995100 2037.100000
86.005900 19509.700000
109.063400 4929.900000
110.071200 42982.300000
113.016800 235650.700000
119.966900 9125.600000
121.982300 2967.700000
131.966800 1856401.700000
142.043100 3668.400000
143.051100 16862.600000
146.977800 32161.000000
147.961500 4178.400000
147.985500 26076.000000
148.993300 11607.000000
152.027400 6412.200000
153.022400 2872.700000
167.038600 11814.900000
168.046400 485017.500000
169.054100 1799300.700000
172.980900 26717.100000
174.972600 62112.000000
186.996500 6786.900000
188.004400 4607.300000
203.015300 10074.100000
204.023000 72853.200000
206.014800 96703.600000
250.016000 64831.700000

>ms2
54.033800 2000.200000
57.044700 6447.700000
63.994900 2005.200000
69.044600 2013.100000
70.994900 3294.500000
86.005900 33198.300000
109.063600 6130.200000
110.071300 175123.300000
111.079100 21745.900000
112.009100 1625.300000
113.016800 465917.100000
119.966800 16294.500000
121.982400 4787.500000
127.019800 8956.800000
131.966800 1501760.600000
132.974600 8821.600000
141.035600 4001.700000
142.043300 14634.900000
143.051100 14692.900000
146.977800 46935.700000
147.985600 66596.300000
148.993300 4057.200000
152.027600 5626.100000
153.022800 14917.000000
167.038600 23066.300000
168.046400 209313.100000
169.054200 1076231.300000
172.980800 31025.500000
174.972600 75482.200000
188.004300 2872.200000
203.015300 4850.500000
204.022800 16851.600000
206.014800 10265.300000

>ms2
54.033800 10521.100000
57.044700 8827.000000
63.994900 5231.800000
69.044800 2408.600000
70.995000 22580.800000
78.940300 3258.100000
86.005900 33636.400000
87.013600 3274.500000
87.994600 2776.100000
96.055400 2566.400000
97.063600 2304.800000
108.056000 2711.400000
109.063300 10079.800000
110.071300 291961.600000
111.079000 116156.800000
112.008900 7244.600000
113.016800 574454.200000
118.959200 2971.100000
119.966800 22979.400000
121.982500 5500.400000
125.082100 7602.800000
126.011800 3152.900000
127.019800 17336.600000
131.966800 1207206.500000
132.974600 19618.700000
135.066500 2935.600000
138.012500 3337.200000
141.035400 4218.300000
142.043200 29603.100000
143.051000 5537.300000
145.970000 2949.000000
146.977800 52031.300000
147.985500 53317.400000
148.993400 2048.500000
152.027500 3080.200000
153.022900 25633.500000
167.038500 24641.000000
168.046400 54101.800000
169.054200 416548.100000
171.972700 7860.200000
172.980900 17271.300000
174.972600 50099.800000

>ms2
54.033800 11296.800000
57.044700 13108.300000
58.995000 2235.300000
59.990200 3247.800000
63.994800 2515.100000
69.044700 7884.700000
70.995000 70843.700000
78.940400 5853.300000
81.044700 3665.700000
82.052600 2072.000000
83.060300 5002.200000
86.005800 46120.300000
87.013700 3340.800000
87.994800 8586.000000
90.010500 2200.700000
96.055500 11895.800000
97.039300 2163.000000
97.063500 2648.000000
98.005700 2104.400000
98.071100 2658.900000
99.001000 2908.600000
108.055500 8041.700000
109.063400 8615.300000
110.071200 266424.400000
111.079000 165000.300000
112.008800 6394.100000
113.016700 550042.500000
115.032300 3112.000000
118.959200 3308.100000
119.966800 24416.300000
125.081900 7046.700000
126.012000 9484.900000
127.019800 9189.600000
128.040200 2356.600000
131.966800 858936.700000
132.974600 39457.800000
134.954200 3118.100000
135.066700 2654.400000
138.012100 5421.100000
142.043200 22120.800000
143.050500 1633.800000
146.977700 39325.700000
147.985500 21855.300000
153.022800 21865.100000
154.030600 5212.800000
167.038500 16674.200000
168.046100 7543.500000
169.054100 83992.900000
171.972900 10659.300000
172.980600 5100.800000
174.972600 29247.300000

>ms2
54.033700 9821.200000
57.044700 18556.900000
58.995000 3682.600000
59.990200 4503.500000
61.979200 2806.200000
68.036600 2008.700000
69.044700 17506.100000
70.995000 97807.600000
71.990200 1897.900000
78.940300 8861.200000
79.028800 2563.700000
81.044600 6115.000000
82.052400 3443.500000
83.060300 7495.800000
83.990400 1731.200000
86.005800 75481.100000
87.014000 2047.000000
87.994800 15192.700000
95.047900 1810.100000
96.055600 34064.400000
97.039800 3330.100000
97.063500 2267.700000
98.005700 6693.100000
98.071200 6220.100000
99.001100 4901.500000
100.009000 2698.000000
101.016700 2655.800000
108.055500 8002.300000
109.063300 4321.900000
110.071200 176527.800000
111.079000 143583.800000
112.008900 4307.200000
113.016700 385645.700000
115.032200 1971.400000
118.958600 2053.600000
119.966800 24905.900000
125.082000 3352.900000
126.011900 14173.100000
127.019900 3633.900000
131.966900 474662.800000
132.974600 43698.000000
138.011900 3580.600000
142.043300 8011.400000
146.977700 27186.800000
147.985300 7107.900000
153.022800 15891.900000
167.038300 10496.600000
168.046900 2505.200000
169.054300 19172.600000
171.973000 6968.300000
174.972500 9717.100000

