>compound EA46623540
>parentmass 291.1452
>ionization [M+H]+
>formula C14H18N4O3
>rt 228.000000
>profile orbitrap
#smiles_iso COC1=CC(=CC(=C1OC)OC)CC2=CN=C(N=C2N)N
#smiles_can COC1=CC(=CC(=C1OC)OC)CC2=CN=C(N=C2N)N
#inchikey IEDVJHCEMCRBQM-UHFFFAOYSA-N
#pubchem_id 5578
#mb_accession EA019902,EA019903,EA019904,EA019905,EA019906,EA019907,EA019908,EA019909,EA019910,EA019911,EA019912,EA019913

>ms2peaks
230.116700 9696.800000
291.145600 5009653.400000

>ms2peaks
123.066600 83081.600000
181.085700 10175.800000
230.116700 44235.800000
245.103200 20027.000000
247.121500 7578.000000
258.111300 50930.300000
261.098000 55839.400000
275.113500 41097.800000
276.122200 44698.600000
291.145600 4696330.200000

>ms2peaks
81.044800 8690.600000
123.066600 549662.600000
124.074900 7409.700000
181.086000 43194.800000
201.079000 9029.500000
201.114400 11813.000000
202.121600 14790.500000
217.109700 22797.400000
229.108900 48269.200000
230.116400 703100.300000
232.097100 11388.600000
233.102600 28982.000000
245.103400 413552.200000
246.111500 44293.400000
247.118700 103830.500000
257.103300 70911.100000
258.111200 194465.700000
259.119000 14978.900000
260.126100 14845.400000
261.098400 780074.500000
275.114000 558254.700000
276.121400 97983.500000
291.145100 1580743.000000

>ms2peaks
81.044800 43230.300000
110.058800 61385.200000
111.066500 39564.800000
123.066600 507736.600000
124.074400 30953.600000
151.039400 19217.500000
161.082100 9625.100000
174.066200 20407.600000
181.086100 30519.100000
187.098000 46732.000000
201.078700 17992.000000
201.113500 109257.000000
202.121200 51571.600000
215.093300 14532.400000
217.108300 31742.900000
229.108700 199184.400000
230.116400 531728.700000
231.087400 15611.500000
232.096300 41823.600000
233.103400 200402.200000
245.103400 382529.100000
246.111200 45745.300000
247.083600 16442.400000
247.119000 102651.400000
257.103500 395214.600000
258.110900 28095.800000
259.081900 25707.400000
261.098400 922654.200000
275.113900 619911.300000
276.121800 9222.300000
291.145600 109212.100000

>ms2peaks
60.055700 5356.200000
72.031700 7521.100000
81.044800 115156.800000
83.047900 5408.100000
86.058700 5173.700000
106.040200 5372.900000
110.058700 116671.300000
111.066700 69051.100000
113.046100 5374.600000
120.057000 5510.000000
123.044200 53240.500000
123.066600 490051.100000
124.074300 41067.500000
135.066600 7622.600000
137.059800 35497.900000
142.065400 4388.400000
145.076400 6708.200000
146.071300 6508.200000
148.052400 6404.500000
149.071000 33753.700000
149.082600 13696.200000
151.039000 45410.100000
156.045000 6865.000000
161.082300 32117.100000
162.090300 15110.300000
173.081500 6008.900000
174.065800 56254.700000
175.061000 5387.200000
175.097900 13854.800000
181.086100 13017.900000
184.086400 9281.500000
186.055900 11176.800000
187.097500 96897.900000
188.104700 4839.700000
189.076200 7890.500000
190.085200 29688.100000
191.092700 40884.300000
199.098300 29291.200000
200.105300 10919.300000
201.077600 16557.400000
201.113600 136237.000000
202.121700 17722.000000
203.092700 21477.500000
212.082800 6298.600000
213.077900 7457.800000
214.084300 8464.300000
215.092900 31353.000000
216.077600 12138.700000
216.099700 13534.600000
217.060800 8498.100000
217.107800 17413.400000
219.076100 12324.100000
229.108500 257589.500000
230.116000 83766.200000
231.087300 42163.000000
232.095500 139708.600000
233.103400 257455.000000
244.072600 5393.800000
245.103400 202672.800000
246.110100 6741.600000
247.082900 65089.800000
247.119400 38731.500000
257.103500 298366.900000
259.082300 62893.200000
261.098300 320182.400000
275.113900 205274.200000

>ms2peaks
54.033800 9201.300000
60.055600 6431.100000
68.037000 14963.800000
72.031500 6428.800000
81.044800 189324.000000
83.048100 8838.000000
91.054300 12854.100000
95.048800 7005.200000
104.049400 5758.200000
106.039800 15154.700000
107.049100 12747.400000
109.050800 16632.500000
110.058700 99507.300000
111.066700 44948.100000
115.054100 10751.700000
119.049000 8797.400000
121.076000 15732.000000
123.044000 67826.900000
123.066600 429808.500000
124.074400 48138.200000
128.049900 10194.100000
130.065000 7421.900000
132.044200 5884.300000
135.044100 11940.800000
135.066600 31624.700000
137.059900 29093.200000
142.065300 20982.700000
145.076200 13731.300000
146.059800 7923.900000
146.071500 30644.800000
147.066000 9044.000000
148.051200 7136.500000
148.073900 18278.600000
149.023300 10942.900000
149.070900 74044.500000
149.082600 27109.300000
151.039200 21625.100000
157.075400 13993.200000
158.059500 14008.000000
159.092300 17968.300000
161.082200 113679.100000
162.089900 48217.600000
163.097700 10048.200000
165.076500 10037.200000
172.074400 9454.600000
173.081600 27330.900000
174.066200 69957.400000
174.089900 6513.300000
175.061100 24077.900000
175.097700 20642.700000
176.070000 12611.800000
184.086900 20203.400000
186.090100 17437.600000
187.097600 93734.900000
189.076600 19566.400000
190.084800 45479.500000
191.092300 19527.600000
199.098000 44220.600000
201.077200 13616.800000
201.113500 108072.900000
203.092900 38593.700000
211.097800 8722.800000
212.082200 10744.300000
214.062300 6352.100000
215.069400 5869.000000
215.092600 39000.100000
217.060500 9184.400000
217.110500 8140.600000
228.100000 8444.600000
229.108600 124022.100000
231.087700 102264.900000
232.095600 115006.800000
233.103400 123720.300000
243.088400 9207.200000
245.103300 91397.600000
247.082500 43993.600000
257.103600 74598.900000
259.082400 31722.900000
261.098300 39031.900000
275.113000 27394.800000

>ms2peaks
261.097200 4536.500000
291.145500 3631948.800000

>ms2peaks
123.066600 54952.800000
230.116300 29576.000000
245.102700 20798.500000
247.119600 7465.100000
258.111000 31801.600000
261.098100 36430.400000
275.113900 27121.200000
276.121500 34368.200000
291.145500 3272238.100000

>ms2peaks
81.044700 7738.300000
110.058600 6678.800000
123.066600 357650.800000
124.074700 5286.300000
181.085900 30443.600000
187.098400 4445.700000
201.078500 8989.900000
201.114000 9779.400000
202.121400 15484.200000
216.101600 4062.300000
217.108700 13668.700000
229.108300 29331.000000
230.116300 506467.200000
232.097400 5167.900000
233.103700 15457.600000
245.103300 303638.600000
246.111200 29767.000000
247.118900 70594.800000
257.103300 50196.900000
258.111100 132247.500000
260.126900 6987.200000
261.098300 556084.100000
275.113900 394132.900000
276.121900 54855.000000
291.145700 1226674.500000

>ms2peaks
81.044800 33917.000000
110.058700 51297.000000
111.066600 28756.400000
120.057000 4712.600000
123.066600 377586.300000
124.074500 17875.400000
137.059600 3281.900000
149.081800 5172.000000
151.039000 11118.900000
161.082400 5804.800000
174.066400 5094.300000
181.086000 18789.800000
187.097900 34342.600000
191.092800 7399.000000
198.065300 2692.000000
200.105700 11469.700000
201.078400 17227.300000
201.113500 64742.800000
202.121400 46319.800000
203.092500 3855.700000
213.112500 4249.900000
215.092600 15551.900000
216.100500 11420.200000
217.108600 23164.100000
229.108500 140267.400000
230.116300 374439.300000
231.087500 6490.700000
232.095500 30862.000000
233.103400 125831.000000
244.071900 7375.400000
245.103400 269303.400000
246.111100 28401.600000
247.082600 9961.900000
247.119000 72779.500000
257.103400 245894.500000
258.111100 16941.200000
259.082700 17777.000000
259.119400 10067.300000
261.098400 653746.900000
275.114000 425546.600000
291.145800 77445.600000

>ms2peaks
60.055700 4700.100000
68.036700 3616.900000
72.031800 3634.300000
81.044800 75164.500000
83.047900 4343.200000
86.058600 3200.900000
106.040000 3848.600000
109.050800 5809.500000
110.058800 77451.000000
111.066600 53399.900000
113.046200 3583.100000
120.057000 3453.400000
123.044100 33671.400000
123.066700 355520.300000
124.074500 30730.600000
135.044500 2436.600000
135.066700 8341.500000
137.059800 18937.700000
142.065500 3468.300000
146.060000 5542.400000
146.071400 3549.000000
148.051700 4779.800000
148.073800 3377.500000
149.023600 2603.100000
149.071100 21209.200000
149.082200 8261.000000
151.039100 28989.800000
156.044800 6715.200000
158.060200 2208.700000
159.091900 4281.700000
161.082200 24126.300000
162.090200 11453.900000
163.098400 3708.800000
165.054700 10150.800000
170.059800 6858.300000
170.071200 3797.000000
173.071100 3465.900000
173.082200 7768.600000
174.055300 9561.800000
174.066300 40975.900000
175.062100 3013.400000
175.097800 9707.900000
176.069400 3498.300000
181.086200 7150.600000
184.086500 5629.700000
186.054900 5138.600000
186.090600 3307.400000
187.087300 5889.500000
187.097900 63087.800000
188.105300 4057.000000
189.077700 4594.600000
190.085200 14557.000000
191.092900 26943.200000
198.066300 2888.200000
199.098000 18220.400000
200.106200 7049.200000
201.077600 9022.700000
201.113600 114564.600000
202.050000 4417.700000
202.121300 13556.000000
203.092800 18423.100000
205.108900 3210.100000
212.082100 5372.900000
213.076700 3123.600000
213.113600 3679.400000
214.085000 5965.400000
215.069300 4905.600000
215.093000 19730.400000
216.076900 8066.000000
216.100700 8555.600000
217.061100 2904.700000
217.108400 16564.300000
218.079800 6351.700000
219.076000 4306.100000
227.092400 4082.200000
228.100900 3664.600000
229.108600 176405.600000
230.116300 62029.400000
231.087800 33071.000000
232.095600 91341.200000
233.103400 178949.700000
242.055300 4453.200000
243.088200 6973.600000
244.071500 4226.600000
245.103400 158564.000000
246.111000 4316.700000
247.082600 45851.700000
247.119200 25210.400000
255.087800 4436.200000
257.103500 202374.200000
258.111200 2381.500000
259.082700 42267.600000
259.119200 4003.900000
261.098300 228725.400000
273.098100 3930.600000
275.114000 144393.300000

>ms2peaks
54.033800 2529.800000
60.055600 4690.900000
68.037000 9286.700000
72.031900 3606.300000
81.044800 131070.200000
83.047900 6562.700000
91.054300 8010.000000
95.049300 4789.800000
104.049400 2198.800000
106.040000 6786.100000
107.049200 5532.800000
109.051000 8893.400000
110.058800 61364.500000
111.066600 37913.000000
115.054300 6685.900000
119.049200 5474.600000
120.057000 1934.100000
121.076200 6789.900000
123.044200 44965.500000
123.066600 276343.100000
124.074400 28088.700000
128.049600 6451.100000
130.065100 2752.400000
132.044600 3582.700000
135.044100 7232.200000
135.066600 20864.100000
137.059800 18965.900000
142.065200 13022.200000
145.076300 7415.300000
146.060100 8799.400000
146.071300 18842.600000
147.066600 4947.700000
148.052100 3412.000000
148.074500 9190.700000
149.023400 3642.200000
149.071000 38022.800000
149.082200 12732.300000
151.039000 13007.400000
156.044300 7149.100000
157.076000 4245.600000
158.060100 8659.000000
159.091800 8079.900000
161.082300 69431.900000
162.090100 29239.500000
163.097900 6158.300000
165.054700 3844.600000
165.077100 6873.200000
170.060200 13418.500000
170.071400 9664.100000
172.074500 3980.100000
173.071200 6555.200000
173.082300 9132.600000
174.055300 9993.000000
174.066300 43931.700000
174.090100 3302.000000
175.061400 11474.000000
175.098000 12564.000000
176.069500 9034.800000
184.087000 11765.600000
186.055200 4516.400000
186.090100 10738.800000
187.086500 6505.300000
187.097900 67614.600000
188.105700 3648.100000
189.077100 14272.600000
190.085100 26723.700000
191.092800 15733.600000
198.066300 3919.600000
199.097900 26425.400000
200.105700 3600.000000
201.077400 8523.400000
201.113600 65404.600000
202.050100 2155.200000
203.092900 24045.200000
205.108300 2453.700000
211.097800 6708.800000
212.082000 8587.600000
213.077200 7436.200000
213.113400 2593.300000
214.061400 3639.500000
214.085200 5442.100000
215.069200 7336.900000
215.092900 23857.600000
216.076700 3953.100000
216.100300 3111.000000
217.060700 5249.800000
217.108400 5234.300000
218.079900 2457.700000
227.092700 4727.400000
229.108500 91298.100000
230.116800 7774.200000
231.087800 71766.000000
232.095600 72841.100000
233.103400 73828.500000
242.055700 3882.300000
243.087700 8289.600000
245.103400 57422.300000
247.082700 26270.000000
247.118700 3111.300000
255.087700 3970.500000
257.103400 42228.600000
259.082800 15710.200000
261.098300 21027.600000
273.097900 2079.900000
275.113900 20618.500000

