>compound EA47296924
>parentmass 231.1104
>ionization [M+H]+
>formula C11H13F3N2
>rt 354.000000
>profile orbitrap
#smiles_iso C1CN(CCN1)C2=CC=CC(=C2)C(F)(F)F
#smiles_can C1CN(CCN1)C2=CC=CC(=C2)C(F)(F)F
#inchikey KKIMDKMETPPURN-UHFFFAOYSA-N
#pubchem_id 4296
#mb_accession EA281902,EA281903,EA281904,EA281905,EA281906,EA281907,EA281908,EA281909,EA281910,EA281911,EA281912,EA281913

>ms2peaks
188.069300 185955.900000
231.110600 24156529.700000

>ms2peaks
188.068100 513528.400000
229.094000 63886.700000
231.110600 22952570.400000

>ms2peaks
70.065200 101666.700000
119.072900 43453.000000
188.068200 5763188.400000
211.105700 71581.000000
214.083600 175359.600000
229.094600 589791.000000
231.110400 13382401.700000

>ms2peaks
58.065200 28770.300000
70.065200 233919.800000
117.057200 30632.000000
118.065100 47273.300000
119.073000 434694.300000
141.051300 29272.900000
148.056400 87262.500000
166.046100 84366.900000
168.062000 235504.400000
172.036600 62848.300000
174.052800 213497.800000
186.052600 218795.300000
188.068300 9844003.000000
200.068500 145863.600000
201.063000 29820.600000
211.105400 48146.800000
214.084000 143353.800000
229.094900 539370.600000
231.110300 3307514.600000

>ms2peaks
56.049600 39032.300000
58.065200 20550.300000
70.065100 146350.200000
104.049400 39820.500000
117.057500 64050.700000
118.065200 319121.800000
119.073000 1042088.800000
121.044900 54632.600000
127.035500 202481.100000
128.049400 55653.300000
140.030200 28558.600000
141.051100 199356.800000
145.025700 112468.100000
148.055800 475924.500000
151.035300 61882.500000
160.036500 99735.200000
161.044700 29390.800000
162.052800 64472.900000
166.046200 295190.800000
168.061900 585092.100000
172.036900 167336.300000
174.052600 403933.000000
186.052600 341954.400000
187.059700 41405.400000
188.068200 7404604.600000
200.068200 237270.600000
201.064300 23129.200000
214.084100 42152.800000
229.094300 126950.500000
231.111100 353443.300000

>ms2peaks
56.049300 30689.500000
58.065000 31966.700000
70.065300 74352.800000
91.054000 57476.500000
92.062400 32395.300000
93.057300 39865.800000
104.049600 148710.600000
117.057400 149856.700000
118.065200 1088932.200000
119.073000 1272265.600000
121.044900 105411.400000
127.035500 521295.800000
128.049400 157240.600000
129.044300 33932.800000
140.030700 106323.700000
141.051100 340126.700000
142.046400 46335.300000
145.026000 565734.900000
146.033900 36438.600000
148.055800 782745.400000
151.035400 147250.500000
160.037100 173504.900000
161.044600 139438.700000
162.052800 116586.900000
166.046300 455131.800000
168.062000 727652.100000
171.041700 38595.100000
172.036900 224373.700000
173.032000 128715.100000
174.052500 431082.400000
186.052700 358771.100000
188.068300 3603906.800000
200.068100 72046.700000

>ms2peaks
188.069300 50177.100000
231.110600 18159431.100000

>ms2peaks
188.068200 315224.900000
229.094400 60247.900000
231.110600 16702145.200000

>ms2peaks
70.065200 76935.300000
119.073200 30040.800000
168.062200 25650.800000
172.036600 12493.200000
174.052600 30135.600000
186.052500 64166.400000
188.068300 3688341.300000
200.068200 28261.700000
202.083700 17065.000000
211.104100 61743.600000
214.084000 85122.600000
229.094900 376110.300000
231.110700 9735495.600000

>ms2peaks
56.049500 21369.600000
58.065100 13312.000000
70.065200 145508.100000
119.073000 258085.700000
127.035400 17019.100000
141.051000 27203.600000
148.055400 59492.000000
162.053200 12718.400000
166.046300 81199.900000
168.061900 152594.400000
172.036700 60921.900000
174.052700 133043.000000
186.052600 134833.600000
188.068400 6551234.800000
200.068300 99670.300000
201.064100 16343.400000
202.084000 33052.500000
211.104300 43080.800000
214.083900 111006.800000
229.094900 389946.700000
231.110800 2190456.800000

>ms2peaks
56.049400 25923.200000
58.065100 32058.500000
70.065200 105005.600000
104.049500 28313.700000
117.057300 55884.800000
118.065200 216960.400000
119.073000 725384.600000
121.044700 37681.700000
127.035400 146086.000000
128.049400 42795.100000
140.030700 24884.500000
141.051100 130116.200000
145.026000 73319.100000
148.055700 304625.300000
151.035300 42827.700000
160.037000 70878.800000
161.044900 37651.400000
162.052400 38870.800000
166.046400 194451.200000
168.062000 386004.200000
171.041400 15779.700000
172.036900 119462.400000
173.031900 34845.700000
174.052500 280013.000000
186.052600 210095.200000
187.059900 27573.300000
188.068400 5218539.700000
200.068200 125252.200000
201.063900 26158.700000
202.084200 21812.400000
212.067600 12841.800000
214.084000 47454.600000
229.094700 82883.600000
231.110500 176124.300000

>ms2peaks
56.049500 14707.800000
58.065100 17988.500000
70.065100 54118.600000
91.054200 38555.300000
92.062000 11349.200000
93.057200 13269.900000
104.049500 77666.100000
117.057300 93973.900000
118.065200 636065.300000
119.073000 730868.700000
121.044800 65616.300000
127.035400 299486.100000
128.049500 79488.300000
129.044800 17168.400000
140.030700 55075.800000
141.051100 193895.700000
142.046500 17407.600000
145.026000 297744.400000
146.033800 22923.900000
148.055700 418009.700000
151.035300 78293.300000
160.036800 90219.200000
161.044600 81132.700000
162.052500 48900.400000
166.046300 237469.200000
168.061900 392719.200000
171.041700 24682.500000
172.036900 136781.300000
173.032200 54545.800000
174.052500 274799.900000
186.052600 211352.400000
187.060500 40243.500000
188.068300 2194916.600000
200.068300 51711.800000

