>compound EA47574656
>parentmass 301.11830000000003
>ionization [M+H]+
>formula C16H16N2O4
>rt 552.000000
>profile orbitrap
#smiles_iso CCOC(=O)NC1=CC(=CC=C1)OC(=O)NC2=CC=CC=C2
#smiles_can CCOC(=O)NC1=CC(=CC=C1)OC(=O)NC2=CC=CC=C2
#inchikey WZJZMXBKUWKXTQ-UHFFFAOYSA-N
#pubchem_id 24743
#mb_accession EA014402,EA014403,EA014404,EA014405,EA014406,EA014407,EA014408,EA014409,EA014410,EA014411,EA014412,EA014413

>ms2peaks
136.039300 134961.900000
154.049900 44917.100000
182.081100 251411.500000

>ms2peaks
92.049100 2775.300000
108.044400 6717.200000
136.039200 205892.700000
154.049800 114026.900000
164.070400 6651.200000
182.081000 111413.700000

>ms2peaks
93.033700 4602.500000
108.044400 35204.500000
121.040000 3089.700000
136.039300 241686.100000
154.049900 102710.500000
182.081000 9441.000000

>ms2peaks
65.038600 4604.400000
80.049300 4372.200000
81.033300 4436.000000
93.033500 15192.800000
108.044300 67043.200000
110.060000 12933.000000
111.043900 3718.000000
121.039900 8905.400000
136.039300 194985.700000
154.049900 26734.200000

>ms2peaks
65.038600 11783.300000
80.049400 14514.600000
81.033600 7568.900000
93.033400 23057.100000
108.044400 62526.200000
110.060100 15442.100000
111.043900 8416.900000
121.039500 29217.400000
136.039300 94861.400000

>ms2peaks
65.038500 34759.500000
80.049400 16407.000000
81.033400 12062.100000
92.049200 4602.200000
93.033400 27107.500000
108.044300 46417.000000
110.060000 8587.700000
111.044200 10261.700000
121.039500 30778.300000
136.039300 25444.400000

>ms2peaks
136.039300 101576.900000
154.049900 34149.300000
164.070400 1977.400000
182.081200 184125.700000

>ms2peaks
93.033800 2409.300000
108.044600 4524.700000
136.039200 154107.400000
154.049800 79091.000000
164.070500 3666.000000
182.081100 69581.300000

>ms2peaks
93.033400 3811.700000
108.044300 24129.800000
110.060100 2537.000000
136.039200 164495.200000
154.049800 71235.100000
164.070300 3623.100000
182.081500 6754.900000

>ms2peaks
80.049300 4928.300000
81.033400 2839.500000
93.033500 9018.300000
108.044300 46594.300000
110.060000 9712.900000
111.043900 2943.500000
121.039600 6775.600000
136.039200 134005.000000
154.049800 21204.900000

>ms2peaks
65.038500 8972.200000
80.049400 7063.000000
81.033400 4297.000000
93.033400 15903.500000
108.044300 52346.800000
110.060000 12216.100000
111.044000 6249.100000
121.039500 19124.700000
136.039300 73207.200000

>ms2peaks
65.038500 20689.500000
80.049400 7853.100000
81.033400 8211.100000
92.049400 2979.600000
93.033400 20138.300000
108.044300 32729.200000
110.060000 9627.600000
111.044000 8887.800000
121.039600 23290.400000
136.039300 17123.000000

