>compound EA47644739
>parentmass 289.1215000000001
>ionization [M+H]+
>formula C15H17ClN4
>rt 672.000000
>profile orbitrap
#smiles_iso CCCCC(CN1C=NC=N1)(C#N)C2=CC=C(C=C2)Cl
#smiles_can CCCCC(CN1C=NC=N1)(C#N)C2=CC=C(C=C2)Cl
#inchikey HZJKXKUJVSEEFU-UHFFFAOYSA-N
#pubchem_id 6336
#mb_accession EA295702,EA295703,EA295704,EA295705,EA295706,EA295707,EA295708,EA295709,EA295710,EA295711,EA295712,EA295713

>ms2peaks
70.040000 2653853.100000
220.089800 171141.400000
289.121800 166396139.200000

>ms2peaks
70.040100 41015395.100000
82.065000 95413.600000
83.047900 85469.600000
108.080800 92458.500000
125.015300 7009833.000000
151.031000 1778221.300000
163.030900 86445.700000
164.026500 560330.900000
165.034700 160249.900000
166.042200 388924.800000
168.093600 85196.800000
178.041900 509892.800000
185.119900 89951.900000
193.078200 1592753.300000
194.047700 188616.900000
203.062400 885526.700000
220.089000 5488091.500000
289.121800 49150301.100000

>ms2peaks
55.054300 71677.700000
70.040000 42323790.300000
81.070000 230003.500000
82.040000 127491.200000
82.065000 239162.500000
83.047800 314027.600000
94.065100 70884.300000
95.072900 244546.000000
108.080700 253835.400000
125.015300 26763305.800000
130.065200 156758.500000
131.073500 62259.500000
137.015500 70004.200000
139.031200 262891.500000
149.015900 140437.700000
150.010600 397002.100000
151.031000 6863164.300000
163.030900 213159.000000
164.026200 2439458.700000
165.034200 597334.600000
166.041800 968608.700000
167.085700 180711.500000
168.093300 427229.600000
175.031400 205917.300000
177.046600 82008.700000
178.041900 1379861.900000
184.112600 142181.800000
185.120100 306123.200000
191.050500 165482.300000
192.057700 446300.800000
193.078000 1234823.700000
203.062000 914181.500000
220.089000 2013501.600000

>ms2peaks
55.054500 73182.900000
57.069900 120677.600000
70.040000 33683782.200000
81.069800 250477.400000
82.040100 282725.400000
82.065300 183022.400000
83.047800 401729.800000
89.038500 76583.900000
94.065300 80072.600000
95.073100 248240.500000
108.080800 97839.100000
115.054200 406049.100000
116.062200 398574.600000
125.015300 37958565.700000
128.049500 192548.300000
130.065200 457816.700000
131.073300 127123.200000
137.015500 248278.500000
139.031000 289100.300000
142.078300 83053.100000
143.072500 149713.700000
149.015200 389779.200000
150.010600 934185.800000
151.031000 7840373.200000
153.069200 135409.100000
157.101800 74191.300000
163.016900 81672.100000
163.031400 105839.000000
164.026300 3330092.600000
165.034400 489101.400000
165.045900 180997.800000
166.041700 457054.800000
167.084900 123261.800000
168.093300 545733.800000
170.096500 66627.400000
175.031200 345225.000000
178.041800 1024199.900000
184.111900 118458.700000
191.050300 138917.900000
192.057900 140722.600000
203.062700 178482.300000
220.089500 178782.100000

>ms2peaks
55.054300 55175.600000
57.069800 79934.500000
70.040000 26331767.500000
79.053900 53560.300000
80.049400 71733.800000
81.070000 185364.600000
82.040100 535432.100000
82.065200 99393.700000
83.047900 301766.200000
89.038600 511516.800000
90.046600 57692.200000
91.054100 62688.100000
94.065000 95283.000000
95.072800 117906.800000
98.999700 210116.500000
102.046400 99423.000000
103.054300 53384.900000
115.054300 1076254.300000
116.062200 1562350.100000
125.015300 39081409.200000
128.049600 870353.600000
129.045000 100893.300000
130.065200 679623.700000
130.077800 42680.000000
131.073100 230083.400000
137.015500 667422.300000
139.030900 149565.700000
142.077500 100992.700000
143.060200 172344.700000
143.072900 253085.100000
143.085600 129222.500000
146.059900 89295.300000
149.015500 370771.200000
150.010500 1134092.600000
151.031000 4171335.400000
153.069900 289381.800000
156.056200 72224.200000
156.081200 177089.800000
163.017800 102296.600000
163.031100 105993.500000
164.026300 2227296.800000
165.033400 80085.000000
165.045900 63025.400000
166.041900 130388.000000
167.085500 155762.100000
168.093100 163170.100000
170.096700 92843.200000
175.030800 206174.100000
178.042000 470100.300000

>ms2peaks
55.054100 73922.500000
57.069900 76479.100000
70.040000 22692952.500000
79.054100 59525.900000
81.069900 175117.800000
82.040100 703950.800000
83.048100 172371.200000
89.038700 1912848.900000
90.046400 342034.000000
91.053900 84093.100000
94.065300 126224.400000
95.073200 83904.200000
98.999600 900091.400000
102.046500 238259.600000
103.054200 170948.100000
115.054300 1376544.000000
116.062200 2603853.600000
122.999700 158388.400000
125.015300 36841140.200000
128.049600 1023707.000000
129.044900 393228.600000
129.057000 69258.500000
129.070100 218853.000000
130.065300 739576.100000
130.077800 90231.200000
131.073000 206154.000000
137.015400 832731.600000
139.031300 153879.700000
142.078100 77308.200000
143.060400 223566.800000
143.072800 298602.300000
143.085800 183932.100000
146.059600 129596.200000
149.015600 449332.400000
150.010500 1143376.200000
151.031000 1767848.000000
152.062000 85990.200000
153.069300 236247.000000
156.081000 146154.900000
163.019000 75265.800000
164.026200 965839.200000
167.085700 156410.400000
175.030100 99901.500000
178.042400 164403.100000
190.041700 61053.400000

>ms2peaks
70.040000 2155694.700000
289.121500 156641362.700000

>ms2peaks
70.040000 40398373.000000
81.069800 94543.200000
82.040200 48203.300000
82.065100 72703.000000
83.047700 106535.700000
108.080800 61813.600000
125.015200 6628151.700000
150.011000 58702.500000
151.031000 1449826.900000
163.031000 69852.900000
164.026200 460150.500000
165.034200 129323.400000
165.046700 50025.000000
166.041800 356502.700000
168.093400 61921.200000
175.031400 79753.100000
178.041800 478624.300000
185.120000 135519.800000
192.057400 142584.400000
193.077800 1433052.700000
194.048100 158899.400000
203.062200 802943.200000
220.088800 4691859.500000
289.121500 45003247.900000

>ms2peaks
70.040000 38461237.500000
81.069900 178810.700000
82.040000 94394.000000
82.065100 171711.500000
83.047700 235864.900000
95.072900 223286.300000
108.080700 148866.300000
115.054300 55412.700000
125.015300 23535151.700000
130.065100 114165.600000
139.030600 123873.600000
143.073300 56166.900000
149.015300 184154.300000
150.010500 343619.600000
151.030900 6380235.300000
158.109100 43203.900000
163.018600 38755.000000
163.031000 135373.500000
164.026200 1962943.200000
165.033900 623737.700000
165.046500 111981.700000
166.041900 786573.300000
167.085500 172004.400000
168.093400 416517.400000
170.096700 46298.500000
175.030900 222598.900000
177.046700 81799.000000
178.041800 1167434.100000
184.111700 65176.100000
185.119900 234293.000000
191.049700 130519.100000
191.062200 49231.800000
192.057500 366810.100000
193.077900 1088618.200000
203.062100 768628.200000
220.088700 1685737.200000
289.121600 982299.700000

>ms2peaks
55.054100 65780.300000
57.070000 91083.400000
70.040000 28526229.800000
80.049400 56482.600000
81.069900 209862.300000
82.040000 260517.000000
82.065200 119711.200000
83.047800 410312.700000
94.065200 57654.000000
95.073000 230222.400000
115.054200 241106.200000
116.062200 250392.600000
125.015300 33205151.300000
128.049500 222368.900000
130.065100 518266.400000
131.072800 183067.400000
137.015300 202388.700000
139.030900 283629.600000
142.077800 88783.800000
143.060400 83559.900000
143.072900 132955.700000
149.015300 335735.100000
150.010500 670990.800000
151.030900 6091152.600000
152.061600 49643.100000
153.069800 188621.900000
156.080900 101988.100000
157.101200 58499.500000
163.018100 42662.300000
163.031100 128092.900000
164.026200 2477370.800000
165.034000 355297.300000
165.046300 130286.000000
166.041800 487708.200000
167.085300 169742.800000
168.093400 328721.600000
170.096500 72247.600000
175.030700 243539.100000
178.041800 1019802.900000
184.112500 82952.300000
185.120700 63345.600000
191.049700 130102.100000
192.057600 223564.600000
193.078000 100350.100000
203.061900 181451.300000
220.088600 179633.500000

>ms2peaks
57.069900 84284.600000
70.040000 22695422.300000
79.054200 57690.500000
81.069800 157579.400000
82.040000 393558.900000
82.065000 100470.700000
83.047800 297437.700000
89.038600 303473.400000
94.065300 112977.500000
95.073200 88919.800000
98.999600 127747.200000
102.046500 68027.000000
103.054400 96174.400000
115.054300 714851.800000
116.062100 1136666.000000
125.015300 33656701.200000
128.049500 791786.400000
128.061900 75777.900000
129.044800 77198.900000
129.069600 102825.200000
130.065200 534530.000000
130.077700 85048.500000
131.072700 152903.200000
137.015200 538543.200000
139.030900 142968.800000
142.077700 106691.600000
143.060300 217493.200000
143.073000 231554.100000
143.085500 106575.500000
146.059700 90526.100000
149.015300 366206.700000
150.010500 945557.800000
151.030900 3587065.600000
153.069700 280211.800000
156.055600 77739.200000
156.081000 148209.300000
158.108800 47359.100000
163.018800 66087.900000
163.030800 55622.400000
164.026200 1725276.800000
165.034100 135017.600000
165.046100 103530.700000
166.042000 120906.500000
167.085300 149610.300000
168.093800 119205.200000
170.096200 51743.300000
175.030800 136234.000000
178.041800 420555.900000
184.111700 133773.100000
190.042000 61578.300000

>ms2peaks
55.054200 91887.300000
57.069900 41837.500000
70.040000 19145805.700000
79.054100 46434.300000
80.049300 71006.200000
81.069700 101503.600000
82.040000 486802.300000
83.047800 152800.400000
89.038600 1468699.000000
90.046400 318815.100000
98.999600 723758.500000
102.046400 277414.500000
103.054300 120269.400000
115.054300 1158437.700000
116.062100 2212822.700000
122.999800 88635.500000
125.015300 31776780.900000
128.049500 1000688.600000
128.062000 120463.600000
129.044700 377014.900000
129.057200 88886.500000
129.070100 98971.500000
130.065100 574933.400000
130.077700 82568.700000
131.072700 90794.200000
137.015200 633232.600000
139.030700 94343.100000
142.077500 76908.200000
143.060500 177935.600000
143.072900 272852.100000
143.085500 123245.600000
146.060200 108170.100000
149.015400 304585.200000
150.010500 881981.300000
151.030900 1213803.000000
152.062100 69797.900000
153.069700 223686.300000
156.080500 194815.900000
163.019000 98503.600000
164.026200 811903.500000
167.085600 61435.000000
170.096300 71084.000000
175.030100 69164.000000
178.041800 148335.300000
289.120300 79946.300000

