>compound EA47252980
>parentmass 749.5158
>ionization [M+H]+
>formula C38H72N2O12
>rt 354.000000
>profile orbitrap
#smiles_iso CC[C@@H]1[C@@]([C@@H]([C@H](N(C[C@@H](C[C@@]([C@@H](C([C@@H]([C@H](C(=O)O1)C)O[C@H]2C[C@@]([C@H]([C@@H](O2)C)O)(C)OC)C)O[C@H]3[C@@H]([C@H](C[C@H](O3)C)N(C)C)O)(C)O)C)C)C)O)(C)O
#smiles_can CCC1C(C(C(N(CC(CC(C(C(C(C(C(=O)O1)C)OC2CC(C(C(O2)C)O)(C)OC)C)OC3C(C(CC(O3)C)N(C)C)O)(C)O)C)C)C)O)(C)O
#inchikey MQTOSJVFKKJCRP-OHJWJPDZSA-N
#pubchem_id 55185
#mb_accession EA019002,EA019003,EA019004,EA019005,EA019006,EA019007,EA019008,EA019009,EA019010,EA019011,EA019012,EA019013

>ms2
375.269800 5297.000000
749.514800 143230.000000

>ms2
72.080600 14543.000000
83.049000 121243.300000
88.075800 4198.800000
98.096200 15601.000000
113.059400 10385.000000
116.070600 21047.400000
116.106800 103658.100000
127.075400 4755.900000
158.117200 152610.500000
186.148600 4234.600000
375.269400 3743.600000
398.290100 8098.400000
573.410700 20036.600000
591.420100 83847.700000

>ms2
58.065100 5062.700000
72.080700 49639.700000
81.069700 4762.400000
83.049100 172455.800000
88.075600 18881.500000
98.096300 38157.100000
100.075700 4690.800000
113.059500 16156.500000
114.091000 3842.800000
116.070500 50379.700000
116.106900 117475.600000
127.074900 3406.300000
158.117400 148609.000000
186.149000 6246.900000

>ms2
55.054400 3244.000000
58.065000 5711.200000
59.049400 2973.100000
72.080700 86441.000000
83.049000 151121.600000
84.080700 7047.500000
88.075600 22668.100000
98.096200 48067.400000
113.059200 3511.100000
116.070400 33570.200000
116.106800 64695.100000
158.117300 25430.800000
375.270800 3021.600000

>ms2
55.054300 5049.900000
58.065100 3353.500000
59.049100 4720.200000
72.080700 96993.400000
81.069800 5515.900000
83.049100 131413.000000
84.080900 7509.100000
88.075700 16229.400000
98.096400 34966.500000
116.070700 7700.900000
116.106800 25421.100000

>ms2
55.054000 4783.700000
70.064900 6969.600000
72.080700 95933.600000
79.054400 3517.400000
81.070100 6322.600000
83.049000 96498.900000
84.080500 8907.200000
87.067700 2607.600000
88.075500 6249.400000
98.096300 25564.100000
116.106600 7224.500000

>ms2
558.574800 3300.500000
749.515200 134083.300000

>ms2
55.054200 1799.100000
72.080700 22075.100000
83.049100 100039.700000
98.096300 13960.200000
113.059600 11201.600000
116.070500 17566.100000
116.106800 90812.000000
127.075100 3157.100000
158.117300 141748.800000
186.149000 4291.600000
375.273600 2072.300000
398.289000 7448.300000
416.300500 2675.700000
434.310300 9088.000000
573.410600 19927.700000
591.420900 72695.600000
749.515200 6683.400000

>ms2
55.054200 3231.100000
72.080700 39179.800000
81.069800 4154.900000
83.049100 134222.500000
85.028200 2004.300000
88.075600 14121.300000
98.096300 37883.100000
99.080200 2574.100000
100.075600 3855.300000
113.059600 11707.000000
114.091400 3200.100000
116.070500 41471.500000
116.106900 97170.700000
158.117400 117530.300000
186.148600 4554.500000
375.271900 2462.800000
631.017600 3044.500000

>ms2
55.054100 2497.200000
58.065000 3068.100000
70.064900 2246.700000
72.080700 61653.700000
81.069800 4240.700000
83.049000 110930.300000
84.080600 3700.200000
88.075500 16036.800000
98.096300 32809.300000
99.080000 2094.400000
113.059700 2326.200000
116.070400 22114.300000
116.106800 49249.300000
158.117300 17781.400000
375.275400 1935.400000

>ms2
55.054100 3862.400000
58.064900 3259.000000
59.049200 1981.500000
70.064900 3392.100000
72.080700 63227.700000
79.054000 2530.100000
81.069900 4417.000000
83.049100 88246.300000
84.080700 6677.700000
88.075600 9562.200000
98.096300 27908.800000
116.070600 7573.000000
116.106800 16087.600000
375.272500 2487.100000
631.016100 2265.700000

>ms2
55.054100 2607.200000
58.065000 1876.000000
70.065100 2579.400000
72.080700 53217.100000
79.054200 1672.900000
81.069800 1797.500000
83.049000 55573.100000
84.080700 5061.600000
85.028200 1356.100000
87.067800 1247.800000
88.075600 5150.600000
98.096300 16207.600000
116.106800 1626.600000
558.574800 3550.100000

