>compound EA48841062
>parentmass 313.2122
>ionization [M+H]+
>formula C16H28N2O4
>rt 420.000000
>profile orbitrap
#smiles_iso CCC(CC)O[C@@H]1C=C(C[C@@H]([C@H]1NC(=O)C)N)C(=O)OCC
#smiles_can CCC(CC)OC1C=C(CC(C1NC(=O)C)N)C(=O)OCC
#inchikey VSZGPKBBMSAYNT-RRFJBIMHSA-N
#pubchem_id 65028
#mb_accession EA065802,EA065803,EA065804,EA065805,EA065806,EA065807,EA065808,EA065809,EA065810,EA065811,EA065812,EA065813

>ms2peaks
94.065000 23177.500000
120.044400 85315.700000
122.096500 12447.600000
136.075900 93971.300000
137.071200 34549.700000
138.054300 15681.400000
140.070600 22061.300000
162.054900 75410.200000
166.086500 2162825.900000
179.081600 97557.400000
208.097000 2074744.000000
225.123500 3397386.100000
226.108000 105311.700000
243.134200 569840.300000
296.185700 449936.900000
313.212700 2483516.200000

>ms2peaks
92.049300 32535.000000
93.033600 41520.700000
93.056800 21071.600000
94.065200 168366.900000
95.048900 13155.200000
109.076200 17193.400000
111.044200 53150.000000
112.039600 22728.200000
119.060400 36568.500000
120.044400 690334.400000
121.029000 14596.500000
122.096600 83239.800000
123.080700 12773.200000
136.075800 412799.900000
137.071000 315270.600000
138.055000 145875.300000
139.038700 25986.100000
139.075300 64473.500000
140.070500 61877.900000
151.087200 15346.400000
156.065900 11306.600000
161.070800 44879.400000
162.054900 221333.800000
164.106600 32412.500000
166.086400 5097742.500000
167.070400 91482.400000
179.081500 249071.000000
180.065600 144712.900000
183.112800 40603.500000
184.096800 25090.700000
208.096900 1333651.300000
225.123600 640134.400000
226.107500 340345.100000
243.134200 98594.600000
296.186300 58676.400000

>ms2peaks
60.044200 22484.300000
65.038500 37675.600000
67.054300 57458.500000
68.049300 31386.900000
87.055000 16771.600000
92.049500 114237.500000
93.033500 119044.300000
93.057200 48916.800000
94.065200 624117.300000
95.049100 63070.700000
109.076100 184571.100000
110.060100 34537.800000
111.044000 103157.600000
112.039500 34210.300000
119.060600 40884.800000
120.044500 1645714.200000
121.028100 18856.500000
122.096400 133295.400000
133.076700 14155.100000
134.059500 19111.700000
136.075700 387166.600000
137.071000 831343.300000
138.055000 372456.200000
139.039400 48726.000000
139.075600 54247.000000
140.070200 32671.500000
151.086400 31023.400000
161.071000 74509.000000
162.055000 228693.800000
166.086400 3982140.700000
179.081400 102991.900000
180.065600 124854.400000
183.113000 78392.800000
184.096300 31643.500000
208.096600 115023.000000
226.107300 84271.000000

>ms2peaks
60.044400 25191.000000
65.038500 101888.100000
67.054200 109799.300000
68.049600 41256.200000
77.038500 23544.100000
80.049500 43338.400000
82.065200 43598.300000
83.049300 22436.100000
92.049500 234429.400000
93.033600 197842.100000
93.057400 123767.100000
94.065200 1048895.100000
95.049000 63243.800000
108.044800 13124.400000
109.076000 310972.500000
110.059900 89973.300000
111.044100 74817.400000
112.039200 15358.600000
119.060300 42267.900000
120.044400 1766025.300000
122.096600 38710.500000
123.080900 14972.100000
133.075600 28165.900000
134.060600 36917.000000
136.075600 108420.100000
137.070900 726455.000000
138.055000 480514.300000
138.091400 35195.500000
139.038400 22166.900000
140.070600 9964.100000
151.086300 12890.600000
154.085800 15735.600000
155.082200 14441.400000
161.070900 38006.200000
162.055100 110565.500000
166.086300 1567516.300000
180.065100 27087.900000
183.112600 18310.200000

>ms2peaks
60.044400 23492.300000
65.038600 248312.800000
67.054200 154094.200000
68.049500 38036.400000
77.038600 52502.500000
80.049500 89456.000000
82.065200 68467.700000
83.049200 34802.500000
92.049500 421688.200000
93.033500 329777.500000
93.057300 238930.400000
94.065100 1080883.000000
95.049200 45529.900000
108.044600 27254.500000
109.076000 330375.800000
110.060100 205171.000000
111.044100 40175.800000
119.060200 91867.300000
120.044400 1569079.300000
122.096600 18264.200000
133.075900 23561.200000
134.060200 27636.400000
137.047200 71367.200000
137.070900 373826.700000
138.055000 427364.100000
138.091200 33728.000000
162.054800 40158.600000
166.086200 378213.500000

>ms2peaks
53.038700 14712.500000
65.038600 370915.400000
66.046400 15983.700000
67.041600 11260.500000
67.054300 180286.500000
68.049400 38519.000000
77.038700 125788.800000
80.049600 163983.300000
82.065200 136916.000000
83.049000 23911.700000
92.049600 598270.600000
93.033600 307607.600000
93.057400 278598.600000
94.065200 795019.900000
95.048900 35668.600000
105.045000 36674.800000
106.065300 19123.800000
108.044000 21465.500000
108.068700 18043.800000
109.076100 221411.600000
110.060100 244559.800000
119.060400 80632.100000
120.044500 1027142.400000
133.076100 19671.800000
134.060300 11718.300000
137.047300 97292.700000
137.071100 112141.300000
138.055000 217154.900000
166.087100 42206.400000
225.125100 18262.300000

>ms2peaks
87.055100 8200.300000
94.065300 28352.400000
120.044300 73047.800000
136.075700 55545.000000
137.070700 27052.100000
138.054900 13902.300000
140.070600 16039.600000
162.055100 45480.400000
166.086400 1549964.300000
167.070000 10406.000000
179.081500 74676.700000
180.065700 24461.700000
208.097000 1470852.500000
225.123600 2521546.700000
226.107400 96342.200000
243.134000 410832.000000
296.185700 288751.300000
313.212300 1624644.400000

>ms2peaks
60.044400 9140.200000
65.038600 13002.000000
67.054400 10691.600000
68.049500 12494.700000
92.049400 17972.900000
93.033500 35518.700000
93.057000 11336.000000
94.065200 136332.400000
95.049200 11948.100000
109.076100 15667.000000
111.044100 35683.800000
112.039300 18364.700000
119.060500 16441.100000
120.044500 518190.400000
121.028300 6673.200000
122.096500 50422.400000
123.080600 6579.600000
136.075800 290887.200000
137.071000 205108.700000
138.055000 103275.400000
139.038800 19412.000000
139.075400 56676.600000
140.070500 35104.500000
151.086700 20420.200000
154.086600 6862.800000
156.065600 5185.800000
161.071000 34817.200000
162.055100 146600.600000
164.107200 22671.600000
166.086400 3391621.300000
167.070200 62617.100000
179.081600 161663.000000
180.065600 119296.900000
183.112800 36661.600000
184.096800 24616.600000
207.113000 25842.400000
208.097000 945613.300000
225.123400 428207.400000
226.107500 219878.000000
243.134000 71620.200000
296.185800 37635.200000
313.212800 6873.000000

>ms2peaks
60.044400 11387.800000
65.038600 19342.900000
67.054200 30608.400000
68.049500 18041.500000
80.049400 6810.600000
82.064900 6992.200000
83.049100 12425.500000
87.055300 7199.300000
92.049500 54299.000000
93.033500 75855.200000
93.057200 33517.200000
94.065200 416342.300000
95.049200 31069.500000
95.085400 7154.400000
109.076100 93968.100000
110.060100 23305.700000
111.044100 64130.900000
112.039400 16206.600000
119.060600 20580.300000
120.044500 1045082.700000
121.028100 8666.500000
122.096400 68851.500000
123.080400 20527.500000
133.076200 18854.200000
134.059800 7813.500000
136.075700 270136.800000
137.071000 505116.100000
138.055000 229241.000000
139.038800 20441.400000
139.075400 26880.000000
140.070900 17807.300000
151.086500 18860.500000
154.086300 19897.600000
155.081600 8050.700000
161.071000 41210.700000
162.055000 132120.500000
166.086400 2495652.700000
167.070200 29555.300000
179.081500 65275.000000
180.065600 68394.200000
183.112900 60093.300000
184.096600 18518.500000
207.113000 9609.200000
208.096700 101831.100000
225.126000 22687.600000
226.107300 56916.700000

>ms2peaks
60.044400 7943.800000
65.038600 54235.800000
67.054200 67481.300000
68.049500 20176.100000
77.038500 11698.700000
80.049600 19536.300000
82.065100 12291.300000
83.049100 15251.400000
92.049500 146803.400000
93.033500 135537.100000
93.057300 91895.900000
94.065200 676915.800000
95.049200 35290.600000
95.085500 7640.800000
105.069900 5896.600000
108.044400 8204.300000
108.067700 5664.600000
109.076100 213106.700000
110.060100 63936.000000
111.044000 50707.300000
112.039200 9470.000000
119.060300 25894.800000
120.044500 1182787.200000
121.028500 7576.500000
122.096500 25957.100000
123.080300 8785.200000
126.054600 4961.300000
133.076000 21192.200000
134.059800 12910.200000
136.075700 57858.400000
137.071000 464796.700000
138.054900 312565.200000
138.091500 24245.600000
139.039100 16743.400000
139.075600 8207.100000
154.086300 13219.500000
155.081600 10340.700000
161.071100 20625.700000
162.054900 70917.100000
166.086400 1028325.900000
179.081300 9559.300000
180.065900 17522.100000
183.112900 10599.300000
208.096900 7135.000000

>ms2peaks
60.044400 12589.100000
65.038600 136381.200000
67.054200 89284.700000
68.049500 18055.900000
77.038600 31192.300000
80.049500 52182.900000
82.065200 36604.500000
83.049200 13637.000000
92.049500 261155.800000
93.033500 182201.100000
93.057300 130811.200000
94.065200 624791.700000
95.049100 23660.400000
95.085500 10101.800000
105.044800 7453.200000
106.064800 5862.600000
108.044500 13258.100000
108.068500 9636.600000
109.076000 168402.500000
110.060100 104975.300000
111.043900 22669.000000
119.060400 42754.800000
120.044400 907318.500000
121.028100 8321.400000
122.096400 5869.200000
126.054700 5043.400000
133.076300 6727.500000
134.060100 15292.700000
136.076000 5273.500000
137.047200 52243.000000
137.071000 197329.600000
138.054900 256924.100000
138.091400 15648.700000
161.071300 8429.800000
162.054900 21351.100000
166.086200 215846.200000

>ms2peaks
53.038600 6355.800000
60.044400 4563.500000
65.038600 191465.100000
66.046500 8554.500000
67.041700 5613.800000
67.054300 87157.800000
68.049500 14604.700000
77.038600 56692.200000
80.049500 76373.100000
82.065200 80055.500000
83.049100 10933.000000
92.049500 331531.500000
93.033500 167382.600000
93.057300 124334.700000
94.065200 406537.900000
95.049100 13885.300000
105.044700 18697.800000
105.069900 3367.400000
106.065200 4675.800000
108.044400 14342.300000
108.068200 12588.100000
109.076100 107781.500000
110.060100 126859.800000
111.044100 3593.800000
119.060400 53474.300000
120.044400 550788.000000
121.028300 2886.100000
126.054800 4023.900000
133.076100 3820.800000
134.060200 4955.200000
137.047200 50022.800000
137.071000 57101.600000
138.055000 107182.700000
138.091100 6006.900000
166.086200 25224.100000

