>compound EA48901338
>parentmass 254.97339999999997
>ionization [M+H]+
>formula C7H5Cl2FN2O3
>rt 414.000000
>profile orbitrap
#smiles_iso C(C(=O)O)OC1=NC(=C(C(=C1Cl)N)Cl)F
#smiles_can C(C(=O)O)OC1=NC(=C(C(=C1Cl)N)Cl)F
#inchikey MEFQWPUMEMWTJP-UHFFFAOYSA-N
#pubchem_id 50465
#mb_accession EA013402,EA013403,EA013404,EA013405,EA013406,EA013407,EA013408,EA013409,EA013410,EA013411,EA013412,EA013413

>ms2peaks
180.973400 5700.000000
196.968000 29471.900000
208.968000 50326.700000
236.962600 131206.500000
254.973200 530929.600000

>ms2peaks
180.972800 70015.000000
196.967700 99185.900000
208.967800 383920.000000
236.962300 79270.600000
254.973000 69183.500000

>ms2peaks
163.007100 4920.300000
178.957200 5499.100000
180.972900 319539.600000
196.967800 58505.700000
208.967800 277207.500000
236.962200 2832.400000

>ms2peaks
133.956500 6384.200000
144.996200 12279.300000
146.004000 16767.600000
151.946100 5466.300000
160.966700 29669.000000
163.006900 34431.100000
172.990500 3603.300000
178.957300 24371.400000
178.977300 31840.900000
180.973000 376076.700000
196.967900 76336.600000
208.968000 55135.000000

>ms2peaks
90.974300 9488.600000
106.944600 7097.000000
117.985500 6109.700000
124.935500 9110.600000
125.998200 5604.500000
133.955700 21414.000000
143.988600 9701.400000
144.995900 17272.700000
146.004200 40335.500000
151.946400 23212.300000
160.966800 33571.100000
163.006800 47904.800000
178.957200 38320.500000
178.977300 41621.700000
180.972900 143417.400000
196.967700 72788.800000

>ms2peaks
90.974500 31698.400000
106.944900 11938.000000
110.027600 4932.800000
115.989700 2934.400000
117.985500 17868.700000
124.935400 28514.600000
124.990400 6798.900000
125.997900 7033.900000
133.955900 36165.300000
143.988500 22271.400000
144.996600 14620.700000
146.004200 46464.600000
151.946500 44762.200000
160.966700 16359.800000
163.006800 36407.300000
178.957500 31553.400000
178.977400 17765.800000
180.972900 38729.700000
196.967800 29833.300000

>ms2peaks
196.967700 15210.300000
208.967700 35900.500000
236.962400 81004.300000
254.973100 310546.700000

>ms2peaks
180.972900 50242.900000
196.967900 63085.200000
208.967800 260380.100000
236.962600 58688.100000
254.973200 47582.300000

>ms2peaks
178.957400 2731.200000
180.972900 184623.100000
196.967800 33516.500000
208.967800 145382.800000

>ms2peaks
144.996300 6759.000000
146.004100 6103.900000
151.946900 2298.600000
160.966600 11339.700000
163.006700 9926.900000
172.990600 2537.400000
178.957200 9111.900000
178.977100 10202.500000
180.972900 146317.600000
196.967800 33377.100000
208.967700 20242.100000

>ms2peaks
90.974600 3044.000000
117.985200 3505.400000
124.935600 4077.500000
133.955800 9738.200000
144.996300 8748.300000
146.004100 17523.200000
151.946300 11681.000000
160.966700 13144.400000
163.006800 22965.400000
178.957300 19213.000000
178.977200 15280.200000
180.972900 66641.100000
196.967900 28678.200000

>ms2peaks
90.974400 11457.000000
106.944800 5081.400000
110.027400 2045.100000
115.989600 1768.900000
117.985400 3799.700000
124.935400 9372.000000
124.989900 2156.400000
125.997700 3837.900000
133.955700 11852.400000
143.988300 7016.500000
144.996200 6528.100000
146.004000 18518.500000
151.946300 17125.800000
160.966600 7186.100000
163.006700 13352.800000
178.957100 12459.200000
178.977200 7262.600000
180.972800 13529.500000
196.967600 13346.800000

