>compound EA48135502
>parentmass 250.06449999999998
>ionization [M+H]+
>formula C11H11N3O2S
>rt 174.000000
>profile orbitrap
#smiles_iso C1=CC=NC(=C1)NS(=O)(=O)C2=CC=C(C=C2)N
#smiles_can C1=CC=NC(=C1)NS(=O)(=O)C2=CC=C(C=C2)N
#inchikey GECHUMIMRBOMGK-UHFFFAOYSA-N
#pubchem_id 5336
#mb_accession EA023402,EA023403,EA023404,EA023405,EA023406,EA023407,EA023408,EA023409,EA023410,EA023411,EA023412,EA023413

>ms2peaks
92.049100 14547.000000
95.060200 4900.600000
156.011200 64219.400000
184.086400 18638.900000
250.064600 3164138.700000

>ms2peaks
65.038400 9754.200000
68.049400 4545.500000
78.033600 3135.000000
92.049400 113686.100000
93.044900 5012.400000
93.057300 8246.800000
94.052300 7809.300000
95.060300 134673.300000
108.044300 218756.700000
156.011300 609286.500000
157.006600 66488.600000
184.086800 344265.700000
186.102800 10165.600000
232.052800 5243.300000
250.064500 1789540.900000

>ms2peaks
65.038500 41737.500000
68.049400 37187.100000
78.033800 5553.000000
92.049500 307702.700000
93.044800 16882.000000
93.057300 38994.200000
94.052500 37584.200000
94.065200 4816.300000
95.060300 320129.200000
96.044400 8601.400000
108.044400 622194.100000
110.059700 5341.800000
120.056200 6209.800000
156.011400 806579.200000
157.006500 92741.000000
184.086800 499305.700000
186.101900 12151.500000
250.064800 213321.400000

>ms2peaks
65.038600 99352.100000
67.041900 5853.100000
68.049500 71988.700000
69.033600 3325.600000
78.033700 9407.700000
79.018000 9881.300000
92.049500 420965.300000
93.044900 29717.900000
93.057200 39459.900000
94.052600 69295.200000
95.060400 307351.200000
96.044400 16124.300000
108.044500 675352.500000
110.060000 31270.100000
120.055500 3557.200000
156.011400 230045.700000
157.006700 33486.500000
167.060500 8822.000000
169.075500 4518.600000
184.086900 320793.600000
186.101900 6061.100000

>ms2peaks
65.038600 185677.000000
67.041600 18039.300000
68.049400 44474.500000
78.033700 11203.100000
79.017600 7291.300000
80.049400 19954.800000
92.049500 498251.500000
93.044700 34528.300000
93.057200 43401.600000
94.052500 73003.900000
95.060300 242410.100000
96.044500 15431.900000
108.044400 542606.800000
110.060000 45653.700000
120.055400 4248.700000
156.011700 28970.100000
157.006800 7881.400000
167.060400 43130.000000
168.068600 9533.300000
183.079300 12277.600000
184.086800 188106.400000

>ms2peaks
65.038600 269071.900000
66.034100 3348.500000
67.041700 38305.700000
68.049500 19589.500000
78.033700 11023.100000
80.049500 57661.800000
92.049500 423545.400000
93.044700 22290.000000
93.057300 44857.900000
94.052600 54873.600000
95.060400 191125.700000
96.044500 17558.600000
108.044400 378201.500000
110.060100 39531.100000
157.075400 5533.800000
167.060400 53576.800000
168.068200 18786.600000
183.079100 21352.100000
184.087000 63301.300000
250.065300 3778.000000

>ms2peaks
92.049200 7697.000000
95.060000 2884.700000
108.044400 10357.000000
156.011300 47476.500000
184.087500 15389.900000
232.053300 4001.700000
250.064500 2225136.600000

>ms2peaks
65.038600 4461.000000
68.049400 3590.600000
92.049500 80286.800000
93.044900 2951.100000
93.057400 5146.400000
94.052400 5502.200000
95.060400 99622.300000
108.044400 146864.300000
156.011400 419963.000000
157.006600 49479.100000
184.086900 245107.100000
186.102500 4017.600000
232.054700 4491.200000
250.064600 1256744.200000

>ms2peaks
65.038600 24346.000000
67.041800 2701.400000
68.049500 23872.100000
78.033900 3563.700000
79.017700 3231.000000
80.049500 2548.400000
92.049500 185289.700000
93.044600 4797.000000
93.057300 16515.000000
94.052600 29116.200000
94.064900 2980.200000
95.060400 193909.100000
96.044300 5621.300000
108.044400 384718.600000
110.059900 2476.700000
120.055600 2427.100000
156.011400 505382.700000
157.006600 58176.400000
169.076600 4375.800000
184.087000 324624.200000
186.102600 7524.700000
250.064100 112790.200000

>ms2peaks
65.038600 58152.400000
66.033600 2124.400000
67.041600 4887.200000
68.049400 39149.200000
69.033400 3813.200000
78.033800 6104.700000
79.017900 5748.100000
80.049500 4315.700000
92.049500 275626.200000
93.044700 14267.900000
93.057300 24270.900000
94.052500 43295.000000
95.060400 187176.700000
96.044300 8160.600000
108.044400 446090.000000
110.060000 15382.600000
120.055500 5090.200000
156.011300 133863.900000
157.006600 18289.000000
167.060600 2707.200000
169.076000 3226.100000
184.086800 194894.300000
186.102700 3323.300000

>ms2peaks
65.038600 107536.100000
67.041700 9799.000000
68.049500 27490.000000
78.033800 5601.900000
79.017800 3847.300000
80.049500 10611.100000
92.049500 305362.000000
93.044700 16507.400000
93.057300 26589.300000
94.052500 40286.800000
95.060400 148527.400000
96.044400 9120.900000
108.044400 339895.600000
110.060000 26879.400000
120.055400 1867.200000
156.011300 18246.800000
157.007100 3020.100000
157.076100 3715.700000
167.060200 20457.100000
168.067900 3512.800000
183.079100 4452.900000
184.086900 100960.800000

>ms2peaks
65.038600 167264.100000
66.033800 2232.200000
67.041600 20350.300000
68.049500 9362.400000
78.033800 6725.100000
79.017800 1432.000000
80.049500 33678.600000
92.049500 253142.200000
93.044700 9765.300000
93.057300 26190.500000
94.052500 33016.900000
95.060400 119287.300000
96.044400 12550.900000
108.044400 227292.100000
110.060000 25247.000000
156.012000 1159.300000
157.076000 3312.900000
167.060300 29509.700000
168.068200 12191.900000
183.079000 11840.600000
184.086800 34380.800000

