>compound EA48201975
>parentmass 238.09929999999997
>ionization [M+H]+
>formula C13H16ClNO
>rt 276.000000
>profile orbitrap
#smiles_iso CNC1(CCCCC1=O)C2=CC=CC=C2Cl
#smiles_can CNC1(CCCCC1=O)C2=CC=CC=C2Cl
#inchikey YQEZLKZALYSWHR-UHFFFAOYSA-N
#pubchem_id 3821
#mb_accession EA282602,EA282603,EA282604,EA282605,EA282606,EA282607,EA282608,EA282609,EA282610,EA282611,EA282612,EA282613

>ms2
125.014700 121994.800000
179.062400 82534.200000
207.057000 362347.100000
220.088400 290009.300000
238.099500 15210041.100000

>ms2
67.054200 97487.100000
125.015200 1280071.600000
152.026000 181396.800000
163.030900 142730.000000
165.010000 25453.000000
179.062200 1645366.400000
189.046600 138955.300000
207.057200 2936407.000000
220.088700 2236101.400000
238.099600 7451898.300000

>ms2
67.054300 290857.800000
125.015300 3800715.700000
138.994500 38824.800000
141.010100 117969.700000
143.085900 28085.500000
144.093200 26066.500000
149.015200 25821.200000
151.030900 200374.800000
152.026000 287979.700000
153.069900 62082.300000
154.077800 88384.600000
156.092700 19296.600000
163.030900 743459.800000
165.010000 172785.700000
165.046400 140939.100000
179.062200 2847347.000000
185.120600 43625.900000
189.046500 524788.100000
191.061600 37366.300000
207.057000 1697809.900000
220.088600 1984936.000000
238.099700 718959.900000

>ms2
67.054300 267148.800000
115.054100 36739.600000
125.015300 5668828.900000
128.062200 92184.700000
129.070000 76033.500000
130.077500 67529.100000
138.994100 51902.400000
141.010200 219255.600000
142.077300 16432.800000
143.085500 69255.300000
144.093300 156670.600000
149.015100 118498.100000
151.030900 482289.100000
152.026100 326206.500000
153.069700 145316.100000
154.077800 250615.000000
155.060200 63673.800000
156.093600 101301.900000
157.088700 53988.600000
163.030900 1013998.600000
165.010100 271200.000000
165.046500 231968.800000
172.087700 35682.300000
177.046900 17553.400000
179.062200 1030532.200000
185.119700 25812.500000
189.046600 286957.900000
191.062900 46440.100000
192.057700 33285.600000
207.057100 221850.100000
220.088800 560666.700000

>ms2
67.054300 145211.000000
89.038800 16710.500000
115.054300 125660.900000
116.062000 172993.900000
125.015300 6181264.500000
127.054000 26784.900000
128.062000 303175.900000
129.069900 245956.100000
130.077900 176485.600000
137.015500 25356.800000
138.994600 48379.200000
141.010200 220887.300000
141.070300 17934.000000
142.077500 45353.400000
143.085500 67302.100000
144.056200 26774.900000
144.093400 168951.200000
149.015200 88426.000000
151.030900 471630.500000
152.026200 302661.400000
152.062300 48168.800000
153.070000 181713.300000
154.077800 284591.500000
155.060200 141052.900000
156.093700 69617.000000
157.088800 65254.400000
163.030900 630945.000000
165.010200 323381.000000
165.046600 139692.500000
172.087400 29601.900000
176.038100 16972.700000
179.062000 123337.200000
189.046300 64449.700000
192.057400 15214.600000
207.057500 31220.900000
220.089300 56749.800000

>ms2
67.054200 102033.600000
77.038600 49634.700000
89.038700 70702.300000
90.046300 12712.400000
99.000000 34877.100000
105.044500 18715.900000
113.015300 23942.200000
115.054200 288002.100000
116.062000 429698.100000
125.015300 5547615.600000
127.054200 18998.200000
128.062000 436943.200000
129.069800 381514.500000
130.077700 201570.200000
137.015100 31460.300000
138.994600 50371.000000
139.005400 44149.200000
139.030400 19546.600000
141.010100 171511.200000
141.069900 55890.100000
142.078000 30722.800000
143.060200 35869.600000
143.085200 33161.700000
144.055800 34545.100000
144.093600 79163.200000
149.015300 92331.200000
151.030800 234383.400000
152.026200 198024.800000
152.061800 78349.800000
153.069700 181213.300000
154.077700 198918.000000
155.060400 161847.400000
155.086200 24106.900000
156.093500 27358.200000
157.088600 55871.700000
162.022300 15844.000000
163.030900 261594.500000
165.010200 262937.500000
165.046200 40521.300000
179.062000 13807.900000

>ms2
125.014900 100835.100000
179.062000 52426.600000
207.057200 207394.600000
220.088600 237143.900000
238.099500 9995449.800000

>ms2
67.054200 45491.500000
125.015300 786099.800000
138.995000 9173.200000
141.009800 8032.600000
151.030600 12024.800000
152.026100 89220.500000
154.077500 7088.400000
163.031000 83845.100000
165.010200 21996.100000
179.062300 979413.100000
189.046700 101864.000000
207.057300 1804168.900000
220.088900 1412239.600000
238.099700 4711276.100000

>ms2
67.054200 201041.300000
115.053800 8713.200000
125.015300 2438762.300000
138.994800 23977.300000
141.010100 76376.900000
144.093300 23121.800000
149.015200 20461.900000
151.030800 111036.100000
152.026100 201384.300000
153.069800 37138.600000
154.042000 9418.900000
154.077700 51315.400000
157.088600 8852.100000
163.030900 443649.100000
165.010100 116163.800000
165.046500 84913.600000
177.046500 20673.700000
179.062300 1759633.400000
185.119300 21642.800000
189.046500 313020.400000
191.062200 28064.900000
192.057200 9612.700000
207.057200 1081608.300000
220.088700 1276642.700000
238.098800 339679.000000

>ms2
67.054200 151106.600000
113.015200 11321.800000
115.054400 22340.300000
116.062100 16638.900000
125.015300 3666989.700000
128.062100 68058.300000
129.069800 50516.700000
130.077700 36631.200000
138.994500 37091.800000
139.031600 7849.200000
141.010200 118703.000000
142.077500 14557.600000
143.085500 55527.200000
144.093400 106127.500000
149.015300 58085.800000
151.031000 299886.800000
152.026100 223664.200000
153.069900 99091.200000
154.041900 15825.000000
154.077700 157721.800000
155.060400 41028.000000
155.085300 11239.000000
156.093400 56194.900000
157.088700 29253.700000
163.030900 583352.200000
165.010200 160047.700000
165.046600 114486.000000
172.088500 18899.700000
177.046900 18132.100000
179.062200 627366.800000
184.111900 8414.600000
185.119900 13346.800000
189.046600 168603.000000
191.062200 28677.800000
192.057200 21108.300000
207.057300 139786.200000
220.088700 333210.400000

>ms2
67.054200 83165.400000
77.038500 7869.800000
89.038500 17541.200000
113.015300 10613.400000
115.054200 79956.300000
116.062000 90076.600000
125.015300 3530523.000000
127.054100 10674.300000
128.062000 179775.100000
129.069800 122642.100000
130.077700 96817.600000
138.994400 33643.700000
139.005400 8432.100000
139.030700 8351.200000
141.010200 119245.200000
141.070100 20605.800000
142.077800 17243.000000
143.060700 15412.600000
143.085500 34712.100000
144.056700 9170.100000
144.093300 107149.800000
145.065700 5271.800000
149.015200 56354.900000
150.023300 14967.500000
151.030900 264128.300000
152.026100 187301.900000
152.062000 20596.200000
153.069900 120545.800000
154.041700 17775.900000
154.077600 181145.400000
155.060400 82999.700000
155.085400 14098.600000
156.093300 57157.900000
157.088500 36540.700000
163.030900 350999.600000
165.010200 176491.000000
165.046600 75624.400000
172.088400 15025.100000
179.062200 94243.000000
184.112300 10390.600000
189.046700 34299.000000
207.056700 14366.100000
220.088900 33540.300000

>ms2
67.054200 44530.400000
77.038600 23699.000000
89.038600 46813.400000
90.046400 5409.600000
98.999700 18787.500000
105.044900 6520.600000
113.015200 11961.600000
115.054200 135474.000000
116.062100 209810.000000
125.015300 3083574.400000
127.054200 11371.800000
128.062100 247374.400000
129.069900 203068.400000
130.077700 114801.600000
137.015200 12573.700000
138.994600 19566.000000
139.005800 15690.500000
139.030900 11270.100000
141.010200 87690.200000
141.069900 28131.300000
142.077700 16346.900000
143.060500 14754.600000
143.085500 13824.500000
144.056900 17697.000000
144.093400 35445.500000
145.064700 7858.500000
149.015200 47782.900000
150.023100 15274.700000
151.030900 112723.600000
152.026100 95287.400000
152.062100 43582.000000
153.069900 98291.000000
154.077700 110590.600000
155.060400 93518.400000
155.085400 5564.000000
156.093400 15744.800000
157.088600 25315.500000
162.023000 8799.200000
163.030900 128074.100000
165.010200 142117.000000
165.046600 20187.500000
176.038900 4981.500000
179.062700 10018.200000
184.111900 5097.600000

