>compound EA48893855
>parentmass 250.18019999999993
>ionization [M+H]+
>formula C15H23NO2
>rt 294.000000
>profile orbitrap
#smiles_iso CNCC(C1=CC=C(C=C1)O)C2(CCCCC2)O
#smiles_can CNCC(C1=CC=C(C=C1)O)C2(CCCCC2)O
#inchikey MMSWXJSQCAEDLK-UHFFFAOYSA-N
#pubchem_id 3451347
#mb_accession EA265702,EA265703,EA265704,EA265705,EA265706,EA265707,EA265708,EA265709,EA265710,EA265711,EA265712,EA265713

>ms2
107.049100 28001.900000
201.127300 77386.900000
232.169600 2267141.300000
250.180400 6646501.900000

>ms2
107.049100 105682.100000
133.064900 138126.300000
145.065300 34535.800000
159.080800 30995.900000
201.127400 618524.200000
232.169600 1302770.100000
250.179900 729201.800000

>ms2
79.054200 25202.200000
81.070000 28040.000000
107.049200 376570.800000
119.049200 11039.100000
121.064500 15054.400000
133.064800 422246.500000
138.127300 10280.600000
145.064800 121201.700000
150.091500 27825.700000
159.080500 143262.600000
173.096100 12063.400000
201.127300 367895.800000
232.169900 129737.700000

>ms2
69.069800 18707.400000
79.054400 35230.100000
81.070000 64132.400000
105.070300 17504.600000
107.049200 586144.600000
119.048800 12695.100000
121.064900 27527.900000
133.064900 461419.200000
135.068300 14070.900000
145.064900 124246.800000
147.080100 14169.400000
150.091300 28141.800000
159.080500 177803.200000
201.127700 40731.600000

>ms2
79.054200 41969.700000
81.069900 82001.800000
91.054500 12417.100000
105.069700 83406.100000
107.049200 688577.400000
119.049100 11942.400000
121.064800 30878.800000
131.049600 12602.500000
131.085500 17794.000000
133.064800 352450.100000
135.068100 21142.200000
144.057100 18248.000000
145.065000 83473.400000
147.081000 10836.500000
159.080500 114664.700000

>ms2
67.054200 13585.400000
69.070200 8995.200000
77.038400 22883.900000
79.054300 87315.600000
81.070000 75187.300000
91.054300 40608.500000
103.054500 15333.700000
105.069900 147840.200000
107.049200 687165.300000
115.054000 16407.600000
117.070100 12483.100000
121.064600 21997.000000
131.049200 19965.500000
131.085700 15344.700000
133.064900 211877.900000
135.068000 26323.300000
141.069900 12897.100000
144.056900 33128.100000
145.064800 47963.700000
147.079700 8083.200000
155.060500 7477.000000
159.080400 40348.200000
169.076300 8824.700000

>ms2
133.064500 6080.100000
201.127500 48321.800000
232.169900 1363184.700000
250.180500 4051479.400000

>ms2
81.070000 4935.900000
107.049100 63776.800000
133.064800 84075.000000
145.064600 15320.800000
159.080500 16095.000000
173.096400 13072.800000
201.127400 374516.400000
232.169600 745234.000000
250.180500 516020.800000

>ms2
79.054300 12455.000000
81.069900 19614.500000
107.049200 223864.600000
119.049300 4409.300000
121.064700 11894.400000
133.064900 239175.500000
138.127900 6147.900000
145.064900 66914.200000
150.091600 12300.900000
159.080500 78288.500000
173.096200 12301.300000
201.127500 231653.300000
232.169800 67244.000000

>ms2
69.070000 7115.100000
79.054300 18442.600000
81.069900 39576.100000
91.054200 5120.100000
105.069700 5718.200000
107.049100 338865.700000
119.049200 9896.900000
121.064800 17743.500000
131.049200 6954.700000
131.085500 5117.600000
133.064800 264595.100000
135.067700 6793.000000
145.064700 68564.100000
147.080300 7433.500000
150.091300 16930.400000
159.080400 86557.300000
173.095300 6160.300000
201.127400 30172.600000

>ms2
67.054200 7358.900000
69.069900 8560.100000
79.054200 28898.800000
81.069900 45169.000000
91.054200 8719.500000
105.069900 47856.600000
107.049200 370011.600000
117.069600 5185.700000
119.049100 4409.800000
121.064800 22254.800000
131.049000 7332.200000
131.085600 10814.600000
133.064800 201861.000000
135.067800 13750.800000
144.056900 7859.900000
145.064800 42842.700000
147.080300 5963.800000
150.091400 7435.400000
159.080400 49814.200000
169.075800 6892.600000

>ms2
67.054300 4285.600000
69.069900 2349.400000
77.038600 8626.800000
79.054200 40839.600000
81.069900 37211.000000
91.054200 15444.400000
103.054200 7956.300000
105.069900 75872.900000
107.049200 320950.900000
115.054200 7335.500000
117.069900 5316.300000
121.064800 7853.200000
131.049100 6653.100000
131.085600 6871.500000
133.064800 93756.200000
135.067900 12997.100000
141.069800 7558.000000
144.057000 14806.900000
145.064800 20219.200000
147.080500 4893.000000
155.060500 7020.000000
159.080500 19982.500000
169.076000 3982.400000

