>compound EA49735125
>parentmass 748.4842
>ionization [M+H]+
>formula C38H69NO13
>rt 582.000000
>profile orbitrap
#smiles_iso CC[C@@H]1[C@@]([C@@H]([C@H](C(=O)[C@@H](C[C@@]([C@@H]([C@H]([C@@H]([C@H](C(=O)O1)C)OC2CC(C(C(O2)C)O)(C)OC)C)OC3C(C(CC(O3)C)N(C)C)O)(C)OC)C)C)O)(C)O
#smiles_can CCC1C(C(C(C(=O)C(CC(C(C(C(C(C(=O)O1)C)OC2CC(C(C(O2)C)O)(C)OC)C)OC3C(C(CC(O3)C)N(C)C)O)(C)OC)C)C)O)(C)O
#inchikey AGOYDEPGAOXOCK-AVDMLEEESA-N
#pubchem_id 54688
#mb_accession EA019102,EA019103,EA019104,EA019105,EA019106,EA019107,EA019108,EA019109,EA019110,EA019111,EA019112,EA019113

>ms2
72.080900 3368.100000
83.049100 17478.000000
98.096000 5725.800000
113.059700 6989.900000
116.070500 9697.400000
116.106700 6768.000000
158.117600 131159.900000
590.390600 38163.200000
692.128500 3640.000000
748.484600 96327.200000

>ms2
55.054300 5605.200000
72.080800 15820.600000
83.049200 311440.800000
88.075900 5951.400000
98.096400 47773.500000
99.080500 3891.900000
100.075800 4029.300000
113.059700 41848.400000
114.091000 4337.500000
116.070500 72380.000000
116.106900 72773.300000
127.075400 11938.200000
158.117600 599949.700000

>ms2
55.054300 6591.800000
72.080700 41946.500000
81.069900 5606.500000
83.049100 354406.500000
88.075600 24523.500000
98.096300 73588.200000
99.080500 4367.500000
100.075300 9778.300000
113.059500 31044.000000
114.091200 8816.600000
116.070600 84090.500000
116.106900 74234.900000
123.080800 3423.500000
127.075500 6971.600000
158.117500 288392.900000
353.124600 2953.600000

>ms2
55.054000 6912.500000
59.049200 7424.600000
72.080700 98576.900000
73.052000 3226.500000
81.069700 9949.500000
83.049100 375267.400000
84.080800 12885.900000
85.028400 4356.900000
87.044200 4666.300000
88.075600 33122.100000
98.096300 83139.700000
100.075500 7270.100000
113.059400 7780.700000
114.091000 6085.400000
116.070500 51216.500000
116.106800 49022.700000
158.117500 55910.700000

>ms2
55.054100 9711.000000
59.049100 9302.400000
70.065000 4519.700000
72.080700 103905.900000
81.069900 10336.700000
83.049100 311349.100000
84.080700 14300.600000
87.043700 3779.500000
88.075700 25206.100000
98.096400 60365.700000
116.070800 19395.700000
116.106900 16953.700000
123.080600 3756.300000
158.118100 6528.600000

>ms2
55.054200 20677.100000
57.057200 3568.600000
59.049300 6666.300000
72.080800 93823.000000
79.054100 5981.400000
81.070000 8979.000000
83.049200 206653.600000
84.080600 17435.900000
88.075800 12173.800000
98.096500 45202.500000
116.070800 5469.100000

>ms2
72.080700 3314.700000
83.049100 20958.000000
87.044000 3601.000000
98.096400 12682.700000
113.059600 9859.600000
116.070600 21311.100000
116.106900 20878.700000
127.075100 5425.300000
158.117500 193782.600000
316.210900 7937.600000
558.363000 10957.800000
590.389300 74924.600000
692.125500 2574.400000
748.484500 110270.200000

>ms2
55.054100 3907.800000
72.080800 22840.200000
81.069900 1965.900000
83.049100 261679.500000
87.044000 3846.500000
88.075600 10176.700000
98.096400 49937.700000
99.080400 4118.200000
100.075700 8246.200000
113.059700 43304.300000
114.091300 5526.100000
116.070600 82790.400000
116.106900 84226.500000
123.080400 3334.900000
127.075300 11003.400000
158.117600 550184.400000

>ms2
55.054200 5788.000000
72.080800 35768.700000
73.052400 2405.000000
81.069700 2533.500000
83.049200 252075.100000
88.075700 24470.400000
98.096400 61963.700000
100.075800 7457.200000
113.059700 23552.300000
114.091300 8490.300000
116.070600 72690.900000
116.107000 64724.200000
127.075300 3310.500000
158.117500 223020.400000
353.122400 2071.600000

>ms2
55.054300 2759.500000
59.049100 3664.300000
72.080800 55075.300000
73.052000 2162.100000
81.069800 6881.900000
83.049200 216684.000000
84.080700 7702.300000
88.075700 22345.500000
98.096400 49167.200000
100.075800 2873.200000
113.059700 4056.400000
114.091400 4072.100000
116.070700 34538.800000
116.107000 37622.400000
127.075500 2861.700000
158.117600 38720.400000
692.126000 4004.900000

>ms2
55.054200 4733.300000
57.057300 2569.400000
59.049200 4384.400000
70.065200 2630.700000
72.080800 57999.600000
81.069900 8228.900000
83.049100 180246.300000
84.080800 7823.100000
88.075600 13376.500000
98.096400 38078.100000
116.070500 9625.600000
116.106900 9755.600000
692.126500 2255.000000

>ms2
55.054200 8898.600000
70.065100 4254.500000
72.080700 41255.800000
79.054100 1894.300000
81.069800 4318.600000
83.049100 99896.200000
84.080700 7188.700000
85.028300 1605.600000
88.075700 4283.900000
98.096400 17115.600000
116.070600 2433.400000
116.107000 1686.400000
353.127500 1704.700000
692.126700 2636.500000

