>compound EA49714305
>parentmass 131.02510000000004
>ionization [M+H]+
>formula C4H3FN2O2
>rt 60.000000
>profile orbitrap
#smiles_iso C1=C(C(=O)NC(=O)N1)F
#smiles_can C1=C(C(=O)NC(=O)N1)F
#inchikey GHASVSINZRGABV-UHFFFAOYSA-N
#pubchem_id 3385
#mb_accession EA256602,EA256603,EA256604,EA256605,EA256606,EA256607,EA256608,EA256609,EA256610,EA256611,EA256612,EA256613

>ms2
131.025000 254847.200000

>ms2
84.959700 227605.989100
88.018900 3830.400000
113.998500 66826.800000
131.025000 1658455.200000

>ms2
58.008700 11244.500000
60.024600 2590.600000
84.959700 282710.345800
88.019300 30126.000000
113.014900 3487.600000
113.998500 445835.000000
131.025000 1318617.400000

>ms2
58.008700 22893.400000
84.959700 212259.585500
88.019200 51416.700000
113.014300 7482.500000
113.998400 834975.000000
131.025000 556926.500000

>ms2
58.008700 47343.200000
60.024400 6850.000000
84.959700 164705.910500
88.019300 53283.300000
113.014500 13592.100000
113.998500 1014037.900000
131.025000 199450.400000

>ms2
58.008700 102312.500000
60.024400 10983.300000
84.959700 124036.278500
88.019300 42179.300000
113.014600 13146.300000
113.998500 794290.100000
131.025000 50698.800000

>ms2
84.959600 28211.240120
131.025000 174206.300000

>ms2
84.959600 291776.920600
113.998400 50491.800000
131.025000 1215668.300000

>ms2
58.008700 5535.400000
84.959600 297135.763100
88.019300 10027.500000
113.014400 1845.000000
113.023400 1763.700000
113.998500 267148.000000
131.025000 775983.700000

>ms2
58.008700 14043.500000
60.024400 2356.100000
84.959600 288971.381200
88.019200 29497.900000
113.014400 5368.600000
113.998500 552637.900000
131.025000 362975.300000

>ms2
58.008700 32047.500000
60.024300 3241.700000
84.959600 190983.051000
88.019200 33509.700000
113.014500 9997.000000
113.998500 683127.200000
131.025000 121530.400000

>ms2
58.008700 50533.700000
60.024300 5487.700000
84.959600 126211.762900
88.019200 22171.800000
113.014400 6641.900000
113.998400 406469.000000
131.025000 26426.100000

