>compound EA50777687
>parentmass 302.1057
>ionization [M+H]+
>formula C13H19NO5S
>rt 354.000000
>profile orbitrap
#smiles_iso CC1=C(C(=CC=C1)C)N(CCOC)C(=O)CS(=O)(=O)O
#smiles_can CC1=C(C(=CC=C1)C)N(CCOC)C(=O)CS(=O)(=O)O
#inchikey RVSCDWJKJDBFRS-UHFFFAOYSA-N
#pubchem_id 86290104
#mb_accession EA253502,EA253503,EA253504,EA253505,EA253506,EA253507,EA253508,EA253509,EA253510,EA253511,EA253512,EA253513

>ms2peaks
270.079700 10436274.300000
302.106000 9027537.000000

>ms2peaks
132.080300 57236.800000
146.097000 21467.300000
147.104300 366737.100000
148.112000 77986.900000
174.091400 305657.100000
189.114900 205464.800000
206.117700 59251.100000
252.070100 25751.500000
270.079300 19900387.500000
302.105600 246111.400000

>ms2peaks
68.049500 140758.400000
130.077600 20686.000000
131.072900 14921.600000
131.085900 10488.800000
132.080800 1767314.300000
145.088600 65768.000000
146.096500 344746.800000
147.104400 4324758.600000
148.112100 750740.200000
159.104200 121050.900000
160.111900 42876.500000
174.091600 4659503.900000
188.107100 20139.100000
189.114900 687760.600000
190.122700 96816.100000
204.102100 64149.700000
206.117600 373748.800000
252.069200 149299.300000
270.079700 8826271.200000

>ms2peaks
59.049100 10889.600000
68.049500 208278.100000
91.053800 10487.600000
105.069900 68844.400000
107.085700 20401.500000
118.064600 19919.900000
119.085300 26467.200000
120.080800 18583.400000
121.088900 17039.800000
122.096600 12507.200000
129.069200 8886.900000
130.078000 38936.400000
131.072900 73790.600000
131.085700 45249.300000
132.080900 5861424.400000
133.088500 49218.200000
134.096400 32890.500000
144.081000 61064.500000
145.088700 132525.300000
146.096500 1394431.300000
147.104300 2928340.400000
148.112100 962936.000000
158.096400 75347.400000
159.104300 266459.700000
160.112200 54432.800000
174.091500 7141338.500000
176.106700 12602.300000
188.106700 25676.100000
189.114800 118038.900000
190.122800 33408.400000
204.102000 113931.500000
206.117600 156288.000000
252.069100 40104.900000
270.080400 847911.300000

>ms2peaks
59.049200 13835.100000
68.049500 193917.300000
79.054300 30616.900000
85.052400 9276.800000
91.054300 35453.900000
103.054100 35263.500000
105.069900 575320.800000
106.077500 25974.100000
107.085400 32028.000000
117.057300 110157.600000
118.065200 79460.300000
119.085500 62338.500000
120.080800 69189.900000
121.088600 46138.000000
122.096400 8276.400000
129.069900 31331.600000
130.064900 36719.100000
130.078200 33348.500000
131.073000 533361.900000
131.085400 42609.400000
132.080800 8260640.200000
133.075900 42567.000000
133.088500 103643.400000
134.096200 61139.600000
144.080700 210622.800000
145.088600 140668.300000
146.096600 3691419.000000
147.104200 639258.200000
148.112000 637779.600000
156.080700 11426.500000
158.096400 222019.600000
159.104200 182999.100000
160.075500 14687.300000
160.111600 18170.400000
174.091500 5058794.200000
176.107000 21417.500000
188.107100 26083.300000
204.101700 54077.100000
206.118100 26686.500000
270.096700 38382.200000

>ms2peaks
59.049300 9849.800000
68.049500 119531.700000
77.038500 46351.200000
79.054300 132720.300000
91.054300 92366.500000
103.054300 108577.500000
105.070000 1519936.800000
106.065300 28285.900000
106.077700 29196.500000
107.072800 8726.000000
107.085900 14829.400000
115.054100 42857.600000
117.057400 684208.700000
118.065200 115428.500000
119.085500 55989.600000
120.080700 83078.100000
121.088800 46554.000000
123.080900 7699.600000
129.069800 72575.300000
130.065200 176188.300000
130.077300 19429.700000
131.073100 1696651.600000
132.080800 7215738.100000
133.076000 78861.500000
133.088600 112675.700000
134.096400 64858.700000
144.080800 333453.400000
145.088800 94772.700000
146.096600 4030843.600000
147.104100 85283.300000
148.112100 239504.600000
156.080200 13464.700000
158.096500 325279.000000
159.104300 55442.400000
160.111800 8927.800000
174.091400 1759113.700000
270.097000 20721.200000

>ms2peaks
270.079500 12126068.400000
302.105700 9871763.900000

>ms2peaks
132.080500 46915.000000
147.104400 399019.500000
148.112200 96388.400000
174.091300 257323.500000
189.114900 225979.100000
206.117800 66158.900000
252.069400 31130.100000
270.079600 21624837.400000
302.105900 279192.800000

>ms2peaks
68.049500 118937.100000
130.077700 21469.700000
131.073200 13193.000000
131.085600 15770.600000
132.080900 1577664.400000
144.080200 10639.800000
145.088700 68942.200000
146.096600 330923.200000
147.104300 3768831.500000
148.112100 679181.200000
159.104300 123405.500000
160.112100 47591.600000
174.091400 4099913.200000
188.107000 18011.200000
189.114900 621660.700000
190.122600 90717.800000
204.102000 52197.900000
206.117600 344965.200000
252.069000 117706.900000
270.079400 7443711.100000

>ms2peaks
68.049500 183517.900000
105.069900 72280.900000
107.085700 16367.700000
117.057000 8762.700000
118.065200 17855.500000
119.085600 19051.400000
120.080800 28162.200000
121.088600 26126.900000
129.069800 7475.900000
130.065000 7555.500000
130.077700 42794.100000
131.073000 65963.200000
131.085700 33462.700000
132.080800 4994043.200000
133.088500 32048.000000
134.096400 25969.800000
144.080800 54418.500000
145.088600 117512.500000
146.096500 1148164.700000
147.104400 2457078.000000
148.112100 841897.200000
158.096500 63778.400000
159.104300 219227.400000
160.112100 47452.000000
174.091300 5964222.400000
176.107600 6012.200000
188.107000 20544.700000
189.114900 103368.200000
190.122700 24582.100000
204.101900 99680.700000
206.117600 122370.500000
252.068900 35851.000000
270.079600 680538.500000
270.098000 64946.800000

>ms2peaks
68.049500 135292.000000
79.054200 20635.800000
91.054300 20130.500000
103.054100 14747.900000
105.069900 375176.300000
106.077700 10094.100000
107.085600 25345.300000
115.054200 7285.400000
117.057200 71716.600000
118.065200 47554.600000
119.085500 46408.300000
120.080800 51155.400000
121.088600 31912.500000
122.096400 8722.200000
129.069900 24603.200000
130.065200 27933.500000
130.077700 16677.100000
131.073000 417257.600000
131.085600 36562.600000
132.080800 6040515.800000
133.076000 35573.000000
133.088600 84306.100000
134.096400 41927.600000
144.080800 155539.700000
145.088600 115604.300000
146.096500 2626210.200000
147.104300 498023.900000
148.112100 483119.600000
156.080700 11300.300000
158.096400 175936.100000
159.104300 124166.700000
160.076000 7817.000000
160.112100 24504.000000
174.091400 3521811.200000
176.107200 14235.300000
188.107100 10361.800000
204.102000 38066.100000
206.117400 10138.000000
270.078700 12135.500000

>ms2peaks
59.049100 8511.500000
68.049500 93070.200000
77.038600 29237.400000
79.054200 80708.200000
91.054300 56218.700000
103.054200 84575.400000
105.070000 989931.900000
106.065300 15978.500000
106.077700 19593.500000
107.073000 5121.200000
107.085700 14139.000000
115.054300 16701.900000
117.057300 438504.800000
118.065200 89039.300000
119.085600 50566.300000
120.080800 74236.400000
121.088600 38127.600000
123.080200 5006.100000
129.070000 40511.000000
130.065100 125489.500000
130.077400 12213.500000
131.073000 1186194.300000
132.080800 4910657.800000
133.076000 59476.200000
133.088500 71081.300000
134.096400 54718.000000
144.080800 221887.400000
145.088600 71268.600000
146.096500 2701929.900000
147.104300 52314.300000
148.112000 162978.900000
156.080800 10609.100000
158.096400 204830.800000
159.104300 41901.700000
174.091400 1193815.300000
188.107400 9011.500000

