>compound EA50810781
>parentmass 286.14379999999994
>ionization [M+H]+
>formula C17H19NO3
>rt 66.000000
>profile orbitrap
#smiles_iso CN1CC[C@]23[C@@H]4[C@H]1CC5=C2C(=C(C=C5)O)O[C@H]3[C@H](C=C4)O
#smiles_can CN1CCC23C4C1CC5=C2C(=C(C=C5)O)OC3C(C=C4)O
#inchikey BQJCRHHNABKAKU-KBQPJGBKSA-N
#pubchem_id 5288826
#mb_accession EA274402,EA274403,EA274404,EA274405,EA274406,EA274407,EA274408,EA274409,EA274410,EA274411,EA274412,EA274413

>ms2
286.144100 2668646.300000

>ms2
201.091900 4020.400000
229.085900 7286.400000
286.144000 2550992.900000

>ms2
58.065100 19249.500000
121.064400 8069.200000
123.044700 4927.800000
147.044000 13243.600000
155.085700 11650.100000
161.060500 3490.600000
165.070100 7561.500000
173.059900 25680.800000
173.095900 4342.200000
181.064500 7995.400000
183.080600 31150.100000
185.059900 33349.500000
191.085900 6808.000000
193.064800 16301.200000
199.076100 8521.500000
201.091100 130764.100000
209.059900 23351.000000
209.095900 9047.100000
211.075100 49793.500000
219.080800 7291.000000
221.095200 8861.300000
227.070200 23541.900000
229.086100 105811.900000
237.091200 14968.900000
239.107000 7295.300000
255.101300 4939.400000
268.133000 41915.100000
286.143900 1998694.000000

>ms2
57.033700 4204.600000
58.065200 39525.400000
93.069900 4256.500000
117.070200 3682.300000
121.065000 12368.500000
123.044100 15708.400000
132.080700 3496.000000
135.043900 4027.900000
141.070400 5988.400000
144.057100 5387.200000
145.064800 35014.100000
147.044000 42989.000000
149.060200 3595.000000
153.070000 27562.500000
155.085800 59652.000000
157.064900 35020.000000
161.059800 11069.400000
164.106200 2974.500000
165.070100 64296.400000
167.085500 5028.600000
169.064700 8051.200000
171.044500 10454.000000
171.080800 13455.100000
173.059800 63023.300000
173.096200 19561.400000
178.086300 12595.300000
179.086400 6435.300000
181.065000 70402.700000
181.101300 16958.100000
183.080600 115521.900000
184.052000 7163.300000
185.059800 123393.400000
186.066900 7896.400000
187.075600 16921.000000
191.085600 42317.700000
193.065200 36255.500000
193.100900 10133.200000
197.058800 5660.700000
198.068300 12184.200000
199.075400 47732.400000
201.091200 230443.300000
207.081400 8478.800000
209.059800 71688.600000
209.096200 25349.900000
211.075400 112498.800000
213.091900 3736.300000
219.080600 27348.100000
221.096600 13235.500000
225.091500 10125.200000
227.070300 67335.900000
229.086100 102549.800000
237.090800 26581.700000
239.107100 14571.000000
268.133100 42518.300000
286.143700 591718.100000

>ms2
55.018000 6938.800000
58.065200 37302.700000
91.054300 13621.000000
105.070200 4641.900000
107.049100 8467.600000
115.054200 13227.200000
117.069400 15630.800000
121.064800 7773.000000
123.044100 32781.000000
128.061800 9166.700000
129.069900 19516.900000
131.049100 7895.300000
131.085700 5794.900000
141.070100 22369.100000
143.048800 5615.300000
143.085800 5388.800000
145.064700 52074.400000
147.044000 59400.200000
152.061500 11358.000000
153.069900 134080.500000
155.060300 15853.500000
155.085600 125634.700000
157.064800 125671.100000
159.080800 6584.600000
160.051500 17079.500000
161.059900 14492.300000
162.090800 5958.000000
165.069900 141399.700000
166.078000 19865.300000
167.086300 7024.000000
168.056900 13558.700000
169.064800 10876.600000
171.044600 24149.800000
171.080500 27234.100000
173.059800 51483.200000
173.096500 20580.500000
178.078500 8875.500000
179.085500 12429.800000
181.064800 166077.100000
182.072400 9818.300000
183.080600 102501.600000
184.051800 27414.000000
185.059800 132204.400000
186.067700 18428.100000
187.075200 11155.800000
190.077800 15545.300000
191.085500 47983.700000
193.065000 22576.600000
193.101400 7502.500000
194.073000 19497.200000
195.080500 6019.200000
197.059400 7911.900000
198.067400 23108.500000
199.075600 38451.000000
201.091200 111935.800000
209.059900 72608.300000
209.096600 15301.800000
211.075200 70534.900000
219.080100 10148.900000
222.067400 6851.600000
227.070200 49523.700000
229.086500 31684.700000
252.101800 6495.400000
268.132800 8878.100000
286.143400 81365.200000

>ms2
55.017600 5226.000000
58.065200 16839.800000
67.054300 4260.400000
91.054200 19333.300000
103.054500 10639.600000
105.070300 7311.800000
107.049000 5344.400000
115.054300 37633.100000
117.069900 24173.600000
123.044100 19820.500000
128.062100 39913.900000
129.070000 41159.000000
131.049300 15547.500000
139.053700 6030.100000
141.069900 27444.600000
143.085800 8992.200000
144.056800 22901.600000
145.064900 45033.900000
147.044200 50594.100000
151.054400 7391.900000
152.062100 68620.800000
153.069900 211786.700000
154.077700 15586.400000
155.060400 42575.000000
155.085700 105071.700000
157.064900 172961.300000
158.072000 9392.300000
159.080600 5241.200000
160.052200 19321.600000
161.060000 6740.800000
165.070000 177801.000000
166.077700 31468.900000
168.057200 24026.500000
169.065300 18166.500000
170.072400 7660.400000
171.044200 31859.100000
171.080800 24996.600000
172.052400 6224.900000
173.059700 30887.200000
178.077700 20281.600000
179.086100 13493.100000
181.065000 177436.000000
183.080800 42575.800000
184.051600 48126.700000
185.060000 64356.400000
186.067800 11411.900000
189.069300 12765.800000
190.077200 20938.500000
191.085500 28514.900000
194.072900 18067.200000
197.059700 13833.800000
198.067900 16577.400000
199.076000 14183.300000
201.090800 18404.400000
209.060100 30171.300000
211.075200 18970.300000
219.081100 4934.000000
222.066800 6358.700000
227.070500 12901.200000

>ms2
286.144000 2250830.200000

>ms2
229.086200 8352.000000
268.133500 2606.900000
286.144200 2569885.900000

>ms2
58.065100 14245.600000
121.064900 4079.000000
145.064600 4089.700000
147.043900 7471.400000
155.085600 7790.800000
162.091500 3607.500000
165.069600 6384.000000
173.059900 23319.000000
173.095800 5349.900000
178.085900 5524.600000
181.064900 7846.400000
183.080500 24382.600000
185.059800 31931.500000
187.075500 4575.500000
191.085600 7594.800000
193.064800 19770.100000
193.101700 3290.900000
199.075300 9929.800000
200.083000 2433.400000
201.091100 120187.100000
209.059900 20038.200000
209.096000 4707.000000
211.075500 49682.600000
219.080400 11595.900000
221.096200 6578.400000
227.070300 20490.200000
229.086000 92804.400000
237.091300 13924.200000
239.106300 8699.000000
255.100800 5976.400000
268.133200 41131.100000
286.144200 1859525.400000

>ms2
58.065100 29634.000000
67.054300 3552.800000
83.049400 2963.500000
91.054300 7274.300000
93.070000 2900.900000
107.049000 3646.300000
115.054200 3394.200000
117.069500 2605.900000
121.064900 10996.600000
123.044100 16335.100000
129.069800 3181.100000
132.081000 2246.300000
141.069800 5372.700000
144.057300 2954.800000
145.064800 26886.000000
147.044100 34027.600000
153.069900 30077.100000
155.085600 49041.300000
157.064900 31640.500000
158.072900 3503.100000
159.080000 5563.500000
160.052000 4311.500000
161.060100 8783.100000
162.091400 2708.100000
165.070000 52938.300000
166.077700 2994.100000
166.086400 7476.200000
167.085300 2503.000000
168.057500 4001.500000
169.064900 8093.600000
171.044000 8521.500000
171.080500 6466.300000
172.051500 4745.400000
173.059800 60451.300000
173.096300 16582.400000
178.086300 13038.200000
179.085400 6746.800000
181.064900 59604.500000
181.101400 11705.600000
183.080500 106882.900000
184.052200 5632.300000
185.059800 115294.000000
186.067500 6893.500000
187.075300 13687.300000
191.085600 32274.700000
193.064800 41683.200000
193.101000 8396.300000
194.072600 5576.900000
195.080500 5159.100000
197.059800 3957.200000
197.096200 2797.100000
198.067800 7812.000000
199.075400 39596.000000
201.091100 188682.400000
207.080100 9549.300000
209.059800 65142.500000
209.096100 24061.500000
211.075400 99046.300000
213.054300 3880.100000
213.091600 3132.400000
219.080600 20339.300000
221.096000 10397.700000
225.091300 6509.100000
227.070400 65737.100000
227.106700 6448.500000
229.085900 93708.700000
237.091000 21583.700000
239.106500 10439.300000
240.137300 3077.000000
253.109300 2331.100000
255.102100 3535.100000
268.133300 31778.800000
286.143900 558597.400000

>ms2
55.017900 6385.700000
57.033500 4486.800000
58.065100 25355.700000
67.054200 3459.500000
69.033400 3085.800000
81.033300 4222.600000
83.049200 4955.800000
91.054200 12607.900000
93.070000 2527.900000
103.054200 6270.900000
105.069900 3377.500000
107.048900 5117.200000
115.054300 8026.400000
117.069900 12864.800000
121.064700 8027.200000
123.044100 19252.500000
128.061800 4130.000000
129.069900 12092.600000
131.049200 5957.500000
135.044500 2961.300000
137.060000 2133.200000
141.069900 16420.600000
143.085700 8148.200000
144.056800 7652.500000
145.064800 40809.400000
145.101300 5353.500000
146.096800 2266.300000
147.044000 36465.000000
149.059500 2991.500000
151.054300 2017.900000
152.061900 9616.800000
153.069900 102907.400000
154.077500 2958.100000
155.060400 13371.400000
155.085600 91463.700000
157.064800 103366.000000
158.072800 8826.200000
158.095900 2473.400000
159.080400 7985.800000
160.052000 10634.300000
160.076000 2447.600000
161.059800 10652.200000
162.091300 3392.500000
165.069900 118025.000000
166.077600 19274.800000
167.085300 8716.000000
168.056900 10522.200000
169.064900 12898.700000
170.072600 2979.400000
171.044000 14461.500000
171.080400 15684.700000
172.051800 6490.400000
173.059700 44867.900000
173.096100 15416.800000
178.077600 9847.400000
178.086500 4133.800000
179.085500 11732.400000
181.064800 123671.600000
181.101400 14563.800000
182.073100 5642.100000
183.080400 72121.900000
184.051900 22385.900000
185.059700 106113.300000
186.067600 11885.100000
187.075600 8617.800000
189.070400 3319.700000
190.077700 11431.700000
191.085600 44451.900000
193.064900 22159.200000
193.075800 5168.500000
193.101300 5449.500000
194.072600 18221.000000
195.080000 3432.100000
197.059800 8383.400000
198.067600 21616.300000
199.075400 33802.400000
201.070700 4154.800000
201.091100 74390.000000
202.077900 3002.400000
203.085500 2946.100000
207.080300 4879.400000
209.059800 59530.400000
209.095900 15615.000000
211.075300 56770.600000
213.054400 3884.100000
218.073200 6064.500000
219.080500 13723.400000
221.095600 7089.800000
222.067000 4756.100000
227.070400 37421.700000
229.085900 18641.800000
237.091300 8857.700000
239.106100 2804.500000
252.102200 2111.300000
268.134200 5877.000000
286.143800 67598.400000

>ms2
55.017800 2471.400000
57.033500 1879.000000
58.065100 13838.800000
67.054200 2192.500000
69.033600 1482.700000
81.033500 3592.200000
83.049400 1829.200000
91.054300 11481.700000
93.069900 3769.800000
103.054200 7863.300000
105.070000 4748.800000
107.049200 5298.200000
115.054300 24760.000000
117.070000 21390.800000
121.064800 3100.400000
123.044100 16951.900000
128.062100 29089.200000
129.069900 26444.200000
131.049200 14146.600000
131.085600 1652.900000
132.080800 3320.900000
139.054200 1984.100000
141.069900 29043.900000
143.049200 4739.400000
143.085600 7439.900000
144.057000 13956.700000
144.080900 1567.600000
145.064900 34160.500000
145.101300 3136.000000
147.044100 43683.100000
151.054100 3317.600000
152.062100 45528.400000
153.070000 167576.700000
154.077800 15061.500000
155.060400 31183.500000
155.085600 72132.700000
157.064900 129926.900000
158.072700 9313.700000
159.080400 3309.100000
160.051900 8201.400000
160.075500 1695.500000
161.059800 6734.800000
165.070000 149485.700000
166.077700 23197.300000
167.085500 7293.600000
168.057000 17059.100000
169.064900 14937.600000
170.072600 6361.500000
171.044200 23990.700000
171.080500 16907.500000
172.051900 3475.000000
173.059800 20115.300000
173.096100 5008.500000
178.077700 11922.900000
179.085600 8388.300000
181.064900 122194.200000
182.072700 6451.700000
183.080500 30936.200000
184.052000 40048.700000
185.059800 47396.000000
186.067600 7915.700000
187.075000 3301.900000
189.070100 11281.800000
190.077800 15265.600000
191.085600 21000.700000
193.064900 6617.100000
193.076200 4073.200000
194.072700 14597.100000
197.059800 10604.500000
198.067600 16162.700000
199.075400 14213.500000
200.083300 2401.500000
201.069400 1733.600000
201.091000 13501.600000
207.080600 3360.200000
209.059800 24702.900000
209.096100 4509.300000
211.075500 17121.000000
213.054400 2763.500000
218.072800 4384.300000
219.080200 3116.100000
222.067600 3637.200000
227.070300 8911.700000
229.085600 2077.000000

