>compound EA50032770
>parentmass 453.1187
>ionization [M+H]+
>formula C17H20N6O7S
>rt 468.000000
>profile orbitrap
#smiles_iso CN(C)C(=O)C1=C(C=C(C=C1)NC=O)S(=O)(=O)NC(=O)NC2=NC(=CC(=N2)OC)OC
#smiles_can CN(C)C(=O)C1=C(C=C(C=C1)NC=O)S(=O)(=O)NC(=O)NC2=NC(=CC(=N2)OC)OC
#inchikey PXDNXJSDGQBLKS-UHFFFAOYSA-N
#pubchem_id 11419598
#mb_accession EA277802,EA277803,EA277804,EA277805,EA277806,EA277807,EA277808,EA277809,EA277810,EA277811,EA277812,EA277813

>ms2peaks
156.076900 17330.700000
182.056100 463861.800000
227.011800 3051.000000
255.043300 86571.500000
272.069900 178067.200000
408.061100 86646.900000
453.118900 130080.600000

>ms2peaks
156.076800 49927.500000
182.056200 858562.400000
227.011700 29318.700000
252.991400 7822.000000
255.043300 146630.900000
272.069800 26652.200000
298.048400 14346.900000

>ms2peaks
83.024000 20717.200000
139.050000 13154.700000
156.076700 48224.800000
157.060700 19619.200000
182.056000 724007.000000
212.000600 16271.200000
227.012000 46490.400000
252.991400 23938.600000
255.043100 98692.500000

>ms2peaks
82.028800 3479.100000
83.024000 98145.200000
100.039200 6550.400000
105.045100 2964.300000
107.060500 3729.000000
120.044300 9502.900000
121.028400 8076.200000
135.055100 5409.400000
139.050200 66265.800000
148.039200 23129.400000
156.076800 44875.000000
157.060700 95289.100000
161.034700 11840.700000
162.018900 5115.200000
182.056000 368752.700000
212.000900 29484.200000
227.011300 16844.700000
252.991600 6831.400000
255.043400 24916.500000

>ms2peaks
65.038600 3647.400000
71.060400 7872.300000
82.028900 5206.600000
83.024000 140804.600000
92.049600 9860.800000
93.008400 5132.900000
100.039200 12833.200000
105.044700 14761.900000
107.060000 4213.600000
120.044400 24659.600000
121.028400 12015.600000
135.055100 9800.500000
136.039100 4876.200000
139.050200 97078.800000
148.039400 13692.900000
156.076800 12626.300000
157.060700 89757.400000
161.034900 8362.000000
163.050600 6427.000000
182.055900 95798.000000
212.000600 5193.700000

>ms2peaks
65.038600 11184.000000
68.997200 5108.400000
71.060300 13598.600000
80.049500 4758.000000
82.028600 7235.000000
83.024000 140874.800000
92.049500 18826.900000
93.008300 13205.800000
94.065100 3311.600000
100.039100 6710.100000
105.044500 14184.900000
117.044200 3588.600000
120.044600 15798.800000
121.028100 9498.100000
139.050100 65857.300000
157.060500 31797.400000
161.034500 5345.700000

>ms2peaks
156.076700 11943.000000
182.055900 241038.500000
227.012400 2185.300000
255.043200 49687.100000
272.069600 85823.200000
298.048400 3172.700000
408.060500 44656.900000
453.118200 60265.600000

>ms2peaks
83.024100 2827.200000
156.076600 19930.400000
182.055900 445662.700000
227.011900 13923.500000
252.991300 2952.100000
255.043200 70122.400000
272.069800 15982.200000

>ms2peaks
83.023900 9976.000000
139.050000 6192.100000
156.076700 23954.200000
157.060700 9170.500000
182.056000 360017.900000
212.001100 7781.400000
227.012000 24078.200000
252.991200 12097.500000
255.043200 47528.800000

>ms2peaks
71.060300 1983.500000
83.023900 39822.000000
100.039300 3311.800000
120.044500 4167.600000
121.028200 5417.800000
135.055500 3706.100000
139.050100 31871.700000
148.039300 8569.300000
156.076600 17661.000000
157.060700 35712.000000
161.034300 3435.300000
162.018400 2029.700000
163.050100 4930.900000
182.055900 171945.600000
212.001200 10656.800000
227.012200 5591.800000
252.991400 3149.600000
255.043300 12425.200000

>ms2peaks
71.060300 4570.100000
81.044700 2022.100000
82.028600 1980.400000
83.024000 59338.300000
92.049300 2856.600000
100.039200 5700.900000
105.044700 4718.400000
120.044400 7889.500000
121.028300 5122.200000
135.055400 4366.700000
136.039100 4017.400000
139.050200 46651.400000
148.039000 6521.900000
156.076800 4878.900000
157.060700 36812.900000
161.035200 2981.100000
162.019100 2317.100000
182.055900 36390.400000
212.000200 2726.900000
255.043600 1842.300000

>ms2peaks
65.038600 4699.500000
68.997100 2516.000000
71.060300 4796.100000
80.049400 2171.800000
81.044600 1690.800000
82.028700 3033.400000
83.024000 56159.500000
92.049400 5403.900000
93.008300 6289.000000
94.065200 1449.300000
100.039200 3764.800000
105.044600 6470.600000
117.044600 1698.400000
120.044300 7267.300000
121.028300 2722.800000
139.050100 26536.800000
157.060700 12890.200000
182.056100 7273.500000

