>compound EA51886044
>parentmass 261.03209999999996
>ionization [M+H]+
>formula C7H15Cl2N2O2P
>rt 378.000000
>profile orbitrap
#smiles_iso C1CNP(=O)(OC1)N(CCCl)CCCl
#smiles_can C1CNP(=O)(OC1)N(CCCl)CCCl
#inchikey CMSMOCZEIVJLDB-UHFFFAOYSA-N
#pubchem_id 2907
#mb_accession EA257902,EA257903,EA257904,EA257905,EA257906,EA257907,EA257908,EA257909,EA257910,EA257911,EA257912,EA257913

>ms2peaks
140.002900 48261.700000
261.031900 39727388.400000

>ms2peaks
58.065100 88593.300000
62.999500 34740.000000
106.041800 2039837.400000
110.000100 64949.000000
120.020800 293119.600000
138.031500 315435.400000
140.002900 2952710.500000
142.018500 1357480.400000
185.024100 85265.700000
199.039400 65018.500000
233.000800 2989333.200000
261.031900 31067396.100000

>ms2peaks
56.049500 307779.600000
58.065100 348680.100000
62.999500 124964.000000
70.065100 92225.600000
78.010500 101972.100000
91.989800 32891.600000
94.005400 37820.100000
104.026400 20038.200000
106.041900 3945203.900000
110.000200 445507.400000
112.015800 45853.700000
120.020900 1712557.400000
122.036500 25779.400000
138.031500 1545123.500000
140.003000 10979514.800000
142.018500 3677620.500000
154.019000 34374.200000
155.997300 65040.000000
171.008400 58661.100000
174.008200 23830.800000
185.024200 201467.200000
197.024500 32640.200000
199.039600 141457.700000
203.973900 33831.100000
221.000400 19069.600000
225.054600 23257.100000
233.000800 3198074.200000
261.032100 6542092.900000

>ms2peaks
56.049500 565299.900000
58.065100 409370.600000
62.999600 484473.000000
70.065100 173717.200000
78.010500 225542.100000
91.989700 83205.800000
94.005200 120686.900000
102.010200 138140.100000
104.026200 111624.500000
106.041800 2217251.900000
110.000200 428889.100000
111.971900 37515.200000
112.015700 137851.400000
113.986900 13517.000000
114.010400 16974.400000
120.020900 1958212.500000
124.015800 19228.000000
127.966200 12968.000000
132.020600 19666.100000
138.031500 1317637.200000
140.002900 10088137.900000
141.982300 357028.100000
142.018500 2740880.400000
154.018300 59865.100000
155.998000 43484.900000
167.997600 54165.000000
171.008600 72904.900000
174.007900 15333.400000
185.023900 52509.700000
197.023700 29940.200000
199.039600 36851.400000
203.974200 41233.500000
233.000700 363491.600000
261.032800 329804.100000

>ms2peaks
54.033900 16020.200000
56.049500 671762.300000
57.057300 13418.300000
58.065100 375790.500000
62.999600 1050074.800000
64.978500 23906.900000
66.994300 16834.300000
70.065200 160551.300000
78.010500 275249.300000
87.994800 14106.600000
91.989600 156877.700000
94.005200 139539.300000
102.010300 191343.600000
104.026200 248605.600000
106.041800 904986.100000
110.000100 191856.400000
111.971800 53926.100000
112.015700 191617.500000
113.987100 48610.000000
114.010400 22930.600000
120.020900 1073414.400000
124.015600 54776.800000
138.031500 479768.600000
140.002900 5611233.800000
141.982100 361866.700000
142.018400 1311182.700000
155.998100 14128.900000

>ms2peaks
54.033900 18324.800000
56.049400 550118.800000
58.065100 261134.400000
62.999600 1450467.600000
68.049400 22296.100000
70.065000 91874.200000
78.010500 264639.200000
79.989500 35728.200000
80.026200 22777.300000
91.989600 221775.500000
94.005200 133081.900000
98.000400 30543.800000
102.010200 144095.800000
104.026100 224002.400000
106.005200 122667.600000
106.041800 361756.700000
110.000200 76104.400000
111.971500 53103.700000
112.015800 144320.000000
113.987300 29355.300000
114.010400 24784.500000
120.020800 448100.400000
123.971300 50260.600000
124.015700 42198.400000
127.966600 15069.200000
138.031400 108948.600000
140.002700 1913436.255000
141.981800 173709.400000
142.018300 401461.400000

>ms2peaks
106.041800 42897.400000
233.001700 62186.400000
261.032200 35780090.700000

>ms2peaks
56.049400 28343.800000
58.065200 38670.700000
106.041900 1567709.400000
110.000200 57788.200000
120.021000 200538.100000
138.031500 197224.100000
140.003000 2324313.800000
142.018600 1023698.300000
185.024100 50737.500000
233.001000 2233359.300000
261.032100 25450828.700000

>ms2peaks
56.049500 193935.800000
58.065100 212005.200000
62.999600 73550.500000
70.065100 70160.600000
78.010500 69935.500000
91.989600 12911.700000
94.005100 31531.000000
102.010300 29470.700000
104.026000 17401.600000
106.041900 2514027.800000
110.000200 318172.000000
112.015800 27161.200000
120.020900 1183713.100000
122.036300 18415.400000
132.020800 11677.300000
138.031500 1095782.700000
140.002800 7243990.100000
142.018500 2378380.600000
154.018200 21201.000000
155.997600 42483.300000
163.063200 8934.700000
167.997400 31801.700000
171.008500 48726.800000
174.008300 13797.500000
185.024100 121784.100000
197.024000 35210.400000
199.039800 92679.700000
203.973900 26124.300000
220.999800 7476.100000
225.055300 13738.300000
233.000900 1954039.400000
261.032200 4206437.500000

>ms2peaks
56.049500 355721.300000
58.065100 245273.200000
62.999600 245792.800000
64.978600 6588.000000
66.994400 9279.500000
70.065200 100969.400000
78.010500 122353.700000
80.026100 9188.400000
91.989600 59230.400000
92.026200 11080.800000
94.005300 63528.200000
102.010400 75544.600000
104.026200 61426.100000
106.041900 1339934.400000
110.000200 269807.700000
111.971500 20038.900000
112.015900 80484.100000
120.020900 1220441.000000
122.036500 16078.300000
123.971200 8689.700000
124.016000 17979.500000
127.966300 20888.300000
132.020700 14095.500000
138.031500 848380.200000
140.002800 6085754.200000
141.982000 218240.500000
142.018500 1817469.000000
154.018500 24490.900000
155.997300 29747.200000
167.997600 32973.300000
171.008500 44755.200000
174.007500 7031.900000
185.024000 26862.800000
199.039700 20019.800000
203.973700 23337.800000
221.001900 7551.900000
233.000700 251403.700000
261.032100 177826.200000

>ms2peaks
54.033800 6959.000000
56.049500 329241.900000
58.065100 164936.000000
62.999600 554755.200000
64.978700 10633.200000
66.994400 11539.300000
70.065100 74375.500000
78.010500 149981.500000
79.989500 15305.000000
80.026300 7801.500000
91.989600 95178.400000
92.026200 11056.200000
94.005300 79258.800000
98.000300 6331.900000
102.010300 83122.500000
104.026200 119327.600000
106.005200 44788.500000
106.041800 512685.500000
110.000200 98807.700000
111.971500 29303.000000
112.015800 83716.400000
113.987200 19356.500000
114.010400 10067.200000
120.020900 578947.000000
123.971300 21052.700000
124.015700 23182.400000
127.966500 7810.300000
132.020800 7736.500000
138.031400 262446.100000
140.002900 2753835.700000
141.981900 199321.500000
142.018500 736930.900000
154.018400 17246.800000
155.997400 6521.400000
171.009000 9602.400000

>ms2peaks
54.033700 7448.500000
56.049400 242519.400000
57.057300 10632.000000
58.065100 109521.300000
62.999600 631462.900000
64.978700 25461.600000
66.994400 6209.400000
68.049500 13139.800000
70.065100 45211.800000
78.010500 126240.700000
79.989600 21548.700000
87.994800 6794.400000
91.989600 101304.200000
94.005200 50485.300000
98.000200 9361.900000
102.010300 67562.700000
104.026100 101075.800000
106.005200 45146.300000
106.041700 157843.100000
110.000100 38815.400000
112.015800 74847.700000
113.987200 13267.700000
120.020900 195844.200000
123.971200 20663.700000
124.015700 28126.800000
127.966400 7875.600000
138.031300 54955.000000
140.002800 939351.400000
141.981900 93062.900000
142.018400 202029.300000

