>compound EA52005877
>parentmass 390.1084
>ionization [M+H]+
>formula C21H15N3O5
>rt 528.000000
>profile orbitrap
#smiles_iso CO/C=C(/C1=CC=CC=C1OC2=NC=NC(=C2)OC3=CC=CC=C3C#N)\C(=O)O
#smiles_can COC=C(C1=CC=CC=C1OC2=NC=NC(=C2)OC3=CC=CC=C3C#N)C(=O)O
#inchikey IKCXDZCEWZARFL-VBKFSLOCSA-N
#pubchem_id 21584515
#mb_accession EA273402,EA273403,EA273404,EA273405,EA273406,EA273407,EA273408,EA273409,EA273410,EA273411,EA273412,EA273413

>ms2peaks
344.102400 86175.200000
346.118900 1060662.800000
372.098300 57208799.800000
373.069800 59733.700000
390.108900 6496739.600000

>ms2peaks
134.059900 176844.900000
143.060400 174865.100000
145.028200 67273.400000
162.054900 71413.400000
171.055900 60644.200000
172.039500 488986.300000
177.055200 94531.300000
201.065900 307073.500000
203.081500 48625.600000
210.066700 246007.100000
216.065200 233169.200000
287.081700 239139.000000
289.097000 98481.300000
303.075400 325090.200000
312.078100 77415.000000
314.091700 265487.000000
315.097500 156085.700000
316.108000 1589247.300000
317.092300 234406.500000
328.106000 83392.100000
329.079600 1230391.600000
340.070000 127788.000000
344.103000 15995484.000000
346.118600 949833.600000
372.098400 47062544.900000

>ms2peaks
106.065000 62207.800000
107.049000 119407.700000
120.044300 143347.000000
129.044700 312771.400000
130.039700 101479.000000
131.049100 99828.000000
132.044700 48539.800000
133.052100 82918.200000
134.060100 1537914.200000
141.044700 159662.800000
143.036000 51371.800000
143.060500 1013370.900000
145.028600 584103.200000
146.060400 49871.400000
156.044400 300984.300000
157.028200 59493.000000
158.034500 39991.800000
160.038600 135691.500000
160.075300 48992.800000
160.087600 64020.700000
161.071000 78737.500000
162.055100 269017.700000
169.039800 656633.200000
171.031600 58539.500000
171.055400 473269.400000
172.039400 907486.200000
173.046600 66057.600000
176.071100 60718.200000
177.054900 428689.000000
182.048300 51285.100000
182.071000 269049.600000
183.055400 1281460.300000
184.039800 63254.500000
185.023900 80715.700000
186.055500 235043.600000
187.050400 496845.100000
198.079200 73597.100000
199.050300 151359.700000
200.034800 180172.400000
201.042200 915111.400000
201.066000 1001753.800000
202.050300 169605.900000
203.082500 41975.100000
210.042700 378349.100000
210.066500 800232.100000
211.050300 207550.400000
212.033800 88740.200000
216.065800 2465435.500000
231.089500 58576.300000
242.032300 436291.600000
258.078600 63548.700000
262.086000 125562.200000
273.065800 247831.600000
273.089900 468701.800000
284.078700 48781.700000
285.087600 58126.800000
286.097900 56090.400000
287.082200 601458.400000
288.064600 192264.600000
288.112100 246972.900000
289.097100 281889.400000
300.077200 388695.700000
301.084000 2472612.700000
303.076500 318422.300000
312.076200 307840.300000
313.061300 95428.000000
314.092000 346789.900000
315.098800 505640.900000
316.108300 1464134.100000
317.093000 228252.600000
328.072100 1138138.400000
329.079600 25321930.300000
340.072100 158551.600000
344.103100 17242506.000000
372.097800 2573266.700000

>ms2peaks
65.038500 35915.400000
68.997100 41887.400000
79.054200 50816.500000
89.038700 215036.600000
91.054600 100477.700000
102.046600 32355.500000
103.054000 120284.400000
104.049600 138106.800000
105.033500 82564.800000
106.065300 109548.300000
107.049300 219441.700000
114.034000 172306.900000
116.049500 175879.800000
117.057100 54789.100000
118.041500 147234.100000
119.036500 107489.700000
120.044600 592939.600000
121.064800 139745.600000
127.041900 78515.800000
128.049500 64590.100000
129.033500 239632.200000
129.044800 1070808.700000
130.029000 113007.500000
130.040100 610378.400000
130.052700 96927.100000
131.049400 117109.500000
131.061000 67140.700000
132.044700 171035.900000
133.028100 169900.500000
133.052300 1034818.500000
134.060100 1871230.300000
140.049700 42717.000000
141.044800 649603.000000
143.036800 248294.200000
143.060500 943292.200000
144.044500 220834.900000
145.028500 455806.500000
145.052300 692523.300000
146.023700 130964.200000
146.060700 120993.400000
147.042900 55124.500000
148.052100 68923.500000
155.060600 319990.100000
156.044500 2965155.600000
157.028300 263324.600000
157.051800 46657.300000
158.035400 60655.000000
159.030800 57604.100000
159.055400 233987.400000
160.039600 156062.100000
161.070900 128275.900000
162.031700 80104.000000
162.055600 71188.600000
168.044400 62600.800000
169.039800 913354.400000
170.048100 228642.900000
170.060400 64973.700000
171.031700 116965.100000
171.055500 746204.900000
172.039400 3716276.600000
173.047400 357516.200000
177.054500 352553.900000
182.047600 408921.400000
182.071600 296347.600000
183.055300 6279781.000000
184.039700 119619.600000
185.026200 76702.300000
186.055400 234512.800000
187.050600 284409.600000
196.051400 64692.100000
197.034100 133269.400000
197.070500 95306.300000
199.050300 1527449.100000
200.034300 2405150.900000
201.042100 2030053.100000
201.065700 321520.500000
207.055200 97441.000000
210.042400 768023.700000
210.066600 270044.200000
211.050300 452209.400000
212.034500 64781.500000
216.065600 644782.100000
218.084100 63254.500000
227.045000 127462.100000
229.074900 52210.300000
231.091000 104011.000000
232.075000 78762.200000
233.069800 99073.700000
235.063600 46732.100000
242.032400 1236880.000000
244.087600 163617.700000
245.071200 248627.200000
245.097000 141898.800000
246.078600 260764.100000
247.087200 76753.100000
257.070300 109874.900000
258.079300 138375.500000
259.086200 123783.300000
261.078400 119866.800000
262.086800 84180.200000
272.082200 1641305.700000
273.066600 1268575.200000
273.089200 1083103.500000
274.073500 395449.600000
275.081600 386549.900000
284.081900 115051.100000
285.087600 61149.800000
287.081400 245510.800000
288.112600 77828.300000
289.096700 58769.100000
300.077000 1799776.000000
301.084500 3292487.800000
303.077300 44858.300000
312.076700 97024.200000
314.092700 95205.200000
315.098500 99746.900000
316.105200 71694.500000
328.071800 4748778.500000
329.079500 9270720.900000
344.103300 753587.100000

>ms2peaks
51.023000 50088.700000
66.046100 34936.300000
68.997100 106142.300000
77.038400 107257.300000
78.033800 135235.000000
78.046600 59804.800000
79.054400 78796.300000
89.038500 565142.000000
91.041800 74919.800000
91.054400 175016.500000
92.025600 87687.000000
92.049000 40389.100000
102.033700 79270.700000
102.046400 47286.700000
103.041600 110550.100000
103.054400 200838.100000
104.049500 504553.100000
105.033500 239659.700000
105.045000 37844.100000
105.057400 50962.800000
106.064900 84950.900000
107.049100 122933.800000
108.044800 37162.900000
114.033900 525293.700000
115.041800 50081.000000
115.054500 87243.700000
116.049400 585016.200000
117.033500 192457.000000
117.057400 161911.700000
118.041500 267377.800000
119.036500 233251.700000
120.044400 800587.400000
121.052200 57696.500000
121.064800 94327.400000
127.041700 316619.700000
128.049400 380203.400000
129.033300 287077.100000
129.044700 1634792.700000
130.028700 326209.200000
130.040000 1379143.800000
131.036100 69514.100000
131.049300 139845.700000
131.061000 90142.800000
132.044400 345895.300000
133.028200 228968.700000
133.052200 1384248.100000
134.036000 165602.400000
134.060000 1479155.600000
140.049300 122150.800000
141.044600 587645.800000
142.052600 75852.800000
143.036500 261180.400000
143.060400 636178.900000
144.044400 848879.100000
145.028300 263206.500000
145.052200 798315.000000
146.023700 396184.700000
146.060000 128214.600000
147.042800 39827.000000
148.051900 51142.600000
154.028400 144826.500000
155.036000 133276.000000
155.060400 635926.800000
156.044400 6480062.600000
157.027800 137241.800000
157.052100 138688.100000
158.036000 48816.800000
159.031500 127574.100000
159.055400 201639.800000
160.039800 139698.400000
162.031600 158966.200000
168.044700 49107.200000
169.039400 368799.600000
170.024200 51605.100000
170.047300 462157.300000
170.060400 71192.800000
171.055300 1196851.000000
172.039200 9810990.200000
173.047300 190939.900000
177.054000 123241.800000
181.040300 164604.200000
182.047400 426448.500000
183.055300 2628108.700000
184.039300 171456.300000
186.055700 84718.400000
187.050100 128307.000000
197.034700 149144.600000
199.050200 1764465.300000
200.034100 2990974.800000
201.042000 431912.700000
210.042000 288561.000000
211.050500 377444.100000
217.077000 80723.700000
218.083300 184142.400000
220.076400 58578.300000
227.045100 83584.900000
229.075400 131758.000000
232.075200 117645.100000
233.071600 147668.200000
242.032500 428755.100000
244.087600 240192.600000
245.071100 487023.100000
245.097000 97489.500000
246.079200 159238.600000
247.086500 60292.300000
256.087100 54502.700000
257.070200 104031.000000
258.079100 85977.500000
259.087800 115052.400000
272.081900 1347180.100000
273.066300 732847.600000
274.074200 324446.600000
275.081400 266645.600000
284.078100 44612.200000
300.076900 1562209.400000
301.083800 504841.700000
314.090900 36219.000000
328.071700 2655242.900000

>ms2peaks
51.022800 72263.500000
53.038600 52384.700000
63.022700 35545.100000
65.038600 79927.600000
66.046700 59830.100000
68.997100 146097.600000
77.038600 246577.300000
78.033800 148565.300000
78.046400 148440.800000
79.054400 59999.900000
89.038600 1206874.500000
90.046700 84398.500000
91.041600 225881.300000
91.054400 165430.700000
92.025800 134526.800000
92.049400 94907.100000
95.049200 100403.500000
102.033800 263294.900000
102.046400 147295.900000
103.041700 173520.900000
103.054200 161295.000000
104.049600 1221123.000000
105.033500 369926.500000
105.044800 132501.100000
105.056800 75889.900000
106.041700 46216.000000
107.049200 91068.200000
114.033900 748402.800000
115.041700 188567.300000
115.054600 112226.000000
116.049500 1515508.800000
117.033600 225113.400000
117.057200 264260.600000
118.028800 54757.400000
118.041400 287406.900000
118.064600 29624.100000
119.036600 326967.500000
119.049600 30390.500000
120.044500 667587.400000
121.064700 59788.500000
127.041700 605709.300000
128.049600 990153.800000
129.033300 215983.800000
129.044800 1647697.900000
130.028700 661048.300000
130.040000 1983690.200000
131.036900 58951.900000
131.049000 104751.800000
131.060200 68997.600000
132.044500 392374.100000
133.028400 370887.600000
133.052300 764611.800000
134.036100 220336.800000
134.060100 766544.100000
140.049500 178255.500000
141.044700 326253.500000
142.052200 113919.900000
143.036700 252993.300000
143.060400 349989.000000
144.044400 1893100.800000
145.028200 181428.000000
145.052200 353044.300000
146.023700 368324.900000
146.060300 186922.400000
147.043500 33291.300000
147.055400 30536.500000
153.044500 72558.900000
154.028700 113255.800000
154.052900 108382.200000
155.036200 70289.800000
155.060500 540078.800000
156.044400 6308930.400000
157.052200 134766.600000
159.031600 83009.800000
159.055400 109854.900000
160.038900 77835.500000
162.030900 87291.200000
162.054800 50857.900000
168.044000 36146.000000
169.039900 129544.400000
170.023000 56297.100000
170.047500 523990.400000
171.055300 1142078.500000
172.039300 12448983.200000
181.039800 332956.700000
182.047800 347782.300000
183.055400 563591.300000
184.039400 85180.900000
185.026200 24956.700000
186.055000 43656.700000
187.050700 50959.200000
190.065600 135683.900000
197.035000 62405.500000
199.050200 572042.300000
200.034300 1218118.600000
204.081100 93473.500000
205.075300 100331.200000
211.050600 136386.600000
217.076200 117524.600000
218.083800 100838.700000
220.076400 66183.400000
227.045600 40433.500000
229.075900 91317.400000
231.091100 34146.300000
233.071800 128712.200000
242.031400 153446.000000
244.087000 239818.000000
245.071000 576311.100000
246.078100 52553.600000
247.086500 59969.500000
256.089000 33834.600000
257.071000 44318.700000
258.079300 47062.900000
260.070700 31174.100000
272.082100 631313.600000
273.065600 228502.400000
274.073800 67114.800000
275.081000 70886.100000
300.077200 521319.700000
328.071700 359684.700000
329.081400 68195.700000

>ms2peaks
346.118600 866563.200000
372.097800 51380922.700000
390.108500 6328042.800000

>ms2peaks
134.060000 198198.500000
143.060400 113593.700000
145.028200 69028.100000
171.055600 61626.300000
172.039400 478550.900000
177.054800 106839.500000
201.065900 261405.400000
210.066100 201713.800000
216.065600 211372.200000
287.081400 231665.800000
289.097100 99233.900000
303.076600 371848.300000
313.059300 80093.000000
314.092200 266390.400000
315.076100 71530.500000
315.100300 134570.200000
316.108100 1646068.400000
317.092200 216638.400000
329.079400 1132657.500000
340.071400 112562.400000
344.103000 15774730.500000
345.087100 63217.900000
346.118700 921605.400000
372.097900 44544695.100000

>ms2peaks
82.028700 53648.200000
83.012800 45672.900000
89.038500 29842.400000
91.054400 54219.600000
106.065200 66605.900000
107.049100 84157.600000
118.041400 46183.600000
120.044500 108532.100000
121.064800 23749.000000
129.044900 236030.400000
130.040200 49244.300000
130.065200 23367.500000
131.049000 56433.600000
132.044200 49788.300000
133.052500 53370.600000
134.060200 1381240.600000
141.044900 110978.600000
143.060500 758077.800000
144.044700 21566.500000
145.028500 438444.400000
145.052500 52879.800000
146.060500 38342.900000
147.044200 41116.100000
155.060700 42041.000000
156.044500 249920.600000
157.028300 39170.000000
158.060200 42033.500000
159.055100 23599.600000
160.039400 71485.200000
160.075900 43786.600000
161.071100 53279.700000
162.055100 277957.300000
168.044700 28867.700000
169.039700 584549.200000
170.047000 25341.100000
170.060400 37032.400000
171.031800 41321.700000
171.055500 368066.900000
172.039500 695004.700000
173.047600 58805.400000
174.055000 43768.000000
175.039400 42309.600000
176.070900 24658.800000
177.054800 365691.400000
182.047500 32153.300000
182.071400 221981.200000
183.055400 981551.100000
184.039500 74953.700000
185.023500 62876.500000
186.055100 176224.000000
187.050300 283481.300000
196.050700 76439.400000
197.071000 104009.100000
198.079000 47607.100000
199.050400 157595.600000
200.034200 147356.900000
201.042200 695678.700000
201.066000 831142.500000
202.050100 115707.700000
203.081700 37647.100000
207.055700 23191.700000
210.042800 294706.100000
210.066300 603261.700000
211.050300 159164.300000
212.034200 91226.300000
216.065700 1857307.000000
227.044900 31684.000000
231.091900 44280.700000
233.070400 23354.700000
242.032400 377974.800000
245.071300 40957.300000
246.079800 32668.200000
247.087100 26358.900000
257.069700 30296.600000
258.079700 26015.700000
259.087500 52488.900000
260.071100 53813.100000
261.077300 43987.600000
261.102900 48038.700000
262.086700 96966.500000
271.086300 51233.500000
272.081800 245786.800000
273.066600 211980.200000
273.089800 354509.200000
274.074800 63703.800000
275.081800 106699.100000
284.082500 96161.400000
285.089900 46418.000000
286.074600 32307.700000
286.097600 32238.700000
287.081700 459763.800000
288.065900 159192.000000
288.089200 102556.200000
288.113300 176489.100000
289.097300 310447.900000
300.076800 322691.500000
300.113400 38266.300000
301.085000 2012704.300000
303.076500 250563.100000
312.076300 196114.700000
313.060200 36621.300000
314.092600 269326.500000
315.077400 91895.300000
315.100600 326644.100000
316.108300 1061856.100000
317.092600 240115.800000
326.091900 27445.900000
328.072100 906634.700000
328.106600 89424.900000
329.079800 20927725.000000
340.072600 100335.200000
344.103100 14196996.500000
345.085700 61771.800000
346.118500 86401.700000
372.097100 2127496.700000
390.109800 28845.500000

>ms2peaks
68.013300 28771.000000
78.033800 29173.000000
79.054500 49230.700000
82.028800 55432.000000
83.012800 32042.700000
89.038600 129106.500000
91.054300 102957.300000
102.046100 25335.100000
103.041700 35755.000000
103.054300 112192.200000
104.049500 61883.200000
105.033600 66374.100000
106.065300 90911.000000
107.049200 153874.700000
114.033800 142316.200000
116.049700 130881.800000
117.057400 56390.500000
118.041500 130006.800000
119.036700 63162.900000
119.049000 35184.400000
120.044500 549912.300000
121.052500 26519.100000
121.064800 91997.800000
127.041700 109082.100000
128.049400 47052.500000
129.033700 188255.300000
129.044800 916618.200000
130.029000 101444.300000
130.040000 540982.900000
130.052700 78441.500000
130.065000 59918.900000
131.036600 59205.200000
131.049100 99271.500000
131.060400 64110.200000
132.044600 175915.200000
133.028300 92724.100000
133.052300 722745.400000
134.060100 1710046.700000
141.044800 453114.900000
142.052700 32974.000000
143.036400 178526.100000
143.060400 901474.100000
144.044500 148324.600000
145.028500 344159.600000
145.052400 597440.100000
146.023900 76970.100000
146.060300 66207.200000
147.043900 76255.400000
148.052200 33910.000000
155.060300 265427.000000
156.044400 2287979.900000
157.028400 217604.800000
157.051700 63512.400000
158.036600 26731.900000
158.060600 30434.500000
159.031600 67914.400000
159.055500 135982.000000
160.039500 83184.600000
160.075300 47318.900000
160.087500 37639.600000
161.047100 51485.000000
161.071000 111190.000000
162.031400 92408.100000
162.054800 37436.000000
169.039700 773726.900000
170.023100 42463.400000
170.047700 219321.700000
170.060200 59782.700000
171.031700 100724.400000
171.055400 572855.200000
172.039400 3206667.900000
173.047100 322725.400000
174.055300 50213.300000
175.039000 32946.700000
176.070500 27916.600000
177.054700 258837.200000
182.047500 321488.200000
182.071400 215878.800000
183.055300 5345759.100000
184.039500 155051.900000
185.024100 39161.700000
186.055100 168115.800000
187.050300 266744.900000
195.054600 45886.800000
197.034500 55095.100000
197.071300 75657.900000
198.042300 61030.600000
198.078400 32439.300000
199.050200 1353676.700000
200.034300 2113951.300000
201.042100 1702201.700000
201.065800 329306.000000
207.055000 59663.600000
210.042500 577397.700000
210.066200 193782.600000
211.050300 419787.000000
216.065600 539135.400000
218.084400 52808.500000
227.045100 74279.100000
229.075900 51571.700000
231.091700 98861.400000
232.075300 62941.400000
232.087700 30570.600000
233.071000 64693.000000
235.062800 36849.400000
242.032400 1042006.200000
244.087100 197869.500000
245.070900 221768.800000
246.079200 217337.000000
247.086800 104621.200000
257.071400 69206.900000
258.078800 100110.200000
259.086600 93180.700000
260.071500 65013.900000
261.078300 134075.200000
261.102400 48131.900000
262.086700 58576.000000
271.085900 59315.600000
272.081900 1363775.000000
273.066100 989337.600000
273.089800 930670.400000
274.074000 356461.300000
275.081600 322427.400000
283.074100 36981.500000
284.081300 136526.300000
285.089300 70331.800000
286.072300 57279.200000
287.081200 232516.400000
288.066500 96696.500000
288.089200 44300.800000
288.112800 46211.600000
289.097100 55688.300000
300.076800 1498126.100000
301.084800 2687525.100000
312.077100 102357.000000
314.092200 100238.800000
315.100500 75035.900000
316.107400 50887.300000
328.071800 3929118.800000
329.079700 7974293.300000
344.103300 591237.400000
372.109100 192328.100000

>ms2peaks
65.038700 36393.900000
68.997100 56711.800000
77.038500 85122.400000
78.033800 84642.200000
78.046400 74343.800000
79.041700 31886.000000
79.054400 59745.600000
82.028800 29648.200000
89.038600 468082.300000
90.046600 44797.300000
91.041600 87969.400000
91.054100 112802.800000
92.049400 42072.300000
102.033800 48879.300000
102.046400 68765.400000
103.041500 92664.500000
103.054200 130083.200000
104.049500 356510.700000
105.033400 173638.700000
105.057400 40666.200000
106.065300 49439.000000
107.049200 94635.800000
114.033800 363674.700000
115.041500 58200.400000
115.054400 75960.400000
116.049500 487402.200000
117.033600 120484.700000
117.057400 110881.900000
118.041400 230277.800000
118.065400 34420.100000
119.036600 227825.100000
119.049000 57972.700000
120.044400 583192.800000
121.028600 40151.800000
121.064800 73935.100000
127.041700 204899.400000
128.049500 368207.400000
129.033800 210550.600000
129.044700 1329217.100000
130.029000 248698.600000
130.040000 1276199.200000
131.036200 30668.100000
131.049100 75741.200000
131.060200 76829.500000
132.044400 277782.700000
133.028500 205257.100000
133.052200 1313174.000000
134.036100 125803.500000
134.060100 1186842.100000
140.049600 105998.600000
141.044700 493553.300000
142.052800 79106.100000
143.036600 254166.700000
143.060400 518283.800000
144.044400 654149.000000
145.028300 189679.700000
145.052200 695626.500000
146.023700 352328.600000
146.059900 74926.500000
147.044400 48138.400000
148.052200 35851.700000
154.028500 104257.800000
154.052500 75011.500000
155.036400 78082.500000
155.060400 512610.800000
156.044300 5988752.000000
157.028400 91507.000000
157.052000 116856.200000
158.036500 47621.400000
159.031600 105035.100000
159.055100 148453.100000
160.039300 102504.700000
162.031100 109400.500000
168.043800 41939.300000
169.039500 302359.300000
170.023300 31871.800000
170.047400 442949.000000
170.059500 50590.500000
171.055200 998726.900000
172.039300 9069325.600000
173.047100 103948.300000
177.054700 103326.900000
181.039400 132018.600000
182.047300 334976.900000
182.071600 86598.500000
183.055200 2310032.900000
184.039300 155136.500000
186.042500 38619.600000
186.055000 124802.500000
187.050300 107711.300000
197.034600 134514.100000
198.042800 64243.200000
199.050200 1442534.100000
200.034200 2691247.600000
201.042100 387035.800000
201.065600 39622.600000
204.080700 35167.000000
205.075900 39291.100000
210.042300 223800.900000
210.066600 35452.600000
211.050100 352596.700000
216.065700 31553.500000
217.076100 52551.500000
218.083900 160185.500000
220.074900 45206.200000
227.044800 98071.700000
229.076600 89194.200000
231.090100 36127.400000
232.074900 63980.800000
232.087700 43304.700000
233.070500 156374.400000
242.032200 411683.100000
244.086700 234395.600000
245.070900 440211.500000
246.078600 144015.000000
247.086700 68143.600000
256.088200 49283.600000
257.070800 80754.200000
258.079300 76680.000000
259.086800 86390.300000
260.069800 24818.200000
261.079300 44545.400000
262.086700 32506.800000
272.081800 1142878.900000
273.065900 547097.400000
273.089300 206663.800000
274.073200 288497.900000
275.081100 189687.300000
283.074400 45773.100000
284.081800 55957.000000
287.081100 79527.400000
288.064900 28993.200000
300.076700 1478174.500000
301.084400 506620.100000
328.071600 2268389.000000
329.079900 380875.500000
372.109600 128022.400000
390.110000 27828.700000

>ms2peaks
51.022800 49348.500000
53.038500 49773.500000
63.023000 23831.100000
65.038600 45929.500000
66.046400 50096.800000
68.013100 35544.000000
68.997200 91552.500000
77.038500 163751.100000
78.033800 114779.200000
78.046400 116521.000000
79.041700 23079.200000
79.054300 60248.700000
82.028700 28021.800000
89.038600 956325.200000
90.046500 63075.300000
91.041700 203758.400000
91.054300 132562.300000
92.025600 60324.500000
92.049500 55388.600000
95.049300 71887.400000
102.033900 225300.400000
102.046500 116411.600000
103.041700 150191.600000
103.054300 159443.700000
104.049500 987152.900000
105.033600 331298.800000
105.044800 92492.300000
105.057300 55536.600000
106.041400 38531.000000
106.065100 45185.800000
107.049200 75085.700000
108.044200 32098.800000
114.033900 634572.800000
115.041700 138971.800000
115.054300 98788.100000
116.049500 1304379.800000
117.033600 153227.900000
117.057300 176190.100000
118.028900 33060.900000
118.041400 224936.000000
118.065300 22507.600000
119.036700 272016.100000
119.049300 21243.100000
120.044500 452074.100000
121.028700 23174.200000
121.064800 46533.200000
127.041700 494762.100000
128.049500 735720.200000
129.033800 181897.300000
129.044800 1476545.200000
130.028900 498033.000000
130.040000 1576631.000000
131.036900 25763.400000
131.049100 68181.300000
131.060400 63674.900000
132.044500 309614.500000
133.028500 293114.600000
133.052300 547165.800000
134.036200 117154.400000
134.060100 626858.100000
140.049400 101514.200000
141.044800 269558.500000
142.052400 107899.400000
143.036600 208009.800000
143.060500 253166.000000
144.044500 1602443.900000
145.028500 146358.900000
145.052300 246491.300000
146.023700 280750.300000
146.060000 129800.700000
147.055400 27068.700000
153.044400 34699.900000
154.028900 111741.700000
154.052600 104323.300000
155.036500 76981.000000
155.060400 412546.300000
156.044400 5193801.600000
157.028400 39168.000000
157.052200 123469.400000
158.036100 28303.300000
159.031400 71606.800000
159.055200 87086.300000
160.039700 44471.200000
161.047900 24864.100000
162.031300 60318.900000
162.054900 59963.300000
169.039600 87212.700000
170.023500 38758.400000
170.047600 350912.000000
171.055300 922658.100000
172.039400 10391444.700000
173.047500 19926.900000
181.039800 216361.700000
182.047500 326990.700000
182.071100 21365.500000
183.055300 410968.200000
184.039200 50994.000000
186.043200 23728.300000
186.054800 41197.200000
187.050500 44312.300000
190.065200 127568.500000
195.055700 15781.700000
197.034700 88040.100000
197.070100 15516.700000
199.050300 462319.400000
200.034300 961657.800000
201.042200 43716.700000
204.080800 56431.300000
205.076000 73012.300000
210.042300 64547.300000
211.050100 94548.600000
217.076000 125122.500000
218.084000 85045.800000
220.075700 66542.600000
227.044500 34121.000000
229.076200 82150.800000
231.091200 32424.900000
232.075600 49661.800000
232.087700 27888.100000
233.071200 103657.900000
242.032200 128639.300000
244.086900 176912.500000
245.071000 454352.600000
246.078700 47637.000000
247.086900 46236.400000
256.087400 27756.700000
257.072100 45843.900000
259.085900 24185.400000
260.071900 16566.100000
261.079100 21419.900000
271.087500 31269.200000
272.081900 467757.900000
273.066200 170753.600000
273.090500 24004.000000
274.073400 70126.000000
275.081300 40396.200000
283.074000 35849.600000
300.076800 365240.200000
328.071900 379390.900000
372.108500 105474.500000

