>compound EA52513906
>parentmass 272.0951
>ionization [M+H]+
>formula C12H17NO4S
>rt 450.000000
>profile orbitrap
#smiles_iso CC1=CSC(=C1N(C(C)COC)C(=O)C(=O)O)C
#smiles_can CC1=CSC(=C1N(C(C)COC)C(=O)C(=O)O)C
#inchikey HOYCASTVMCEOTP-UHFFFAOYSA-N
#pubchem_id 86290064
#mb_accession EA025902,EA025903,EA025904,EA025905,EA025906,EA025907,EA025908,EA025909,EA025910,EA025911,EA025912,EA025913

>ms2peaks
73.064800 114321.800000
196.079200 313198.600000
198.095000 80400.300000
200.110400 347722.900000
226.089600 556519.900000
228.105100 67733.300000
240.068700 25874008.600000
272.094900 11966380.000000

>ms2peaks
73.064800 525126.900000
111.026300 158588.400000
126.037300 191948.900000
128.052900 145581.500000
129.036900 93480.500000
138.037300 219431.700000
151.057700 36722.600000
152.052500 51353.600000
154.032100 353590.400000
156.047900 39726.900000
166.068700 293496.500000
168.084200 721978.400000
194.063100 151915.400000
196.079100 843401.300000
198.094600 257612.000000
200.037900 56164.300000
200.110400 370662.000000
212.073800 71903.500000
226.089500 290143.300000
240.068800 32392560.600000
272.095100 218968.400000

>ms2peaks
73.064800 747761.100000
79.054200 59927.300000
93.070000 36176.800000
94.065200 48064.400000
95.073000 50150.600000
99.026700 19890.900000
101.042200 18421.200000
104.049300 64555.800000
105.057400 68978.800000
108.081000 45425.100000
111.026300 1602324.700000
112.034100 94190.800000
113.029100 74231.400000
113.042000 379193.900000
114.037200 54435.900000
117.070300 27223.300000
120.044300 26501.900000
120.080600 63059.600000
125.042100 170269.600000
126.037200 1726344.100000
127.021300 99474.000000
127.045300 97434.000000
127.057500 55971.500000
128.052900 250539.700000
129.036800 182286.400000
132.080800 102169.700000
133.088500 124185.000000
134.096000 56249.900000
135.104400 361244.300000
138.037200 1814204.400000
139.021300 65400.500000
139.058000 22313.400000
140.052600 76011.300000
142.032500 27592.500000
149.041900 50097.800000
151.044900 34554.500000
151.057500 206181.900000
152.016200 88292.400000
152.052700 319975.500000
153.024100 73813.000000
153.060400 138228.700000
154.032100 1979309.900000
155.040400 73994.600000
156.047800 91364.200000
161.084000 26687.900000
166.068500 1103314.600000
167.076300 272253.700000
168.084100 3010746.500000
178.068300 80963.400000
179.040800 24631.100000
194.063400 345568.400000
196.079000 1017078.400000
198.094800 114274.800000
200.110600 63897.900000
212.074000 275255.500000
240.068800 12640751.300000

>ms2peaks
67.054200 38315.600000
73.064800 617517.100000
77.038700 62790.600000
79.054200 118004.600000
85.010600 51617.900000
91.054100 54652.300000
92.049500 31049.200000
93.057300 29696.200000
93.070100 82419.700000
94.065200 305241.500000
95.073000 162559.100000
97.010800 60762.100000
99.026500 121258.300000
101.042100 47928.800000
104.049500 150702.500000
105.057400 308249.100000
108.080600 78697.500000
111.026300 2704666.600000
112.034200 332115.100000
113.029300 119219.100000
113.042000 525744.400000
114.037100 54340.700000
117.069900 42675.000000
119.073400 28532.300000
120.044400 177229.600000
120.080700 184884.000000
121.052000 31112.100000
122.096400 47924.200000
123.013600 55963.500000
124.021600 33625.300000
124.033700 62740.000000
125.042100 294592.600000
126.037200 4037653.800000
127.021200 160043.100000
127.045100 154530.300000
127.057600 67088.600000
128.052900 174194.300000
129.036800 137323.000000
132.080900 162953.000000
133.088600 291505.100000
134.096600 122499.000000
135.104300 426456.000000
136.021300 89622.200000
137.029900 45449.100000
138.037300 2198858.100000
139.021300 102241.800000
139.058200 42457.600000
140.052700 121131.800000
149.041700 57305.500000
150.036700 44862.200000
151.044700 78113.900000
151.057600 189969.800000
152.016800 165142.700000
152.052800 575324.200000
153.024300 155790.800000
153.060700 291649.100000
154.032100 1796519.200000
155.039600 47844.800000
156.048000 71704.700000
160.075600 24655.000000
166.068600 630592.900000
167.076500 279408.700000
168.084100 1708259.800000
178.068900 48060.000000
179.039500 33997.200000
194.063600 154983.500000
196.079300 226124.900000
212.073800 91316.800000
240.069000 1410716.500000

>ms2peaks
67.054300 62082.000000
70.994800 29693.400000
73.064800 415300.800000
77.038600 153695.400000
78.046300 22650.000000
79.054200 171496.300000
80.049800 26889.100000
82.065200 54701.500000
85.010800 65511.600000
91.054100 59010.500000
92.049600 75640.600000
93.057300 144140.900000
93.070100 23671.700000
94.065100 506551.700000
95.073000 292687.700000
97.010600 174026.800000
98.018500 29076.300000
99.026400 182019.300000
101.042200 31887.400000
104.049500 179115.200000
105.045000 61439.300000
105.057300 494314.500000
106.064800 31141.200000
107.073200 20071.500000
107.085500 41371.700000
108.080800 79864.600000
109.011100 47364.600000
110.060500 68491.900000
111.026300 2444372.400000
112.021600 50722.800000
112.034200 363940.500000
113.029300 91964.500000
113.042000 333562.300000
117.069900 27352.900000
118.065100 55563.300000
119.073000 69363.100000
120.044400 206003.500000
120.080800 295546.500000
121.010200 39912.800000
121.052100 114659.700000
122.096800 39217.000000
123.013700 138836.500000
124.021600 61038.500000
124.033900 50232.300000
125.029700 43696.000000
125.042000 249418.300000
126.037200 4834016.300000
127.021200 121252.000000
127.045100 168959.300000
128.052900 126981.400000
129.036800 65025.100000
132.080800 177260.900000
133.088500 231821.200000
134.096400 165241.500000
135.104300 256228.700000
136.021700 154957.100000
136.034800 18201.800000
137.029700 56749.900000
138.037200 1727733.500000
139.009000 53169.000000
139.021300 51100.400000
139.058200 37405.900000
140.052800 97764.000000
149.042200 43449.400000
150.037400 74324.200000
151.044900 127836.900000
151.057500 86846.100000
152.016400 188111.000000
152.052700 597175.500000
153.024300 110291.300000
153.060600 238514.300000
154.032100 695051.600000
155.040400 23167.800000
166.068400 172809.500000
167.076300 76416.800000
168.084000 363217.300000
240.067800 83584.500000

>ms2peaks
65.038700 65834.000000
67.054200 97636.700000
70.995100 31180.600000
73.064800 172599.300000
77.038500 196542.700000
78.046500 68990.100000
79.054200 159202.000000
80.049400 43130.500000
82.065100 129801.300000
85.010500 89977.300000
91.054100 54940.700000
92.049600 104489.400000
93.057300 337388.500000
93.070100 33542.900000
94.065100 603190.800000
95.048900 26706.400000
95.072900 210300.800000
97.010700 280218.400000
98.018200 24189.400000
99.026300 285326.100000
101.041700 36493.900000
104.049500 172261.400000
105.044500 90389.900000
105.057400 452488.200000
106.065600 39165.100000
108.080700 68324.400000
109.010500 119188.300000
110.018900 30127.800000
110.060000 85715.400000
111.026300 1857063.400000
112.021500 42539.200000
112.034000 210898.300000
113.029200 77591.800000
113.041900 118638.100000
115.054100 29839.400000
117.056900 37237.900000
118.064900 84012.100000
119.073100 55796.000000
120.044400 117362.300000
120.080800 271256.800000
121.052300 89964.000000
123.013700 186509.300000
124.021600 78849.500000
124.034100 33921.800000
125.029800 53479.000000
125.041900 179801.100000
126.037200 3528354.200000
127.021100 72662.300000
127.045300 84966.900000
128.052500 40094.900000
129.037100 27487.000000
132.080800 131741.300000
133.088700 96236.500000
134.096600 153976.600000
135.104100 65275.000000
136.021600 186806.600000
136.034800 21112.500000
137.029200 52779.500000
138.001400 54039.000000
138.037200 1049164.100000
139.008900 84701.300000
140.052900 29179.700000
150.037600 121066.600000
151.044500 57878.500000
152.016300 225488.100000
152.052800 430284.800000
153.023900 88911.700000
153.060900 92398.600000
154.032100 183444.400000
166.068000 31019.600000

>ms2peaks
73.064800 59550.200000
129.037000 21803.700000
168.084300 21632.900000
196.079200 236244.000000
198.095000 67190.300000
200.110500 284360.600000
226.089800 417010.300000
228.105300 27713.600000
240.068800 21442942.100000
272.095200 10083530.400000

>ms2peaks
73.064800 390461.400000
111.026300 113400.500000
126.037200 124883.300000
128.052800 104853.500000
129.036900 62390.900000
138.037200 156392.600000
151.057700 38949.500000
152.053000 37897.000000
154.032100 244279.200000
156.048000 33575.500000
166.068400 214692.400000
168.084100 586598.400000
194.063200 105914.100000
196.079100 625800.900000
198.094700 214670.600000
200.037500 48494.500000
200.110400 315617.800000
212.073900 79861.700000
226.089600 221646.100000
240.068700 26422175.700000
272.095000 202844.600000

>ms2peaks
73.064800 541344.100000
77.038600 21971.600000
79.054200 33863.300000
93.069900 19085.100000
94.065300 62276.200000
95.073000 37654.100000
99.026500 14274.900000
104.049500 42189.900000
105.057400 49336.300000
108.080800 34310.100000
111.026300 1183349.700000
112.034100 65412.800000
113.029700 30094.300000
113.042000 242092.400000
114.037300 42907.100000
120.080800 26263.500000
125.042000 113307.500000
126.037300 1322612.700000
127.021200 61428.300000
127.045100 50401.500000
127.057600 58317.400000
128.052900 189254.900000
129.037000 125429.000000
132.081000 52967.500000
133.088600 94467.700000
134.096600 56076.100000
135.104200 233255.200000
138.037300 1418705.200000
139.021300 54681.100000
139.044800 13821.600000
140.053100 51725.800000
142.031900 24416.900000
149.042200 26867.000000
151.057700 148514.800000
152.016600 76918.700000
152.052900 202608.000000
153.024400 38571.400000
153.060600 83032.000000
153.073900 15429.600000
154.032200 1459415.200000
155.040000 47898.800000
156.048000 52220.900000
160.075400 13199.800000
161.083400 14763.900000
163.045100 14003.600000
166.068600 875087.700000
167.076300 172787.100000
168.084200 2309397.200000
178.068700 48166.100000
194.063500 235237.900000
196.079100 751622.800000
198.094600 93208.000000
200.038300 20134.300000
200.110000 31801.000000
212.074100 228754.000000
240.068800 9913462.400000

>ms2peaks
67.054200 20760.300000
73.064800 496915.800000
77.038600 38671.400000
79.054200 89176.400000
85.010500 21165.800000
91.054300 18241.600000
92.049600 24998.800000
93.057200 20299.900000
93.069900 34693.700000
94.065200 203490.100000
95.073000 135571.200000
97.010700 50789.400000
99.026300 69927.200000
101.041900 18062.000000
104.049600 85478.900000
105.044800 20676.900000
105.057300 247282.700000
105.069500 16660.700000
107.085700 22685.400000
108.080700 46516.300000
111.026300 2068980.800000
112.021600 18764.000000
112.034100 206968.100000
113.029400 66844.300000
113.042000 350759.600000
114.036900 32148.000000
117.070100 26705.200000
118.064800 11258.200000
119.072900 27333.200000
120.044300 99251.700000
120.080900 130451.700000
121.052200 34220.500000
122.096500 25087.100000
123.013800 46162.000000
124.021600 11843.900000
124.034000 52428.100000
125.041900 212710.200000
126.037200 3148348.600000
127.021100 121279.200000
127.045000 107765.100000
127.057500 56985.600000
128.052900 170771.400000
129.036800 110193.000000
132.080800 103788.400000
133.088600 247812.400000
134.096500 102479.400000
135.104300 341971.500000
136.021600 69823.600000
136.034600 14157.300000
137.029500 38894.400000
138.037200 1738068.100000
139.008800 21008.300000
139.021200 51983.900000
139.045000 17635.300000
139.057500 27647.400000
140.052800 86471.500000
149.041900 52542.700000
150.037500 20765.700000
151.045100 87162.300000
151.057600 155662.800000
152.016500 123258.100000
152.052800 413578.800000
153.024200 95818.400000
153.060700 189730.000000
154.032100 1370459.100000
155.040000 53105.400000
156.047700 24941.300000
160.075700 22908.900000
161.082700 23884.600000
163.045200 13860.400000
166.068500 455965.800000
167.076400 175927.800000
168.084100 1246626.000000
178.068900 24435.100000
194.063400 109230.200000
196.078900 200576.600000
198.095100 12097.100000
200.037600 15093.800000
212.074100 78029.800000
240.068900 1091426.100000

>ms2peaks
65.038700 16463.500000
67.054200 50780.800000
70.995000 12092.500000
73.064800 242940.100000
77.038600 95732.300000
79.054200 108904.900000
80.049300 14972.700000
82.065100 31479.000000
85.010600 48044.900000
91.054100 36618.000000
92.049400 48614.800000
93.057200 88299.400000
93.069900 36589.600000
94.065100 344123.500000
95.049200 13167.800000
95.072900 171037.400000
97.010600 104843.100000
98.018200 16015.500000
99.026200 132265.700000
101.041800 17188.200000
104.049500 123735.100000
105.044700 35901.700000
105.057300 279511.100000
106.065300 26077.300000
107.072700 9844.100000
107.085500 12616.600000
108.080700 48901.400000
109.010500 33863.400000
110.060200 46465.400000
111.026300 1767483.800000
112.021700 25417.900000
112.034100 242662.400000
113.029500 60494.700000
113.042000 204728.400000
114.037100 12206.500000
115.054500 16569.700000
117.057400 17639.200000
117.069900 15394.200000
118.065000 31070.000000
119.072800 30741.400000
120.044300 122797.300000
120.080800 187985.500000
121.010300 17256.200000
121.052200 64354.900000
122.096200 20994.600000
123.013700 86702.700000
124.021600 23000.800000
124.034100 45375.200000
125.029700 18836.500000
125.041900 162449.600000
126.037200 3392075.400000
127.021100 105694.700000
127.045100 96026.300000
128.052800 73909.400000
129.036700 58139.500000
132.080700 112188.400000
133.088600 163023.200000
134.096400 129546.400000
135.104300 155971.600000
136.021600 115276.800000
136.033600 16969.000000
137.029300 32756.400000
138.037200 1262916.100000
139.008800 48736.400000
139.021200 35340.100000
139.044600 15932.800000
139.057800 14241.000000
140.052900 42530.600000
149.042000 22973.600000
150.037000 49734.100000
151.045000 69710.000000
151.057400 44138.900000
152.016400 128779.400000
152.052800 373943.600000
153.024200 91888.500000
153.060700 136360.900000
154.032000 544166.500000
155.039500 18806.500000
160.075500 11350.500000
161.083500 15891.900000
166.068500 103949.000000
167.076300 62185.300000
168.084000 229407.200000
194.063700 17918.000000
196.078900 18666.800000
240.068400 48131.500000

>ms2peaks
65.038600 36215.100000
67.054200 74080.900000
70.994900 31313.100000
73.064800 103908.700000
77.038600 134694.900000
78.046400 37559.300000
79.054200 89174.500000
80.049400 28048.400000
82.065100 69475.600000
85.010700 49746.200000
91.054200 41903.800000
92.049400 55173.500000
93.057300 242514.600000
93.070100 18948.000000
94.065100 438691.300000
95.049100 14565.300000
95.072900 138852.800000
97.010700 178696.100000
98.018500 27725.400000
99.026300 174828.400000
101.042100 22648.300000
104.049500 96385.700000
105.044800 65768.200000
105.057300 291169.500000
105.070100 19479.900000
106.065100 20317.000000
107.072800 11208.200000
108.080700 41867.400000
109.010600 62515.900000
110.018500 20368.100000
110.060100 41975.500000
111.026300 1298160.300000
112.021600 34186.700000
112.034200 131443.100000
113.029400 50055.800000
113.042100 80785.100000
115.054400 13950.800000
117.057300 15739.300000
118.065100 43636.400000
119.073000 49825.100000
120.044400 78582.000000
120.080700 168663.100000
121.010700 14794.100000
121.052200 56364.300000
122.096300 17545.000000
123.013700 110633.800000
124.021500 45533.000000
124.034000 24609.900000
125.029500 30205.100000
125.041900 93322.800000
126.037200 2512010.600000
127.021200 36266.300000
127.045000 58149.500000
127.058000 8086.800000
128.053000 19927.200000
129.036500 9444.300000
132.080900 78739.600000
133.088500 69890.100000
134.096400 99191.000000
135.104300 62165.400000
136.021500 118436.700000
137.029500 37689.800000
138.001000 44055.200000
138.037200 774758.200000
139.008600 55214.200000
139.020800 13556.700000
139.044800 11130.500000
139.057400 13308.900000
140.052600 33344.400000
149.042500 11629.600000
150.037100 68306.000000
151.044800 42958.400000
151.058000 8153.100000
152.016500 137005.300000
152.052800 288141.900000
153.024200 40265.600000
153.060600 58359.700000
154.032100 145303.900000
166.068000 23560.600000
168.084000 33854.800000

