>compound EA53995472
>parentmass 203.0927
>ionization [M+H]+
>formula C10H10N4O
>rt 294.000000
>profile orbitrap
#smiles_iso CC1=NN=C(C(=O)N1N)C2=CC=CC=C2
#smiles_can CC1=NN=C(C(=O)N1N)C2=CC=CC=C2
#inchikey VHCNQEUWZYOAEV-UHFFFAOYSA-N
#pubchem_id 38854
#mb_accession EA005802,EA005803,EA005804,EA005805,EA005806,EA005807,EA005808,EA005809,EA005810,EA005811,EA005812,EA005813

>ms2peaks
203.093000 8221851.700000

>ms2peaks
57.044700 9368.800000
72.044500 11010.000000
79.054400 27244.700000
89.038700 10194.100000
104.049400 65466.600000
106.065200 57501.400000
120.080500 7583.000000
130.065200 15725.000000
134.071100 7942.600000
145.039700 22960.600000
158.058500 7102.600000
174.078700 131943.600000
175.097600 467833.300000
186.066100 11818.300000
203.093000 6825334.100000

>ms2peaks
57.044700 38028.300000
72.044300 24161.300000
72.055700 16350.600000
77.038700 20294.300000
79.054200 64112.900000
83.024200 28525.100000
89.038600 32520.600000
100.050300 14963.700000
104.049500 298864.100000
105.057300 13814.600000
106.065100 147348.500000
117.044400 10072.100000
118.065500 7155.800000
119.060500 24901.300000
130.065200 67856.000000
132.067800 10387.600000
134.071200 39045.000000
145.039600 113677.500000
158.059300 12886.100000
158.071300 49326.400000
159.079000 32961.100000
174.078800 474651.200000
175.097900 2073471.200000
186.065900 33044.600000
187.074300 9875.200000
203.092800 3100712.900000

>ms2peaks
57.044700 54988.700000
72.044300 16150.000000
72.055800 27104.700000
77.038600 50269.400000
79.054300 86330.200000
83.024100 40122.800000
89.038600 44420.800000
91.054200 8616.200000
92.049500 30529.000000
93.057400 8013.900000
100.050100 8860.800000
103.054200 7831.200000
104.049500 486043.000000
105.044900 14819.100000
105.057200 42401.400000
106.065200 107314.000000
107.060300 12386.100000
116.049900 8485.600000
117.044500 18574.900000
118.052500 7837.900000
118.065000 8698.200000
119.060600 20343.400000
130.065200 76994.500000
132.067900 8626.800000
134.071200 34845.900000
145.039700 73960.500000
158.071200 48004.400000
159.079000 76216.600000
174.078800 293520.900000
175.097900 1435195.000000
187.073300 11819.100000
203.092200 511633.400000

>ms2peaks
53.038600 5189.700000
56.012900 10251.700000
57.044700 34141.500000
59.023800 6846.700000
66.046500 8002.800000
72.055500 18986.400000
77.038600 79405.200000
79.054300 69798.900000
83.024200 35677.100000
89.038700 33180.400000
92.025800 6027.300000
92.049400 38867.200000
93.057400 8301.800000
95.049000 12766.800000
104.049500 565976.800000
105.044700 19743.100000
105.057400 34376.200000
106.065000 48073.600000
107.060300 14317.800000
118.052500 26384.500000
119.060400 14579.500000
130.065100 47900.800000
134.071100 27012.600000
145.039600 15622.200000
158.071600 14651.600000
159.079100 44835.600000
174.078600 83829.200000
175.097700 383153.600000
187.074000 5728.900000

>ms2peaks
53.038500 6565.300000
56.013000 10498.400000
57.044700 27159.400000
65.038600 11546.500000
77.038600 87373.200000
79.054200 52115.600000
80.049500 6956.000000
83.024000 17265.000000
89.038700 23106.100000
92.049600 24465.800000
93.057600 4737.900000
94.041500 5236.600000
95.049200 12859.500000
104.049500 524513.300000
105.044600 31261.700000
105.057500 12667.700000
106.065100 18771.300000
107.060800 8540.400000
118.052400 35929.700000
159.078900 18359.100000
174.079000 9224.700000
175.097900 66471.100000

>ms2peaks
104.049100 5679.500000
175.097300 11155.400000
203.092900 5067603.600000

>ms2peaks
72.044400 5561.200000
79.054300 15123.600000
83.024000 5077.600000
89.038600 8645.600000
104.049400 32916.100000
106.065200 38983.700000
130.065100 14618.400000
145.040000 18954.200000
174.078900 84050.900000
175.086800 24814.200000
175.098000 317990.700000
186.065500 6394.800000
203.093000 4420697.400000

>ms2peaks
57.044700 27237.300000
72.044400 16024.400000
72.055700 14551.400000
77.038600 16320.500000
79.054300 42423.900000
83.024000 17987.400000
89.038600 27196.400000
92.049700 5763.000000
100.050500 6513.400000
104.049500 165514.800000
105.057100 9520.500000
106.065200 81146.800000
116.049600 9257.200000
118.065500 5063.100000
119.060400 14762.200000
130.065200 33148.200000
132.068400 6982.500000
134.071300 24696.400000
145.039700 64073.900000
158.059700 5424.300000
158.071400 26166.000000
159.079100 13364.900000
174.078900 267800.400000
175.098000 1269231.700000
186.066300 22786.900000
187.074100 9120.300000
203.092900 2000963.200000

>ms2peaks
56.013100 6538.300000
57.044700 30761.800000
59.023900 4591.900000
72.044600 5299.300000
72.055700 13501.900000
77.038600 28501.900000
79.054300 53436.300000
83.024100 28186.800000
89.038600 19354.900000
92.025700 3937.800000
92.049600 21131.800000
95.049000 3515.400000
100.050600 5251.200000
103.054200 4982.500000
104.049500 308018.400000
105.044900 8717.800000
105.057300 21547.200000
106.065200 70159.000000
107.060500 8731.400000
117.044900 8818.300000
117.057300 3006.900000
118.052600 4055.000000
118.065000 5318.600000
119.060400 11944.400000
130.065200 44084.600000
134.071300 19804.700000
145.039700 34965.000000
158.058800 2476.400000
158.071500 31783.000000
159.079100 41201.700000
173.071500 5754.300000
174.078900 168666.000000
175.098000 864478.200000
186.066300 5271.500000
187.073900 6503.400000
203.092900 338637.000000

>ms2peaks
56.013000 4145.500000
57.044700 21568.300000
59.023900 3193.400000
65.038600 2598.600000
66.046500 2826.500000
72.044300 3615.500000
72.055700 12021.900000
77.038600 43272.700000
79.054300 41797.900000
83.024000 16375.300000
89.038600 16315.700000
91.054400 3212.400000
92.025700 2844.900000
92.049500 20320.600000
93.057600 2497.500000
94.041400 3315.100000
95.049500 3531.600000
104.049600 310048.400000
105.044800 10061.800000
105.057300 18236.200000
106.065200 26852.000000
107.060600 5799.600000
117.044700 7495.200000
118.052600 15236.800000
118.065100 3253.600000
119.060300 8681.500000
130.065200 17671.400000
134.071300 12759.400000
145.039800 7828.900000
158.071400 8976.500000
159.079200 27071.200000
173.070800 3924.400000
174.078800 34319.100000
175.097900 194293.700000
187.073600 3666.800000
203.093200 37274.500000

>ms2peaks
53.038600 2548.200000
56.013000 4849.700000
57.044700 14616.100000
59.024000 3466.100000
65.038500 5274.600000
72.055600 2256.300000
77.038600 45783.700000
79.054200 19982.900000
80.049500 2954.200000
83.024000 8904.300000
89.038600 11396.500000
91.054300 2220.400000
92.025800 2004.600000
92.049500 12071.100000
93.057300 2613.800000
94.041300 2503.700000
95.049100 6391.000000
103.054200 1931.100000
104.049500 256111.300000
105.044700 14154.300000
105.057300 10309.300000
106.065200 4912.900000
107.060400 4777.700000
116.049600 1890.500000
117.044700 3464.400000
118.052600 18937.800000
119.060400 2692.700000
130.065200 7250.800000
159.079100 7245.400000
174.078800 7089.800000
175.097900 26602.800000

