>compound EA53013633
>parentmass 253.03090000000006
>ionization [M+H]+
>formula C10H9ClN4S
>rt 348.000000
>profile orbitrap
#smiles_iso C1CSC(=NC#N)N1CC2=CN=C(C=C2)Cl
#smiles_can C1CSC(=NC#N)N1CC2=CN=C(C=C2)Cl
#inchikey HOKKPVIRMVDYPB-UHFFFAOYSA-N
#pubchem_id 115224
#mb_accession EA295402,EA295403,EA295404,EA295405,EA295406,EA295407,EA295408,EA295409,EA295410,EA295411,EA295412,EA295413

>ms2
126.010000 1238196.600000
186.013500 286646.700000
217.054400 106675.300000
226.020200 189338.500000
236.004700 71640.100000
253.030800 70032655.900000

>ms2
90.033800 125849.600000
98.999700 59499.500000
126.010500 32036005.800000
151.005600 258635.800000
186.013900 2692504.700000
190.044100 77647.600000
193.027800 94067.800000
211.009200 527929.700000
217.054200 564399.900000
226.020000 718921.700000
236.004700 279367.300000
253.031000 39558133.400000

>ms2
90.033700 275900.500000
99.000000 111627.300000
126.010500 64141314.900000
144.021200 158913.200000
151.005700 312712.700000
157.050400 77208.000000
186.013700 810633.500000
190.043900 90740.800000
194.048500 67750.200000
211.009400 238568.200000
217.054300 235797.800000
226.020200 324048.600000
236.004100 222256.500000
253.030700 3870676.700000

>ms2
63.022800 63803.000000
72.984000 65458.600000
90.033800 1485603.800000
91.041700 183661.600000
98.999600 593582.800000
108.044300 69689.600000
126.010500 55906031.000000
144.021000 725209.300000
151.005900 219006.800000
186.013700 67337.700000
211.009500 95749.600000
226.019600 71192.200000

>ms2
63.022900 307015.200000
65.038400 57453.400000
72.983900 362265.600000
81.033400 112574.900000
90.033800 5503410.200000
91.041700 759358.300000
98.999600 3718730.000000
108.044500 290051.200000
126.010500 49365011.900000
144.021100 1653053.100000
151.005500 122548.100000
226.019100 53320.200000

>ms2
63.023000 690041.100000
64.018300 31180.000000
65.038600 127760.000000
72.984000 978942.900000
80.049500 53096.900000
81.033600 130372.400000
90.033800 7614143.900000
91.041700 1463123.300000
98.999600 7589130.400000
108.044400 435126.200000
123.995200 32274.300000
126.010500 25720907.500000
144.021100 1380301.700000
151.005700 80719.700000

>ms2
126.010200 947572.100000
186.013900 223171.100000
217.054400 66229.600000
226.019100 108947.800000
253.030800 58705414.100000

>ms2
90.033900 95346.200000
126.010500 23779623.800000
128.026400 35217.600000
151.005700 158002.700000
186.013900 1885993.700000
190.043400 56964.700000
193.027300 74493.700000
194.048000 40487.500000
211.009200 287610.000000
217.054300 392617.800000
226.020000 470488.500000
236.004400 209618.400000
253.030900 27694654.300000

>ms2
90.033800 214733.600000
98.999600 55975.200000
126.010500 48404278.700000
144.021100 75946.900000
151.005800 255371.500000
186.013700 643951.300000
190.042900 75314.000000
211.009200 205710.100000
217.054300 153727.200000
226.020200 184812.800000
236.004300 101944.100000
253.030800 2912842.700000

>ms2
63.022900 55854.600000
90.033900 943699.400000
91.041700 84179.200000
98.999700 372293.400000
126.010600 40370827.400000
144.021100 454343.200000
151.006000 120516.200000
211.009000 56476.700000
253.031000 109832.200000

>ms2
63.022900 148893.100000
65.038600 28910.600000
72.983900 166516.800000
81.033500 49505.900000
90.033800 3132717.000000
91.041700 368704.900000
98.999600 2087174.400000
108.044300 163612.600000
126.010500 28652167.100000
144.021100 835462.400000
151.005800 77732.000000

>ms2
63.022900 406966.700000
65.038600 63097.200000
72.983900 532054.800000
80.049400 28555.400000
81.033500 68786.400000
90.033900 4624256.900000
91.041700 876850.100000
98.999600 4864733.000000
108.044400 242451.000000
123.995200 35016.000000
126.010500 16442981.800000
144.021100 888724.600000
151.005700 49438.400000

