>compound EA53516947
>parentmass 395.0812999999999
>ionization [M+H]+
>formula C19H11F5N2O2
>rt 864.000000
>profile orbitrap
#smiles_iso C1=CC(=CC(=C1)OC2=C(C=CC=N2)C(=O)NC3=C(C=C(C=C3)F)F)C(F)(F)F
#smiles_can C1=CC(=CC(=C1)OC2=C(C=CC=N2)C(=O)NC3=C(C=C(C=C3)F)F)C(F)(F)F
#inchikey WYEHFWKAOXOVJD-UHFFFAOYSA-N
#pubchem_id 91735
#mb_accession EA011602,EA011603,EA011604,EA011605,EA011606,EA011607,EA011608,EA011609,EA011610,EA011611,EA011612,EA011613

>ms2
395.081200 211775.600000

>ms2
233.051500 4189.600000
246.036600 5131.800000
266.042000 183443.600000
375.075300 10416.500000
395.080700 72358.700000

>ms2
219.047400 3260.700000
233.052500 13088.800000
238.047100 7201.800000
246.035700 16876.600000
266.042000 232676.600000
284.053000 8497.200000

>ms2
169.051900 4014.900000
183.040900 14044.100000
190.045600 6675.600000
210.052900 5401.400000
218.040900 12177.200000
219.047300 3890.700000
238.046900 32863.400000
246.035500 39399.400000
266.041900 112526.000000
284.052300 4793.600000

>ms2
96.044200 2835.700000
142.989000 2955.800000
145.026200 4009.800000
169.052200 15932.800000
183.041700 25743.300000
190.046200 19497.700000
210.053000 8400.900000
218.041000 31686.200000
219.048700 3216.600000
238.047100 31886.200000
246.035400 24091.900000
266.042300 18150.100000

>ms2
96.044200 4943.800000
140.049100 4062.300000
141.057300 9463.300000
145.025900 12389.700000
158.040000 7402.300000
169.052300 19126.800000
183.041900 14321.100000
190.046000 18208.100000
218.040600 23211.000000
238.047700 9705.800000
266.042100 2777.800000

>ms2
219.047700 2006.600000
395.080700 119260.400000

>ms2
233.051600 2842.400000
246.035600 3440.600000
266.042000 110911.100000
284.051700 2076.400000
375.074100 6280.700000
395.080800 45678.400000

>ms2
142.989400 1939.900000
219.047000 2003.300000
233.051800 5733.500000
246.035800 11529.900000
266.042100 141936.800000

>ms2
169.052200 2722.800000
183.041600 6117.000000
190.045900 4050.300000
210.052500 2467.400000
218.041100 5740.000000
233.051900 8019.700000
238.047300 22752.000000
246.035800 19504.700000
266.041900 59715.600000
284.052000 5822.300000

>ms2
141.057300 2605.400000
145.025700 2769.000000
169.052200 8090.100000
183.041600 12232.800000
190.046000 11647.300000
210.052500 4155.700000
218.041100 15276.600000
238.047300 15679.000000
246.035900 14259.600000
266.042100 14444.500000
284.052700 2583.100000

>ms2
96.044400 1749.000000
140.049500 1791.100000
141.057300 4183.200000
145.025900 6023.500000
158.040100 1726.700000
169.052200 7762.900000
183.041700 8365.600000
190.046200 7247.400000
210.052500 1695.200000
218.041100 9588.600000
238.047500 2483.700000
246.036600 3021.100000
266.043600 2218.300000

