>compound EA53517999
>parentmass 278.19030000000004
>ionization [M+H]+
>formula C20H23N
>rt 390.000000
>profile orbitrap
#smiles_iso C/C=C/1\C(CC(N1C)C)(C2=CC=CC=C2)C3=CC=CC=C3
#smiles_can CC=C1C(CC(N1C)C)(C2=CC=CC=C2)C3=CC=CC=C3
#inchikey AJRJPORIQGYFMT-RMOCHZDMSA-N
#pubchem_id 5352621
#mb_accession EA282502,EA282503,EA282504,EA282505,EA282506,EA282507,EA282508,EA282509,EA282510,EA282511,EA282512,EA282513

>ms2
278.190500 23462480.300000

>ms2
234.127700 59348.800000
278.190500 25076877.200000

>ms2
186.127700 69929.600000
200.143200 165145.800000
201.151100 270319.700000
234.127600 1235942.900000
236.142600 47074.900000
248.143600 125146.900000
249.151300 3457689.200000
250.158800 30087.100000
278.190700 20536086.700000

>ms2
58.065100 38667.900000
91.054200 85556.300000
98.096300 51363.300000
105.069900 65933.400000
118.065000 31564.600000
129.070000 96541.600000
143.085500 41800.500000
158.096300 48511.700000
171.104400 92156.000000
172.112100 271517.600000
186.127700 1621429.900000
200.143300 641185.600000
201.151200 944850.300000
207.104800 224979.100000
208.111800 64186.900000
219.103900 49381.700000
220.111200 56877.000000
221.120300 43712.200000
233.121000 68390.600000
234.127800 9583676.100000
236.143600 92616.400000
248.143400 614983.700000
249.151200 5060408.800000
278.190600 6379282.800000

>ms2
58.064900 44835.200000
70.065100 86137.000000
91.054100 259161.300000
98.096600 62353.000000
103.054600 28453.400000
105.069800 148534.900000
115.054500 62438.500000
117.069700 57649.600000
118.065100 84490.100000
128.062200 35502.600000
129.069900 154487.800000
143.084900 35155.500000
144.081100 40621.800000
157.088700 160059.100000
158.096400 517965.800000
165.070300 24878.100000
170.096200 78717.700000
171.104200 363317.900000
172.112100 515181.100000
178.077800 34402.600000
186.127700 4479567.900000
191.085600 35782.900000
200.143300 532137.000000
201.151300 548614.600000
203.086100 38004.900000
206.096700 97344.000000
207.104300 533220.000000
208.111200 58169.600000
219.104100 796551.100000
220.112100 113973.300000
221.119900 38829.700000
232.111000 37813.400000
233.119800 182961.200000
234.127800 11813480.600000
235.135300 32822.900000
248.143300 710104.000000
249.151100 1071204.300000
262.159100 61966.800000

>ms2
58.065100 41774.100000
70.065000 56230.000000
91.054200 457369.900000
103.054300 145593.200000
105.070000 115172.400000
115.054300 257023.100000
117.069800 83062.400000
118.065200 178646.800000
124.112200 63239.200000
128.062000 123791.200000
129.069900 229836.000000
132.080500 53447.900000
143.073000 119072.900000
144.081400 86533.100000
156.081000 137905.000000
157.088600 1031357.300000
158.096400 1975517.700000
165.069700 65529.700000
170.096500 348138.300000
171.104300 420795.500000
172.112100 437930.900000
178.077900 190198.500000
186.127800 3768200.200000
191.085400 137298.800000
200.143400 306399.800000
202.078300 90405.200000
203.085300 78478.000000
206.096300 245669.500000
207.104300 495196.900000
218.096700 398145.100000
219.104300 2644867.600000
220.112000 152230.200000
232.112400 154965.300000
233.119700 331866.300000
234.127700 5688381.800000
248.143400 358010.600000
249.151300 97249.300000
262.159700 58881.900000

>ms2
234.128700 77558.800000
278.190400 19811369.900000

>ms2
278.190500 20155460.000000

>ms2
172.111400 18793.900000
186.127400 71887.100000
200.143400 145003.300000
201.151100 241772.500000
207.104300 24827.600000
234.127700 1010235.700000
236.143000 23398.400000
248.143300 74243.200000
249.151200 2614430.000000
263.166000 28805.000000
278.190400 14950702.600000

>ms2
58.065000 24185.500000
91.054200 62697.600000
105.069800 59820.700000
118.065000 24919.300000
129.069800 58713.100000
143.085600 19271.000000
171.104300 52515.400000
172.111900 205394.500000
186.127600 1241552.200000
200.143200 437990.200000
201.151000 670910.600000
207.104200 179078.900000
208.112200 23398.900000
217.088000 21005.500000
221.119800 26346.900000
233.120500 31313.300000
234.127700 6838554.600000
235.135100 39419.000000
236.143100 63958.400000
237.151100 22736.600000
248.143200 403465.100000
249.151100 3671304.200000
250.159100 30590.100000
262.158500 67348.800000
263.166700 29180.400000
278.190000 4340933.400000

>ms2
58.065100 30160.800000
70.065100 33192.900000
91.054200 124131.500000
103.054200 34848.900000
105.069800 96047.500000
115.054100 58235.200000
117.069600 33673.400000
118.065000 69237.700000
124.112400 36330.300000
128.061900 20999.600000
129.069800 78538.800000
131.085200 22203.300000
143.073100 16978.300000
143.085200 20545.900000
144.080400 31340.400000
156.080600 40317.200000
157.088500 119163.400000
158.096300 368366.300000
170.096100 56432.400000
171.104200 230953.300000
172.112000 373645.400000
178.078000 36586.700000
184.111900 18309.700000
186.127700 2971038.200000
192.093200 32048.900000
193.088500 40311.800000
193.100800 48349.700000
200.143300 327034.400000
201.151100 344305.800000
204.093100 14614.100000
205.101000 34460.800000
206.096700 47069.900000
207.104200 355027.300000
208.111900 39145.100000
217.101900 22199.300000
218.096700 40711.700000
219.104100 521128.300000
220.112100 99773.300000
221.120100 36789.200000
232.112300 30841.500000
233.119900 77922.100000
234.127800 7708314.100000
235.136100 15372.800000
236.144300 15723.600000
248.143200 492257.200000
249.151100 743797.500000
262.158100 50205.600000
278.191400 520294.900000

>ms2
58.065100 27036.900000
70.065100 52894.300000
91.054200 283652.500000
103.054200 102393.900000
105.069800 72968.100000
115.054200 197531.200000
117.069800 48033.800000
118.065100 94431.900000
124.112100 26465.200000
128.062000 69609.900000
129.069800 109156.600000
131.085500 16638.800000
132.080700 31682.700000
143.072800 65870.700000
144.080700 51305.300000
156.080800 98469.500000
157.088600 695272.500000
158.096400 1297949.700000
165.069700 31986.200000
170.096400 188289.800000
171.104200 278900.400000
172.112000 255782.300000
178.077700 91370.400000
184.111900 12971.800000
186.127700 2507083.300000
191.085400 59375.300000
192.093500 21059.300000
193.088700 40262.200000
193.101200 64045.800000
200.143400 191547.600000
201.151100 51004.600000
202.077300 18878.900000
203.085600 32205.700000
204.093100 36738.100000
205.101200 26331.600000
206.096400 172285.700000
207.104200 262513.900000
217.088800 12402.300000
217.101300 35866.000000
218.096400 242513.200000
219.104300 1768378.000000
220.112000 76226.800000
232.112200 79650.500000
233.119800 189833.800000
234.127800 4002433.200000
248.143300 226604.600000
249.151100 55258.100000
262.158800 34556.700000

