>compound EA53833381
>parentmass 375.2166
>ionization [M+H]+
>formula C22H30O5
>rt 552.000000
>profile orbitrap
#smiles_iso C[C@H]1C[C@H]2[C@@H]3CC[C@@]([C@]3(C[C@@H]([C@@H]2[C@@]4(C1=CC(=O)C=C4)C)O)C)(C(=O)CO)O
#smiles_can CC1CC2C3CCC(C3(CC(C2C4(C1=CC(=O)C=C4)C)O)C)(C(=O)CO)O
#inchikey VHRSUDSXCMQTMA-PJHHCJLFSA-N
#pubchem_id 6741
#mb_accession EA262102,EA262103,EA262104,EA262105,EA262106,EA262107,EA262108,EA262109,EA262110,EA262111,EA262112,EA262113

>ms2peaks
135.080300 7682.200000
161.095700 7539.700000
187.112500 3276.900000
253.158900 8840.900000
293.152800 4839.400000
303.174000 5652.200000
321.184900 24278.900000
339.195600 43867.700000
357.205800 98574.000000

>ms2peaks
135.080400 18475.300000
161.096000 27017.400000
185.096100 15442.500000
187.111600 14518.600000
211.111900 4265.500000
237.128200 6822.300000
251.142400 9543.000000
253.158600 26019.600000
277.159100 3401.700000
279.174700 11002.700000
280.181600 5956.800000
293.189100 5799.500000
297.148500 3137.300000
303.175400 8653.800000
321.184000 9912.500000
339.195100 12005.600000
357.206300 18706.300000

>ms2peaks
107.085700 4534.800000
121.064700 12803.500000
135.080400 20649.700000
159.080600 6586.200000
161.095900 33882.800000
173.095700 2672.900000
175.111000 4203.900000
185.096200 23514.500000
187.112000 15792.600000
211.111100 14310.300000
213.127500 3108.100000
237.127200 6768.100000
251.144200 7682.600000
253.158200 17762.200000
265.157600 4587.000000
279.173000 3864.800000
280.182200 8011.300000

>ms2peaks
91.053900 3663.400000
105.070300 5014.400000
107.085900 3951.000000
121.064600 13162.300000
135.080300 23694.300000
147.080500 3619.200000
159.080600 10899.000000
161.096100 25591.000000
173.096600 4692.600000
185.096100 16115.900000
187.111300 5904.300000
211.111100 12627.100000
251.143400 3333.900000

>ms2peaks
91.054400 5546.900000
93.070000 4038.300000
105.069900 11996.400000
107.085700 5959.500000
115.053800 4241.000000
117.069300 6764.700000
119.085700 3367.200000
121.064800 13307.200000
135.080300 9999.300000
142.077800 4312.500000
158.073000 4303.600000
159.080200 5457.900000
161.096100 11231.600000
171.080300 3632.500000
185.096500 7153.400000
187.111800 3357.500000
195.081200 3445.500000
196.087500 4523.800000
209.095100 6851.100000
211.110900 3584.300000
223.112800 3118.300000

>ms2peaks
91.054100 15531.500000
93.069900 5001.200000
105.069700 9849.600000
107.085800 3928.700000
115.053900 6078.000000
117.069600 4746.800000
119.085900 4500.300000
121.065000 12158.000000
129.070400 4613.100000
135.079900 4832.600000
142.077200 5003.800000
145.064300 4722.100000
146.073200 4194.000000
181.064700 3713.600000
195.080600 3805.300000
196.088000 4972.200000
209.096400 4075.000000

>ms2peaks
149.013900 1831.700000
161.096000 7566.900000
187.111900 2944.900000
251.143100 3916.900000
253.158000 4317.300000
279.173000 3939.300000
281.189800 2316.000000
293.153300 4917.800000
321.184800 15163.300000
339.195600 28237.800000
357.205900 84227.200000

>ms2peaks
121.064400 3436.600000
135.080300 12831.500000
147.080300 3015.000000
159.080700 2400.300000
161.096000 21783.000000
173.095700 3453.700000
175.111300 2200.700000
185.096100 10627.100000
187.111900 10907.300000
211.111900 4728.800000
213.126900 2053.400000
237.127700 4170.800000
251.143100 6992.000000
253.158300 17939.500000
277.158600 3323.800000
279.174200 8046.600000
280.181400 6499.000000
281.189100 3009.500000
293.189100 3281.000000
297.148400 2080.500000
303.174100 6989.200000
321.185000 10104.400000
339.195500 8591.500000
357.205800 12484.300000

>ms2peaks
121.065000 4048.400000
135.080400 11998.000000
147.080000 2473.300000
159.080000 2680.900000
161.096000 19572.900000
173.096400 2158.700000
185.095900 13773.400000
187.111600 9145.600000
211.111800 10022.400000
213.127200 2810.900000
223.111800 2480.800000
237.127800 4616.400000
251.142500 5048.200000
253.158600 11411.000000
265.158000 4184.000000
279.174400 3266.600000
280.182100 5195.300000

>ms2peaks
105.070000 2766.600000
121.064800 8315.400000
135.080200 13018.500000
145.064700 1880.400000
159.080300 5250.000000
161.095900 17855.400000
171.080700 2883.900000
185.095900 8752.300000
187.112500 3839.100000
196.088700 3530.100000
209.096800 4500.700000
211.111500 6658.900000
223.111800 3325.200000
251.142500 3122.000000
265.159100 4099.300000

>ms2peaks
91.054000 4459.500000
93.069700 2077.300000
105.069800 4134.700000
107.085500 2640.400000
117.070300 2402.100000
121.064700 8315.600000
135.080200 4069.900000
142.077500 2538.400000
159.080400 2860.700000
161.096200 7691.300000
173.095600 2678.600000
185.095600 4392.600000
195.080100 3681.100000
209.095900 5025.400000

>ms2peaks
91.054100 6807.800000
93.069800 1895.500000
105.069800 3702.500000
107.085400 1299.800000
115.054100 3016.200000
117.069800 2632.700000
121.064700 5056.300000
129.069900 1664.200000
135.080300 2184.400000
142.078300 1615.400000
146.072700 3326.500000
158.072500 1918.100000
181.064100 1546.700000
185.096100 2833.800000
195.080000 2401.200000
223.111000 1772.300000

