>compound EA54050812
>parentmass 304.15430000000003
>ionization [M+H]+
>formula C17H21NO4
>rt 300.000000
>profile orbitrap
#smiles_iso CN1[C@H]2CC[C@@H]1[C@H]([C@H](C2)OC(=O)C3=CC=CC=C3)C(=O)OC
#smiles_can CN1C2CCC1C(C(C2)OC(=O)C3=CC=CC=C3)C(=O)OC
#inchikey ZPUCINDJVBIVPJ-LJISPDSOSA-N
#pubchem_id 446220
#mb_accession EA281702,EA281703,EA281704,EA281705,EA281706,EA281707,EA281708,EA281709,EA281710,EA281711,EA281712,EA281713

>ms2peaks
304.154600 9954416.700000

>ms2peaks
82.065000 94442.200000
105.033100 60632.200000
150.091100 58166.800000
182.117600 4646358.800000
272.128400 72380.400000
304.154300 6069254.300000

>ms2peaks
77.038700 27716.800000
82.065300 702099.700000
91.054400 95150.000000
93.033600 19284.300000
93.070100 36005.400000
94.065000 24513.600000
96.080800 48249.200000
105.033600 634131.400000
108.080900 167383.200000
118.041000 40844.200000
119.049300 182263.300000
122.096600 88289.900000
150.091500 472821.300000
151.075200 34286.700000
154.086300 66938.700000
182.117800 6538587.800000
272.128000 86993.700000
304.154800 700417.800000

>ms2peaks
65.038600 73240.400000
67.054200 14692.200000
68.049500 68232.700000
70.065300 23198.800000
77.038600 100792.600000
79.054300 49630.300000
81.069900 34820.900000
82.065200 1157966.400000
83.073000 116921.400000
91.054200 309242.100000
93.033500 93898.500000
93.070000 87776.400000
94.065000 58368.700000
96.080800 86080.600000
97.064800 25448.800000
105.033500 1243645.000000
107.049100 15534.100000
107.072700 14664.500000
108.080900 331440.700000
118.041500 46148.800000
119.049100 340088.800000
122.096500 276094.200000
125.059300 43415.100000
132.080400 32105.700000
135.068300 26432.600000
150.091300 530899.700000
151.075100 32081.400000
154.086200 140269.000000
182.117600 2308165.700000

>ms2peaks
65.038700 120704.500000
67.054500 17663.200000
68.049500 132660.000000
70.065400 33686.700000
77.038700 261142.400000
79.054300 101915.700000
81.070000 54520.500000
82.065300 1039102.000000
83.073000 174855.800000
84.044100 14341.000000
91.054300 420560.000000
93.033600 166719.900000
93.070000 68931.100000
94.065200 126907.600000
95.049200 33734.400000
96.080800 85048.200000
97.064800 84866.800000
105.033600 1227115.500000
105.044900 78171.900000
107.073100 27485.700000
108.080900 221061.000000
114.091200 8926.100000
117.057100 13006.600000
118.041400 37480.700000
119.049200 293463.600000
120.080600 11596.500000
122.059900 12900.500000
122.096500 242732.500000
125.060000 32923.000000
132.080900 30964.700000
135.068000 49036.800000
150.091500 194412.700000
154.086400 84127.600000
182.117700 422730.900000

>ms2peaks
57.057300 13928.800000
65.038600 160487.100000
67.041800 22128.100000
67.054200 43686.200000
68.049500 175259.800000
70.065200 48359.400000
77.038600 506985.600000
79.054200 107366.800000
81.057200 13168.800000
81.069900 53572.500000
82.065200 843184.900000
83.073000 185194.600000
91.054200 421185.600000
93.033400 124481.600000
93.069700 40943.600000
94.065100 165575.700000
95.049200 62890.600000
96.080700 76044.500000
97.064700 75841.300000
105.033500 953740.900000
105.044700 159420.400000
106.065400 12953.700000
107.073100 30010.200000
108.080700 119347.300000
109.065000 15642.300000
117.057300 14871.100000
118.040900 27568.000000
119.049100 153020.800000
122.060400 15107.400000
122.096300 107448.800000
123.080500 13978.100000
125.060300 14804.500000
132.080900 11900.000000
135.068100 36218.300000
150.091400 45497.100000
154.086300 18720.700000
182.117800 46180.400000

>ms2peaks
182.117800 54950.600000
304.154500 7087856.800000

>ms2peaks
82.065100 59478.400000
105.033500 42353.900000
108.080800 11356.600000
150.091300 28094.400000
182.117700 2934313.200000
272.128100 43433.600000
304.154400 3916839.000000

>ms2peaks
65.038500 7519.300000
77.038400 9287.200000
82.065200 455205.800000
91.054200 62425.200000
93.033500 15429.000000
93.069900 24261.700000
94.065200 13261.600000
96.080800 38198.500000
105.033500 397302.300000
108.080800 117280.600000
114.091600 5365.500000
118.041300 18134.200000
119.049200 98420.700000
122.096500 80313.400000
125.060100 11885.700000
132.080700 12116.000000
150.091400 290399.700000
151.075300 22348.200000
154.086400 40410.000000
182.117800 4166747.100000
272.128300 46019.100000
304.154500 431921.200000

>ms2peaks
65.038600 45891.000000
67.054100 10734.400000
68.049500 40272.800000
70.065200 17022.200000
77.038700 49223.400000
79.054300 29478.500000
81.069900 24663.000000
82.065200 732795.200000
83.073000 60546.600000
91.054300 176424.400000
93.033500 66832.600000
93.069900 53297.400000
94.065200 34640.600000
95.049400 7845.400000
96.080800 60131.500000
97.064900 26520.300000
105.033600 748711.600000
107.049400 8274.200000
107.072900 6189.100000
108.080800 189836.600000
109.065000 6523.600000
118.041500 32554.200000
119.049200 250085.000000
122.060000 10537.400000
122.096500 178496.200000
123.080400 7318.800000
125.059700 23434.900000
132.080800 24776.400000
135.067900 20201.800000
150.091400 341509.700000
151.075300 18603.000000
154.086300 76182.500000
182.117700 1407755.900000
304.155800 15566.800000

>ms2peaks
56.049500 5085.700000
65.038600 80362.600000
67.054200 19170.500000
68.049500 81122.900000
70.065100 23446.300000
77.038600 139780.900000
79.054300 62028.500000
80.049600 7567.100000
81.069900 31269.300000
82.065200 642380.500000
83.073000 108587.700000
84.044600 6763.200000
91.054200 252268.100000
93.033500 92035.400000
93.069900 40132.000000
94.065100 73519.500000
95.049200 11832.200000
95.072900 6200.100000
96.080800 50662.000000
97.064800 54608.400000
105.033500 740205.100000
105.044400 46196.900000
106.065300 6236.500000
107.048900 5492.100000
107.072900 17848.900000
108.080800 126638.700000
109.064800 14234.100000
117.057500 13374.800000
118.041400 33792.700000
119.049200 177601.200000
122.059900 10937.800000
122.096400 143871.600000
125.059800 24458.300000
132.080900 18903.700000
135.067900 27603.200000
150.091400 115497.800000
154.086300 47542.600000
182.117600 228808.700000

>ms2peaks
56.049500 5068.400000
57.057300 5219.600000
65.038600 76998.300000
67.041700 7480.700000
67.054200 22930.100000
68.049500 102038.100000
70.065200 21285.800000
77.038600 312315.400000
79.054200 58594.800000
80.049500 3436.000000
81.057200 4493.500000
81.069900 24955.800000
82.065200 463720.000000
83.073000 99518.700000
84.044400 6098.500000
91.054300 230788.700000
93.033500 58934.000000
93.069900 15186.500000
94.065100 86002.800000
95.049100 36378.300000
95.073000 6381.900000
96.080700 31596.400000
97.064800 46898.800000
105.033500 551083.600000
105.044700 85127.000000
106.065200 3594.000000
107.072900 15965.700000
108.080800 59712.700000
109.064500 3356.800000
117.057500 5136.300000
118.041300 14992.500000
119.049200 78129.800000
120.080700 6051.200000
122.060000 9762.800000
122.096400 60839.500000
125.059700 6722.600000
132.080800 9841.000000
135.067900 28005.800000
150.091300 19508.800000
154.086300 21228.200000
182.117500 27966.900000

