>compound EA54532386
>parentmass 411.1081000000001
>ionization [M+H]+
>formula C15H18N6O6S
>rt 426.000000
>profile orbitrap
#smiles_iso CN(C)C(=O)C1=C(N=CC=C1)S(=O)(=O)NC(=O)NC2=NC(=CC(=N2)OC)OC
#smiles_can CN(C)C(=O)C1=C(N=CC=C1)S(=O)(=O)NC(=O)NC2=NC(=CC(=N2)OC)OC
#inchikey RTCOGUMHFFWOJV-UHFFFAOYSA-N
#pubchem_id 73281
#mb_accession EA012902,EA012903,EA012904,EA012905,EA012906,EA012907,EA012908,EA012909,EA012910,EA012911,EA012912,EA012913

>ms2
106.028800 8507.100000
156.076200 8242.400000
182.056000 119013.900000
213.032700 83328.400000
259.081900 5009.800000
304.139900 5326.900000
366.049900 29882.900000
411.108100 115940.000000

>ms2
106.028600 31140.200000
156.076600 17768.400000
182.055900 284808.900000
213.032600 124570.600000
259.081700 4468.900000

>ms2
78.033800 13093.800000
83.023800 4396.800000
106.028600 81244.300000
139.050400 3903.000000
156.076900 23006.000000
157.060800 4618.900000
182.055800 221175.300000

>ms2
78.033800 16442.900000
83.024000 29333.600000
106.028700 93760.700000
139.049900 20355.000000
156.076700 16236.200000
157.060700 24382.500000
182.056000 116722.800000

>ms2
78.033800 30384.800000
83.023900 41697.100000
100.039500 3748.000000
106.028700 55970.200000
139.050200 27450.100000
156.076400 5811.600000
157.060700 26132.300000
182.055900 24611.900000

>ms2
78.033800 40943.200000
83.023900 39866.800000
93.008200 4079.100000
106.028600 25439.800000
139.050100 18246.600000
157.060800 9843.000000
182.056900 7374.200000

>ms2
106.028900 4215.300000
156.076300 4214.200000
182.055800 56659.200000
213.032600 43236.100000
259.081600 1873.600000
366.049800 11671.600000
411.107700 53491.300000

>ms2
106.028600 13613.900000
156.076500 11150.800000
182.055700 126299.500000
213.032600 61273.100000

>ms2
78.033700 5248.700000
83.023700 2513.700000
106.028600 39496.600000
156.076500 11250.400000
157.061300 2365.900000
182.055900 111748.300000
213.032900 18245.200000

>ms2
78.033700 8928.900000
83.023900 11747.100000
106.028600 42575.500000
139.050200 6510.500000
156.076400 5150.900000
157.060700 16755.800000
182.055900 50433.500000

>ms2
78.033900 14874.400000
83.024000 21162.400000
100.039400 2321.100000
106.028800 27263.700000
139.050100 13166.100000
157.060800 11041.600000
182.056000 13217.200000

>ms2
78.033800 16490.500000
83.023900 16475.700000
93.008200 2829.100000
106.028600 13240.800000
139.050100 8066.700000
157.060800 3755.300000
182.056600 3848.500000

