>compound EA55819263
>parentmass 240.07859999999997
>ionization [M+H]+
>formula C12H14ClNO2
>rt 564.000000
>profile orbitrap
#smiles_iso CC1(CON(C1=O)CC2=CC=CC=C2Cl)C
#smiles_can CC1(CON(C1=O)CC2=CC=CC=C2Cl)C
#inchikey KIEDNEWSYUYDSN-UHFFFAOYSA-N
#pubchem_id 54778
#mb_accession EA013902,EA013903,EA013904,EA013905,EA013906,EA013907,EA013908,EA013909,EA013910,EA013911,EA013912,EA013913

>ms2
125.014900 1024175.500000
128.070400 53248.900000
240.078700 14591595.700000

>ms2
89.038700 25383.200000
100.075700 41534.900000
114.055200 25596.700000
125.015200 8276241.000000
128.070700 124996.800000
240.078700 6862870.700000

>ms2
89.038600 24491.700000
100.076100 14471.100000
114.055200 17636.700000
125.015300 12929975.300000
128.070800 25048.900000
240.079700 684617.300000

>ms2
89.038600 43991.100000
125.015300 13747004.500000

>ms2
89.038500 296970.400000
90.046200 60667.400000
98.999600 128056.400000
125.015300 13354199.800000

>ms2
63.022900 41490.400000
65.038600 35461.200000
89.038600 1109945.800000
90.046400 299410.200000
98.999600 550802.100000
125.015300 11458151.800000

>ms2
125.015100 948174.000000
128.070600 62797.500000
240.078700 14055108.400000

>ms2
89.038400 18305.800000
100.075800 36338.600000
114.054600 18769.700000
125.015300 7821329.000000
128.070500 102293.900000
240.078700 6790153.700000

>ms2
73.064800 13795.800000
89.038500 12369.600000
100.075700 12599.100000
114.054900 20262.600000
125.015300 11523797.500000
128.070300 22016.500000
240.078600 462532.400000

>ms2
89.038700 38215.700000
98.999700 18333.600000
125.015300 11228798.400000

>ms2
89.038600 252380.500000
90.046400 41287.300000
98.999600 93674.200000
125.015300 10743266.800000

>ms2
63.022900 25016.500000
65.038600 17863.600000
89.038600 787994.700000
90.046400 201891.700000
98.999600 401456.300000
125.015300 8597483.200000

