>compound EA55956680
>parentmass 307.1113
>ionization [M+H]+
>formula C13H12F2N6O
>rt 318.000000
>profile orbitrap
#smiles_iso C1=CC(=C(C=C1F)F)C(CN2C=NC=N2)(CN3C=NC=N3)O
#smiles_can C1=CC(=C(C=C1F)F)C(CN2C=NC=N2)(CN3C=NC=N3)O
#inchikey RFHAOTPXVQNOHP-UHFFFAOYSA-N
#pubchem_id 3365
#mb_accession EA032802,EA032803,EA032804,EA032805,EA032806,EA032807,EA032808,EA032809,EA032810,EA032811,EA032812,EA032813

>ms2peaks
220.068200 132424.500000
238.077900 213442.600000
289.101100 70567.800000
307.111800 3393922.000000

>ms2peaks
70.040000 146734.200000
127.035700 7468.400000
141.051200 14644.700000
151.034800 8269.800000
169.046100 264000.300000
220.068300 1402686.500000
238.078800 1696364.500000
289.100800 111165.600000
307.111500 612872.900000

>ms2peaks
70.040000 267753.600000
121.045100 25111.200000
127.035500 114761.500000
139.035400 93891.800000
141.014700 18296.900000
141.051100 136560.500000
151.035400 64506.200000
166.046800 13819.000000
169.046100 1007988.000000
173.050600 11556.500000
177.045800 7766.600000
193.056700 15716.200000
200.062000 46281.400000
220.068300 1262704.300000
238.078700 871155.300000

>ms2peaks
70.040100 283722.400000
82.039900 13235.800000
83.048100 5071.400000
121.044900 186987.400000
127.035500 283415.800000
129.044700 35220.500000
139.035500 352143.800000
141.014700 44153.000000
141.051100 244866.500000
149.040200 8304.700000
151.035500 237345.800000
164.042900 6083.200000
166.046200 34477.600000
169.046100 602701.300000
173.051000 58891.000000
177.045800 18899.300000
193.057300 28076.400000
200.061900 91704.600000
220.068300 360801.600000
238.078900 126622.400000

>ms2peaks
70.040000 252772.500000
82.040000 18337.200000
83.047500 8207.000000
101.038600 12911.900000
121.044900 331507.200000
127.035400 345791.500000
129.044700 147815.900000
139.035500 448189.500000
141.014600 52744.500000
141.051100 196210.400000
146.040200 12913.300000
147.035500 31679.800000
149.039700 8749.700000
151.035400 325996.600000
164.042500 8982.500000
166.046400 29097.000000
169.046100 160944.600000
173.051100 53429.700000
177.046300 7633.100000
193.057100 11466.200000
200.061700 27935.500000
220.068300 55411.200000
238.080900 12753.700000

>ms2peaks
55.017900 8676.800000
70.040000 221010.300000
75.023000 20550.300000
77.038700 23534.000000
82.040100 19216.200000
91.054200 10809.900000
101.038700 29287.800000
115.035400 9525.500000
119.029200 10107.400000
119.049500 11978.000000
121.044900 233256.500000
127.035500 309094.700000
129.044800 266424.900000
139.035500 302490.300000
141.014500 46323.100000
141.026100 8853.500000
141.051000 73656.200000
146.040300 13688.100000
147.035400 128723.700000
151.035500 286956.700000
166.046300 16888.700000
169.045700 27543.200000
173.051300 20304.300000

>ms2peaks
220.068000 83613.100000
238.078500 136531.700000
289.100400 34732.000000
307.111600 1787958.600000

>ms2peaks
70.040000 62978.800000
127.035200 3216.600000
141.050800 8213.300000
169.046000 123614.100000
220.068200 698121.600000
238.078800 821014.500000
289.100600 49494.800000
307.111200 272886.400000

>ms2peaks
70.040000 108496.400000
121.044700 8962.500000
127.035400 48599.500000
139.035300 39624.000000
141.014700 7153.500000
141.051000 62713.000000
151.035300 27166.600000
166.046500 4438.500000
169.046000 422243.100000
173.050700 5701.100000
193.057000 7352.200000
200.061700 23085.100000
220.068100 557253.300000
238.078600 385946.900000
289.101200 2156.700000
307.112300 6928.900000

>ms2peaks
70.040000 119291.700000
82.039800 4008.500000
83.047700 3247.900000
121.044800 77006.700000
127.035400 131634.200000
129.044700 13705.200000
139.035400 144190.000000
141.014700 16159.600000
141.051100 111307.900000
149.039600 4503.800000
151.035400 101790.400000
164.042800 2088.300000
166.046300 15076.800000
169.046100 260027.500000
173.051000 22607.900000
177.046200 9738.300000
193.057300 11536.100000
200.061900 30709.300000
220.068200 163948.400000
238.078600 50468.600000

>ms2peaks
70.040000 109541.700000
75.022900 2237.000000
82.040000 6559.100000
83.047900 2499.400000
91.054400 2691.500000
101.038600 4069.900000
119.049300 2445.700000
121.044900 126452.700000
127.035400 137649.300000
129.044800 59778.600000
139.035400 168008.100000
141.014700 23895.000000
141.051100 80066.800000
146.040000 5281.200000
147.035300 13698.700000
151.035400 124270.400000
166.046300 12918.200000
169.046000 66269.400000
173.051200 23766.800000
177.046000 5002.400000
193.057200 3325.000000
200.061900 12828.600000
220.067200 10931.600000

>ms2peaks
55.017800 1719.500000
70.040000 78045.700000
75.022900 8019.600000
77.038600 8260.900000
82.040000 4909.100000
83.048000 2351.400000
91.054300 2884.500000
101.038600 10881.100000
115.035300 4139.100000
119.029300 3921.200000
119.049200 3993.000000
121.044800 78948.100000
127.035400 108489.000000
129.044700 95204.500000
139.035400 108979.500000
141.014600 15805.000000
141.025900 3337.700000
141.051000 31449.700000
146.040000 3461.000000
147.035300 34105.800000
151.035400 102720.300000
166.046200 4405.900000
169.046000 10014.300000
173.050900 7849.600000
238.080600 3736.300000

