>compound EA55854233
>parentmass 189.1022
>ionization [M+H]+
>formula C11H12N2O
>rt 276.000000
>profile orbitrap
#smiles_iso CC1=CC(=O)N(N1C)C2=CC=CC=C2
#smiles_can CC1=CC(=O)N(N1C)C2=CC=CC=C2
#inchikey VEQOALNAAJBPNY-UHFFFAOYSA-N
#pubchem_id 2206
#mb_accession EA033802,EA033803,EA033804,EA033805,EA033806,EA033807,EA033808,EA033809,EA033810,EA033811,EA033812,EA033813

>ms2peaks
189.102500 31645088.000000

>ms2peaks
161.107300 78927.100000
189.102400 34853687.300000

>ms2peaks
56.049400 212372.700000
58.065000 152179.900000
91.054300 75792.400000
96.068100 130063.700000
104.049400 199473.900000
106.065300 71264.300000
118.065100 113476.300000
120.081000 222764.500000
130.065300 227233.700000
131.073000 309037.900000
132.080600 188156.400000
133.076200 49611.900000
144.080600 339814.300000
145.065300 73760.900000
146.084000 345556.500000
146.097000 108004.600000
147.091800 561994.200000
148.075600 54843.900000
157.051700 43183.900000
161.107400 852001.200000
172.075700 81520.700000
174.078800 404232.000000
189.102700 29819135.700000

>ms2peaks
56.049400 690795.600000
58.065100 603938.800000
65.038600 98898.400000
69.057000 32657.200000
77.038300 131909.800000
81.044700 67078.400000
91.054300 183202.800000
92.049400 49551.600000
95.060100 80278.900000
96.044700 54159.000000
96.068200 379861.100000
98.060100 190941.200000
103.054500 56727.800000
104.049400 928990.000000
105.033200 57176.900000
105.070000 59829.100000
106.065100 690892.700000
115.054200 89017.800000
117.057400 115955.200000
117.069900 237416.300000
118.065200 450914.300000
120.080700 421883.700000
130.065000 588478.600000
131.060100 81215.000000
131.072900 883850.800000
132.080700 431452.000000
133.052000 102456.600000
133.075900 106160.400000
134.096600 72515.300000
135.055500 35045.500000
144.080700 755071.900000
145.064800 354859.400000
146.083800 843296.700000
146.096700 183194.800000
147.091600 1407068.000000
148.075300 85480.000000
149.070600 115482.300000
157.052200 116316.400000
158.059600 53841.700000
159.091700 37905.300000
160.099700 65420.900000
161.107300 1145793.900000
172.075700 216095.100000
174.078700 814735.000000
189.102500 12925864.600000

>ms2peaks
55.017800 36830.600000
56.049500 1123655.500000
58.065200 852915.100000
65.038600 242409.300000
68.049500 34949.500000
69.057100 36814.900000
70.065300 62871.400000
77.038600 331138.700000
79.054300 74274.200000
81.044900 196761.600000
91.054200 245961.100000
92.049500 89656.800000
93.033900 40523.200000
94.065200 37543.700000
95.049600 39937.400000
95.060400 191075.700000
96.044600 44789.200000
96.068300 406547.400000
98.060000 321507.100000
103.054100 164895.900000
104.049600 1527362.000000
105.033400 80277.800000
105.044800 109423.600000
105.057700 28443.200000
105.069900 88113.100000
106.065200 1244515.000000
115.054200 126377.200000
117.057300 207929.000000
117.070000 508116.400000
118.065300 697399.500000
120.080800 546773.100000
129.057400 58023.300000
130.065100 778056.900000
131.060400 142799.900000
131.073000 691947.300000
132.068300 82519.500000
132.080700 344057.900000
133.052200 180310.700000
133.076200 93405.100000
134.096600 129631.400000
143.072700 63938.900000
144.080900 602466.400000
145.064800 249273.500000
145.076100 270972.400000
145.088600 48051.000000
146.084000 748934.700000
146.096700 143444.300000
147.091800 1300758.800000
148.075700 62450.100000
149.071300 100455.600000
155.060400 25471.300000
157.052300 163877.000000
158.060100 42040.800000
159.092200 62689.300000
160.099400 66232.800000
161.107500 462380.200000
172.075600 135059.700000
173.071100 72485.200000
174.078900 696101.800000
189.102900 3503923.500000

>ms2peaks
53.038700 37580.800000
56.049400 1330739.900000
58.065100 669596.100000
65.038600 301579.700000
68.049600 34710.300000
69.057200 51330.200000
70.065400 40574.900000
77.038600 802927.900000
78.046600 36713.200000
79.054200 141767.100000
81.044800 179259.100000
91.054300 372258.000000
92.049300 118112.300000
93.056800 49902.900000
94.065200 89953.900000
95.048800 75621.000000
95.060400 183227.100000
96.068100 250875.100000
98.060000 311473.400000
103.054300 243457.700000
104.049500 1242833.400000
105.033600 47192.400000
105.044700 235446.500000
105.057100 71654.800000
105.069700 92709.700000
106.065100 1486884.400000
115.054100 235962.200000
117.057400 254407.700000
117.069800 451253.500000
118.065200 486428.600000
120.080700 387084.900000
129.057300 128309.800000
130.065000 678096.400000
131.060300 308379.200000
131.072900 467976.100000
132.043900 35630.000000
132.068400 209695.400000
132.081000 184983.100000
133.052200 123424.100000
133.076500 27542.200000
134.096300 48988.400000
143.073100 82808.200000
144.080800 360527.000000
145.064400 123033.000000
145.076000 309086.900000
145.088400 38213.400000
146.083600 333807.200000
146.097100 32784.100000
147.091600 675628.500000
149.071100 67575.300000
155.060200 26601.500000
157.051600 75293.100000
159.055400 69327.300000
159.091500 41087.200000
161.107500 89261.900000
173.071300 68704.600000
174.078600 270561.400000

>ms2peaks
189.102300 24533626.900000

>ms2peaks
161.107500 51160.600000
174.078400 36372.300000
189.102200 24447106.400000

>ms2peaks
56.049400 140448.800000
58.065100 114066.600000
70.065300 23522.400000
77.038200 19634.000000
91.054300 61320.400000
96.068300 60515.900000
104.049400 142918.000000
105.033600 20327.200000
106.065200 43531.100000
117.057500 21581.500000
117.069900 32425.200000
118.065200 101820.900000
120.080700 93376.100000
130.065200 116087.900000
131.073000 217080.300000
132.080800 101421.100000
133.075700 45407.800000
134.096400 22233.400000
135.055700 23530.700000
144.080800 236988.300000
145.064700 82764.400000
146.083800 212838.700000
146.096400 86357.800000
147.091700 430790.300000
148.075800 56639.000000
149.070900 34471.600000
157.052400 22336.500000
161.107300 570829.500000
172.075600 82151.900000
174.078800 229566.500000
189.102300 18798134.600000

>ms2peaks
56.049500 463270.600000
58.065100 413609.800000
65.038600 60938.000000
68.049600 18337.300000
69.057500 20590.800000
70.065100 50376.800000
77.038600 81887.300000
81.044700 64535.000000
91.054200 140510.700000
92.049400 28104.600000
93.033300 20383.200000
95.060300 74976.900000
96.044400 65052.800000
96.068300 263814.100000
98.060100 120105.700000
103.054300 35254.800000
104.049500 677626.300000
105.033600 37316.800000
105.070000 33848.500000
106.065100 419192.500000
111.055200 24068.500000
115.054500 28138.100000
117.057100 53723.000000
117.069900 154005.200000
118.065200 340493.900000
120.080700 358090.100000
130.065100 446827.700000
131.060500 41042.500000
131.073000 650767.100000
132.080700 307072.500000
133.052200 67922.400000
133.076000 75386.100000
134.096300 75833.000000
135.055300 20343.300000
144.080800 562911.800000
145.064800 231817.600000
145.076000 66345.500000
145.088900 27568.600000
146.083900 648854.500000
146.096400 162093.500000
147.091700 1016047.100000
148.075700 74811.800000
149.071100 93833.400000
157.052200 71209.700000
158.059900 45482.800000
160.099600 43074.600000
161.107300 746411.600000
172.075700 108169.400000
174.078700 601592.800000
189.102300 8834909.200000

>ms2peaks
53.038400 15294.400000
56.049500 779646.400000
58.065100 533235.900000
65.038600 146489.900000
68.049500 33977.400000
69.057300 27457.200000
70.065100 26969.800000
77.038500 235682.800000
79.054200 34584.600000
81.044700 110964.300000
91.054200 204882.300000
92.049500 55168.400000
94.065100 45202.500000
95.049100 21108.300000
95.060400 118729.500000
96.044500 40286.800000
96.068200 303934.100000
98.060000 195810.000000
103.054200 105549.100000
104.049500 1037587.500000
105.033500 56642.700000
105.044700 70643.500000
105.057300 25262.200000
105.069800 82611.000000
106.065100 819691.800000
111.055000 18523.000000
115.054200 71385.900000
117.057200 127006.200000
117.069900 333764.400000
118.065100 420461.000000
120.044500 23561.800000
120.080800 389765.400000
129.057300 32848.600000
130.065100 495455.800000
131.060300 108064.100000
131.072900 545153.900000
132.068200 101876.600000
132.080700 242821.100000
133.052300 94307.800000
133.076000 50218.100000
134.096300 75656.500000
143.072900 26239.300000
144.080700 465255.900000
145.064700 156044.500000
145.076000 191117.400000
145.088400 19827.600000
146.083800 482967.000000
146.096300 93672.900000
147.091700 862557.500000
148.075500 42032.100000
149.070900 69542.100000
157.052200 106266.200000
158.060300 23714.200000
159.091700 27830.600000
160.099800 26868.300000
161.107300 312315.100000
172.075500 97964.500000
173.070800 35076.300000
174.078700 464488.600000
189.102200 1918807.300000

>ms2peaks
53.038500 29669.100000
55.017800 14946.400000
56.049500 837998.400000
58.065100 360438.600000
65.038600 187211.500000
68.049500 21475.200000
69.057300 30632.100000
70.065100 12349.500000
77.038600 394358.500000
78.046300 13017.500000
79.054200 75833.900000
81.044700 86215.400000
91.054200 195577.100000
92.049500 57129.700000
93.033600 16640.800000
93.057200 23521.800000
94.065100 45558.400000
95.049100 50676.400000
95.060400 126642.900000
96.044400 18788.600000
96.068200 148104.900000
98.060100 171561.300000
103.054300 142527.800000
104.049500 839072.900000
105.033600 21041.500000
105.044700 129951.400000
105.057300 24699.100000
105.069800 40107.100000
106.065200 937532.900000
115.054200 133541.300000
117.057300 164997.400000
117.069900 263789.000000
118.065100 295923.000000
120.044300 13007.000000
120.080800 178689.000000
129.057300 100958.700000
130.065100 468308.900000
131.060400 167680.300000
131.072900 275678.300000
132.044300 31579.500000
132.068200 154092.100000
132.080700 128907.400000
133.052200 74968.000000
133.076000 33481.100000
134.096400 36084.700000
135.055300 9676.800000
143.073000 47735.500000
144.080800 185986.600000
145.064800 74517.100000
145.076000 241707.900000
146.083900 211846.900000
146.096200 23500.500000
147.091700 420296.100000
148.075800 17697.700000
149.070900 18336.200000
155.060300 21716.900000
157.052200 45597.400000
158.060500 12549.700000
159.055200 35968.900000
159.091600 13754.600000
161.107300 70028.400000
173.070900 46718.200000
174.078800 113179.400000
189.102300 264174.000000

