>compound EA55499815
>parentmass 557.3044
>ionization [M+H]+
>formula C31H44N2O5S
>rt 690.000000
>profile orbitrap
#smiles_iso CCCCC1=C(C2=C(O1)C=CC(=C2)NS(=O)(=O)C)C(=O)C3=CC=C(C=C3)OCCCN(CCCC)CCCC
#smiles_can CCCCC1=C(C2=C(O1)C=CC(=C2)NS(=O)(=O)C)C(=O)C3=CC=C(C=C3)OCCCN(CCCC)CCCC
#inchikey ZQTNQVWKHCQYLQ-UHFFFAOYSA-N
#pubchem_id 208898
#mb_accession EA285502,EA285503,EA285504,EA285505,EA285506,EA285507,EA285508,EA285509,EA285510,EA285511,EA285512,EA285513

>ms2
435.271300 78786.400000
557.304300 12340249.400000
558.306400 1028537.502000

>ms2
58.065100 55302.800000
100.112000 250842.300000
114.127400 27421.400000
128.143500 26602.800000
142.158900 456563.600000
170.190200 498267.800000
294.079000 104224.100000
435.263300 810100.300000
436.268100 46827.600000
501.241300 101032.700000
557.304100 13056825.000000
558.306500 770954.217700

>ms2
58.065200 2383704.400000
70.065100 38165.400000
72.080800 59601.500000
86.096400 192591.400000
100.112200 7509610.000000
112.111900 130179.700000
114.127800 1026127.500000
121.028400 47776.500000
128.143400 551784.900000
130.159300 50319.800000
142.159100 3858490.800000
161.059700 135046.200000
170.190300 913372.600000
195.965400 16630.600000
214.086100 21721.000000
215.093700 98885.000000
216.101400 35363.800000
252.032600 50804.400000
278.081300 35227.000000
293.142800 12675.800000
294.079200 635152.300000
308.127300 58306.100000
309.135300 89627.000000
310.143900 82821.100000
320.128200 24293.200000
324.160500 71714.700000
336.159200 219860.400000
350.176400 24791.900000
366.191200 21932.000000
379.201000 128159.600000
388.121600 59444.400000
393.218500 66123.000000
421.247700 24224.000000
435.263900 1041140.300000
436.267600 72342.000000
501.241500 128379.600000
557.305900 828751.100000

>ms2
57.069700 55182.500000
58.065100 3354083.100000
70.065200 52454.100000
72.080800 100627.700000
84.080600 38250.100000
86.096500 298034.100000
100.112100 6243066.600000
101.115400 189301.936900
112.112000 94864.000000
114.127700 805441.800000
121.028500 175715.600000
126.127500 14929.000000
128.143300 443065.600000
130.158600 21379.100000
133.028300 13332.800000
142.159000 1487953.300000
145.052000 22963.500000
147.043900 132420.000000
161.059700 204775.900000
170.190100 116420.500000
173.047300 76157.100000
174.055400 51759.300000
186.054700 26130.600000
186.091100 19335.600000
215.094000 273726.300000
216.102400 127841.300000
238.085800 25518.000000
249.078000 19683.600000
250.086300 40931.600000
251.094900 13634.200000
252.032800 56077.700000
252.101600 14253.500000
262.084500 11566.100000
265.073300 40085.900000
266.081600 30985.000000
278.080700 55746.100000
279.088900 26055.800000
280.095700 51779.700000
292.096300 17167.000000
294.079300 77658.400000
306.112200 16098.100000
324.158600 19256.200000
336.158900 95119.100000

>ms2
57.069900 90619.400000
58.065100 2674727.900000
70.065000 67143.200000
72.080800 96817.800000
84.080600 35136.500000
86.096400 212668.100000
100.112100 2584062.700000
112.111900 41928.700000
114.127700 323835.000000
118.041400 34581.700000
121.028400 211632.100000
128.143400 157519.300000
133.028300 16863.800000
142.159000 271518.200000
145.052300 83709.800000
146.060100 59084.700000
147.044100 94943.600000
159.068100 20817.100000
161.059500 159909.700000
173.046900 139039.900000
174.055000 142377.800000
186.054400 42058.200000
196.075200 18137.200000
205.065500 11810.100000
215.093500 90259.900000
216.103100 42175.800000
220.076200 21134.800000
222.091600 21144.300000
236.070900 26980.200000
238.086200 34683.200000
249.079100 34578.900000
250.086000 62343.900000
252.101100 19822.900000
262.085800 18131.600000
265.072500 61638.000000
266.080800 16103.500000
278.081800 15557.500000
435.271600 50958.700000

>ms2
57.069900 161307.700000
58.065100 1981608.400000
70.065100 64851.800000
72.080800 87178.000000
84.080800 60728.100000
86.096400 158045.000000
91.054200 25977.100000
100.112000 925490.200000
103.054300 19470.600000
105.070200 20939.100000
112.112200 13471.500000
114.127700 134656.800000
116.049200 21422.400000
117.057600 33923.700000
118.041200 97627.600000
118.065000 15791.100000
121.028400 259467.600000
121.039600 51055.600000
128.143300 45734.500000
133.028100 34526.400000
142.159000 42748.200000
144.044000 16703.600000
145.052200 84229.700000
146.060000 103788.800000
147.043900 70732.600000
158.060100 26913.400000
159.067500 31756.300000
161.059400 57793.400000
172.039400 23564.200000
173.046900 62595.200000
174.054800 64525.800000
180.080000 19919.100000
194.095800 22659.800000
196.076100 23135.700000
205.064800 23162.900000
220.075600 42716.500000
221.083600 19305.700000
222.091100 25853.100000
233.058600 17748.300000
234.093000 15703.700000
248.072200 15268.500000
249.078600 41373.100000
250.086500 39056.200000
262.082300 10839.100000

>ms2
435.271300 31146.700000
557.304800 14100860.300000
558.307000 933576.205400

>ms2
58.065000 51415.500000
100.112100 282518.900000
114.127600 33463.600000
128.143300 29289.500000
130.158800 12396.700000
142.159000 477712.500000
170.190200 451774.600000
294.079100 91100.000000
379.201700 17131.900000
421.250300 13534.400000
435.263600 822170.700000
436.267000 61792.200000
501.240900 116879.100000
502.241700 13156.500000
557.304500 12224824.200000
558.307000 1340165.964000

>ms2
57.069900 14456.100000
58.065100 2354334.700000
70.065000 28952.900000
72.080800 49929.200000
86.096400 185159.900000
100.112100 7416272.400000
101.115400 150131.669400
112.112100 110214.300000
114.127700 1015618.700000
121.028300 36719.700000
126.127900 23887.900000
128.143400 544003.800000
130.159000 55766.100000
142.159100 3736034.600000
143.162300 109532.848800
161.059700 132458.500000
170.190300 1013171.600000
186.185200 9768.400000
214.086400 27110.900000
215.093900 103602.000000
216.102200 55129.200000
252.032400 59769.900000
266.080900 12817.900000
278.080800 37298.400000
279.088600 26914.100000
280.096600 22486.200000
294.079200 579767.200000
295.082100 27804.400000
305.103500 19690.100000
308.127600 62036.500000
309.135500 87263.900000
310.143500 83823.900000
320.128300 17569.500000
321.135300 29428.600000
321.173100 14578.300000
322.144500 10916.000000
324.159100 88832.600000
336.159300 200686.700000
348.158000 16537.600000
349.166200 10698.200000
350.175300 24214.000000
379.201500 118430.000000
388.120500 55615.300000
393.217000 64729.900000
421.249700 24641.000000
435.263900 1041724.400000
436.267000 94565.900000
449.282000 9276.200000
477.310100 16546.300000
501.241100 127314.200000
502.241800 13945.100000
557.302300 694474.700000

>ms2
57.069900 48220.900000
58.065100 2882652.500000
70.065200 46801.300000
72.080800 96687.300000
84.080700 29009.000000
86.096400 288026.500000
100.112000 5200709.100000
101.115400 193919.209200
112.112100 77616.600000
114.127700 747012.100000
121.028300 131345.300000
126.127400 16049.300000
128.143300 389975.500000
130.158900 24675.100000
133.028600 12410.500000
142.159000 1407721.000000
144.080700 9072.000000
145.052300 27544.100000
146.059900 10897.100000
147.044000 110271.700000
158.096400 9356.400000
159.067700 12083.100000
161.059700 172823.400000
170.190200 119514.100000
173.047000 80968.800000
174.055000 38699.700000
186.055100 27847.400000
186.091600 16252.000000
214.086100 20335.700000
215.094000 230149.000000
216.102200 96135.900000
234.091300 8917.700000
238.086200 27490.100000
248.070200 10508.300000
249.077200 13967.000000
250.085900 44852.300000
251.093700 8034.600000
252.032500 61459.500000
252.101200 17694.800000
264.064800 9744.900000
264.102800 9264.800000
265.073700 39455.600000
266.080700 30988.300000
278.081000 35492.800000
279.088300 15490.700000
280.097300 41125.500000
292.096300 15552.600000
293.141200 11953.000000
294.079100 90862.700000
305.105200 17649.000000
306.113200 12083.100000
308.128200 17952.800000
309.136100 18438.100000
310.143500 11226.600000
321.136600 8172.600000
322.143000 10729.100000
324.159100 12405.900000
336.159000 78969.100000

>ms2
57.069800 79382.900000
58.065100 2219178.900000
70.065100 77624.900000
72.080800 95047.300000
84.080700 47753.200000
86.096400 219813.400000
100.112100 2225257.700000
105.070100 10491.400000
112.112000 42139.700000
114.127600 327252.600000
118.041300 30119.600000
121.028300 177865.100000
121.039500 12953.100000
128.143300 147476.300000
130.064700 7660.700000
133.028400 36323.900000
142.159000 219400.500000
144.044200 13272.200000
145.052100 71960.800000
146.060000 51907.200000
147.044000 103667.400000
158.096300 9410.300000
159.067400 22202.500000
161.059600 127863.800000
170.189800 17437.100000
172.039000 22590.600000
172.075400 13782.300000
173.047000 114966.600000
174.054900 95049.200000
186.054700 38152.400000
186.091100 13758.200000
215.093900 70488.400000
216.101600 36325.400000
220.074900 13796.000000
222.090600 12172.700000
233.060300 8752.700000
234.091100 7348.000000
236.070300 12771.300000
238.086100 13489.300000
248.071000 9197.700000
249.078400 45372.500000
250.086200 51198.100000
251.096000 7408.900000
252.102000 10711.600000
262.085200 10417.600000
264.064500 11703.300000
264.102300 14172.500000
265.073300 47514.700000
266.081600 14268.600000
278.081300 15459.600000
280.097100 9361.000000
292.097000 7989.300000
435.270300 18903.800000

>ms2
57.069800 107379.200000
58.065100 1679699.700000
70.065100 59523.500000
72.080700 55791.600000
84.080700 52607.600000
86.096400 137967.800000
91.054200 12410.100000
100.112000 764817.100000
103.054200 10871.200000
105.069600 16151.300000
114.127700 118811.600000
116.049800 12119.900000
117.056900 17020.700000
118.041200 66614.700000
118.065000 9309.200000
121.028300 245096.900000
121.039500 25781.900000
128.143200 50562.400000
130.064800 24281.500000
133.028300 26638.900000
142.159200 41184.200000
144.044200 27657.900000
144.080800 10767.900000
145.052100 75994.500000
146.059900 120639.500000
147.044000 50997.100000
158.059800 17078.200000
158.096700 8704.200000
159.067600 13792.600000
161.059600 59838.900000
172.039000 15130.900000
172.075800 9693.100000
173.046900 45750.100000
174.055000 71820.700000
180.080500 12234.200000
186.054600 29720.000000
194.096100 18510.800000
196.076300 12577.000000
205.064600 16080.800000
220.075500 30219.000000
221.084600 13115.000000
222.091100 22092.800000
236.070400 24142.000000
238.086500 13305.200000
248.070100 10631.600000
249.077800 52578.500000
250.086300 28869.400000
262.085500 11984.300000
264.065000 7342.700000
265.072700 20058.500000

