>compound EA56024170
>parentmass 177.1386
>ionization [M+H]+
>formula C11H16N2
>rt 72.000000
>profile orbitrap
#smiles_iso C1CN(CCN1)CC2=CC=CC=C2
#smiles_can C1CN(CCN1)CC2=CC=CC=C2
#inchikey IQXXEPZFOOTTBA-UHFFFAOYSA-N
#pubchem_id 75994
#mb_accession EA282002,EA282003,EA282004,EA282005,EA282006,EA282007,EA282008,EA282009,EA282010,EA282011,EA282012,EA282013

>ms2
85.076300 24844.600000
91.053800 141909.400000
177.138800 7819979.000000

>ms2
85.076000 156218.900000
91.054100 561796.000000
177.138700 7910444.300000

>ms2
56.049500 35080.100000
65.038500 13664.000000
85.076100 504740.100000
91.054300 3009056.200000
177.138900 4692834.400000

>ms2
56.049500 32885.500000
65.038500 22463.200000
85.076000 467874.600000
91.054300 4490677.700000
177.138700 1112207.600000

>ms2
56.049500 35388.800000
65.038500 34278.800000
85.076000 261507.400000
91.054300 5155876.500000

>ms2
56.049500 27154.100000
65.038600 53733.700000
85.076100 103841.000000
91.054400 4561915.600000

>ms2
85.076000 9698.800000
91.053900 92341.500000
177.138800 6392873.300000

>ms2
85.076000 89004.400000
91.054200 426472.900000
177.138700 5996720.900000

>ms2
56.049500 20033.200000
65.038700 7316.700000
85.076100 365027.200000
91.054300 2096874.800000
134.096400 6444.700000
177.138800 3298075.900000

>ms2
56.049500 26598.900000
65.038600 14415.100000
85.076100 335563.900000
91.054300 3255501.000000
177.138700 818334.700000

>ms2
56.049500 18220.000000
65.038600 14400.300000
85.076100 157408.000000
91.054300 3035679.500000
177.138500 84517.100000

>ms2
56.049400 15212.700000
65.038600 35951.800000
68.049400 3651.700000
85.076000 72007.900000
91.054300 2876065.900000
177.139400 13026.500000

