>compound EA56794454
>parentmass 136.11210000000003
>ionization [M+H]+
>formula C9H13N
>rt 312.000000
>profile orbitrap
#smiles_iso CC(C)C1=CC=C(C=C1)N
#smiles_can CC(C)C1=CC=C(C=C1)N
#inchikey LRTFPLFDLJYEKT-UHFFFAOYSA-N
#pubchem_id 7464
#mb_accession EA005202,EA005203,EA005204,EA005205,EA005206,EA005207,EA005208,EA005209,EA005210,EA005211,EA005212,EA005213

>ms2peaks
94.065300 499828.300000
136.112000 82158022.100000

>ms2peaks
94.065100 767943.000000
136.111900 108092607.800000

>ms2peaks
91.053900 271064.900000
94.065000 8348075.700000
104.062400 210594.600000
121.088300 198278.300000
136.111900 102903974.500000
147.092000 499079.000000

>ms2peaks
91.054200 4617745.800000
93.057100 363715.600000
94.065100 25114116.000000
103.054200 247359.100000
104.061700 290956.900000
117.069900 615005.600000
119.085400 413668.600000
120.080500 823944.800000
121.088400 1846284.500000
136.112100 76469646.100000
147.091400 1750035.700000

>ms2peaks
77.038500 1323600.900000
79.054100 857953.300000
91.054100 11480304.000000
93.057200 670183.500000
93.070000 530905.500000
94.065000 29273573.700000
103.054300 823363.500000
104.061900 1691007.500000
105.044800 320471.700000
117.069700 1762029.100000
119.085400 726570.700000
120.080400 1429337.400000
121.088400 3237305.900000
136.112000 35426229.600000
147.091500 2240198.400000

>ms2peaks
65.038600 266008.700000
77.038500 3661809.200000
78.046400 520873.300000
79.054200 1363700.900000
91.054100 19430036.400000
93.057300 722917.800000
93.069700 755656.000000
94.065000 20358537.800000
95.049100 406770.200000
103.054100 1983797.400000
104.061900 4009585.600000
105.044600 903038.300000
115.054200 825043.600000
117.069700 2276617.100000
119.085700 573063.200000
120.080400 1879330.700000
121.088400 2202168.200000
136.111900 11253682.800000
147.091800 1132607.300000

>ms2peaks
94.064900 402153.200000
136.111900 89606460.400000

>ms2peaks
94.065000 906581.600000
136.112000 109719273.800000

>ms2peaks
91.054100 295440.200000
94.065000 8274796.100000
121.088600 373083.800000
136.112000 100030682.200000
147.091400 421656.100000

>ms2peaks
77.038500 180973.900000
79.054100 169758.700000
91.054100 2557590.800000
93.057100 189660.100000
94.065100 23117684.900000
103.054400 190219.000000
117.069800 550872.000000
119.085500 345202.200000
120.080300 331097.500000
121.088400 1584077.300000
136.112000 67660382.400000
147.091500 1584814.400000

>ms2peaks
77.038500 1214999.000000
78.046300 146903.400000
79.054100 731794.600000
91.054100 10984155.700000
93.057200 675641.200000
93.069900 370334.200000
94.065000 28538858.200000
103.054100 947411.700000
104.061800 1553815.300000
105.044600 223308.600000
115.053900 230941.900000
117.069600 1259068.500000
119.085300 597178.900000
120.080500 1310116.500000
121.088400 3257595.500000
136.111900 32246208.400000
147.091400 1800503.400000

>ms2peaks
65.038500 234535.400000
77.038500 2735604.300000
78.046300 375492.100000
79.054100 1122179.900000
91.054100 16661374.400000
93.057200 631653.500000
93.069700 654383.100000
94.065000 18883860.100000
95.049000 300708.400000
103.054000 1429825.800000
104.061900 3431893.000000
105.044500 758477.000000
115.054100 747001.700000
117.069700 1877793.600000
119.085400 495151.700000
120.080500 1762880.400000
121.088400 2425909.900000
136.111900 10135370.500000
147.091400 861172.500000

