>compound EA56224269
>parentmass 257.04779999999994
>ionization [M+H]+
>formula C11H12O5S
>rt 360.000000
>profile orbitrap
#smiles_iso CC1(C2=C(C=CC(=C2)OS(=O)(=O)C)OC1=O)C
#smiles_can CC1(C2=C(C=CC(=C2)OS(=O)(=O)C)OC1=O)C
#inchikey CXWYCAYNZXSHTF-UHFFFAOYSA-N
#pubchem_id 590774
#mb_accession EA011802,EA011803,EA011804,EA011805,EA011806,EA011807,EA011808,EA011809,EA011810,EA011811,EA011812,EA011813

>ms2
177.055000 38002.400000
178.061700 6647.400000
229.051800 7208.600000
257.048200 1261828.500000

>ms2
133.064900 3060.900000
135.043900 4724.900000
149.059800 11046.900000
150.067500 9681.100000
160.052600 4013.700000
161.059600 24399.200000
177.054600 387984.400000
178.062400 51067.100000
179.070700 3227.400000
201.021600 16077.900000
229.052700 113792.100000
239.037500 16039.200000
257.047800 549998.600000

>ms2
91.054200 3317.100000
105.070100 12212.100000
121.064900 15112.500000
123.044300 8811.800000
133.064500 12729.900000
135.043600 9468.800000
149.059800 58803.500000
150.067400 43619.800000
160.051900 29156.500000
161.059700 45847.200000
163.038700 6908.700000
177.054700 347976.300000
178.062500 71045.500000
179.070400 10448.000000
201.021600 97714.800000
229.052800 79665.600000
239.036800 21681.000000
257.047900 40197.000000

>ms2
77.038500 5138.500000
79.054300 5699.600000
91.054200 6292.100000
93.069800 11715.000000
94.041200 6669.700000
103.054300 16723.400000
105.069800 25313.300000
107.049100 11207.400000
108.056600 3053.700000
115.053900 4901.100000
121.064700 39877.600000
122.072600 12307.600000
123.044000 37021.500000
131.049400 7845.700000
132.057000 13203.300000
133.064800 12096.100000
135.043800 16959.000000
149.059700 82784.300000
150.067500 41949.100000
159.044300 9342.500000
160.051800 47253.700000
161.059700 25689.900000
163.039000 20882.800000
177.054700 143405.000000
178.062300 25961.500000
179.070500 6472.400000
201.021600 69201.700000
229.053100 8708.600000

>ms2
77.038700 12430.100000
78.985100 3467.300000
79.054200 26298.600000
91.054200 15740.000000
93.069900 15581.500000
94.041300 17793.800000
103.054200 31107.900000
105.045000 5050.900000
105.069900 21003.600000
107.049100 18589.400000
115.054200 10158.300000
121.064800 32936.700000
122.072600 24436.900000
123.044000 39108.200000
131.049000 13913.800000
132.056900 21041.900000
133.064900 7297.700000
135.044000 20768.700000
149.059800 43038.200000
150.067100 16327.600000
160.051800 23715.300000
161.059600 6673.200000
163.038900 18817.200000
177.054400 26214.700000
201.021700 15045.500000

>ms2
66.046300 3951.800000
67.054300 3020.500000
77.038600 28207.000000
79.054300 29969.700000
91.054200 19229.700000
93.069900 14864.000000
94.041200 19696.600000
95.049000 8083.700000
103.054300 32438.700000
104.061500 3292.500000
105.044800 5470.900000
105.069900 9950.000000
107.049000 23339.700000
108.057200 2654.800000
115.054200 7497.800000
121.064700 18309.300000
122.072700 16904.800000
123.044100 24514.700000
131.049000 16869.300000
132.056700 16393.500000
133.064800 4705.800000
135.044000 12077.800000
149.059600 16046.700000
150.067400 4993.800000
160.051900 8098.200000
163.038900 11077.100000
177.054900 4904.600000

>ms2
177.054400 13045.200000
229.052000 3461.200000
257.047900 548900.500000

>ms2
149.059600 6067.400000
150.067100 3319.100000
161.059700 9264.300000
177.054600 131434.700000
178.062400 18913.500000
201.021100 6563.500000
229.052800 45131.900000
239.036800 7919.200000
257.047600 227876.800000

>ms2
105.069900 4680.600000
121.064800 5706.200000
123.044100 4300.800000
133.064500 4149.000000
135.044400 2206.400000
149.059700 26377.800000
150.067400 14124.500000
159.044300 2474.900000
160.051800 12444.100000
161.059600 18481.000000
177.054500 133325.400000
178.062400 31347.500000
179.070100 4132.400000
201.021500 39734.700000
229.052900 29026.900000
239.037100 8761.500000
257.047700 13422.100000

>ms2
79.054300 4285.200000
91.054500 3031.300000
93.069900 3311.300000
94.041400 2986.300000
103.054100 5108.800000
105.069800 10306.700000
107.049300 1968.300000
121.064800 12516.900000
122.072600 6916.900000
123.044100 12495.200000
132.056900 5365.000000
133.064700 3757.100000
135.043600 2965.000000
149.059600 35200.600000
150.067400 15951.000000
159.044300 3011.800000
160.051900 20406.600000
161.059500 8699.700000
163.038800 5988.200000
177.054400 49738.100000
178.062200 8766.300000
201.021500 29754.100000
229.052300 2311.500000

>ms2
77.038600 5664.000000
78.985000 2993.800000
79.054300 7309.800000
91.054300 7420.800000
93.069800 7194.500000
94.041300 5730.100000
103.054200 11150.300000
105.070000 10206.800000
107.049100 8013.400000
121.064800 12019.200000
122.072600 9990.300000
123.044100 15821.200000
131.049100 4865.800000
132.057000 6591.200000
135.044300 5938.700000
149.059600 18831.400000
150.067500 6051.100000
160.051700 11623.600000
161.059700 6078.600000
163.039200 9492.500000
177.054800 10227.000000
201.021700 5285.500000

>ms2
66.046400 1736.200000
67.054200 1767.300000
77.038600 9455.600000
79.054200 10813.700000
91.054200 7179.500000
93.069900 4519.700000
94.041300 5891.000000
95.049000 1296.600000
103.054200 11631.000000
104.062100 1348.700000
105.044700 2571.900000
105.069900 3946.700000
107.049100 9136.800000
121.064800 7202.500000
122.072600 6373.200000
123.044000 9702.200000
131.049100 3745.200000
132.056900 7334.000000
135.044000 4208.600000
149.059700 3370.900000
160.052100 2547.800000
163.038900 3821.000000

