>compound EA57126130
>parentmass 225.12339999999998
>ionization [M+H]+
>formula C11H16N2O3
>rt 60.000000
>profile orbitrap
#smiles_iso C1=CC(=CC=C1CC(=O)N)OCC(CN)O
#smiles_can C1=CC(=CC=C1CC(=O)N)OCC(CN)O
#inchikey UWMXVJVTKRSOPW-UHFFFAOYSA-N
#pubchem_id 14211540
#mb_accession EA267002,EA267003,EA267004,EA267005,EA267006,EA267007,EA267008,EA267009,EA267010,EA267011,EA267012,EA267013

>ms2peaks
74.060000 15208.900000
162.091100 5153.500000
178.086500 5642.500000
180.102000 8978.800000
190.086400 40440.400000
208.096700 40501.800000
225.123600 3153793.100000

>ms2peaks
56.049500 24796.100000
74.060100 300199.500000
133.064900 14315.600000
145.064800 71042.900000
152.070000 6260.500000
162.091400 54931.800000
163.074900 4688.200000
164.070500 16445.500000
173.059700 36983.600000
178.086300 126972.200000
180.102200 26917.500000
190.086300 475319.500000
208.096800 338158.500000
225.123400 1855734.800000

>ms2peaks
56.049500 71151.000000
74.060100 402007.200000
91.054100 8508.200000
93.069700 4524.900000
105.069600 7444.300000
107.049000 19572.000000
117.069800 6678.500000
119.049000 15329.100000
121.064900 32515.800000
133.064800 113693.500000
145.064800 422716.700000
147.044100 31368.200000
152.070500 26473.900000
161.060000 7427.300000
162.065900 8930.900000
162.091300 72913.400000
163.075400 10261.600000
164.070500 81982.800000
173.059700 89862.700000
178.086200 293969.000000
180.102000 9948.700000
182.081200 6810.100000
190.086200 413090.800000
208.096600 199390.000000
225.123100 226094.000000

>ms2peaks
56.049500 75467.700000
74.060100 273831.000000
77.038300 3445.600000
79.054000 4164.900000
91.054200 29553.300000
93.070000 23929.600000
105.069900 25230.000000
106.065300 18853.400000
107.049200 38501.800000
117.070100 21725.900000
119.049200 44857.300000
121.064800 79759.500000
122.060000 12047.000000
131.049400 5087.900000
133.064900 246647.400000
134.060000 31068.000000
145.064900 540849.800000
147.044100 42622.800000
152.070500 19941.300000
161.059700 8716.700000
162.066200 42409.200000
162.091300 31352.200000
163.075400 13545.300000
164.070600 63314.400000
173.059600 37635.800000
178.086300 114494.100000
190.086200 78639.400000
208.096800 16124.200000

>ms2peaks
56.049400 57928.900000
74.060000 168103.400000
77.038600 10956.500000
79.054100 15675.600000
89.038500 34124.400000
91.054200 72734.600000
93.069800 44493.700000
103.054200 10877.500000
105.069900 50229.800000
106.065100 53210.200000
107.049100 85096.400000
115.054300 23592.000000
116.049400 13657.900000
117.033600 14770.200000
117.057700 5292.800000
117.069800 63596.500000
119.049000 43998.100000
121.064700 59858.500000
122.059900 9325.400000
131.049500 4638.700000
133.064800 270889.900000
134.059900 56690.400000
136.075900 5323.300000
144.080600 3943.500000
145.064700 409330.800000
147.043900 18186.700000
152.070400 5382.100000
155.060200 5073.200000
162.066200 46323.300000
162.091100 5190.700000
164.070700 9543.200000
173.060000 5291.200000
178.085700 10078.000000

>ms2peaks
56.049500 50201.100000
74.060100 82865.600000
77.038500 18884.500000
79.054200 38728.900000
89.038600 88780.000000
91.054200 113090.200000
93.069900 27428.000000
103.054200 10585.100000
105.069900 70239.600000
106.065100 60077.700000
107.049100 140378.900000
115.054100 68674.100000
116.049400 24035.600000
117.033400 23237.100000
117.057500 8063.400000
117.069800 64902.400000
119.049100 23260.900000
121.064800 21218.500000
122.059700 7795.300000
131.048900 7684.700000
133.064800 150142.700000
134.059900 43250.000000
144.056400 10573.400000
145.064800 206702.600000
147.044100 6728.200000
155.060700 11929.000000
162.066100 11115.400000

>ms2peaks
74.060100 12710.000000
145.065200 3238.500000
162.091200 3304.000000
173.058900 2787.800000
180.101900 11336.400000
190.086400 33308.700000
208.096900 40617.700000
225.123600 2575515.800000

>ms2peaks
56.049500 19471.900000
74.060100 230642.900000
133.064800 11454.100000
145.064800 61067.800000
147.044200 3062.300000
152.070400 5734.700000
161.059800 4409.500000
162.091400 40768.000000
163.074900 2755.200000
164.070800 15385.000000
173.059900 31730.600000
178.086300 88506.700000
180.101900 23391.500000
190.086300 341473.100000
208.096900 250262.700000
225.123700 1493272.000000

>ms2peaks
56.049500 57517.000000
74.060100 302607.900000
91.054200 6578.400000
93.070000 5650.200000
105.069900 5865.900000
107.049200 11400.900000
117.069700 4060.000000
119.049200 11565.900000
121.064900 26203.500000
122.060100 5672.000000
133.064800 86969.900000
134.059900 2333.600000
145.064900 319328.400000
147.044200 22202.300000
147.080900 2215.000000
152.070700 15224.600000
161.059700 6961.500000
162.066400 5506.100000
162.091400 59650.100000
163.075300 9331.000000
164.070700 60845.500000
173.059800 56315.700000
178.086400 223643.400000
180.102200 7080.500000
182.081400 5864.800000
190.086400 313071.400000
208.096900 149529.800000
225.123400 172772.900000

>ms2peaks
56.049500 53795.000000
74.060100 198033.400000
79.054100 3842.800000
91.054200 28949.600000
93.069900 20458.200000
105.069900 16929.400000
106.065200 13879.900000
107.049200 36516.400000
116.049200 2492.700000
117.070000 15318.800000
119.049100 32660.700000
121.064800 65886.100000
122.060000 10536.200000
131.048700 4088.700000
133.064800 193082.200000
134.060000 21980.100000
136.075700 3411.500000
144.080700 2556.100000
145.064900 396376.200000
147.044100 29549.800000
147.080300 4488.100000
152.070700 12134.700000
161.059600 6478.200000
162.066100 33784.300000
162.091300 27571.500000
163.075500 8503.300000
164.070500 43361.000000
173.059700 26338.400000
178.086300 82030.500000
190.086300 55504.000000
208.096800 16433.800000

>ms2peaks
56.049500 47755.600000
74.060100 114855.300000
77.038500 5117.100000
79.054300 12218.800000
89.038600 23835.600000
91.054200 46566.100000
93.069900 30366.600000
103.054100 5008.000000
105.033800 2213.000000
105.069900 43175.100000
106.065200 40165.300000
107.049200 60817.200000
115.054200 16449.700000
116.049500 11901.700000
117.033500 11283.700000
117.057200 5235.300000
117.070000 38572.500000
119.049200 34222.000000
121.064900 44013.700000
122.060100 9304.900000
131.049000 3431.000000
133.064900 197376.800000
134.060000 46297.600000
144.080900 2144.100000
145.064900 299952.800000
147.044100 15218.700000
152.070800 3825.400000
155.060200 3754.100000
162.066300 30500.400000
162.091300 3968.700000
163.075500 3517.300000
164.070700 8826.100000
173.060300 3453.900000
178.086500 10545.000000
190.087100 4068.700000

>ms2peaks
56.049500 31648.800000
74.060000 61400.200000
77.038600 11179.200000
79.054200 27840.800000
89.038600 63224.100000
91.054200 80002.200000
93.069900 18852.000000
103.054200 8975.800000
105.033200 2394.500000
105.069900 47645.500000
106.065100 39649.300000
107.049100 92413.700000
115.054200 40791.200000
116.049500 19203.100000
117.033500 20387.900000
117.057500 4641.300000
117.069900 42287.500000
119.049100 19874.700000
121.064800 19156.900000
122.060100 4009.500000
131.049000 4625.000000
133.064800 107170.500000
134.060000 20765.200000
144.057000 2240.300000
144.080900 1503.400000
145.064800 143081.000000
147.044000 3681.400000
155.060300 9089.800000
162.066100 8651.500000
162.091600 1621.000000

