>compound EA57737400
>parentmass 916.5264000000001
>ionization [M+H]+
>formula C46H77NO17
>rt 486.000000
>profile orbitrap
#smiles_iso CC[C@@H]1[C@H](/C=C(/C=C/C(=O)[C@@H](C[C@@H]([C@@H]([C@H]([C@@H](CC(=O)O1)O)C)O[C@H]2[C@@H]([C@H]([C@@H]([C@H](O2)C)O[C@H]3C[C@@]([C@H]([C@@H](O3)C)O)(C)O)N(C)C)O)CC=O)C)\C)CO[C@H]4[C@@H]([C@@H]([C@@H]([C@H](O4)C)O)OC)OC
#smiles_can CCC1C(C=C(C=CC(=O)C(CC(C(C(C(CC(=O)O1)O)C)OC2C(C(C(C(O2)C)OC3CC(C(C(O3)C)O)(C)O)N(C)C)O)CC=O)C)C)COC4C(C(C(C(O4)C)O)OC)OC
#inchikey WBPYTXDJUQJLPQ-VMXQISHHSA-N
#pubchem_id 5280440
#mb_accession EA018702,EA018703,EA018704,EA018705,EA018706,EA018707,EA018708,EA018709,EA018710,EA018711,EA018712,EA018713

>ms2peaks
916.526600 47559.100000

>ms2peaks
58.065000 3484.400000
83.049100 31434.700000
88.075600 11491.900000
98.096500 11567.300000
100.075300 5214.900000
101.059600 22613.100000
116.070800 4273.100000
127.075600 11476.600000
132.101700 23844.700000
145.085800 4735.100000
156.101800 25346.900000
174.112400 269643.800000

>ms2peaks
58.064900 3285.400000
83.049100 28910.100000
88.075600 24926.700000
98.096500 8448.100000
100.075400 3734.300000
101.059600 7027.100000
114.091400 6931.200000
116.070600 11712.400000
127.075000 4587.800000
132.101900 9222.100000
156.101500 7657.400000
174.112200 48108.300000

>ms2peaks
83.049100 25024.400000
88.075700 29529.500000
98.096700 5360.700000
114.091700 4177.200000
132.102000 4153.900000
174.113000 4606.400000

>ms2peaks
83.049000 28013.500000
88.075700 24466.700000
116.070300 3002.100000

>ms2peaks
83.049100 16575.500000
88.075800 11262.800000

>ms2peaks
916.527200 21760.700000

>ms2peaks
83.049100 13015.400000
88.075500 5347.800000
98.096200 3913.000000
101.059700 11885.300000
116.070500 3523.100000
127.075100 4959.800000
132.101900 8333.700000
145.086100 3035.800000
156.101900 9411.100000
174.112400 130148.600000

>ms2peaks
83.049100 16507.100000
88.075700 13082.800000
98.096400 3115.000000
100.075700 2624.800000
101.059600 3565.800000
116.070700 5947.100000
132.102200 2542.700000
156.102300 3305.300000
174.112400 24289.300000

>ms2peaks
83.049100 12651.600000
88.075600 12124.300000
98.096400 2806.600000
114.091400 3508.600000
174.112500 3356.300000
352.987500 2424.200000

>ms2peaks
83.049100 11087.200000
88.075600 8260.000000
352.988500 2546.900000

>ms2peaks
58.065000 1284.300000
83.049100 5796.200000
88.075700 4330.700000
549.560500 1599.000000

