>compound EA57409515
>parentmass 231.0434
>ionization [M+H]+
>formula C8H10N2O4S
>rt 144.000000
>profile orbitrap
#smiles_iso COC(=O)NS(=O)(=O)C1=CC=C(C=C1)N
#smiles_can COC(=O)NS(=O)(=O)C1=CC=C(C=C1)N
#inchikey VGPYEHKOIGNJKV-UHFFFAOYSA-N
#pubchem_id 18752
#mb_accession EA015602,EA015603,EA015604,EA015605,EA015606,EA015607,EA015608,EA015609,EA015610,EA015611,EA015612,EA015613

>ms2
65.038300 8694.100000
68.049400 5805.500000
92.049400 235433.000000
108.044300 352889.000000
156.011400 1510217.300000
188.037200 13229.100000
199.016400 4306.800000
231.043300 411276.700000

>ms2
65.038500 26854.900000
68.049400 12903.000000
92.049400 345928.900000
108.044300 561873.900000
156.011300 1501631.900000
231.043300 11339.300000

>ms2
65.038600 98810.400000
68.049500 43308.100000
78.033800 6612.900000
79.017900 6497.500000
80.049600 5368.800000
92.049500 512753.300000
93.057700 4655.500000
96.044600 10884.800000
108.044400 752485.500000
110.060100 15953.600000
120.055800 9750.800000
156.011400 702806.900000

>ms2
65.038500 179961.200000
68.049400 60139.500000
78.034000 5693.900000
79.018200 4762.600000
80.049500 8646.000000
92.049500 666740.300000
93.057400 9866.700000
96.044200 12227.800000
108.044300 695875.900000
110.060000 58336.100000
120.055600 13157.900000
156.011300 148513.100000

>ms2
65.038500 280691.600000
68.049500 31903.300000
79.018200 3435.100000
80.049500 28949.800000
92.049500 666151.100000
93.057100 7058.000000
96.044300 5597.400000
108.044300 477624.200000
110.060000 73376.100000
120.055600 5032.400000
156.010800 17169.700000

>ms2
65.038600 412788.700000
66.034000 3245.600000
68.049500 10801.100000
80.049500 79570.100000
92.049500 480201.700000
93.057300 9909.800000
96.044600 4109.600000
108.044400 342347.500000
110.060000 58147.000000
120.056000 4065.500000

>ms2
65.038500 6148.700000
68.049400 2141.200000
80.049500 1680.200000
92.049400 174007.300000
108.044400 276015.200000
120.055600 2712.300000
156.011400 1213733.400000
188.037600 11305.700000
199.017500 2924.200000
231.043300 323527.400000

>ms2
65.038500 15492.600000
68.049500 6339.200000
92.049500 269111.700000
108.044400 435646.800000
110.059900 2550.900000
120.055600 4379.100000
156.011500 1149362.000000
231.043600 7905.400000

>ms2
65.038500 71278.900000
68.049400 30587.200000
79.017600 1721.100000
80.049400 7862.000000
92.049400 375902.700000
93.057200 5203.500000
96.044500 8312.600000
108.044300 549640.000000
110.060000 12962.800000
120.055500 7320.300000
156.011400 522485.600000

>ms2
65.038500 129982.700000
68.049400 42596.400000
78.033700 4450.100000
79.018000 3600.600000
80.049500 6491.200000
92.049500 472438.000000
93.057200 4475.400000
96.044400 7871.700000
108.044400 502780.200000
110.060000 40262.400000
120.055500 10845.400000
156.011400 100830.500000

>ms2
65.038500 212511.900000
68.049400 21698.200000
78.033700 3563.600000
80.049400 18824.600000
92.049400 484688.400000
93.057300 6608.100000
96.044300 3971.100000
108.044300 368174.900000
110.060000 57017.700000
120.055300 4026.700000
156.011200 6069.300000

>ms2
65.038600 282954.300000
66.033800 1478.200000
68.049400 5552.500000
80.049400 48081.800000
92.049500 322780.900000
93.057300 5410.700000
108.044400 219566.200000
110.060000 32964.200000
120.055700 1977.400000

