>compound EA58498493
>parentmass 207.13799999999995
>ionization [M+H]+
>formula C13H18O2
>rt 816.000000
>profile orbitrap
#smiles_iso C[C@@H](C1=CC=C(C=C1)CC(C)C)C(=O)O
#smiles_can CC(C)CC1=CC=C(C=C1)C(C)C(=O)O
#inchikey HEFNNWSXXWATRW-JTQLQIEISA-N
#pubchem_id 39912
#mb_accession EA020302,EA020303,EA020304,EA020305,EA020306,EA020307,EA020308,EA020309,EA020310,EA020311,EA020312

>ms2peaks
161.132600 67315.200000
207.137200 34964.100000

>ms2peaks
105.070000 3096.900000
149.095400 3848.500000
161.132400 108381.700000

>ms2peaks
105.069800 7620.400000
119.085400 7714.700000
161.132400 85743.200000

>ms2peaks
105.070100 12973.000000
119.085700 19630.100000
161.132300 29891.900000

>ms2peaks
91.054000 5530.300000
105.070000 14287.900000
117.069600 3230.000000
119.085400 23538.600000
161.132800 7319.700000

>ms2peaks
91.054300 7813.700000
105.070000 10893.100000
117.069800 3272.100000
119.085500 7565.500000

>ms2peaks
161.132400 52730.000000

>ms2peaks
147.116600 1976.600000
161.132500 71784.500000
165.090300 2638.400000
189.128100 2066.200000
207.137500 11544.900000

>ms2peaks
105.069900 5650.700000
107.085100 2106.300000
119.085500 5380.500000
147.116600 2520.000000
161.132400 47837.200000
207.137200 3170.400000

>ms2peaks
105.070000 6865.200000
107.086000 2552.300000
119.085500 14132.200000
149.096000 3331.900000
161.132500 18891.200000
165.091300 1768.700000

>ms2peaks
105.069800 9076.800000
119.085600 12253.900000
149.096100 3378.600000
161.132500 4888.500000

