>compound EA58493293
>parentmass 274.2529
>ionization [M+H]+
>formula C19H31N
>rt 570.000000
>profile orbitrap
#smiles_iso CC(CC1=CC=C(C=C1)C(C)(C)C)CN2CCCCC2
#smiles_can CC(CC1=CC=C(C=C1)C(C)(C)C)CN2CCCCC2
#inchikey MGNFYQILYYYUBS-UHFFFAOYSA-N
#pubchem_id 91694
#mb_accession EA295802,EA295803,EA295804,EA295805,EA295806,EA295807,EA295808,EA295809,EA295810,EA295811,EA295812,EA295813

>ms2peaks
274.253000 256321816.800000

>ms2peaks
274.253000 248937369.000000

>ms2peaks
57.069800 414468.400000
86.096500 7763371.100000
147.116900 12064696.500000
189.163800 1748621.000000
218.190200 442845.200000
274.252900 217415596.200000

>ms2peaks
57.069900 2593313.500000
69.070000 231619.200000
84.080900 774400.300000
85.088500 212752.700000
86.096500 29520823.300000
91.054200 1240759.200000
98.096400 350726.300000
105.070000 2821545.600000
107.085600 352767.200000
119.085600 3191965.900000
132.093400 1632006.800000
133.101100 205571.400000
145.101100 152224.300000
147.116900 70654947.700000
161.132600 1975914.100000
189.163900 2186437.600000
218.190300 880390.100000
258.222500 108723.900000
259.229600 327367.000000
274.252900 71349383.200000

>ms2peaks
57.069900 2523370.900000
69.070000 562012.400000
79.054500 106559.800000
84.080900 1143622.700000
85.088800 223928.700000
86.096500 21742933.000000
91.054300 2153297.000000
93.069900 276186.000000
98.096600 295145.300000
104.061800 182979.700000
105.069900 10570164.700000
107.085500 1680892.500000
117.069900 1994214.600000
119.085600 13410740.200000
131.085300 481475.800000
132.093400 14278013.400000
133.100800 154553.400000
145.101300 716108.300000
146.108600 341410.200000
147.116900 65732313.100000
159.117100 284595.700000
161.132600 1528584.100000
174.139800 123118.400000
189.163800 394839.700000
218.190400 103096.600000
274.253300 4976331.800000

>ms2peaks
55.054200 157282.000000
57.069900 1974414.900000
69.069900 705898.600000
79.054300 373635.100000
84.080800 1111145.200000
85.088600 135000.900000
86.096400 11584364.700000
91.054200 3137555.300000
93.070000 395816.800000
98.096600 218994.600000
103.054300 183966.600000
104.062000 961279.000000
105.069800 13103434.600000
107.085500 2474600.300000
115.054700 125633.800000
116.061900 103261.100000
117.069900 12639338.100000
119.085500 18476168.700000
131.085500 1425828.000000
132.093300 32561499.200000
133.101200 79515.000000
145.101200 1050409.000000
146.109000 651586.100000
147.116800 26037103.300000
159.117000 540189.900000
161.132500 599772.300000

>ms2peaks
274.252900 218696437.400000

>ms2peaks
274.253000 215310495.400000

>ms2peaks
57.069900 331787.600000
86.096500 6017083.300000
147.116800 8847548.500000
161.132500 215775.700000
189.163800 1310483.400000
218.190300 330449.000000
274.252900 176394106.900000

>ms2peaks
57.069900 1890245.700000
69.069800 178413.200000
84.080800 512251.300000
85.088400 173723.100000
86.096400 22009809.500000
91.054200 825727.600000
98.096400 255186.100000
105.069900 1866508.200000
107.085700 206238.400000
117.070100 74790.500000
119.085500 1894650.800000
131.085500 134903.900000
132.093300 1158175.800000
133.101000 196791.900000
145.101400 69233.600000
147.116800 52662584.100000
161.132500 1231421.200000
174.140200 67976.600000
189.163800 1522103.900000
218.190500 544686.900000
259.229300 236438.100000
274.252900 54813704.000000

>ms2peaks
55.054200 50110.500000
57.069900 1941172.900000
67.054300 76826.000000
69.069900 322381.700000
79.054300 73454.200000
84.080700 819234.600000
85.088600 187371.300000
86.096500 16837634.800000
91.054200 1460774.800000
93.069900 163696.600000
98.096400 265501.600000
104.062600 61997.200000
105.069900 7750185.600000
107.085500 1128969.700000
117.069800 1446249.400000
119.085500 10415721.300000
131.085600 246862.600000
132.093300 11111074.800000
133.101000 87717.200000
145.101300 434939.700000
146.108800 163195.300000
147.116800 48652654.700000
159.117000 132295.200000
161.132400 1058150.300000
174.140400 95792.100000
189.163800 256680.200000
218.190400 116103.600000
258.222600 97658.000000
259.230100 62666.000000
274.253100 3587664.000000

>ms2peaks
55.054200 80351.900000
57.069800 1234397.700000
67.053900 49112.800000
69.069900 467717.900000
79.054200 221735.700000
84.080700 689425.800000
85.088500 132644.400000
86.096400 8080380.900000
91.054200 2279292.800000
93.069700 282803.700000
98.096300 144333.400000
103.054400 67118.200000
104.061900 511380.600000
105.069800 9123735.800000
107.085400 1411255.600000
115.053800 121569.500000
116.061800 116900.400000
117.069800 8980725.600000
119.085400 13300708.000000
131.085400 914666.200000
132.093200 21466449.400000
145.101000 690288.600000
146.108800 436743.500000
147.116600 16994594.500000
159.116600 334058.200000
161.132300 334658.400000

