>compound EA58604792
>parentmass 241.06410000000002
>ionization [M+H]+
>formula C10H12N2O3S
>rt 450.000000
>profile orbitrap
#smiles_iso CC(C)N1C(=O)C2=CC=CC=C2NS1(=O)=O
#smiles_can CC(C)N1C(=O)C2=CC=CC=C2NS1(=O)=O
#inchikey ZOMSMJKLGFBRBS-UHFFFAOYSA-N
#pubchem_id 2328
#mb_accession EA025302,EA025303,EA025304,EA025305,EA025306,EA025307,EA025308,EA025309,EA025310,EA025311,EA025312,EA025313

>ms2peaks
199.017200 84560.800000

>ms2peaks
120.044800 3413.400000
135.054900 5076.100000
199.017100 99584.800000

>ms2peaks
107.060200 10868.900000
120.044400 12039.500000
135.055400 19897.200000
199.017200 46569.500000

>ms2peaks
92.049300 5537.700000
107.060400 45127.700000
120.044400 23039.600000
135.055400 29626.600000
199.017100 7924.200000

>ms2peaks
80.049400 4852.600000
92.049200 6501.100000
107.060300 40101.800000
120.044100 11865.800000
135.055000 6343.900000

>ms2peaks
80.049500 13750.500000
92.049600 4676.500000
107.060300 23828.200000
120.044000 5615.000000

>ms2peaks
199.017100 63491.500000

>ms2peaks
120.044300 2491.800000
199.017100 65267.800000

>ms2peaks
107.060300 5335.000000
120.044200 4296.800000
135.055400 12856.500000
199.017100 26246.400000

>ms2peaks
92.049400 3240.900000
107.060300 19749.900000
120.044300 10954.500000
135.055100 10747.200000
199.016900 4206.900000

>ms2peaks
80.049500 3075.300000
107.060400 21631.600000
120.044400 8278.000000
135.055400 2063.700000

>ms2peaks
80.049400 4260.700000
92.049500 2365.600000
107.060300 10691.000000
120.044200 2566.800000

