>compound EA58058903
>parentmass 384.08240000000006
>ionization [M+H]+
>formula C16H15F2N3O4S
>rt 396.000000
>profile orbitrap
#smiles_iso COC1=C(C(=NC=C1)CS(=O)C2=NC3=C(N2)C=C(C=C3)OC(F)F)OC
#smiles_can COC1=C(C(=NC=C1)CS(=O)C2=NC3=C(N2)C=C(C=C3)OC(F)F)OC
#inchikey IQPSEEYGBUAQFF-UHFFFAOYSA-N
#pubchem_id 4679
#mb_accession EA064402,EA064403,EA064404,EA064405,EA064406,EA064407,EA064408,EA064409,EA064410,EA064411,EA064412,EA064413

>ms2peaks
107.073000 24613.300000
122.060500 3668.100000
138.055000 340987.100000
152.070500 5728.600000
153.078300 101810.500000
168.065200 19822.500000
170.081100 12519.800000
182.027300 2957.000000
185.051400 6890.800000
200.037600 1125384.700000
384.082000 254151.000000

>ms2peaks
107.073000 61301.900000
122.060000 38818.000000
138.055000 899591.300000
152.070400 15311.100000
153.078400 229729.700000
168.065400 23738.900000
170.080900 30791.300000
185.052300 18958.400000
200.037600 635234.700000
215.008200 13037.000000
366.073600 5095.800000

>ms2peaks
92.049300 6528.000000
93.057200 5166.900000
94.065000 3264.900000
107.072900 56618.100000
108.044100 3238.900000
122.060000 54405.700000
123.067900 5386.700000
136.039400 14136.000000
138.055000 1067819.500000
152.070500 43220.900000
153.078400 46637.400000
167.003100 6805.900000
168.065500 12552.400000
170.080800 13221.400000
182.027100 15623.600000
185.052200 11649.900000
200.037500 327806.800000

>ms2peaks
92.049300 11315.800000
93.057300 13324.100000
94.065200 6622.600000
107.072900 58448.500000
108.044400 12737.700000
110.060000 15898.200000
122.060100 54872.000000
123.067800 5153.900000
125.047000 3187.000000
136.039300 41819.900000
138.055000 993522.800000
152.070600 66801.700000
153.995800 11656.100000
154.049500 8641.900000
156.011700 4087.900000
165.012000 11111.600000
167.003400 31839.000000
168.065500 8880.600000
182.027300 16716.000000
200.037700 89727.000000

>ms2peaks
65.038500 7039.200000
78.033900 2780.200000
92.049400 25447.100000
93.057200 16503.600000
94.064900 19545.400000
106.065000 13416.100000
107.072900 52382.300000
108.044300 17294.700000
110.006100 4578.800000
110.060000 57579.400000
122.060000 50696.800000
123.068000 4689.300000
124.075500 7777.500000
125.047000 6022.500000
135.055100 3276.800000
136.039200 146406.200000
138.054900 701657.500000
139.008500 6801.500000
152.070400 74064.500000
153.995600 12612.400000
154.049700 43294.300000
156.011400 7461.600000
165.011600 11243.700000
167.003300 26707.700000
168.064800 7609.600000
182.027500 9545.800000

>ms2peaks
65.038500 10861.500000
67.041600 5047.000000
69.033400 4935.200000
78.033500 4536.400000
80.049500 9491.000000
82.065200 8483.600000
92.049400 43614.000000
93.057300 24613.000000
94.065100 25324.700000
96.044300 4227.500000
106.065100 21493.900000
107.072900 29071.900000
108.044300 23996.500000
109.052000 5616.700000
110.006200 10321.100000
110.060100 82445.400000
112.039100 2758.200000
122.060000 51464.100000
123.067700 5117.400000
124.075800 12820.100000
125.046800 7278.600000
136.039200 199929.800000
138.054900 353486.600000
139.008700 6009.700000
152.070500 49895.600000
153.995400 6805.800000
154.049700 64001.000000
156.010900 4705.200000
165.011200 6814.600000
167.003200 9652.100000
168.064600 3587.200000
182.026100 3479.200000
200.038300 4553.400000

>ms2peaks
107.072900 13219.200000
122.059900 2669.400000
138.054800 181338.400000
153.078300 56874.200000
168.065400 10626.600000
170.080900 7865.400000
185.052300 4705.800000
200.037600 660606.700000
384.082100 137953.400000

>ms2peaks
107.072900 30622.200000
122.060000 20145.500000
138.054900 546481.100000
152.070600 8663.100000
153.078400 123523.000000
168.065200 13274.200000
170.081200 17070.800000
185.052100 7895.300000
200.037500 351928.900000
215.008400 3098.700000

>ms2peaks
92.049200 3448.300000
93.057300 2831.400000
94.065100 2525.700000
107.072900 32791.700000
108.044600 2733.000000
122.060000 33447.200000
123.068000 2356.000000
136.039500 9712.500000
138.054900 611482.400000
152.070600 23335.000000
153.078400 24898.400000
165.011300 3262.900000
167.004100 5424.000000
168.065400 6065.500000
170.081100 6255.300000
182.026900 8104.200000
185.052100 6135.800000
189.953300 2536.400000
200.037500 178323.500000
215.008000 5688.600000

>ms2peaks
92.049400 7146.500000
93.057200 7208.200000
94.065000 6474.100000
107.072900 35148.300000
108.044300 5305.400000
110.060000 12940.700000
122.059900 32723.000000
123.067900 3819.200000
136.039200 17819.800000
138.054900 572074.700000
139.008800 4168.800000
152.070500 44741.900000
153.078400 2295.900000
153.995400 6469.100000
156.011500 2109.400000
165.011700 6429.800000
167.003600 12570.800000
168.065600 7039.000000
182.026500 7776.800000
185.052200 2679.000000
200.037400 50836.800000
215.008200 2297.000000

>ms2peaks
65.038400 2198.700000
80.049400 2710.900000
82.064900 2480.000000
92.049400 13577.400000
93.057200 8535.300000
94.065100 9595.400000
106.065100 7141.300000
107.072900 25712.500000
108.044300 8303.300000
110.005500 2882.300000
110.060000 27379.500000
122.060000 27270.800000
123.067800 4568.700000
124.075700 3848.200000
125.047600 3474.000000
136.039200 85038.400000
138.054900 386350.100000
139.008300 4611.800000
152.070500 36535.500000
153.995800 7325.100000
154.049700 25530.100000
156.011100 3597.000000
165.011700 5609.300000
167.003300 9720.300000
168.065500 6338.200000
182.027000 7109.300000
185.051800 3113.800000
189.953500 1664.200000
200.038400 9230.300000

>ms2peaks
65.038600 5068.900000
67.041600 3368.200000
69.033300 1642.300000
78.033700 1463.800000
80.049400 5292.800000
82.065100 3096.000000
92.049400 22590.000000
93.057200 9887.000000
94.065000 12728.900000
96.044300 3180.700000
106.065000 11886.400000
107.072900 14024.200000
108.044300 13307.100000
109.052100 4470.900000
110.005800 6254.400000
110.060000 50160.500000
112.039000 1290.700000
122.059900 25322.700000
123.067700 1470.500000
124.075600 5609.900000
125.047000 5588.500000
135.055100 1471.200000
136.039200 111501.700000
138.054900 199388.000000
139.008500 3891.800000
152.070500 29817.700000
153.995600 4086.700000
154.049700 32940.400000
156.011400 2551.800000
165.011600 2657.500000
167.003400 5820.500000
172.984800 1638.400000

