>compound EA58375562
>parentmass 297.9717999999999
>ionization [M+H]+
>formula C7H8ClN3O4S2
>rt 132.000000
>profile orbitrap
#smiles_iso C1NC2=CC(=C(C=C2S(=O)(=O)N1)S(=O)(=O)N)Cl
#smiles_can C1NC2=CC(=C(C=C2S(=O)(=O)N1)S(=O)(=O)N)Cl
#inchikey JZUFKLXOESDKRF-UHFFFAOYSA-N
#pubchem_id 3639
#mb_accession EA261002,EA261003,EA261004,EA261005,EA261006,EA261007,EA261008,EA261009,EA261010,EA261011,EA261012,EA261013

>ms2
216.982900 5067.600000
232.978500 12558.500000
268.945100 8261.700000
280.945400 184969.500000
297.971100 20403.300000

>ms2
204.983200 12980.500000
216.983000 24108.500000
220.978200 3678.500000
232.978100 76778.800000
234.995000 5964.700000
268.946400 8694.000000
280.945300 106743.100000
286.956100 6612.700000

>ms2
107.990700 3900.600000
117.045000 3915.000000
118.052200 3497.900000
139.989900 11805.600000
142.005900 3899.600000
142.959100 11096.000000
143.966900 2827.200000
169.015900 3762.500000
170.954300 7357.400000
171.961700 2815.300000
188.964600 9960.600000
203.951400 19769.700000
204.983400 11884.600000
216.983000 22735.400000
220.978300 11300.300000
232.978100 67807.700000
234.993100 13346.900000
252.951100 7935.800000
280.945800 8699.300000

>ms2
90.033600 3428.700000
98.999900 3054.000000
107.990200 16821.300000
117.044800 10164.500000
118.052600 5703.700000
123.995100 6630.800000
125.002700 7869.600000
126.010100 3499.300000
131.966800 3123.300000
139.989900 55286.300000
141.951700 6236.800000
142.005700 7345.900000
142.959100 17943.400000
152.997600 3510.600000
155.984300 3699.300000
157.016300 3104.400000
158.001100 2514.500000
169.017000 2968.400000
169.946800 4598.900000
170.953400 5737.000000
171.961600 9442.000000
188.964700 5103.500000
203.951700 30722.000000
204.982900 4031.400000
220.979200 3460.000000
232.977800 14268.000000

>ms2
90.034100 7351.900000
91.017900 3199.800000
97.979500 4117.700000
98.999600 6468.900000
107.990200 26846.500000
111.995000 3173.700000
113.974100 5165.300000
117.044600 8274.500000
118.052700 8469.100000
123.994600 9162.600000
125.002700 17501.100000
129.021500 2800.200000
139.989800 75932.400000
141.951600 4924.900000
142.005500 10638.300000
142.958900 13094.100000
143.967400 3254.800000
152.013600 3203.400000
152.997900 4646.500000
155.984500 4129.400000
169.016200 2455.500000
171.961300 9998.500000

>ms2
76.018100 2869.600000
85.979200 7456.000000
89.025800 4541.200000
90.033900 13784.300000
97.979400 4701.100000
98.999300 7572.700000
104.956200 3289.400000
106.982800 6231.700000
107.990300 38991.800000
108.983900 5350.800000
111.995000 8921.900000
113.974100 11776.300000
114.010800 4204.900000
117.044800 9276.700000
118.052900 8397.900000
123.995100 10733.900000
125.002500 26175.600000
129.021100 2286.300000
131.966000 2210.000000
139.989800 45482.400000
142.005300 6914.400000
142.958500 5585.800000
143.966600 2991.800000
171.961800 13430.400000

>ms2
204.983300 3310.700000
216.983100 21668.700000
232.978200 39495.100000
268.945000 23104.000000
280.945100 521988.700000
286.956000 10813.800000
297.971800 64502.700000

>ms2
107.990300 1610.900000
142.959400 2068.100000
143.013300 2647.900000
143.966400 1550.000000
156.021300 4642.200000
169.016100 2716.100000
170.954100 2386.700000
188.964800 9345.200000
203.951200 5463.500000
204.983200 29183.600000
205.967500 2781.300000
216.983400 60210.200000
220.978300 14553.800000
232.978200 203219.900000
234.994000 17338.700000
252.950300 13875.000000
268.945200 28319.300000
280.945200 295541.500000
286.955900 11907.500000

>ms2
107.990300 9862.800000
117.044800 12955.300000
118.052600 5463.400000
125.002400 2215.000000
126.010500 3398.900000
131.967000 4376.100000
139.989700 24841.500000
141.951200 2496.800000
142.005400 3977.300000
142.959200 22784.100000
143.013300 2514.500000
143.967000 4491.500000
152.013200 2682.300000
152.997600 2558.100000
153.021400 5293.100000
155.985200 2216.500000
156.020600 4013.100000
157.015900 5952.400000
158.000500 4695.600000
169.016500 9738.700000
169.946800 3124.100000
170.954000 14818.300000
171.962000 10534.400000
187.957000 5551.400000
188.964600 25130.500000
203.951600 46552.400000
204.983200 40564.500000
205.967100 10449.800000
216.983300 54842.200000
220.978100 23170.000000
232.978200 184318.600000
234.993800 24808.600000
252.950200 13507.900000
280.945300 18574.600000

>ms2
90.033800 8055.000000
91.018100 1800.400000
91.041700 2587.400000
97.979300 3038.700000
98.999700 5178.500000
104.956100 4201.600000
107.990300 35055.100000
108.983800 4469.400000
111.994800 2889.000000
113.974700 1715.600000
114.010500 3811.800000
117.044800 21920.100000
118.052500 14461.600000
123.994900 11792.100000
125.002600 15657.600000
126.010500 6198.100000
130.005800 2418.300000
131.966900 4883.200000
139.989800 114725.000000
141.951200 12256.200000
142.005500 14991.600000
142.959000 33891.100000
143.966900 8021.700000
152.013400 5242.200000
152.997700 4644.900000
153.021300 4316.300000
155.984500 6109.700000
157.016200 9017.200000
158.000400 5958.500000
169.016600 6655.900000
169.946300 8843.700000
170.954200 7975.200000
171.962000 20135.800000
187.956600 4421.300000
188.964700 10350.900000
203.951600 61523.000000
204.983200 9241.200000
205.967300 3470.800000
216.983200 6815.900000
220.978100 6687.300000
232.978400 24211.800000
234.994100 3066.500000

>ms2
63.023000 2474.800000
85.979200 5372.100000
89.026000 2480.500000
90.033800 13850.000000
91.017900 5095.600000
91.041600 5200.000000
97.979100 6424.900000
98.999600 14762.200000
104.956300 4987.900000
107.990300 52363.900000
108.983900 4951.000000
111.995000 8295.000000
113.974000 8426.500000
114.010600 7734.500000
117.044800 20871.000000
118.052700 13916.600000
123.994900 21946.900000
125.002700 36505.600000
126.010500 2188.600000
129.021300 4767.200000
130.005200 3293.900000
131.966900 4550.700000
139.989800 157223.900000
141.951400 13527.300000
142.005500 20602.600000
142.959200 19129.200000
143.966900 5034.600000
152.013400 7300.900000
152.997400 9285.800000
155.000600 4559.300000
155.984800 6575.000000
157.016500 3237.800000
158.000300 3045.600000
169.016200 5118.400000
169.946500 4685.500000
171.961900 21664.400000
203.951800 11298.500000

>ms2
63.022800 3740.500000
76.018200 6451.600000
85.979200 13372.200000
89.026000 9422.500000
90.033800 18368.200000
91.017800 5878.300000
91.041800 4096.900000
97.979200 10767.600000
98.999500 11994.500000
104.956100 5550.600000
106.982400 9149.400000
107.990300 59839.800000
108.983900 8565.300000
111.994800 13915.100000
113.974100 17725.900000
114.010400 4585.000000
117.044800 14265.300000
118.052500 9777.500000
123.994800 17476.300000
125.002700 40843.600000
130.005100 3681.800000
131.966900 2058.800000
139.989700 81587.600000
141.951500 7614.600000
142.005400 11872.500000
142.958800 6465.400000
143.967000 8513.800000
152.013500 3600.100000
152.997700 4076.300000
155.000400 3694.700000
155.984700 3792.500000
171.961800 17685.800000

