>compound EA59380349
>parentmass 199.0633
>ionization [M+H]+
>formula C9H11ClN2O
>rt 402.000000
>profile orbitrap
#smiles_iso CN(C)C(=O)NC1=CC=C(C=C1)Cl
#smiles_can CN(C)C(=O)NC1=CC=C(C=C1)Cl
#inchikey BMLIZLVNXIYGCK-UHFFFAOYSA-N
#pubchem_id 8800
#mb_accession EA016102,EA016103,EA016104,EA016105,EA016106,EA016107,EA016108,EA016109,EA016110,EA016111,EA016112,EA016113

>ms2
72.044300 458856.300000
199.063400 6776590.600000

>ms2
72.044400 1622958.700000
154.005600 19878.500000
199.063500 4339979.600000

>ms2
56.013000 8018.000000
72.044400 2276823.400000
126.010500 95281.500000
154.005300 75956.700000
199.062900 773740.800000

>ms2
72.044400 2217421.700000
126.010400 312988.800000
154.005400 85536.100000

>ms2
56.013000 6965.200000
72.044400 2053264.600000
90.034100 8528.700000
98.999500 25899.300000
126.010500 425887.500000
139.005700 23463.000000
154.005400 40791.000000

>ms2
72.044400 1827737.900000
90.033800 13468.400000
98.999400 87896.700000
110.999600 8009.500000
126.010400 358698.100000
139.005500 51433.100000
154.005400 11091.400000

>ms2
72.044300 327814.400000
199.063300 4925829.900000

>ms2
72.044400 1083819.700000
126.010400 9645.500000
154.005000 14688.400000
199.063300 2889135.500000

>ms2
56.012900 3660.600000
72.044400 1467168.500000
126.010500 74359.200000
154.005400 56771.700000
199.063400 559802.700000

>ms2
56.013000 2562.800000
72.044400 1410346.100000
98.999600 3867.600000
126.010400 176438.200000
154.005300 48976.000000
199.063300 44168.800000

>ms2
72.044400 1181500.800000
90.033600 4354.500000
98.999600 20635.700000
126.010500 253007.900000
139.005600 9713.500000
154.005400 20162.900000

>ms2
56.013000 3425.300000
72.044400 937847.100000
90.033800 5029.200000
98.999600 50151.400000
110.999300 3086.800000
126.010500 188488.200000
139.005700 23705.800000
154.005400 4429.400000

