>compound EA59145211
>parentmass 202.08539999999996
>ionization [M+H]+
>formula C7H12ClN5
>rt 414.000000
>profile orbitrap
#smiles_iso CCNC1=NC(=NC(=N1)Cl)NCC
#smiles_can CCNC1=NC(=NC(=N1)Cl)NCC
#inchikey ODCWYMIRDDJXKW-UHFFFAOYSA-N
#pubchem_id 5216
#mb_accession EA026202,EA026203,EA026204,EA026205,EA026206,EA026207,EA026208,EA026209,EA026210,EA026211,EA026212,EA026213

>ms2
124.087400 27932.900000
202.085500 14633978.800000

>ms2
71.060100 24589.000000
96.055800 68914.300000
104.001100 63275.500000
124.087000 278536.900000
132.032400 187805.300000
166.108800 37167.400000
174.054000 121412.600000
202.085700 14785206.400000

>ms2
68.024300 234153.800000
71.060400 146378.500000
79.005600 29039.500000
90.010600 31610.500000
96.055600 595389.500000
104.001000 510596.700000
124.087000 1741472.500000
132.032400 2031353.900000
138.077500 50122.000000
146.023300 18551.700000
166.108800 428189.400000
174.054200 692011.000000
202.085600 9249254.000000

>ms2
61.979100 64844.400000
68.024300 942037.900000
71.060400 574767.000000
79.005800 90581.200000
90.010600 62889.100000
96.055700 1273147.500000
104.001100 1577666.600000
107.037300 28681.600000
124.087000 1936398.200000
132.032400 2579841.500000
138.077400 89990.100000
146.022900 101986.500000
166.108800 466684.300000
174.054200 710100.700000
200.070600 22069.800000
202.085300 2368133.500000

>ms2
61.979200 144847.000000
68.024300 1564399.800000
71.060400 776158.800000
79.005800 110459.400000
90.010300 59028.900000
96.055600 1205010.900000
104.001000 2069463.400000
124.086900 837360.500000
132.032400 1263434.800000
138.077400 93952.500000
146.022900 85616.600000
166.108800 200460.700000
174.054200 264671.800000

>ms2
61.979100 239785.600000
68.024300 1886773.700000
71.060400 710823.700000
79.005800 102476.800000
90.010600 26335.700000
96.055600 765300.600000
104.001000 1881005.500000
124.086800 208332.600000
132.032300 396626.200000
138.077900 38558.200000
146.023200 39237.000000
166.108700 30127.600000
174.054300 56116.100000

>ms2
71.060200 16032.500000
202.085500 11315026.100000

>ms2
96.055500 39684.600000
104.001100 34762.800000
124.086900 182454.000000
132.032300 140034.800000
166.108700 26447.600000
174.054300 68567.100000
202.085400 10012609.000000

>ms2
61.979100 15836.400000
68.024300 160562.200000
71.060300 103367.200000
79.005800 10708.600000
90.010500 13950.300000
96.055600 390713.400000
104.001000 367127.000000
107.037200 12985.000000
124.087000 1168833.400000
132.032300 1360375.200000
138.077400 18445.100000
146.022800 24250.700000
166.108700 267059.400000
174.054100 470953.800000
202.085400 6100929.900000

>ms2
61.979100 49604.000000
68.024300 568711.500000
71.060400 351067.900000
79.005800 59809.800000
90.010500 37785.600000
96.055700 797618.800000
104.001100 989377.100000
107.037300 10702.800000
110.046300 6891.300000
124.087000 1266656.900000
132.032400 1637951.400000
138.077400 55559.300000
146.022900 54130.800000
166.108700 345370.000000
174.054100 477216.700000
200.070000 16269.200000
202.085500 1667821.900000

>ms2
61.979200 91045.500000
68.024300 968210.800000
71.060400 491700.600000
79.005800 60557.100000
90.010500 44400.900000
96.055700 761277.100000
104.001100 1318032.900000
107.036900 9568.300000
110.046300 10299.800000
124.087000 516781.400000
132.032400 755695.700000
138.077400 49868.400000
146.022900 59601.700000
166.108800 108883.500000
174.054100 148042.300000
202.085400 170352.100000

>ms2
61.979200 123508.400000
68.024300 1041351.600000
71.060400 388712.900000
79.005700 52869.200000
90.010500 12521.100000
96.055600 415603.200000
104.001000 1059638.000000
110.046000 6276.000000
124.086900 100946.800000
132.032200 203795.300000
138.077400 25239.400000
146.022800 26400.300000
166.108700 17675.700000
174.054000 26396.700000
202.085100 10429.300000

