>compound EA59652663
>parentmass 261.03209999999996
>ionization [M+H]+
>formula C7H15Cl2N2O2P
>rt 378.000000
>profile orbitrap
#smiles_iso C1CN(P(=O)(OC1)NCCCl)CCCl
#smiles_can C1CN(P(=O)(OC1)NCCCl)CCCl
#inchikey HOMGKSMUEGBAAB-UHFFFAOYSA-N
#pubchem_id 3690
#mb_accession EA268302,EA268303,EA268304,EA268305,EA268306,EA268307,EA268308,EA268309,EA268310,EA268311,EA268312,EA268313

>ms2
233.000600 96019.600000
261.032200 54464649.400000

>ms2
62.999700 50611.300000
78.010600 741409.000000
92.026100 1198913.200000
120.057400 409692.300000
127.966700 53649.200000
146.036600 131047.600000
153.981900 1170696.700000
182.013200 2348175.900000
200.023700 807341.600000
217.989400 62503.900000
233.000700 5095335.900000
261.032100 37913462.600000

>ms2
56.049500 104643.000000
62.999600 229120.000000
67.054200 22857.500000
78.010600 2452909.600000
80.026000 81121.100000
82.065000 47796.600000
84.080600 31513.100000
92.026200 7150599.300000
115.966100 50859.600000
116.950400 117295.700000
118.005200 75833.800000
118.042200 196950.900000
120.057500 1757314.700000
124.016600 35038.100000
125.950600 218227.400000
126.971500 47843.300000
127.966300 251617.400000
128.026500 106207.300000
141.982100 256695.300000
146.036600 607347.700000
153.981900 7093374.600000
155.996900 31993.100000
164.047900 28363.000000
164.986700 48939.100000
182.013300 3752771.600000
199.040700 49320.300000
200.023800 630727.000000
217.990800 36903.900000
233.000900 4614449.500000
261.032200 5974053.500000

>ms2
56.049500 150422.800000
62.999600 392795.800000
67.054100 39104.300000
72.044500 67383.000000
78.010600 1699419.800000
80.026200 59330.000000
82.065100 108934.500000
84.080700 102690.000000
92.026200 10015936.700000
99.995000 32839.400000
106.005400 117620.498500
115.966300 101167.200000
116.950400 331839.000000
118.005200 72838.600000
118.041800 172533.700000
120.020800 91691.100000
120.057500 1647386.100000
123.971300 48235.100000
124.015600 72824.900000
125.950600 314544.600000
126.971000 57338.800000
127.966400 258889.600000
128.025900 204119.000000
136.016000 171483.000000
141.982000 409180.000000
146.036600 437276.300000
153.981900 7584889.200000
155.997300 73696.500000
164.047700 36476.000000
171.992400 38745.700000
182.013200 703625.200000
233.001000 460773.900000
261.031900 193056.400000

>ms2
56.049500 110065.600000
62.999600 432174.000000
67.054100 36426.000000
72.044400 63410.400000
78.010600 920307.600000
79.989800 47836.800000
80.026000 41014.500000
82.065200 70382.200000
84.080700 67657.900000
92.026200 8472235.700000
99.995300 25990.400000
106.005100 134570.400000
109.004800 39365.300000
115.965900 46788.100000
116.950400 397069.900000
118.005500 96001.800000
118.041700 114297.800000
120.020500 113381.900000
120.057500 848260.600000
124.015900 82933.600000
125.950600 235483.900000
126.971100 35268.700000
127.966400 195890.600000
128.025900 190495.100000
136.015800 213045.000000
141.982100 334153.500000
146.036600 122602.600000
153.981900 3369843.100000
171.992500 33627.100000

>ms2
56.049500 56659.200000
62.999600 436850.500000
72.044400 29615.700000
78.010500 540331.600000
80.026500 38167.600000
82.065300 51406.500000
84.080700 30530.600000
92.026200 5242462.100000
97.955800 31854.900000
98.000500 46546.100000
98.984400 53491.100000
106.005300 138410.500000
109.004600 52017.800000
115.965800 39410.700000
116.950300 190060.800000
118.005500 58059.500000
118.042600 44980.600000
120.020300 50878.600000
120.057500 286400.100000
123.971300 53402.500000
124.015500 65849.800000
125.950600 102099.200000
127.966400 96607.700000
128.026200 92412.100000
136.015900 114873.200000
141.981800 130455.700000
153.981900 833659.100000

>ms2
233.001000 45165.400000
261.032100 38564069.200000

>ms2
78.010500 514613.100000
92.026200 760909.000000
120.057600 255983.200000
127.966400 46952.300000
146.036500 74464.200000
153.982000 883428.600000
182.013400 1684468.500000
200.024000 523281.600000
233.000900 3553130.500000
261.032200 26281002.600000

>ms2
56.049500 61872.900000
62.999600 129252.100000
72.044200 27612.900000
78.010500 1727137.800000
80.026100 42441.800000
82.065300 18665.100000
92.026200 5186484.900000
115.966500 44668.200000
116.950400 73617.900000
118.041900 110920.500000
120.057500 1222083.300000
124.016000 35249.200000
125.950600 138346.100000
126.970900 27484.400000
127.966300 150163.700000
128.025900 71251.700000
136.015900 28133.000000
140.986900 16976.600000
141.982000 186735.400000
146.036500 409132.300000
153.981900 5018431.500000
164.048000 23172.500000
182.013300 2638868.800000
185.023900 31077.800000
200.023800 443492.500000
217.989900 27165.200000
233.000800 3122990.900000
261.032100 4072402.400000

>ms2
56.049500 68889.200000
62.999600 212872.500000
67.054400 18639.100000
72.044400 36117.400000
78.010600 1084238.500000
80.026300 41513.100000
82.065100 58353.200000
84.080800 39259.000000
92.026200 6634016.300000
106.005300 60711.100000
115.966400 49156.300000
116.950300 181755.600000
118.005500 39307.500000
118.041900 111245.900000
120.057500 1146859.700000
123.971300 34559.600000
124.015700 49024.900000
125.950700 181351.600000
126.970800 36448.700000
127.966400 172288.300000
128.025900 125818.800000
136.015700 101218.100000
141.982000 259307.400000
143.961300 17258.700000
146.036600 242738.000000
153.981900 5099262.900000
182.013300 464980.300000
185.024300 14227.600000
200.023900 37547.800000
233.000800 309349.300000
261.032100 132023.200000

>ms2
56.049500 58769.800000
62.999600 270015.500000
63.994900 12553.300000
67.054300 22180.300000
72.044500 26821.800000
78.010500 580466.000000
79.989800 19487.000000
80.026200 40955.700000
82.065200 43355.800000
84.080700 29221.000000
92.026200 5400559.500000
98.000400 16558.300000
99.994300 12554.800000
106.005300 87791.500000
109.005100 14622.500000
115.966300 34055.200000
116.950300 245119.400000
118.005200 48721.500000
118.041900 77201.000000
120.021000 59638.300000
120.057500 479942.900000
123.971400 48139.500000
124.015800 42432.100000
125.950600 146122.100000
126.971200 28339.100000
127.966300 108270.100000
128.026000 105226.000000
136.015800 116836.200000
141.981900 171828.600000
143.961100 25014.000000
153.981900 2267222.400000
155.997300 11256.600000
171.992400 16581.400000
182.012900 29743.400000

>ms2
56.049400 24082.800000
62.999600 280404.900000
63.994900 11237.900000
72.044300 18947.700000
78.010500 335113.600000
79.989700 24621.600000
80.026100 19024.800000
82.065200 27878.600000
84.080500 16891.400000
92.026200 3276005.300000
97.956300 8705.800000
98.000100 30929.500000
98.984100 23662.700000
99.994700 19647.500000
106.005300 67798.900000
109.004900 24663.000000
115.966300 13735.200000
116.950200 109188.300000
118.005200 37976.400000
118.041700 17801.600000
120.020900 28844.000000
120.057600 150563.800000
123.971400 46812.700000
124.016000 37550.000000
125.950500 60980.900000
126.970800 14248.400000
127.966200 59485.500000
128.025900 53765.400000
136.015700 63466.100000
141.981900 81083.600000
153.981900 473261.900000

