>compound EA60272327
>parentmass 273.1849000000001
>ionization [M+H]+
>formula C18H24O2
>rt 882.000000
>profile orbitrap
#smiles_iso CC1COC(=O)C2=CC3=C(C=C12)C(C(C3(C)C)C)(C)C
#smiles_can CC1COC(=O)C2=CC3=C(C=C12)C(C(C3(C)C)C)(C)C
#inchikey PGMHPYRIXBRRQD-UHFFFAOYSA-N
#pubchem_id 69131857
#mb_accession EA066002,EA066003,EA066004,EA066005,EA066006,EA066007,EA066008,EA066009,EA066010,EA066011,EA066012,EA066013

>ms2peaks
197.132900 4333.600000
212.156200 3082.300000
273.185200 2076179.100000

>ms2peaks
175.111700 3386.100000
225.124400 2533.100000
255.174100 250172.000000
273.185000 1841518.000000

>ms2peaks
157.101000 20597.700000
175.111600 37266.700000
185.095900 20667.100000
203.106200 12062.000000
212.155300 5924.700000
227.179200 38612.800000
239.142900 3054.100000
240.150600 96675.600000
245.154600 5132.500000
255.174200 1293896.300000
273.184500 508092.300000

>ms2peaks
129.069700 17861.500000
131.085800 3112.900000
133.101300 5513.200000
142.077600 5236.400000
143.085900 6321.800000
157.101200 140968.600000
171.117000 7362.400000
175.111900 29152.700000
185.096100 95547.000000
197.132200 19584.400000
198.139700 5391.200000
203.106700 13626.100000
211.112200 7312.300000
212.155800 144609.100000
213.163400 5718.500000
225.127300 185875.700000
226.134800 16488.100000
227.179400 96713.600000
240.150900 366562.100000
245.152900 9175.400000
255.174200 750234.900000
273.185000 29716.500000

>ms2peaks
91.054200 5603.000000
115.053700 3625.100000
117.070000 5970.600000
128.062000 7731.600000
129.069900 75299.100000
131.085000 6255.800000
133.101400 6886.400000
142.077700 25621.900000
143.085400 13459.300000
156.093200 3945.400000
157.064200 18612.700000
157.101200 154654.800000
169.101500 6330.400000
170.108400 4748.600000
171.116600 10319.400000
175.110900 8554.400000
182.108200 5686.000000
183.116700 16844.300000
185.096100 54249.300000
197.132400 183775.700000
198.140400 13310.900000
210.104600 9901.000000
211.111800 30635.700000
212.155900 240082.000000
225.127300 489527.300000
226.136000 8227.000000
227.179100 39769.600000
239.142400 4071.700000
240.150700 162153.900000
255.174200 113544.000000

>ms2peaks
91.054000 6120.600000
115.054300 10085.000000
117.069700 7044.100000
128.062000 20517.700000
129.069900 98402.200000
131.085900 5970.100000
133.100800 3779.800000
141.069700 15018.100000
142.077700 61337.300000
143.085600 11749.700000
155.085600 44236.300000
156.093400 17833.400000
157.064400 15282.700000
157.101200 81101.900000
167.084800 11436.300000
168.093300 13452.100000
169.101100 34515.000000
170.109000 6079.300000
171.116900 9338.800000
182.109000 59702.300000
183.079600 8572.100000
183.117000 35249.500000
185.095900 16508.300000
195.080100 5011.100000
197.132500 358705.700000
198.140500 6052.400000
210.103900 47167.100000
211.111800 18891.600000
212.155900 86607.500000
215.106800 6279.500000
225.127400 351093.200000
227.179700 3414.200000
239.142100 4289.600000
240.151300 23032.500000
245.154300 2939.300000

>ms2peaks
157.101000 1494.700000
197.133100 1589.900000
255.174600 3235.300000
273.185000 1386612.900000

>ms2peaks
175.111400 2523.900000
197.133300 4140.400000
255.174200 159156.400000
273.185000 1184050.800000

>ms2peaks
157.101000 13933.400000
175.111700 25095.800000
185.096100 12905.300000
203.106500 8722.800000
212.156400 5525.300000
226.135200 12688.400000
227.179400 24438.800000
240.150700 58711.500000
245.152800 3754.500000
255.174400 834680.900000
273.184600 324631.000000

>ms2peaks
129.069600 8665.000000
131.085500 2713.500000
133.101000 2524.800000
142.077600 3557.700000
143.085400 2567.500000
147.080000 2241.500000
157.064700 5877.100000
157.101000 89787.700000
171.116700 3575.900000
175.111700 13559.200000
185.095900 48024.400000
197.132400 11084.000000
198.140500 5027.600000
203.106300 9966.100000
211.111600 11576.600000
212.155800 80031.000000
213.163500 2697.400000
225.127200 110791.600000
226.135100 23106.400000
227.179300 54035.200000
239.143500 3664.700000
240.150700 198241.100000
245.153200 6576.300000
255.174200 427087.400000
273.184800 18210.400000

>ms2peaks
117.070000 2877.500000
128.062200 3946.500000
129.069800 40146.000000
131.085500 3229.700000
142.077600 19157.700000
143.085400 6211.700000
155.085600 3224.900000
156.093100 2624.400000
157.064500 11272.700000
157.101100 87169.000000
169.101200 3782.800000
170.108900 3921.400000
171.116600 8212.300000
175.111900 4902.800000
182.108400 4219.000000
183.081000 2610.400000
183.116700 15304.500000
185.096000 32388.100000
197.132400 103857.400000
198.140100 11382.500000
210.104200 4455.100000
211.111700 27396.000000
212.155900 122936.300000
213.164100 2573.900000
215.106600 2642.200000
225.127300 276307.000000
226.135500 8110.000000
227.179200 21730.000000
239.143100 2687.900000
240.150700 90720.500000
245.153300 2398.300000
255.173900 60116.700000

>ms2peaks
91.054200 5428.100000
115.054200 5732.300000
117.069800 3907.800000
128.062100 8809.600000
129.069900 52177.600000
131.085600 3018.000000
133.101100 2094.800000
141.070000 9924.400000
142.077700 26103.200000
143.085500 7341.700000
147.080200 1241.900000
155.085600 27744.400000
156.093400 9111.200000
157.064800 6059.000000
157.101200 43542.900000
167.085600 5791.900000
168.093200 7359.300000
169.101200 17017.900000
170.109000 2175.000000
171.116800 3401.200000
182.109000 24296.100000
183.080300 3496.700000
183.116800 32300.100000
185.096200 3286.600000
195.080400 2129.000000
197.132600 200211.400000
198.140400 4735.500000
210.103900 26464.900000
211.111700 20965.300000
212.155900 47997.500000
215.106600 2499.800000
225.127400 182333.000000
226.135500 1448.500000
227.179700 3136.400000
239.143000 2161.100000
240.150800 12469.300000
255.174600 2381.600000

