>compound EA60873294
>parentmass 208.09679999999994
>ionization [M+H]+
>formula C11H13NO3
>rt 336.000000
>profile orbitrap
#smiles_iso CC(C)N(C1=CC=CC=C1)C(=O)C(=O)O
#smiles_can CC(C)N(C1=CC=CC=C1)C(=O)C(=O)O
#inchikey HYHJOUPYTUBFIX-UHFFFAOYSA-N
#pubchem_id 155385
#mb_accession EA066602,EA066603,EA066604,EA066605,EA066606,EA066607,EA066608,EA066609,EA066610,EA066611,EA066612,EA066613

>ms2peaks
77.038500 8642.700000
92.049400 32015.100000
120.044400 501278.100000
162.091300 282616.900000
166.049800 312224.200000
208.096700 422673.400000

>ms2peaks
77.038500 29500.900000
92.049500 181668.600000
105.044400 5271.100000
120.044400 702324.500000
162.091300 92824.000000
166.049800 168869.500000
208.096800 25276.800000

>ms2peaks
65.038400 5311.900000
77.038600 33582.800000
92.049500 223318.600000
105.044600 6409.000000
120.044400 583279.400000
162.091500 9950.400000
166.049900 17949.900000

>ms2peaks
53.038500 3779.700000
65.038500 10147.900000
77.038500 64093.400000
92.049400 257539.300000
95.049200 5249.500000
105.044600 16089.000000
120.044300 377566.800000

>ms2peaks
53.038500 8844.700000
65.038600 17680.300000
77.038600 115171.700000
92.049500 236740.300000
95.049400 17454.300000
105.044700 35990.800000
120.044400 147737.300000

>ms2peaks
53.038500 13095.400000
65.038500 16009.900000
77.038500 150888.700000
92.049400 169198.400000
95.049100 18074.100000
105.044700 51373.900000
120.044300 39267.200000

>ms2peaks
77.038600 3631.600000
92.049400 20541.500000
120.044400 267164.400000
162.091300 137171.900000
166.049800 158179.800000
208.096700 212513.400000

>ms2peaks
77.038600 11279.700000
92.049500 87474.400000
120.044400 360275.900000
162.091300 37909.500000
166.049800 81173.800000
208.096200 10891.600000

>ms2peaks
65.038600 1724.200000
77.038500 17211.700000
92.049500 105352.400000
95.049100 2119.700000
105.044800 3364.800000
120.044400 297192.300000
162.092000 3985.800000
166.050000 8841.700000

>ms2peaks
65.038600 5124.400000
77.038500 25924.900000
92.049400 109625.200000
105.044700 9099.400000
120.044300 161066.600000

>ms2peaks
53.038500 3411.600000
65.038500 4952.500000
77.038600 46482.000000
92.049400 95911.500000
95.049100 6684.100000
105.044700 16670.000000
120.044400 68276.500000

>ms2peaks
53.038500 3430.300000
65.038500 3466.200000
77.038500 58608.600000
92.049400 58050.700000
95.049000 5735.400000
105.044600 21837.700000
120.044300 12005.000000

