>compound EA60437500
>parentmass 276.07000000000005
>ionization [M+H]+
>formula C11H14FNO4S
>rt 360.000000
>profile orbitrap
#smiles_iso CC(C)N(C1=CC=C(C=C1)F)C(=O)CS(=O)(=O)O
#smiles_can CC(C)N(C1=CC=C(C=C1)F)C(=O)CS(=O)(=O)O
#inchikey SZCMHDLOUVZYST-UHFFFAOYSA-N
#pubchem_id 16212225
#mb_accession EA066302,EA066303,EA066304,EA066305,EA066306,EA066307,EA066308,EA066309,EA066310,EA066311,EA066312,EA066313

>ms2peaks
216.012600 9645.200000
234.023100 243542.500000
276.070300 655493.200000

>ms2peaks
112.055700 135620.800000
124.055900 5510.700000
152.050400 19311.000000
154.066200 21341.300000
216.012400 73348.100000
234.023000 493174.300000
276.069900 79575.900000

>ms2peaks
59.012800 4292.300000
109.044800 8166.700000
112.055800 297258.100000
124.055700 33553.800000
135.048000 12692.900000
152.050600 44087.500000
154.066300 19457.000000
216.012400 98291.300000
234.023200 80802.500000

>ms2peaks
109.044800 15209.400000
112.055700 248349.600000
124.055700 69985.800000
135.047800 52330.300000
154.066300 5162.900000
216.012100 27955.100000

>ms2peaks
92.049600 6951.600000
97.045200 6428.100000
109.045200 17182.200000
112.055800 175471.300000
123.035000 4653.800000
124.055700 63813.800000
135.048000 59939.100000
152.050700 5764.200000
216.012000 3422.700000

>ms2peaks
92.049400 15356.000000
97.044600 11169.000000
109.044800 17302.600000
112.055700 101036.700000
123.035400 13606.600000
124.055700 48605.400000
135.047900 48730.300000

>ms2peaks
112.055800 2729.100000
216.012800 3543.300000
234.023000 110473.000000
276.070000 289582.100000

>ms2peaks
112.055700 58116.300000
152.050700 6353.600000
154.066300 7476.900000
216.012500 27786.100000
234.023100 214976.000000
276.070000 36102.700000

>ms2peaks
59.012700 1972.800000
109.044800 2585.700000
112.055700 107653.200000
124.055700 16096.400000
135.047800 5568.300000
152.050600 19589.200000
154.066200 9193.500000
216.012500 38602.600000
234.023000 33866.700000

>ms2peaks
109.044800 3903.600000
112.055800 90141.600000
124.055700 26214.300000
135.047900 23180.800000
152.050500 8354.500000
216.012000 10545.800000
234.023700 2644.900000

>ms2peaks
92.049500 3460.900000
97.044700 2631.400000
109.044900 4649.900000
112.055700 71271.600000
124.055700 23640.000000
135.047900 23723.000000

>ms2peaks
79.017700 1192.000000
79.018200 1208.300000
92.049500 5605.800000
97.044800 6359.200000
109.044800 5800.600000
112.055700 35459.900000
123.035200 4466.000000
124.055600 14376.500000
135.047800 14911.900000

