>compound EA60665897
>parentmass 125.03790000000002
>ionization [M+H]+
>formula C2H8N2O2S
>rt 66.000000
>profile orbitrap
#smiles_iso CN(C)S(=O)(=O)N
#smiles_can CN(C)S(=O)(=O)N
#inchikey QMHAHUAQAJVBIW-UHFFFAOYSA-N
#pubchem_id 134472
#mb_accession EA034102,EA034103,EA034104,EA034105,EA034106,EA034107,EA034108,EA034109,EA034110,EA034111,EA034112,EA034113

>ms2peaks
108.011300 504979.500000
125.037900 1135154.700000

>ms2peaks
108.011400 877255.000000
125.038000 959299.500000

>ms2peaks
79.980000 9134.600000
108.011400 841259.200000
125.037900 327586.900000

>ms2peaks
79.980000 20072.100000
108.011400 593306.000000
125.037900 76182.900000

>ms2peaks
79.980000 35504.000000
108.011300 272196.400000
125.037600 10202.100000

>ms2peaks
79.980000 44686.300000
108.011300 78139.800000

>ms2peaks
108.011300 446328.000000
125.037900 1001070.400000

>ms2peaks
108.011400 721989.500000
125.037900 785504.100000

>ms2peaks
79.980100 5735.200000
108.011300 715184.400000
125.037800 263259.100000

>ms2peaks
79.980000 18998.100000
108.011300 463139.000000
125.037800 52563.300000

>ms2peaks
79.980100 25468.000000
108.011300 191145.500000
125.037400 4712.900000

>ms2peaks
79.980100 30377.900000
108.011400 58391.700000
125.038300 3755.000000

