>compound EA60067302
>parentmass 332.1405
>ionization [M+H]+
>formula C17H18FN3O3
>rt 270.000000
>profile orbitrap
#smiles_iso C1CC1N2C=C(C(=O)C3=CC(=C(C=C32)N4CCNCC4)F)C(=O)O
#smiles_can C1CC1N2C=C(C(=O)C3=CC(=C(C=C32)N4CCNCC4)F)C(=O)O
#inchikey MYSWGUAQZAJSOK-UHFFFAOYSA-N
#pubchem_id 2764
#mb_accession EA027602,EA027603,EA027604,EA027605,EA027606,EA027607,EA027608,EA027609,EA027610,EA027611,EA027612,EA027613

>ms2peaks
332.140500 24446524.400000

>ms2peaks
204.069000 21983.100000
205.077700 22254.200000
231.092900 93665.000000
245.108800 998047.800000
260.155600 13009.100000
268.145100 237130.100000
286.136000 77880.300000
288.151100 7329530.100000
289.098800 14280.500000
314.130400 8195123.600000
332.141100 11663939.400000

>ms2peaks
70.065300 82658.200000
135.048600 25003.100000
136.055600 22272.900000
163.066800 33822.400000
176.073800 24998.900000
189.046500 26325.900000
189.082900 37161.100000
191.061800 153856.900000
192.069100 22126.700000
198.066000 40084.900000
199.074900 14934.000000
203.061900 226859.100000
204.069800 446608.200000
205.077500 407468.500000
212.081100 28200.600000
213.102600 11904.800000
216.069500 21806.700000
217.078200 89192.600000
217.113800 54180.000000
218.085100 87686.700000
219.093000 101325.600000
225.103000 29418.100000
226.098400 41480.800000
227.107900 64773.800000
229.077700 33153.600000
230.085600 40142.500000
231.056700 942947.500000
231.093100 535820.600000
239.106400 45048.400000
240.112600 52180.800000
243.092900 20128.600000
245.109000 4081624.000000
252.112900 11059.900000
257.108300 25330.200000
260.119500 20947.800000
260.154900 19460.600000
266.129500 15763.600000
268.144700 593360.700000
271.088100 54319.400000
271.124500 49535.700000
272.082900 26056.900000
272.119200 22714.000000
273.091400 101180.700000
286.135400 211009.800000
288.151000 2519916.100000
289.098200 23572.600000
294.123700 260926.900000
312.133100 58859.400000
314.130300 9301194.900000
332.140700 3075823.500000

>ms2peaks
56.049600 16234.100000
58.065100 13593.400000
70.065200 78128.900000
135.047900 68617.600000
136.055700 119122.600000
148.055600 34573.600000
150.071800 20045.600000
151.066600 23688.300000
156.068400 13369.100000
156.080200 17806.200000
161.050400 18898.800000
162.071800 22093.400000
163.067200 59363.800000
169.076100 45013.600000
174.059300 29048.900000
174.071400 32853.800000
175.066900 47349.800000
175.078900 37703.000000
176.050200 24702.300000
176.074500 130870.500000
177.057300 16298.400000
178.053900 47172.300000
182.083500 19007.800000
183.091400 22271.500000
184.063700 63507.400000
187.067100 34393.000000
188.050900 13377.200000
188.075300 13949.700000
189.045800 263723.900000
189.082500 110706.700000
190.054400 33017.800000
191.061600 254570.800000
197.071400 19833.400000
197.107500 19515.600000
201.082800 23735.700000
202.090800 40467.900000
203.061700 775169.500000
204.069600 852626.200000
205.077300 633331.800000
212.082000 30986.500000
212.118500 12955.900000
215.061600 91571.300000
215.097800 26042.100000
216.070000 69043.500000
216.106100 22211.900000
217.041100 43477.200000
217.078000 186871.800000
217.113300 66169.400000
218.048900 77072.900000
218.085300 72907.000000
219.092700 61125.000000
225.054500 39485.600000
226.098100 46756.400000
229.077100 125467.600000
230.049600 18808.200000
231.056600 7888249.400000
231.093200 496942.200000
235.063500 30723.000000
238.097100 54356.500000
238.133200 16227.200000
239.105600 24714.600000
240.112500 42567.800000
243.056300 39297.600000
243.092500 48297.700000
245.108700 2019231.800000
248.083500 21848.900000
249.067100 73840.100000
252.113800 31186.200000
253.084400 47673.200000
257.072900 15307.100000
257.108400 36912.400000
258.067100 15657.200000
258.139900 22032.200000
260.120000 14084.500000
266.092700 57080.200000
266.129700 40592.300000
268.145200 75135.500000
270.140500 12955.100000
271.086500 50736.500000
272.083100 86409.000000
272.119700 87465.900000
273.090800 122104.200000
274.098200 12524.800000
286.134800 73529.200000
288.151500 134790.900000
294.123700 458920.900000
312.133300 96468.700000
314.129900 3395628.800000
332.140700 993540.200000

>ms2peaks
56.049400 10682.300000
70.065300 53049.900000
109.045200 31264.600000
115.054500 11973.300000
116.049600 70776.700000
117.056900 10739.800000
128.049100 9600.300000
128.062400 16912.800000
129.070500 17139.200000
130.065100 25293.000000
131.060700 22481.700000
134.040100 22135.800000
134.060700 11287.000000
135.048000 113887.000000
136.055800 139159.800000
141.056900 10074.000000
142.064800 31444.700000
143.060400 15125.500000
148.055800 139528.800000
149.051300 16488.300000
150.071400 19704.000000
154.065200 49871.200000
155.060700 46070.800000
155.073700 24441.200000
156.068300 65306.600000
156.081100 34930.500000
160.056400 11216.900000
161.051400 34218.200000
162.035100 40802.900000
162.058400 11223.700000
162.070800 31282.700000
163.043100 22068.300000
163.066900 71705.800000
164.050900 16215.800000
167.060900 9572.900000
168.068200 15388.000000
169.076100 82561.600000
171.055200 12337.900000
172.055800 42092.600000
173.064200 20365.700000
174.058600 60852.400000
174.071700 100052.900000
175.066700 110048.400000
175.078900 43735.400000
176.050900 50352.900000
176.074500 276198.800000
177.045600 12588.600000
177.057300 19932.200000
177.082800 13650.200000
178.054000 55887.700000
179.061600 20121.400000
180.045700 14414.200000
182.083800 65574.000000
183.068700 19883.500000
183.091800 32419.900000
184.063700 69723.000000
185.070700 45685.800000
186.071800 9993.700000
187.066800 96372.600000
188.050100 51735.900000
188.074900 36178.400000
189.046000 509969.300000
189.082600 128852.700000
190.053600 54829.900000
190.090700 15490.100000
191.061600 232394.300000
195.091600 26117.500000
197.071100 33049.200000
197.107000 9369.100000
200.050900 14796.500000
201.057800 34087.700000
201.082500 88158.900000
202.030300 13042.900000
202.065300 119501.400000
202.089900 50657.500000
203.061800 1016724.200000
204.069600 362123.600000
205.077300 469003.400000
210.080900 9588.500000
210.103300 9926.600000
215.026000 37547.500000
215.061700 91287.800000
215.098300 68017.200000
216.032300 24730.100000
216.070400 45846.900000
216.106200 28532.400000
217.040700 45017.300000
217.078100 120665.400000
217.113300 30890.300000
218.048400 86348.200000
218.086000 30949.900000
219.092500 22350.400000
223.087300 12991.700000
224.046100 42510.400000
224.082200 18811.500000
225.055600 30629.400000
225.101300 37751.000000
226.097900 23545.000000
227.098500 25588.600000
229.039600 14077.000000
229.077100 156109.600000
231.056700 9298116.900000
235.063900 34422.400000
238.097300 38079.100000
238.133700 11555.900000
240.112400 14503.600000
243.056400 38869.200000
243.092700 45371.300000
245.108700 256058.700000
249.066800 99722.000000
253.083400 16502.700000
257.072000 23352.500000
260.119600 11290.000000
266.092600 44501.200000
266.128100 25104.200000
272.083500 17393.200000
272.119400 23729.600000
273.093100 10203.800000
274.097300 10000.900000
288.162300 33381.400000
294.124300 57089.000000
332.140300 68857.700000

>ms2peaks
56.049500 14545.300000
58.065200 10205.600000
65.038700 7303.900000
70.065300 34300.100000
89.038700 28550.400000
109.044900 81562.700000
110.040300 9993.600000
115.054300 39682.100000
116.049600 123601.800000
117.057200 25608.300000
121.044900 14289.400000
122.040100 28174.900000
124.055800 20342.300000
128.049600 52595.700000
128.062500 34075.100000
129.056800 10954.800000
130.065200 45347.600000
131.060200 22804.400000
132.024300 17814.300000
133.044900 27611.600000
134.040100 91245.000000
134.059700 26114.000000
135.047900 179521.900000
136.055800 196313.700000
137.064100 22844.700000
141.057200 23934.600000
142.065800 32162.700000
143.060200 36812.900000
144.044600 15199.300000
144.055700 29638.600000
146.040100 27131.500000
146.053300 10217.400000
147.048400 31148.100000
147.061000 16320.300000
148.055800 546802.600000
149.051300 25325.100000
150.035000 14267.300000
150.059500 10434.500000
151.043400 14163.700000
151.067300 17515.300000
152.050400 33978.200000
154.065300 105575.300000
155.060500 221668.200000
156.044500 17005.300000
156.068300 100830.600000
156.080200 21809.800000
157.075700 22306.200000
158.060000 8940.100000
160.056200 26998.900000
161.027300 64123.900000
161.051200 59578.200000
162.035200 198429.800000
162.058700 38716.100000
162.071800 34726.000000
163.042900 36557.200000
163.066700 110205.100000
164.051000 43098.600000
167.060700 13592.100000
167.073400 6865.900000
168.068100 26195.600000
169.053300 18217.600000
169.076300 92773.900000
170.060100 14561.900000
172.055800 85392.200000
173.050100 24383.200000
173.063600 60029.700000
174.034700 45658.800000
174.058700 148653.300000
174.071600 136541.000000
175.030000 44930.200000
175.043600 22785.900000
175.066800 286995.600000
176.050800 67756.600000
176.074500 230896.200000
177.045900 16063.300000
178.054300 36333.300000
179.061300 53730.200000
180.045400 57644.800000
181.076200 29675.800000
182.083800 43511.800000
183.055500 25785.500000
184.063400 45631.400000
185.071700 59749.300000
186.035200 14955.000000
187.030100 35897.900000
187.066700 152713.400000
188.014600 29873.400000
188.038200 340011.500000
188.074400 23369.000000
189.046000 454749.800000
189.082500 80221.700000
191.061600 138784.400000
195.032100 16625.000000
195.091600 20378.100000
197.070300 18301.300000
198.065300 9592.500000
199.066100 12954.800000
200.051200 25189.300000
200.074500 20005.500000
201.082400 106926.400000
202.029500 21440.100000
202.065700 82890.300000
202.090900 22426.700000
203.061700 1201646.700000
204.069700 70431.100000
205.077300 208061.000000
209.070600 19996.400000
215.025400 67298.000000
215.061600 72703.600000
215.097700 55686.700000
216.033100 108553.200000
216.070100 29925.400000
217.041200 38727.500000
218.048400 35153.300000
224.046400 39722.400000
224.082800 9714.100000
226.099600 11038.200000
229.040200 19694.300000
229.077400 88990.600000
231.056700 5742888.900000
238.097700 12941.400000
249.067300 70364.300000
252.076500 9178.200000
257.071800 18213.500000

>ms2peaks
288.150900 121015.600000
314.129300 221197.300000
332.140300 15786064.800000

>ms2peaks
203.062000 10294.000000
204.069000 14182.900000
205.077400 12975.300000
219.092400 9948.300000
231.056400 25760.100000
231.093000 48672.800000
240.113600 6321.000000
245.108600 568459.800000
268.144500 165473.700000
271.087900 6583.900000
271.123000 8153.800000
286.135300 51149.600000
288.150900 3926359.300000
289.098100 12012.400000
314.130200 4846253.000000
332.140600 6033045.900000

>ms2peaks
70.065200 42775.800000
135.048100 12517.700000
136.055700 13312.200000
151.066300 6272.500000
163.067000 14964.000000
176.074500 9835.100000
178.054500 8435.200000
189.045800 14763.200000
189.082600 16827.000000
190.053000 6244.400000
191.061700 78569.200000
192.069200 14529.000000
198.066000 26485.300000
202.053600 11943.400000
202.066800 7673.400000
203.061600 152849.700000
203.097900 16877.700000
204.069500 263870.700000
205.077300 237241.600000
212.081800 24294.700000
213.102000 11749.500000
216.069600 13333.400000
217.077300 49455.700000
217.090600 13102.500000
217.113700 30330.800000
218.048500 6376.900000
218.085300 48826.400000
219.092800 56753.500000
225.102200 15950.800000
226.097700 22487.900000
227.105000 47226.200000
229.077700 22518.900000
230.085000 20022.400000
231.056700 537548.700000
231.092900 326907.300000
232.100900 19678.200000
235.064200 6434.400000
238.097200 7112.500000
239.105300 20586.900000
240.113400 32724.100000
243.092800 15761.900000
245.108800 2294910.200000
257.108500 10790.000000
260.119900 9516.400000
260.155100 13390.100000
266.129400 7158.000000
268.144600 311373.500000
271.087700 43219.700000
271.124000 23110.600000
272.083900 12787.600000
272.119900 16544.300000
273.090900 48212.200000
286.135100 127255.000000
288.150800 1446146.400000
289.098300 17423.500000
294.123700 149102.600000
312.134600 32269.600000
314.129900 5663208.900000
332.140800 1946424.300000

>ms2peaks
56.049500 7265.100000
58.065200 6646.600000
70.065200 41183.200000
116.049600 11155.600000
131.060300 6931.100000
135.047900 45223.300000
136.055800 51051.500000
148.055900 11151.400000
150.071300 10172.900000
151.066900 8187.800000
154.065500 5248.800000
155.060300 8689.500000
156.068400 10241.100000
156.080700 7068.800000
161.051100 12612.000000
161.063400 6678.500000
162.034600 7548.600000
162.071400 10753.200000
163.042500 7126.000000
163.066800 33567.400000
169.076200 20606.400000
172.055300 7314.000000
174.059000 16071.000000
174.071600 7353.700000
175.066800 23162.600000
175.079300 16609.000000
176.050900 17998.000000
176.074500 69053.400000
177.057900 5338.300000
177.082100 6780.700000
178.054000 24631.900000
179.061200 6320.500000
182.084200 10936.300000
183.068600 5600.300000
183.091700 14913.100000
184.063400 33353.900000
184.075800 11147.300000
185.070600 12125.200000
186.071800 6918.900000
187.066800 18676.600000
188.050600 11104.600000
188.074400 5195.400000
189.046000 150372.500000
189.082400 69271.500000
190.053800 16703.300000
190.090400 10684.900000
191.061600 141321.400000
192.069400 12087.500000
195.032300 5862.500000
197.071100 18583.400000
197.107400 12173.200000
198.066100 11808.800000
199.073900 9987.000000
200.049700 4814.600000
201.058400 10640.200000
201.082600 16499.000000
202.054000 19034.500000
202.066500 40096.200000
202.090200 19363.400000
203.061700 408864.400000
203.098300 32691.900000
204.069500 487060.100000
205.077300 336044.400000
207.091500 5048.700000
210.079600 5913.500000
210.103200 6791.000000
212.082000 24815.200000
212.117300 4818.000000
215.061700 30179.100000
215.098200 24426.200000
216.069700 36221.800000
216.105500 13302.700000
217.041000 24384.000000
217.077400 93780.100000
217.089900 23391.300000
217.113800 54304.700000
218.049000 41902.200000
218.085200 46120.500000
219.092800 34203.700000
222.102800 6102.000000
224.082700 4609.700000
225.053700 13633.300000
225.065600 8973.500000
225.102400 43429.100000
226.097600 27461.700000
229.040600 6974.000000
229.077300 71496.900000
230.049000 9555.400000
230.085100 26163.300000
231.056700 4143637.500000
231.092400 288168.400000
232.099500 9725.800000
235.064000 24696.200000
238.097600 27131.200000
238.134500 10354.800000
239.105500 8832.600000
240.112900 16195.300000
243.056600 32906.900000
243.092800 32471.800000
245.108600 1116653.600000
248.083300 7439.600000
249.067100 48925.200000
252.113000 11694.100000
253.084900 21288.400000
257.072500 7964.600000
257.108700 23913.100000
258.067900 8046.100000
258.140700 9601.800000
260.119100 11243.000000
266.092300 23403.800000
266.129100 21413.200000
268.144900 45879.900000
270.139900 6173.700000
271.087600 29030.100000
272.083100 49838.600000
272.119500 43165.300000
273.090900 67324.200000
286.135100 49028.300000
288.151300 72341.000000
289.099400 6120.200000
294.123600 228518.300000
312.134400 61769.400000
314.130200 1824704.100000
332.140800 555224.800000

>ms2peaks
56.049600 8074.600000
70.065200 26259.600000
109.044900 17668.700000
115.054300 5829.400000
116.049700 30497.000000
117.057400 5576.800000
122.040400 5558.100000
128.062200 8386.400000
129.070000 7873.000000
130.065300 10729.200000
131.060600 11494.300000
133.045300 5678.600000
134.040200 10748.200000
135.048100 64636.400000
136.055900 77200.000000
137.063400 10340.100000
141.057600 6537.900000
142.065300 10768.400000
144.055500 7438.600000
146.040200 7431.700000
147.048100 5584.200000
147.060800 8127.600000
148.055900 64748.300000
149.051100 6987.200000
150.071400 9567.300000
151.067000 7541.800000
154.065200 27543.700000
155.060600 23448.500000
155.073200 14283.000000
156.068400 33703.500000
156.081000 14301.300000
157.076400 8987.100000
160.055800 7799.200000
161.051400 15487.100000
161.063800 13317.900000
162.035100 27907.200000
162.059000 10934.200000
162.071500 24471.200000
163.043000 10920.700000
163.066800 30348.800000
164.050700 9206.800000
169.076200 39272.000000
172.056100 18685.700000
173.063700 15133.900000
174.058900 35604.000000
174.071500 50311.300000
175.066800 59489.200000
175.079300 26976.100000
176.050900 34628.000000
176.074600 134881.000000
177.058700 9104.800000
177.082500 7842.000000
178.053900 27819.400000
179.061900 9321.500000
180.045200 5714.200000
181.076400 8852.600000
182.084000 23341.700000
183.067900 7196.400000
183.091900 11412.700000
184.063400 35575.200000
184.075900 13799.100000
185.071000 22039.800000
186.071400 5757.700000
187.066800 54708.400000
188.038100 10472.100000
188.051000 22282.400000
188.074600 18311.200000
189.046100 271127.800000
189.082500 64280.700000
190.053900 29461.500000
190.066400 8263.800000
190.090300 5729.600000
191.061700 118406.100000
193.076200 5263.900000
195.091800 9303.400000
197.071100 14364.400000
198.066300 10708.000000
200.075100 6701.100000
201.059000 16455.000000
201.082500 50263.200000
202.030000 8914.500000
202.053800 21433.300000
202.066500 53792.200000
202.090300 26260.100000
203.061800 516166.700000
204.069600 165407.700000
205.077400 239350.900000
209.071400 7692.500000
212.081600 10986.300000
215.025300 17987.800000
215.061800 50580.300000
215.098100 34500.700000
216.033100 13337.600000
216.069500 31060.900000
216.105700 19591.800000
217.041100 26744.300000
217.077500 52774.700000
217.089700 8995.400000
217.113700 17748.100000
218.048900 44794.200000
218.085200 8980.000000
219.092800 13104.000000
220.065000 6008.500000
223.086500 6229.100000
224.046000 15511.200000
224.082200 6973.200000
225.053700 16487.200000
225.065600 12087.600000
225.102300 13058.400000
226.097300 11844.600000
227.098400 15526.700000
229.077400 87536.600000
230.049000 10746.700000
230.084400 9254.000000
231.056600 5214816.100000
235.064100 16985.900000
238.097500 18433.700000
243.056700 12159.100000
243.093300 30073.600000
245.108700 137042.700000
249.067400 60918.400000
252.076800 8361.300000
252.113600 5761.600000
253.085600 9021.500000
257.109700 6770.100000
266.092900 20713.000000
271.086500 7831.900000
272.083000 9585.300000
272.119800 14937.700000
274.099200 5982.300000
286.135300 11321.300000
294.123600 31154.300000
312.134500 10374.900000
314.130000 118548.000000
332.140300 38799.300000

>ms2peaks
56.049500 4695.100000
65.038700 4994.100000
70.065300 13392.700000
89.038800 9603.500000
109.044900 43078.700000
110.040300 5684.600000
115.054300 14435.500000
116.049500 64217.000000
117.057400 12601.400000
121.044800 4781.600000
122.040100 12905.300000
124.055600 8311.500000
128.049600 32500.000000
128.062200 17565.300000
129.057100 7322.700000
129.070000 8186.400000
130.065200 23762.100000
131.060500 19401.900000
132.024400 7820.300000
133.044900 17440.700000
134.040100 54947.100000
134.060000 14509.100000
135.048000 109163.000000
136.055800 100080.700000
137.063500 15378.000000
141.057400 12736.000000
142.065200 18144.000000
143.060400 17614.200000
144.044500 5966.900000
144.055900 10270.800000
146.040100 12869.100000
146.052700 10208.000000
147.048000 15091.700000
147.060700 8277.900000
148.055800 350810.700000
149.051100 11217.400000
149.063800 8907.200000
150.035100 8232.600000
150.058700 11067.200000
150.071000 4831.300000
151.043100 8504.500000
151.066700 16285.300000
152.050500 20380.500000
154.065300 44046.200000
155.060500 114674.800000
155.072700 14108.500000
156.044800 6231.000000
156.068300 55444.200000
156.081000 14325.300000
157.076000 12800.100000
158.059700 4649.700000
159.048000 9144.100000
160.055900 17351.700000
161.027100 35517.000000
161.051000 27020.300000
161.063500 17527.700000
162.035100 106996.600000
162.058900 19088.400000
162.071600 14929.100000
163.042900 18507.200000
163.066700 53524.300000
164.050800 25522.500000
167.060500 13214.600000
167.072700 5632.900000
168.068400 17072.800000
168.080900 5354.100000
169.053100 6706.700000
169.076100 45030.700000
170.060600 5260.000000
171.055700 4305.700000
172.055800 44774.700000
173.051000 19778.200000
173.063700 30792.300000
174.035300 28039.500000
174.058900 81453.500000
174.071500 81828.000000
175.030200 21658.100000
175.043000 7786.500000
175.066700 151739.600000
175.079200 12807.800000
176.050900 39246.200000
176.074500 131026.800000
177.045600 6039.600000
177.058800 10945.600000
177.082400 5611.000000
178.053900 26217.400000
178.066000 7701.300000
179.061500 24760.200000
180.045500 21720.700000
181.076200 17433.700000
182.060500 7509.800000
182.083800 21162.600000
183.055300 10781.900000
183.067800 8584.800000
183.091900 4172.000000
184.063100 23652.000000
184.074800 6057.300000
185.071000 25727.500000
186.034700 8357.000000
186.058500 7296.900000
186.071800 11461.600000
187.030200 24617.200000
187.043300 9962.100000
187.066800 95973.500000
188.014300 11012.400000
188.038200 185979.800000
188.050400 23535.800000
188.075000 12135.200000
189.046000 222410.200000
189.082500 39398.400000
190.053600 19948.600000
191.061600 76503.600000
193.075600 6586.700000
195.032700 9712.200000
195.091500 7938.100000
196.100200 3877.400000
197.070700 9224.600000
200.050900 12639.700000
200.074400 14643.400000
201.058600 22765.400000
201.082400 55393.500000
202.030100 13793.500000
202.053900 14829.300000
202.066400 36166.500000
202.089800 13381.400000
203.061700 657862.000000
204.069400 29553.600000
205.077300 116302.600000
209.071200 11647.700000
209.094000 4339.000000
215.025300 45105.600000
215.061600 55235.900000
215.098200 34076.400000
216.033000 58399.700000
216.069400 13328.600000
217.040900 31360.700000
217.077100 19729.300000
218.048900 21247.900000
220.064300 4219.200000
223.086300 6699.900000
224.045700 19168.600000
226.097900 6090.300000
227.097200 4350.500000
229.039600 6382.700000
229.077200 56124.500000
231.056700 3199169.600000
235.064700 7341.300000
243.056300 4847.800000
243.093200 15155.500000
245.108700 10901.100000
249.067200 37340.600000
257.071600 8140.200000
288.162800 5255.000000

