>compound EA60928249
>parentmass 229.0859
>ionization [M+H]+
>formula C14H12O3
>rt 726.000000
>profile orbitrap
#smiles_iso COC1=CC(=C(C=C1)C(=O)C2=CC=CC=C2)O
#smiles_can COC1=CC(=C(C=C1)C(=O)C2=CC=CC=C2)O
#inchikey DXGLGDHPHMLXJC-UHFFFAOYSA-N
#pubchem_id 4632
#mb_accession EA023002,EA023003,EA023004,EA023005,EA023006,EA023007,EA023008,EA023009,EA023010,EA023011,EA023012,EA023013

>ms2peaks
105.033500 313759.100000
151.038800 840606.200000
229.085900 91228791.800000

>ms2peaks
105.033500 9446928.300000
151.039000 24570463.600000
229.086100 79513645.700000

>ms2peaks
53.038600 143263.000000
77.038600 332292.900000
95.049300 128087.200000
105.033500 26929950.600000
151.039000 64032094.900000
229.085800 15417035.300000

>ms2peaks
53.038600 318405.900000
68.997400 101410.700000
77.038600 842350.400000
81.033200 92912.700000
95.049200 2538092.000000
105.033500 29229424.000000
108.020800 357792.700000
123.044100 727439.900000
136.016100 68418.900000
151.039000 66917550.600000
168.056700 223260.700000

>ms2peaks
53.038600 979076.900000
55.017800 110604.600000
65.038600 530358.900000
67.054300 387661.200000
68.997100 195160.000000
77.038600 2179062.600000
79.017700 72496.000000
80.025700 247294.900000
81.033500 290732.300000
93.033400 77800.800000
95.049200 11136864.300000
105.033500 19852486.500000
105.044900 2097282.600000
108.020600 2035371.500000
110.036600 86476.200000
111.044100 86957.300000
121.039600 276191.100000
123.044200 1704583.900000
136.015500 278424.500000
140.062100 171599.200000
141.054400 124576.700000
151.039000 47366541.900000
168.056800 439812.300000

>ms2peaks
51.022900 144176.800000
52.030800 133032.100000
53.038600 1515536.800000
55.017800 197983.000000
65.038600 1277636.100000
67.054200 831514.100000
68.997200 330630.900000
77.038600 3340245.600000
79.017900 51033.900000
80.025700 480573.600000
81.033600 320227.700000
93.033500 127363.500000
95.049200 15502719.500000
98.036200 159502.300000
105.033500 9730930.800000
105.044800 3043268.500000
108.020600 4626044.100000
110.036300 89843.500000
111.043900 125888.900000
121.039700 327179.400000
123.044200 1592248.700000
136.015600 301577.600000
139.054500 100355.300000
140.062000 320770.100000
141.054400 148086.700000
151.039000 22923107.600000
152.062400 123384.400000
168.057300 410498.500000

>ms2peaks
105.033300 205478.900000
151.039000 832676.400000
229.085800 90694089.100000

>ms2peaks
105.033500 9346399.700000
151.039000 25584553.800000
229.085900 82738761.000000

>ms2peaks
53.038500 70828.700000
77.038500 260193.600000
95.049200 105745.700000
105.033500 27747344.600000
151.039000 65578818.200000
211.075700 95759.600000
229.085800 16055190.500000

>ms2peaks
53.038500 312393.600000
77.038500 826761.300000
95.049100 1986636.800000
105.033500 24906152.400000
108.020600 227042.100000
123.044100 547403.200000
136.015100 73327.000000
151.038900 58984558.400000
168.057000 179530.400000
229.085800 916209.900000

>ms2peaks
51.022800 61924.400000
53.038500 872711.100000
55.017700 64752.700000
65.038500 378818.700000
67.054200 360914.300000
68.997100 158232.600000
77.038600 1794417.000000
79.017900 47723.200000
80.025700 155038.900000
81.033500 169781.100000
93.033400 72781.100000
95.049100 9402078.300000
105.033500 17343677.600000
105.044600 1641766.000000
108.020600 1667998.000000
110.035700 74109.700000
121.039600 174848.200000
123.044100 1541033.900000
136.015500 214075.300000
140.062100 70236.000000
141.054400 122170.300000
151.038900 41645130.300000
152.062000 65023.600000
168.057100 327714.100000

>ms2peaks
51.022900 82730.400000
52.030700 76307.300000
53.038500 1318609.900000
55.017800 179728.200000
65.038600 1095915.900000
67.054200 661080.600000
68.997100 241288.300000
77.038600 3052055.400000
79.017700 45787.700000
80.025600 320360.000000
81.033400 256970.500000
93.033400 143678.600000
95.049100 14470794.400000
98.036200 112039.900000
105.033500 8807820.000000
105.044600 2675157.500000
108.020500 4422584.800000
111.044000 104924.400000
121.039600 279259.700000
123.044100 1483330.600000
136.015300 290143.000000
139.054200 113154.600000
140.062000 283538.300000
141.054600 128340.500000
151.038900 19706938.000000
152.062300 114787.100000
168.057000 340888.800000

