>compound EA62471834
>parentmass 455.2903999999999
>ionization [M+H]+
>formula C27H38N2O4
>rt 438.000000
>profile orbitrap
#smiles_iso CC(C)C(CCCN(C)CCC1=CC(=C(C=C1)OC)OC)(C#N)C2=CC(=C(C=C2)OC)OC
#smiles_can CC(C)C(CCCN(C)CCC1=CC(=C(C=C1)OC)OC)(C#N)C2=CC(=C(C=C2)OC)OC
#inchikey SGTNSNPWRIOYBX-UHFFFAOYSA-N
#pubchem_id 2520
#mb_accession EA067402,EA067403,EA067404,EA067405,EA067406,EA067407,EA067408,EA067409,EA067410,EA067411,EA067412,EA067413

>ms2
150.066900 18560.900000
455.291000 3637532.000000

>ms2
150.067500 96036.000000
165.091100 2763437.300000
260.164500 100220.600000
261.160600 31861.900000
264.196700 16222.800000
303.206700 933760.700000
455.290700 1994710.400000

>ms2
58.065100 55556.600000
86.096600 16085.800000
105.069800 67073.800000
122.096700 44031.900000
133.065000 58803.900000
134.072900 43305.400000
135.043800 33032.600000
135.080600 52270.100000
136.051300 13286.400000
139.075000 13201.000000
150.067600 617382.100000
151.075400 97912.500000
165.091300 4637995.000000
177.091000 87068.700000
218.117900 48768.000000
243.138300 30389.300000
245.141500 24425.600000
260.164600 361435.800000
261.159900 135340.000000
303.206800 700443.400000

>ms2
58.065200 87533.800000
77.038400 14816.900000
79.054200 69311.100000
84.080600 25642.300000
86.096300 11660.900000
91.054400 24697.900000
95.085600 10982.300000
96.080700 17854.500000
103.054200 66886.500000
104.062300 11828.700000
105.069900 358362.800000
107.049300 36126.600000
118.041400 39130.300000
119.049200 39524.700000
120.057000 52912.200000
121.064900 78009.800000
122.072800 29794.800000
122.096600 40715.700000
124.052400 17020.500000
131.048800 13003.900000
133.064900 247952.100000
134.072700 221726.800000
135.044100 124724.000000
135.080500 144534.500000
136.051600 32631.400000
137.060100 24419.600000
138.068100 34301.300000
139.075100 23494.600000
146.072300 11674.800000
149.060100 24967.700000
150.067600 1214994.300000
151.075300 183799.900000
152.083300 27998.700000
165.091100 2267969.500000
177.090900 121860.700000
179.106500 8835.100000
187.099000 27350.300000
191.106800 23726.200000
194.117900 9341.000000
202.086700 25983.300000
203.093400 18045.000000
217.110100 29772.900000
218.117600 59150.500000
243.139000 12500.400000
260.164600 78994.000000
261.159900 45049.500000
303.207200 39307.300000

>ms2
58.065100 79483.100000
77.038600 35758.400000
79.054200 187489.000000
84.080800 31920.200000
86.096500 14610.100000
91.054300 95434.800000
92.061800 16069.300000
93.069700 19280.300000
96.080500 9711.600000
103.054300 207286.300000
104.062100 51616.400000
105.070000 427054.200000
107.049200 155429.000000
108.057300 10074.100000
118.041400 98095.800000
119.049300 91956.400000
120.057000 83097.600000
121.064900 233920.800000
122.072500 65874.300000
124.051800 23436.900000
131.049100 45596.200000
132.056700 14936.900000
133.064900 245895.300000
134.072700 371084.900000
135.044100 326827.700000
135.080700 81577.100000
136.051700 22365.300000
137.059700 37837.900000
138.067500 43701.800000
139.075100 12350.500000
146.072300 30511.200000
149.059400 56882.700000
150.067600 1014139.800000
151.075400 147238.500000
152.083000 17058.200000
164.083100 15060.200000
165.091100 668806.300000
172.075200 15146.900000
174.090600 14207.700000
176.070100 27860.400000
177.091000 58726.500000
191.106100 19577.300000
217.108700 10058.900000
218.117100 19168.600000

>ms2
58.065200 64053.300000
66.046300 9157.500000
77.038700 85881.900000
78.046400 32069.300000
79.054300 319447.900000
84.080900 49926.000000
90.046400 31276.000000
91.054300 234532.300000
92.062300 36835.700000
93.069900 39526.900000
95.049100 19989.800000
102.046500 12007.800000
103.054300 254114.700000
104.062100 81210.700000
105.033700 29686.200000
105.044400 25337.600000
105.069900 242840.400000
107.049200 288859.100000
108.057500 11928.800000
109.064700 30042.200000
118.041500 98527.900000
119.049300 168097.300000
120.057000 95509.400000
121.064900 286895.400000
122.072800 52550.000000
124.052300 12822.000000
131.049300 62075.000000
132.057100 11967.900000
133.064900 113705.500000
134.072700 334787.400000
135.044200 403607.800000
135.080900 30551.100000
136.051800 26615.800000
137.059400 37848.000000
138.068000 32022.200000
146.072900 24477.100000
149.059900 78207.200000
150.067600 429026.800000
151.075300 77003.400000
152.083300 12688.800000
164.083700 13529.100000
165.091200 118343.100000
174.091700 14956.000000
176.070900 15580.100000
202.087100 14061.900000

>ms2
455.290700 2765360.700000

>ms2
150.067700 53700.900000
165.091200 2044823.200000
260.164600 57760.400000
261.160000 16961.200000
264.196500 13828.900000
303.206800 595394.800000
455.290600 1406416.900000

>ms2
58.065100 37164.800000
79.054300 7160.100000
86.096600 12002.500000
95.085600 5593.400000
96.080900 8827.400000
103.054200 6892.300000
105.069900 41727.700000
121.064800 6653.200000
122.096500 26148.600000
131.049100 7622.400000
133.065000 53578.300000
134.072800 13691.000000
135.044000 15602.200000
135.080500 38606.300000
136.052100 7434.200000
139.075500 13358.900000
149.059800 6634.300000
150.067600 449055.700000
151.075400 59428.800000
152.083100 6217.900000
164.083700 8887.400000
165.091200 3186458.200000
177.091100 63420.000000
194.117600 7482.600000
217.110400 10119.200000
218.117500 31302.400000
233.154700 10897.000000
243.138000 18234.700000
245.141700 10611.800000
260.164700 249140.000000
261.160000 106670.300000
303.206900 485158.500000
455.289900 13114.400000

>ms2
58.065200 59297.000000
77.038400 8535.900000
79.054300 52490.100000
84.080800 18859.400000
86.096700 7359.000000
91.054300 22032.400000
96.080900 12567.500000
103.054300 53127.200000
104.062100 7750.100000
105.070000 227156.200000
107.049400 22486.200000
109.064900 7322.600000
118.041200 26429.200000
119.049100 29081.800000
120.057100 24242.200000
121.064900 61193.500000
122.072800 16561.100000
122.096500 22842.300000
124.052200 8173.400000
131.049300 12111.700000
132.057200 9941.900000
133.064900 176851.000000
133.076100 10917.800000
134.072800 156312.500000
135.044200 94838.700000
135.080500 91504.600000
136.052100 30396.500000
137.060000 22865.300000
138.067700 14402.600000
139.075500 20663.100000
146.073000 9014.800000
149.059800 26389.600000
150.067700 869174.200000
151.075500 111440.500000
152.083600 19196.500000
164.083700 10449.700000
165.091300 1613093.900000
176.070900 7008.400000
177.091200 80381.200000
179.106800 5195.700000
187.099300 16455.500000
191.106900 16935.900000
202.086500 14658.500000
217.110100 16473.700000
218.117700 48711.500000
243.137700 9636.400000
245.141700 7191.500000
260.164800 48321.000000
261.159900 26788.100000
303.206300 15719.900000

>ms2
58.065200 51922.600000
77.038600 22447.800000
79.054300 116065.500000
84.080800 18783.100000
86.096500 10004.300000
90.046400 7039.700000
91.054300 66128.000000
92.062100 10804.600000
93.069900 10174.300000
94.065300 5345.000000
95.049500 5420.400000
103.054300 126914.800000
104.062100 31460.500000
105.069900 255594.900000
107.049200 89222.800000
108.057000 9610.800000
109.064800 16063.000000
115.054300 4185.200000
118.041300 68041.300000
119.049200 60428.900000
120.057000 49390.200000
121.064900 141260.400000
122.072700 36740.800000
122.096200 6404.400000
123.044300 5757.700000
124.052100 8200.300000
131.049300 28202.600000
132.057200 13056.200000
133.064900 141378.300000
133.076000 12883.100000
134.072700 252844.300000
135.044200 216130.700000
135.080500 55831.900000
136.051900 14839.300000
137.059700 28540.500000
138.067600 31712.800000
139.075600 5305.600000
146.072700 14551.500000
149.059800 33912.200000
150.067700 601890.000000
151.075400 90365.100000
152.083200 17015.000000
159.080500 8770.700000
160.088100 5040.200000
164.083200 9462.600000
165.091100 412006.800000
172.075500 5836.300000
174.091700 10605.200000
176.070800 12241.000000
177.091200 28396.400000
187.099400 14539.200000
188.070500 6036.900000
191.107000 12288.500000
202.086100 15424.400000
203.094100 10557.200000
218.117400 10785.900000

>ms2
58.065100 21940.400000
66.046500 3922.300000
77.038600 51693.800000
78.046400 17676.300000
79.054300 167872.300000
84.080800 16988.000000
86.096400 4417.300000
90.046400 19073.200000
91.054300 126112.500000
92.062100 14560.100000
93.069900 20777.200000
94.065100 3684.300000
95.049200 15791.200000
95.085500 5246.600000
102.046400 6076.600000
103.054300 145041.200000
104.062100 46981.100000
105.033600 11365.600000
105.044800 14220.000000
105.069900 151776.300000
107.049200 164781.200000
108.057100 9592.500000
109.064800 15064.700000
115.054300 8712.200000
118.041300 57163.300000
119.049200 90448.500000
120.057000 38448.500000
121.064900 178744.500000
122.072600 33402.800000
123.044000 7432.200000
124.051900 8189.000000
131.049200 32626.000000
132.056900 7195.700000
133.064800 73346.700000
133.076100 4436.400000
134.072700 223678.800000
135.044100 261176.600000
135.080500 18688.900000
136.052000 18741.600000
137.059800 21741.000000
138.067600 16807.300000
139.075500 2787.600000
146.072700 16008.100000
149.059800 39359.400000
150.067600 231156.500000
151.075400 45803.900000
152.083200 5270.800000
159.080700 4535.700000
160.088500 6411.600000
165.091100 64187.500000
172.075800 9087.800000
174.091400 6822.000000
176.070700 15100.600000
177.091000 8494.100000
187.098900 3656.900000
188.070600 3434.100000
202.086600 6931.500000
203.093500 3332.100000
218.117000 3673.100000
303.208200 3611.500000

