>compound EA62495033
>parentmass 425.18710000000004
>ionization [M+H]+
>formula C18H33ClN2O5S
>rt 402.000000
>profile orbitrap
#smiles_iso CCC[C@@H]1C[C@H](N(C1)C)C(=O)NC([C@@H]2[C@@H]([C@@H]([C@H]([C@H](O2)SC)O)O)O)C(C)Cl
#smiles_can CCCC1CC(N(C1)C)C(=O)NC(C2C(C(C(C(O2)SC)O)O)O)C(C)Cl
#inchikey KDLRVYVGXIQJDK-NOWPCOIGSA-N
#pubchem_id 29029
#mb_accession EA065702,EA065703,EA065704,EA065705,EA065706,EA065707,EA065708,EA065709,EA065710,EA065711,EA065712,EA065713

>ms2peaks
126.127300 90115.400000
425.187000 4474587.100000

>ms2peaks
126.127800 5136008.300000
299.195500 20809.800000
335.172900 127394.400000
377.183700 506995.100000
389.212000 61275.600000
407.175100 30514.000000
425.186900 1472294.700000

>ms2peaks
126.127700 7859326.200000

>ms2peaks
70.065200 18006.400000
82.065100 19726.900000
84.080500 13582.500000
95.085200 14191.800000
126.127800 7625059.300000

>ms2peaks
58.065200 37408.500000
67.053900 18209.600000
69.069800 47057.400000
70.065100 115041.300000
82.065000 70608.900000
83.072900 85100.100000
84.080800 48604.200000
95.085700 54273.400000
124.111900 41296.300000
126.127700 5933762.300000

>ms2peaks
55.054100 20257.600000
58.065100 54376.900000
67.054300 39818.500000
68.049500 41240.000000
69.069900 94032.400000
70.065200 253928.000000
82.065200 174888.200000
83.072900 199001.400000
84.080700 98453.300000
95.085500 71724.400000
96.081000 26123.700000
97.088600 29077.100000
98.096800 21253.600000
124.112200 87613.400000
126.127800 3923691.600000

>ms2peaks
126.127500 91377.600000
353.105800 10652.200000
377.184400 21526.900000
425.187100 4446425.400000

>ms2peaks
126.127700 4938178.400000
172.132700 18381.200000
299.196800 34111.600000
305.163000 15453.300000
335.172800 129660.900000
341.207700 26725.400000
377.183500 442709.300000
389.210600 67346.800000
407.176600 40679.300000
425.186900 1217332.000000

>ms2peaks
126.127700 6521540.500000
335.173800 10072.400000
353.105100 9217.800000
377.182600 12788.900000

>ms2peaks
69.069900 17195.900000
70.065100 25081.600000
82.065100 17325.000000
83.072900 21634.000000
84.080600 9664.200000
124.112200 16426.200000
126.127800 5812507.300000

>ms2peaks
55.054200 6524.400000
58.065200 22832.800000
67.054200 9612.800000
69.069900 29414.600000
70.065100 96625.900000
82.065100 56345.400000
83.073000 69232.300000
84.080800 46393.100000
95.085600 30586.100000
96.080600 9162.100000
98.096400 9569.600000
124.112100 37848.500000
126.127800 4526568.400000

>ms2peaks
55.054200 11158.700000
58.065100 36154.000000
67.054200 24451.000000
68.049400 35793.600000
69.069900 59314.100000
70.065100 164962.500000
82.065100 121086.900000
83.072900 143581.200000
84.080700 44724.200000
95.085500 34937.300000
96.080700 12883.200000
97.088500 18199.300000
98.096400 7547.700000
124.112000 60040.700000
126.127700 2747869.800000
377.183100 5074.800000

