>compound EA62982938
>parentmass 293.10509999999994
>ionization [M+H]+
>formula C15H17ClN2O2
>rt 486.000000
>profile orbitrap
#smiles_iso CC(C)(C)C(=O)C(N1C=CN=C1)OC2=CC=C(C=C2)Cl
#smiles_can CC(C)(C)C(=O)C(N1C=CN=C1)OC2=CC=C(C=C2)Cl
#inchikey OWEGWHBOCFMBLP-UHFFFAOYSA-N
#pubchem_id 37907
#mb_accession EA273902,EA273903,EA273904,EA273905,EA273906,EA273907,EA273908,EA273909,EA273910,EA273911,EA273912,EA273913

>ms2peaks
69.069500 32703.900000
141.010800 16023.100000
166.110300 21874.100000
197.072300 107955.500000
225.068200 39516.500000
293.105500 10738742.100000

>ms2peaks
57.069800 117320.900000
69.069900 823620.700000
82.052500 149537.400000
109.039600 103436.200000
113.015300 23857.900000
115.075200 76850.000000
129.010000 196297.400000
137.107200 152780.000000
141.010000 319263.600000
155.025600 164180.700000
165.102200 14388.100000
166.109900 228590.900000
169.004500 15473.200000
197.072700 4444726.800000
225.067500 217912.200000
293.105100 2881114.300000

>ms2peaks
57.069900 202974.300000
67.054100 41869.200000
69.069900 1187250.700000
70.077700 39211.500000
81.044600 26958.000000
82.052600 121353.900000
98.999700 29053.200000
103.030700 21688.100000
109.039700 148706.200000
113.015100 78291.700000
126.994500 171863.800000
129.010200 421586.700000
137.107000 56063.200000
141.010100 607321.800000
155.025800 284548.800000
161.096100 52344.700000
166.110000 36430.200000
190.098700 22916.400000
197.072700 1653606.000000

>ms2peaks
55.054200 65003.200000
57.069800 240457.100000
67.054100 39138.700000
69.069900 881181.600000
70.077700 117422.300000
77.038400 41205.200000
81.045100 21338.100000
82.052600 51964.400000
98.999600 146076.200000
109.039500 128284.300000
113.015200 125178.800000
126.994500 452947.400000
129.010100 335856.900000
137.107600 24408.900000
139.005600 95403.600000
141.010100 529022.400000
155.025800 240319.000000

>ms2peaks
55.054200 41975.000000
57.069800 220818.300000
67.054300 19887.800000
69.069900 376915.900000
70.077700 136396.100000
77.038600 51051.000000
81.044700 24938.200000
82.052500 43886.500000
91.054200 21391.800000
94.041300 27634.900000
98.999600 371294.900000
105.044500 16087.700000
109.039600 112903.200000
110.999900 29543.900000
113.015000 122521.500000
121.039600 11366.800000
126.994400 380665.900000
129.010000 160849.900000
139.005700 273420.200000
141.010000 257785.900000
155.025900 96925.700000
175.075200 13663.300000

>ms2peaks
55.054200 57836.800000
57.069800 198223.400000
65.038500 21505.800000
69.069900 174715.600000
70.077700 82109.300000
72.983700 25861.600000
75.023000 33171.400000
77.038700 72218.600000
81.044900 39675.400000
82.052300 30860.800000
91.054100 49051.200000
93.033600 20859.800000
94.041100 41189.800000
98.999600 578912.700000
105.045000 22062.600000
109.039500 67932.100000
110.999500 85052.700000
113.015200 55024.200000
121.040200 22467.300000
126.994500 201441.300000
129.010200 82539.000000
139.005700 427479.400000
141.010000 93834.300000
155.026200 23333.900000

>ms2peaks
69.069900 23215.400000
109.039600 14096.100000
137.107100 10851.500000
141.009800 10592.100000
166.110000 11569.200000
197.072600 103674.400000
225.067400 38952.100000
293.105300 7566416.500000

>ms2peaks
57.069800 65587.500000
67.054200 9408.400000
69.069900 537271.700000
82.052500 126833.900000
109.039600 106724.200000
113.015500 18948.400000
115.075200 56400.100000
124.063300 17658.500000
129.010200 146391.500000
137.107300 116272.800000
141.010100 219484.000000
155.025800 113665.500000
161.096500 11846.600000
166.110000 105177.400000
197.072800 3097479.200000
225.067500 147567.800000
293.105400 2126384.800000

>ms2peaks
57.069900 141610.900000
67.054200 28542.300000
69.069900 800476.600000
70.077700 29193.000000
81.044700 14865.400000
82.052500 85354.600000
98.999600 19637.500000
103.030900 10028.700000
109.039600 101466.600000
113.015200 45217.300000
124.063100 7703.000000
126.994400 116501.800000
129.010100 301935.200000
137.107300 39720.400000
139.005900 12444.100000
141.010200 420380.600000
155.025700 202497.100000
161.096100 35664.700000
166.110300 25064.300000
190.098200 15767.500000
197.072700 1144529.900000

>ms2peaks
55.054200 30636.800000
57.069900 173507.700000
67.054200 26699.300000
69.069900 612183.300000
70.077700 74430.400000
77.038600 19068.800000
81.044700 17402.400000
82.052500 42244.300000
91.054500 7543.200000
98.999600 106899.500000
109.039600 98224.600000
113.015200 90891.900000
126.994500 318131.500000
129.010100 239734.200000
137.107200 13249.400000
139.005700 67374.100000
141.010200 339503.000000
155.025800 155324.300000
161.095600 10752.300000
197.072800 72920.500000

>ms2peaks
55.054200 31056.400000
57.069800 170566.500000
67.054200 18639.300000
69.069800 278507.600000
70.077700 88942.100000
77.038600 31656.600000
81.044600 18002.700000
82.052400 30228.300000
91.054100 17524.200000
93.033400 9571.300000
94.041100 15013.000000
98.999500 229686.800000
105.044700 9824.100000
109.039600 82818.300000
110.999600 17192.400000
113.015200 67457.400000
121.039500 13812.000000
126.994400 271657.900000
129.010100 117042.200000
139.005600 199067.100000
141.010000 176731.800000
155.025800 60896.100000
175.074700 6039.200000

>ms2peaks
55.054200 25525.400000
57.069800 128176.400000
65.038500 8076.800000
67.054300 7253.300000
69.069900 88774.000000
70.077700 44770.500000
72.984000 9267.700000
75.022900 24663.800000
77.038500 45479.800000
81.044700 21001.200000
82.052500 18799.400000
91.054200 27452.800000
93.033400 11315.600000
94.041300 18799.000000
98.999600 356668.500000
105.044600 12231.100000
109.039600 43513.900000
110.999500 44106.800000
113.015200 37369.400000
121.039500 9658.200000
126.994400 111234.300000
129.010000 50791.800000
139.005700 255810.200000
141.010100 59822.700000
155.025700 14898.300000
175.075600 3944.000000

