>compound EA62439569
>parentmass 321.2173000000001
>ionization [M+H]+
>formula C18H28N2O3
>rt 684.000000
>profile orbitrap
#smiles_iso CC1=CC=C(C=C1)[C@H](C)NC(=O)C(C(C)C)NC(=O)OC(C)C
#smiles_can CC1=CC=C(C=C1)C(C)NC(=O)C(C(C)C)NC(=O)OC(C)C
#inchikey NWUWYYSKZYIQAE-LBAUFKAWSA-N
#pubchem_id 178565
#mb_accession EA293602,EA293603,EA293604,EA293605,EA293606,EA293607,EA293608,EA293609,EA293610,EA293611,EA293612,EA293613

>ms2peaks
72.080900 131266.000000
91.054200 71082.900000
98.060100 264054.300000
116.070800 5683920.400000
117.069300 68930.300000
117.102300 464835.800000
119.085600 15942508.800000
136.112300 80494.500000
144.065700 4159301.200000
158.117700 659762.100000
161.092200 132281.600000
186.112700 5110255.500000
203.139200 5362552.200000
235.180700 83316.300000
321.217400 2742897.700000

>ms2peaks
55.054200 48824.100000
72.080800 614749.900000
91.054100 126123.000000
98.060100 1679582.700000
114.128000 30541.500000
116.070700 5794854.900000
117.069900 200998.400000
117.102300 686762.500000
119.085400 27182913.000000
120.089500 31715.300000
144.065600 491628.100000
158.117600 229102.000000
186.112600 157298.800000
203.143800 189258.600000
235.181100 44445.700000

>ms2peaks
55.054200 106532.100000
72.080800 760993.900000
91.054400 196814.800000
98.060100 1809522.300000
116.070600 2720698.700000
117.069900 252565.400000
117.102300 331746.100000
119.085500 26368573.600000
158.117500 29483.900000

>ms2peaks
55.054200 249314.200000
72.080800 961508.600000
79.054200 39331.700000
91.054300 1114125.400000
93.069900 73023.900000
98.060100 1321480.600000
103.054400 82051.100000
104.061800 46389.300000
116.070700 1937590.900000
117.070000 1258633.900000
117.102500 116818.800000
119.085500 28853881.900000
203.141600 30590.000000

>ms2peaks
55.054200 270252.100000
72.080800 947527.900000
77.038600 53812.500000
79.054300 181759.400000
91.054200 3529216.700000
93.069900 330783.100000
98.060000 800085.900000
103.054200 530853.700000
104.062000 357223.600000
115.054200 129011.900000
116.070600 646333.500000
117.069900 3269427.800000
119.085400 20240425.200000
120.088900 22702.400000
131.060500 113636.800000

>ms2peaks
53.038600 24480.800000
55.054200 170765.500000
65.038500 35824.000000
72.080800 744246.500000
77.038600 204754.500000
78.046600 24698.100000
79.054200 325727.600000
91.054300 5458036.100000
93.069900 603420.100000
98.060000 354205.800000
102.046600 24286.400000
103.054200 1338048.200000
104.062000 964748.400000
105.044800 90458.600000
109.065000 18064.000000
115.054200 369866.000000
116.070700 146076.200000
117.069900 3974403.900000
119.085500 10163840.900000
131.060400 192954.000000
186.110800 20772.100000

>ms2peaks
72.080800 86649.700000
91.054200 55502.900000
98.060100 202218.600000
116.070700 3876843.400000
117.070000 72993.600000
117.102200 369943.800000
119.085500 11958326.900000
120.088900 25025.100000
136.112200 51149.900000
144.065600 2864229.300000
158.117500 462832.700000
161.092000 98798.400000
186.112600 3570101.200000
203.139200 3646574.300000
235.180600 46004.800000
321.217100 1879992.400000

>ms2peaks
55.054200 39430.800000
72.080800 520814.000000
91.054300 89629.800000
98.060100 1347631.600000
116.070700 4507178.800000
117.069900 127519.300000
117.102300 565935.200000
119.085500 22569842.800000
144.065500 378074.000000
158.117600 182950.200000
186.112500 147354.400000
203.139900 106926.500000

>ms2peaks
55.054200 66815.200000
72.080800 606332.500000
91.054100 131390.300000
98.060000 1337771.500000
116.070700 2146088.100000
117.069900 184928.700000
117.102200 245875.600000
119.085400 21739560.900000
158.117300 31279.400000

>ms2peaks
55.054200 154817.500000
72.080800 630866.000000
79.054200 30063.000000
91.054300 797987.100000
93.069900 47250.500000
98.060100 946433.000000
103.054300 61739.000000
104.062000 35060.100000
115.054200 24705.600000
116.070700 1336138.300000
117.069900 866694.200000
117.102300 66640.200000
119.085500 21731352.300000
120.088800 27996.300000

>ms2peaks
55.054200 152420.200000
72.080800 562146.500000
77.038500 31606.700000
79.054200 90876.400000
91.054300 2048057.100000
93.069900 182196.500000
98.060100 440810.000000
103.054200 303955.200000
104.062100 185958.800000
115.054300 45863.900000
116.070600 389506.600000
117.070000 1869136.700000
119.085500 13012369.800000
131.060400 77882.700000

>ms2peaks
53.038600 12055.400000
55.054300 104810.700000
65.038600 17114.800000
72.080800 435364.800000
77.038700 113890.200000
78.046400 14466.200000
79.054300 157705.000000
91.054300 3219967.600000
93.069900 313643.600000
98.060100 195589.400000
102.046300 12004.700000
103.054300 791084.800000
104.062100 575152.400000
105.044700 58727.500000
109.064800 12183.000000
115.054200 196078.600000
116.070800 93122.000000
117.070000 2266160.500000
119.085500 6660179.900000
120.088900 15446.800000
131.060400 111743.000000

