>compound EA63899749
>parentmass 256.0151
>ionization [M+H]+
>formula C9H7Cl2N5
>rt 324.000000
>profile orbitrap
#smiles_iso C1=CC(=C(C(=C1)Cl)Cl)C2=C(N=C(N=N2)N)N
#smiles_can C1=CC(=C(C(=C1)Cl)Cl)C2=C(N=C(N=N2)N)N
#inchikey PYZRQGJRPPTADH-UHFFFAOYSA-N
#pubchem_id 3878
#mb_accession EA267602,EA267603,EA267604,EA267605,EA267606,EA267607,EA267608,EA267609,EA267610,EA267611,EA267612,EA267613

>ms2peaks
256.015400 3317473.200000

>ms2peaks
256.015500 3182728.600000

>ms2peaks
58.039900 5438.000000
151.019000 9264.400000
158.976100 15834.400000
165.021600 16107.000000
166.029400 27789.300000
171.971600 20989.100000
173.986500 12140.500000
183.971300 12103.900000
185.987000 26653.600000
186.982400 33981.400000
193.040100 8485.100000
210.982500 60576.700000
211.976700 5769.400000
213.993700 9750.300000
220.038400 27616.000000
229.003500 12984.500000
256.015400 2772484.400000

>ms2peaks
58.039900 27603.900000
122.999500 18031.800000
138.011100 5018.800000
150.010200 8498.900000
151.018500 43286.900000
152.013700 13079.300000
156.960700 44559.200000
158.976200 81842.000000
159.971800 6484.400000
165.021400 54540.500000
166.029200 101461.400000
171.971500 110373.400000
172.966900 11655.300000
173.987200 35349.600000
178.016100 10995.800000
179.024800 10207.900000
183.971600 61501.000000
185.987300 46422.500000
186.982400 113509.900000
193.039300 9494.400000
194.035300 4401.100000
196.966700 16240.100000
210.982400 199376.900000
211.977500 34141.600000
213.992900 16123.600000
220.038400 43851.100000
221.046700 5256.700000
229.004200 45920.400000
256.014900 1084474.300000

>ms2peaks
58.039900 51486.700000
115.028500 3524.800000
122.999600 27896.400000
123.994500 8808.700000
131.060500 8102.700000
132.960600 6873.500000
138.010600 10387.600000
146.976800 3444.600000
150.010400 4211.800000
151.018200 69289.600000
152.013600 43789.500000
156.960600 82102.600000
158.976100 105936.800000
159.971200 30841.600000
164.001300 7786.700000
165.021200 49007.500000
166.029200 105595.100000
170.963500 15681.600000
171.971500 104827.200000
172.966600 80184.400000
173.987100 22634.600000
176.013400 3622.700000
178.016800 19143.000000
179.024300 10947.700000
183.971600 62959.000000
185.986500 12713.100000
186.982300 122825.300000
194.035600 4374.700000
196.966600 8448.700000
210.982300 158664.300000
211.977600 40222.200000
213.994000 6652.200000
220.038600 21431.100000
229.003800 22595.500000
256.015000 183067.100000

>ms2peaks
58.040000 34575.600000
68.024500 9259.700000
108.983900 11042.200000
115.028800 6926.700000
122.999800 27513.300000
123.994900 24701.100000
131.060500 16816.700000
132.960800 19538.600000
138.010400 15467.100000
144.960400 9614.700000
147.994900 6584.100000
150.010500 5199.500000
151.005700 11251.300000
151.018400 58075.500000
152.013600 56968.900000
156.960700 89351.300000
158.976300 82718.600000
159.971800 43348.400000
164.001000 20780.300000
165.021500 32135.800000
166.029300 53637.800000
170.963800 33344.500000
171.971700 61283.800000
172.966800 166111.200000
173.987200 9474.700000
178.017100 7920.600000
179.024800 5141.200000
183.971800 46302.700000
184.979400 8377.800000
186.982400 48298.600000
194.964300 12836.800000
210.982500 70055.600000
211.977900 15180.500000
229.004100 6574.500000

>ms2peaks
256.015400 2223778.000000

>ms2peaks
256.015400 2183344.000000

>ms2peaks
151.018200 5982.500000
156.960700 3481.300000
158.976300 9470.900000
165.021400 12258.800000
166.029200 19571.200000
171.971600 14601.900000
173.987300 9841.700000
183.971400 6584.500000
185.987100 15922.200000
186.982500 16622.400000
193.040600 3330.700000
196.966100 2175.400000
210.982400 34898.700000
211.976700 2240.200000
213.993800 3656.000000
220.038600 16797.100000
221.045900 3465.400000
229.004200 7445.000000
256.015400 1765961.500000

>ms2peaks
58.040000 13993.400000
122.999700 8260.900000
138.010600 1834.700000
146.976000 1866.100000
150.010400 4031.200000
151.018300 26285.000000
152.013500 5324.000000
156.960600 29581.800000
158.976300 52371.600000
159.971600 3334.300000
165.021400 38336.700000
166.029200 59338.600000
171.971500 66346.000000
172.967100 5151.300000
173.987200 23706.700000
178.016500 9011.900000
179.024300 5597.400000
183.971600 33480.500000
185.987200 25201.500000
186.982400 62052.500000
193.040100 8040.600000
196.966900 6956.300000
210.982400 116780.500000
211.977900 20051.400000
213.993000 9557.900000
220.038300 33817.400000
221.046000 3707.200000
229.004100 25251.800000
238.988200 2267.700000
256.015300 745182.400000

>ms2peaks
58.040000 30795.400000
68.024400 2636.000000
84.983800 1904.300000
122.999600 14486.200000
123.995400 2782.200000
131.060300 3910.400000
132.960700 2833.000000
138.010500 6215.800000
149.002500 2243.400000
151.005200 1932.000000
151.018400 34289.900000
152.013500 22418.700000
156.960600 51701.700000
158.976300 66812.900000
159.971500 18348.100000
164.001200 5014.300000
165.021400 28013.800000
166.029200 58880.900000
170.963900 9914.500000
171.971500 62579.200000
172.966800 46037.900000
173.987100 16200.400000
176.013400 2624.100000
178.016800 12205.200000
179.024900 4569.700000
183.971500 32794.300000
184.979300 3760.500000
185.987200 12782.900000
186.982400 75092.800000
194.035500 2503.200000
194.963200 2736.600000
196.966500 7776.700000
210.982500 107610.800000
211.977800 26736.800000
213.993700 3776.500000
220.038400 11905.700000
229.004000 18072.400000
256.015200 115655.100000

>ms2peaks
58.040000 18518.500000
68.024400 3623.200000
84.984000 3595.800000
108.984000 7352.900000
115.029100 5970.800000
122.999600 20982.900000
123.994800 11546.700000
131.060400 7831.500000
132.960600 10996.900000
138.010600 7929.500000
144.960700 5449.800000
147.994800 2274.000000
149.002700 1822.900000
150.010400 2218.300000
151.005800 6247.000000
151.018400 34786.500000
152.013600 37895.600000
156.960700 45937.800000
158.976300 45806.400000
159.971600 25612.800000
164.001100 14967.900000
165.021400 15106.300000
166.029300 33010.300000
170.963800 17666.900000
171.971600 29776.500000
172.966800 91011.200000
173.987100 5039.000000
176.013600 2299.200000
178.016700 5484.900000
183.971600 22181.000000
184.979400 5181.100000
186.982400 25115.000000
194.963700 8851.300000
196.967100 1246.300000
210.982400 36939.700000
211.977700 8144.900000
220.037600 2746.700000
229.004000 4124.100000
256.015300 9623.800000

