>compound EA63055715
>parentmass 431.06829999999997
>ionization [M+H]+
>formula C18H14F4N2O4S
>rt 594.000000
>profile orbitrap
#smiles_iso C[C@](CS(=O)(=O)C1=CC=C(C=C1)F)(C(=O)NC2=CC(=C(C=C2)C#N)C(F)(F)F)O
#smiles_can CC(CS(=O)(=O)C1=CC=C(C=C1)F)(C(=O)NC2=CC(=C(C=C2)C#N)C(F)(F)F)O
#inchikey LKJPYSCBVHEWIU-KRWDZBQOSA-N
#pubchem_id 56069
#mb_accession EA280902,EA280903,EA280904,EA280905,EA280906,EA280907,EA280908,EA280909,EA280910,EA280911,EA280912,EA280913

>ms2peaks
120.995200 21002.400000
158.991300 7673.200000
187.047600 138362.500000
217.032800 155515.700000
325.981700 2489.800000
431.067800 98113.800000

>ms2peaks
120.995200 22492.100000
123.035400 15546.700000
142.996300 4151.500000
158.991000 29918.800000
187.047600 103833.900000
217.032800 174190.800000

>ms2peaks
120.995300 9330.300000
123.035300 113408.400000
142.995900 13747.000000
158.991100 130547.900000
161.006600 8330.500000
165.046000 4315.500000
167.041200 11159.400000
187.047800 109030.700000
217.032600 35914.500000

>ms2peaks
95.029000 5849.100000
113.039700 6487.000000
123.035300 246441.500000
142.996200 21857.300000
158.991000 72475.900000
161.006800 5949.100000
165.045500 11662.500000
167.041500 28841.000000
185.052100 19333.700000
187.047500 43228.200000
325.968100 2859.900000

>ms2peaks
95.029100 14657.200000
113.039600 10810.900000
115.001300 7340.200000
123.035300 312311.600000
142.996200 23760.300000
158.991300 14525.300000
165.045500 18035.300000
167.041400 45937.800000
185.052000 25641.700000
187.047900 9892.900000

>ms2peaks
71.029200 6338.300000
75.023100 8524.100000
95.029200 28160.400000
113.039800 20664.300000
115.001200 12975.700000
118.052600 8998.100000
123.035300 344095.700000
140.030700 5436.300000
142.996000 22195.000000
165.045900 12306.300000
167.041500 37535.900000
185.052200 22627.600000
187.046500 2695.700000

>ms2peaks
120.995400 46774.100000
123.035300 2469.900000
158.991000 15707.900000
187.047700 304344.700000
217.032900 367077.800000
431.068000 224622.300000

>ms2peaks
110.062000 1569.800000
120.995300 65789.900000
123.035200 38581.600000
139.006100 4457.400000
142.996300 10788.800000
158.991000 80976.800000
167.042200 1840.700000
187.047700 269588.500000
217.032800 451495.000000
325.968300 2241.900000
431.067500 2609.800000

>ms2peaks
95.029100 3279.900000
110.062300 1871.500000
113.039600 6325.700000
120.995300 14119.300000
123.035200 226068.600000
139.006400 2508.300000
142.996100 24173.000000
158.991000 236473.800000
161.006600 8948.500000
165.045900 6514.900000
167.041500 16998.100000
185.052100 18145.000000
187.047600 197204.900000
217.032800 61593.200000

>ms2peaks
71.029100 2053.100000
95.029000 10014.800000
111.024100 1481.200000
113.039600 10116.000000
115.000900 2798.600000
118.052200 2290.700000
123.035200 458797.500000
124.032600 2264.000000
142.996100 37305.500000
158.991000 127854.400000
161.006500 7996.500000
165.045800 19771.700000
167.041500 52123.900000
185.052000 35019.900000
187.047600 70631.700000
217.032600 2285.900000

>ms2peaks
71.029200 3564.600000
75.022900 4208.300000
93.033000 1612.100000
95.029100 24249.200000
111.024000 3615.300000
113.039700 18554.900000
115.001200 7862.000000
118.052600 7215.400000
123.035300 488709.600000
124.032800 2469.400000
139.006700 1764.500000
140.030500 2541.100000
142.996100 41363.200000
158.991200 22499.500000
161.006600 4584.300000
165.045900 23817.800000
167.041500 56117.300000
185.052000 42232.000000
187.047700 17387.100000
325.980600 2942.600000

>ms2peaks
71.029100 5017.200000
75.022900 10096.400000
93.033300 2077.500000
95.029100 31550.100000
113.039700 18649.000000
115.001200 14759.500000
118.052500 8986.600000
123.035300 377086.500000
140.030800 5812.000000
142.996100 19723.500000
158.990900 3963.200000
165.045800 14381.400000
167.041600 38386.600000
185.052100 22397.100000
187.047500 3255.400000

