>compound EA63457903
>parentmass 791.8770000000001
>ionization [M+H]+
>formula C18H24I3N3O8
>rt 162.000000
>profile orbitrap
#smiles_iso CN(CC(CO)O)C(=O)C1=C(C(=C(C(=C1I)C(=O)NCC(CO)O)I)NC(=O)COC)I
#smiles_can CN(CC(CO)O)C(=O)C1=C(C(=C(C(=C1I)C(=O)NCC(CO)O)I)NC(=O)COC)I
#inchikey DGAIEPBNLOQYER-UHFFFAOYSA-N
#pubchem_id 3736
#mb_accession EA024202,EA024203,EA024204,EA024205,EA024206,EA024207,EA024208,EA024209,EA024210,EA024211,EA024212

>ms2
293.885800 8446.200000
478.046300 5238.700000
558.886600 17793.000000
572.901500 40205.400000
686.799100 7588.200000
700.812900 8560.200000
773.863800 8760.200000
791.876700 47032.100000

>ms2
70.065300 2960.500000
88.075500 4166.600000
291.097000 5517.400000
299.915400 19236.800000
315.947900 2208.100000
317.926300 16482.800000
330.957700 5152.400000
357.921200 10446.800000
372.968200 69374.900000
386.983500 36591.300000
399.955200 4824.600000
400.996100 3503.200000
404.994800 11099.300000
413.971200 37897.500000
419.011700 10674.900000
425.812300 7297.300000
430.972900 3326.400000
444.989100 31017.600000
485.830200 9479.400000
527.867700 34092.700000
558.886100 47738.000000
572.900900 29803.200000

>ms2
70.065400 3465.700000
172.003600 3919.900000
255.925300 3207.500000
259.071300 6485.000000
277.082300 5293.900000
283.919600 2907.400000
291.098100 3896.500000
298.929100 7648.200000
299.915300 100993.000000
312.946800 12960.900000
313.930900 15436.300000
315.947500 3738.100000
317.925700 123974.400000
325.942800 4154.000000
326.902100 21774.000000
331.940500 4769.200000
344.911900 5870.100000
357.921100 13451.800000
372.968100 12406.800000
386.984600 10410.000000
400.995200 5498.200000
404.995400 4163.800000
413.811900 4686.600000
423.796700 21860.000000
441.809300 17166.400000
485.835200 2405.200000
527.865700 3878.000000
558.883600 6189.900000

>ms2
116.013500 3035.000000
117.020700 3688.000000
141.992200 11814.000000
144.007900 4007.400000
145.015400 4212.000000
157.015500 2298.300000
172.003000 9824.700000
172.026700 5970.600000
173.010900 9058.800000
227.931300 7539.600000
255.925300 18945.100000
271.920500 17255.800000
282.913400 2343.400000
283.920400 8276.000000
287.950700 5645.100000
298.929200 11773.800000
299.915400 77811.300000
312.947400 5749.300000
313.930500 17270.100000
317.925800 99748.500000
381.822300 8217.100000
441.809900 3695.200000
572.900800 2455.100000

>ms2
67.017600 3337.600000
77.001900 4726.800000
88.018200 5923.100000
89.026000 16162.000000
101.026100 7206.200000
113.997300 5230.000000
116.013100 6590.000000
117.020800 18433.900000
128.012500 5505.500000
141.992100 11971.900000
144.008400 6106.200000
145.015600 5750.900000
152.919200 6411.200000
157.015300 3687.100000
172.002300 6658.100000
172.026300 3596.200000
173.010900 11224.200000
177.915200 7800.100000
188.033900 2990.500000
227.931300 10349.900000
243.925800 10981.400000
247.921300 4708.900000
255.925000 12517.400000
271.919900 17099.900000
293.898100 6986.200000
299.915100 23977.500000
317.926100 27262.400000
381.823000 4308.500000

>ms2
67.017800 2670.100000
77.002300 9482.700000
88.018400 5046.500000
89.026000 27838.500000
100.018100 6289.000000
101.026200 11207.700000
113.997300 7383.400000
116.013500 7017.400000
117.021000 14755.100000
128.013100 8053.000000
141.993000 4903.800000
152.919700 11132.100000
177.915200 9294.200000
203.930500 3467.300000
227.930700 6866.200000
243.925100 6976.400000
255.924200 3912.600000
271.920800 8296.700000
299.916000 2519.400000
317.925100 3122.700000
325.952600 2653.000000

>ms2
293.904000 3525.100000
478.044600 3819.300000
558.884900 8835.800000
572.900700 27417.100000
686.798400 6468.900000
700.815500 6256.600000
773.868700 8166.100000
791.877600 26154.100000

>ms2
70.065200 1651.400000
291.096800 3351.900000
299.914900 10356.600000
312.948000 1885.400000
317.925700 12465.700000
326.901000 4456.100000
330.956100 2230.700000
357.919600 6872.900000
372.967600 37856.200000
386.983300 25216.800000
399.955900 2708.200000
400.997800 3378.100000
404.994000 5851.400000
413.811300 3776.000000
413.970300 20045.400000
419.009600 4662.300000
425.811900 4070.000000
444.988700 20152.200000
456.853900 6143.400000
485.832900 5867.100000
527.867200 21727.000000
558.885000 23463.300000
572.900600 18199.600000

>ms2
88.075500 1899.600000
188.033400 1660.600000
203.021400 1675.100000
259.070600 3914.900000
277.082100 1832.600000
283.920500 3400.300000
287.952000 2891.900000
293.884400 3893.500000
293.904500 6412.900000
298.931000 4767.400000
299.915000 58391.600000
312.946800 6540.300000
313.930700 10325.000000
317.925500 70339.700000
326.902100 8706.500000
330.956500 1689.300000
331.941000 1851.500000
344.913200 3148.600000
357.919500 5952.900000
372.967800 6878.700000
386.982400 5158.900000
404.994100 2396.400000
413.812100 1839.400000
413.970100 2211.900000
423.796300 10634.500000
425.811700 4945.000000
441.805600 9088.200000
485.830500 2655.300000
527.866600 1876.100000

>ms2
89.026100 1805.800000
117.020700 1685.400000
141.992200 6255.700000
172.002700 4158.700000
172.026600 2389.100000
173.010600 4689.100000
188.033900 2319.400000
203.020400 1897.700000
203.930700 2257.400000
227.929500 2811.900000
243.925200 4460.800000
247.920000 1974.500000
255.925300 9405.400000
271.920300 9406.800000
283.920900 3460.500000
287.951600 4144.700000
298.932200 5131.200000
299.915100 40972.800000
312.945700 2728.500000
313.930600 12386.500000
317.925700 55551.900000
325.943400 1940.800000
381.820500 3370.800000
423.795200 3647.100000
441.804100 2828.900000

>ms2
88.018100 2718.300000
89.025900 5584.100000
100.017900 1646.700000
101.025900 5062.700000
116.012900 3245.900000
117.020700 8889.000000
128.013300 3477.100000
141.992300 5918.700000
145.015600 2365.100000
152.919600 2157.800000
172.002800 2965.600000
172.026800 1846.700000
173.010400 3756.100000
177.914700 3699.200000
203.930800 2669.800000
227.930400 4479.300000
243.925000 5545.100000
247.919300 2727.200000
255.925200 5793.100000
271.920400 9480.100000
282.911800 2462.100000
293.898800 5106.300000
299.915000 10925.500000
317.925700 12736.300000
572.899000 2004.900000

