>compound EA64375636
>parentmass 777.8613999999999
>ionization [M+H]+
>formula C17H22I3N3O8
>rt 96.000000
>profile orbitrap
#smiles_iso CN(C1=C(C(=C(C(=C1I)C(=O)NCC(CO)O)I)C(=O)NCC(CO)O)I)C(=O)CO
#smiles_can CN(C1=C(C(=C(C(=C1I)C(=O)NCC(CO)O)I)C(=O)NCC(CO)O)I)C(=O)CO
#inchikey NJKDOADNQSYQEV-UHFFFAOYSA-N
#pubchem_id 3731
#mb_accession EA024002,EA024003,EA024004,EA024005,EA024006,EA024007,EA024008,EA024009,EA024010,EA024011,EA024012,EA024013

>ms2
74.060200 6512.400000
293.889500 7773.100000
558.884900 37911.300000
563.889900 3388.600000
686.797400 37132.200000
759.853900 5362.600000
777.861700 40041.800000

>ms2
74.060100 6705.700000
293.913900 7506.400000
319.940700 2781.300000
331.942200 11786.900000
374.983900 8942.700000
386.983000 10132.900000
404.994200 538295.400000
423.005100 12606.900000
446.845400 5689.400000
531.898700 53181.900000
558.885800 44318.000000
686.798100 4982.600000

>ms2
74.060100 2555.400000
175.027100 3436.000000
220.047700 3809.700000
221.092500 3866.900000
222.039400 3859.900000
249.086300 10246.900000
273.935500 7474.200000
277.080500 12267.700000
287.951300 86246.700000
290.963300 4774.700000
291.945800 11485.200000
293.889900 7608.400000
301.931000 13399.600000
302.964000 4232.200000
305.962600 13145.600000
331.941000 125430.100000
346.989900 16672.400000
349.951700 25766.400000
374.983900 20302.200000
386.982500 10820.500000
404.993900 382228.300000
423.003900 17906.100000
446.845800 6170.400000
558.888000 4937.400000

>ms2
108.044300 3736.500000
119.036700 5006.300000
132.044700 6338.000000
146.023100 2224.300000
148.039000 6216.500000
149.047000 5099.900000
160.038800 3373.000000
161.047100 12491.100000
162.055300 5500.500000
164.033700 5316.200000
166.049700 4080.100000
175.025600 5513.200000
176.034100 4859.400000
177.041800 16457.300000
193.036900 7232.900000
194.044600 5679.800000
195.052500 8668.100000
204.029100 6303.400000
217.060500 4695.500000
245.941200 8418.300000
247.070200 4765.300000
257.941200 17141.300000
273.935700 31067.800000
277.081000 13051.900000
287.951400 327901.700000
290.961900 2757.500000
291.946000 11016.900000
293.903700 6994.700000
301.930700 14224.000000
303.947000 6695.200000
305.962900 8055.900000
330.957100 3574.300000
331.941000 57057.300000
349.951700 13443.100000
404.993900 55476.700000

>ms2
72.044200 2437.200000
79.041600 5530.000000
80.049200 2086.600000
90.033900 6810.200000
91.041700 8842.000000
92.049300 5291.200000
103.041700 2774.300000
104.049400 8043.800000
106.029100 5587.200000
108.044200 4475.900000
118.028600 7905.900000
119.036300 16398.400000
120.044400 6561.300000
131.036400 6333.200000
136.039200 5239.400000
146.023700 17169.400000
147.031500 5000.600000
148.039700 10507.300000
149.047600 6676.300000
160.039400 6416.300000
161.046900 21414.100000
162.018400 2428.500000
162.054900 12011.300000
164.034300 7725.100000
176.033400 5368.700000
177.042200 21298.100000
177.915600 2743.900000
178.049700 5490.900000
188.919000 5846.100000
193.037000 15351.400000
195.052600 7290.800000
204.030700 2846.000000
205.060500 4138.200000
217.945600 8464.700000
231.925000 3082.600000
245.941000 9987.300000
247.072200 3221.500000
257.940800 43163.100000
273.935500 16279.800000
287.951400 214359.500000
291.946100 3207.400000
301.930900 3238.400000
331.941900 4905.700000

>ms2
63.023000 3024.700000
66.033900 3948.100000
72.044300 2851.800000
76.018100 5461.300000
76.030700 2953.800000
79.041600 7420.900000
80.049700 2976.700000
90.033800 7392.800000
91.041700 14625.200000
92.049500 8412.100000
103.041700 7846.400000
104.049500 11287.100000
106.028700 6429.300000
108.044700 4318.400000
114.033700 2701.100000
118.028800 15945.000000
119.036500 23306.200000
120.044000 7849.200000
130.028100 3673.700000
131.036300 6425.900000
132.044300 17909.100000
146.023600 23691.300000
147.031000 3621.800000
148.039000 4175.000000
160.038800 9687.000000
161.047000 20886.000000
162.018300 3680.800000
162.055200 10771.700000
164.033900 3809.700000
177.041700 10707.600000
188.919400 14405.700000
193.036900 12203.900000
195.052000 2953.000000
217.945300 8317.100000
245.939800 6859.500000
257.940900 31453.000000
287.951400 60467.900000
613.922000 2231.600000

>ms2
74.060000 4778.700000
325.939500 2044.400000
531.899000 6418.600000
558.885700 27862.600000
563.889700 1621.100000
686.798000 34896.800000
759.853400 3588.800000
777.861600 30514.800000

>ms2
287.952700 2099.400000
293.921500 6829.800000
310.079800 2363.400000
325.940300 3450.200000
331.940700 8285.000000
349.953400 2218.900000
374.984400 5850.200000
386.983700 5494.800000
404.994000 391812.100000
423.005500 8267.600000
446.843500 2508.200000
531.898600 36571.000000
558.885200 30203.200000
563.888600 13450.700000
686.803000 4214.200000

>ms2
175.026400 3542.400000
176.033900 1679.000000
204.030400 1778.900000
220.047800 3909.600000
222.039700 2474.100000
249.086300 4267.400000
273.935500 8828.000000
275.948600 1859.000000
277.082300 6568.100000
287.951300 59857.800000
290.962900 4565.200000
291.946100 4842.900000
293.905700 2123.200000
293.921100 7584.600000
301.931100 10074.300000
302.961700 3296.800000
305.962000 14394.000000
310.077700 1866.100000
313.930300 2925.500000
319.941400 3378.400000
330.957400 4038.600000
331.941200 84224.800000
346.988600 8586.100000
349.951800 15789.700000
374.983900 13539.300000
386.983700 10454.500000
404.993900 279680.900000
423.004100 10351.800000
446.844000 5473.400000

>ms2
90.033500 1940.500000
92.049400 1703.400000
104.049500 1779.600000
108.044400 2537.200000
119.036600 2740.400000
132.044300 4356.900000
146.023700 1855.100000
148.039200 3708.800000
149.047400 2780.600000
160.039400 2133.800000
161.047000 6671.700000
162.054700 3038.200000
164.033900 2232.400000
166.049100 2817.700000
176.034000 3339.400000
177.042000 14516.400000
178.049300 2579.500000
193.036900 4473.000000
194.044600 4347.500000
195.052600 5835.100000
204.029200 4610.900000
205.061200 3487.500000
217.061500 3757.600000
221.093100 2560.300000
222.039000 3509.900000
245.941200 5912.300000
247.071500 3288.400000
257.940900 11815.400000
273.935600 16800.200000
275.949900 3993.700000
277.082100 9135.700000
287.951300 222197.300000
291.945900 7359.500000
293.914400 6265.000000
301.930900 10004.400000
303.946300 3827.100000
305.962300 8045.300000
313.929500 2451.100000
325.940700 2421.800000
331.941200 45476.600000
349.951200 4814.700000
386.984200 2489.000000
404.993900 36181.600000

>ms2
72.044300 2362.300000
79.041700 3291.600000
90.033400 2892.600000
91.041600 4470.400000
92.049200 3952.800000
103.041800 3202.600000
104.049500 4269.000000
106.029000 2459.700000
108.044300 4174.300000
118.028600 4609.600000
119.036600 9316.600000
120.044200 3097.100000
131.036400 3737.100000
132.044200 9427.400000
136.038700 2032.100000
146.023300 9793.600000
147.031600 3119.500000
148.039400 4238.100000
149.047300 1940.900000
160.039100 3488.200000
161.047000 15905.400000
162.055100 7154.600000
164.034200 3641.000000
176.034500 3793.000000
177.042000 15195.000000
178.049800 3013.000000
188.920000 2779.800000
193.036800 9131.700000
195.052200 4387.300000
217.060500 2143.000000
217.946100 4946.400000
231.925300 3630.700000
245.941200 5687.700000
257.940900 22969.600000
273.935600 10514.300000
287.951400 136208.000000
293.912500 5586.700000
303.947100 2171.000000
305.961600 1791.900000
331.941300 4205.200000

>ms2
63.022900 2296.800000
66.033800 1862.400000
76.018200 4474.200000
76.030800 3073.900000
79.041600 3646.000000
90.033700 5737.300000
91.041500 6353.700000
92.049300 2947.900000
103.041600 4289.500000
104.049400 5425.300000
106.028500 3058.300000
108.044700 1587.800000
114.033800 3117.200000
118.028800 7427.100000
119.036500 9715.000000
120.044100 4353.200000
130.028900 2083.800000
131.036400 4315.000000
132.044200 10229.300000
136.039300 3488.100000
146.023600 11508.600000
148.039400 3612.900000
160.039000 4609.100000
161.047200 11150.900000
162.018700 1845.200000
162.054800 8613.900000
164.034300 3197.400000
177.042000 5980.500000
177.914500 2704.200000
188.919300 9681.500000
193.036700 6624.100000
217.946100 4491.300000
245.940700 3169.100000
257.941100 21069.300000
273.935700 3467.700000
287.951400 31745.000000
293.905500 4091.600000
293.921800 5884.200000

