>compound EA64643734
>parentmass 331.1435000000001
>ionization [M+H]+
>formula C13H22N4O4S
>rt 48.000000
>profile orbitrap
#smiles_iso CN/C(=C\[N+](=O)[O-])/NCCS(=O)CC1=CC=C(O1)CN(C)C
#smiles_can CNC(=C[N+](=O)[O-])NCCS(=O)CC1=CC=C(O1)CN(C)C
#inchikey SKHXRNHSZTXSLP-UKTHLTGXSA-N
#pubchem_id 3033889
#mb_accession EA273702,EA273703,EA273704,EA273705,EA273706,EA273707,EA273708,EA273709,EA273710,EA273711,EA273712,EA273713

>ms2peaks
58.065000 10754.100000
94.041100 31721.500000
95.049100 13836.000000
96.055600 4313.100000
110.096500 121563.100000
116.981400 3887.400000
130.055900 31920.600000
138.091300 305011.900000
139.099000 10993.200000
140.106400 4899.700000
143.016100 65756.000000
156.101800 63890.900000
176.048800 43561.800000
188.074100 83471.400000
192.044000 13099.700000
222.082800 11405.100000
268.073800 10203.700000
286.085400 11336.400000
331.143600 1790206.500000

>ms2peaks
58.065000 14525.000000
68.049400 17845.700000
82.065200 15260.800000
84.067800 5682.600000
93.069600 7743.100000
94.041400 232660.700000
95.049200 61313.200000
95.073100 6338.500000
96.056800 23802.700000
98.084200 12766.200000
108.080800 16916.000000
110.096500 684501.400000
125.005300 9826.500000
130.056000 49580.700000
138.091400 1289669.500000
139.099200 43354.000000
143.016100 43180.500000
146.050700 14570.300000
176.049000 42973.900000
188.073900 18736.000000
192.043800 91947.900000
193.051300 6423.200000
222.081800 28212.900000
240.092900 10044.700000
268.075400 9519.500000
286.085300 7292.200000
331.145000 58048.000000

>ms2peaks
55.041600 3571.200000
56.049200 4204.900000
58.065100 21670.900000
66.046500 8955.900000
67.054300 4412.000000
68.049500 36655.400000
81.069800 18306.700000
82.065200 31554.200000
84.068300 13116.100000
91.054200 5133.800000
93.070000 11968.800000
94.041400 303848.600000
95.049200 74528.300000
95.073000 16706.900000
96.057100 13953.500000
97.075800 14354.300000
98.083800 23916.700000
99.055400 7952.400000
102.037200 9074.900000
108.080800 45448.900000
110.096500 1000598.800000
117.024200 5763.500000
123.067300 3665.900000
125.005400 8310.600000
130.056200 28195.300000
138.091400 699066.200000
139.099600 13594.800000
143.015900 23183.700000
146.050500 10633.300000
147.058400 7983.200000
176.050100 6825.700000
192.043600 31367.100000
222.082100 6174.100000

>ms2peaks
55.041600 6877.600000
56.049400 7867.300000
58.065100 54235.700000
65.038500 4999.300000
66.046600 7177.600000
67.054300 11152.900000
68.049500 39058.700000
81.069900 24721.700000
82.065100 63533.400000
84.068300 10304.700000
93.069900 17410.900000
94.041400 361432.300000
94.065200 18481.300000
95.049100 70534.200000
95.072900 35693.800000
96.057000 8673.000000
97.076000 32690.300000
98.083800 32137.100000
99.055000 6380.700000
102.037000 14884.400000
108.080800 73727.200000
110.096500 938416.200000
125.005500 5533.600000
130.055900 14756.300000
138.091300 135751.200000
143.015900 8351.900000
146.050800 6970.400000

>ms2peaks
55.041600 5719.000000
56.049500 12554.100000
58.065200 96699.400000
65.038700 3934.300000
66.046500 13009.400000
67.054300 25943.900000
68.049500 38335.700000
79.054300 13700.100000
80.049800 3580.800000
81.033400 6596.900000
81.057400 13662.400000
81.069900 29959.500000
82.065200 93044.200000
83.060800 4688.700000
88.992800 6117.900000
91.054600 7087.400000
93.069900 17477.800000
94.041400 351128.600000
94.065300 47510.500000
95.049200 40097.100000
95.073100 74577.700000
97.076100 49311.800000
98.083900 27215.400000
99.055300 9011.400000
102.037400 4929.800000
108.080900 89266.500000
110.096600 493126.700000
123.067400 4777.500000
130.056100 9352.000000
138.091600 25506.100000

>ms2peaks
55.041700 6245.400000
56.049400 10871.100000
58.065100 99380.400000
65.038500 8761.400000
66.046400 32827.600000
67.041600 4860.200000
67.054200 32262.500000
68.049400 25319.600000
79.054300 12797.600000
80.049600 11211.200000
81.033600 10165.600000
81.057300 28440.400000
81.069900 22067.900000
82.065100 84546.300000
83.060400 5231.500000
88.992800 5424.800000
91.054200 5613.200000
93.069600 10079.300000
94.041300 327526.200000
94.065200 96125.200000
95.049100 23416.700000
95.072900 76768.500000
96.055200 2629.300000
97.076000 72771.700000
98.083900 13919.700000
99.055000 4956.900000
102.037600 3028.900000
108.080700 61876.800000
110.096400 194275.900000
130.055800 6218.700000
138.091100 5575.300000

>ms2peaks
58.065100 7390.700000
68.049600 4266.400000
82.065200 4653.400000
94.041200 20625.500000
95.049100 13450.300000
108.080700 2633.400000
110.096400 86410.200000
116.981300 1676.500000
130.055800 23499.200000
138.091300 216973.200000
139.098800 6224.300000
140.106700 3518.000000
143.016100 48796.500000
156.101900 42955.900000
176.048800 31899.600000
188.073900 55130.400000
192.043800 12103.000000
222.082000 6137.100000
268.075000 7360.000000
286.085600 9163.300000
313.133400 2467.800000
331.143700 1254158.300000

>ms2peaks
58.065200 11044.900000
67.054300 1933.000000
68.049500 10846.200000
79.054100 2176.600000
81.033400 2307.800000
81.069900 4818.600000
82.065100 10520.700000
84.068400 3078.100000
93.070000 6653.000000
94.041400 142265.500000
95.049200 36507.300000
95.072900 4636.000000
96.057000 15152.700000
97.075800 2246.400000
98.084000 6841.500000
108.080700 11685.600000
110.096500 443275.800000
125.005600 5948.200000
130.055900 30539.900000
130.061300 13467.200000
138.091500 815609.000000
139.099200 25969.600000
143.016100 24113.100000
144.076900 1934.800000
146.050900 9474.200000
156.102400 4321.800000
176.048900 31737.500000
188.074400 10507.800000
192.043800 57298.100000
193.051800 5247.100000
222.082200 22373.600000
240.092300 7949.800000
268.074900 3524.400000
286.085600 6999.700000
331.143600 33724.400000

>ms2peaks
56.049400 4047.200000
58.065100 11328.100000
66.046500 3613.400000
67.054200 5322.400000
68.049500 20756.300000
81.069900 8984.800000
82.065200 26636.900000
84.068300 11053.500000
93.070000 8678.400000
94.041400 183397.800000
95.049200 54622.200000
95.072900 9343.400000
96.057100 10704.100000
97.076100 10031.000000
98.083900 16987.800000
99.055400 3759.500000
102.037200 7453.800000
108.080800 26929.600000
110.096500 626616.700000
117.024500 4286.400000
125.005400 5678.500000
130.056000 15422.500000
130.061400 11937.200000
138.091500 416374.100000
139.099100 5306.400000
143.016200 11220.100000
146.050900 5841.000000
147.058700 6317.000000
176.048900 6398.000000
192.043800 19322.300000
222.082300 4376.300000
240.092200 2188.300000

>ms2peaks
55.041700 3378.400000
56.049500 5091.100000
58.065100 38465.500000
66.046500 5071.400000
67.054300 7920.300000
68.049500 25510.700000
79.054300 6942.900000
81.057300 2947.100000
81.070000 15792.800000
82.065200 44576.800000
84.068200 3928.600000
88.993100 3079.000000
93.070000 9849.500000
94.041400 230777.000000
94.065100 12178.500000
95.049200 44923.900000
95.073000 24854.500000
96.056900 5000.600000
97.076100 20966.200000
98.083900 21239.300000
99.055500 5466.500000
102.037400 8303.700000
108.080800 46464.100000
110.096500 605473.100000
117.024400 2699.000000
125.006000 2830.900000
130.055800 8840.900000
130.061200 3979.900000
138.091400 104971.600000
143.016100 6615.700000
147.058800 3105.800000
192.042100 2346.200000

>ms2peaks
55.041600 5698.300000
56.049500 5946.000000
58.065100 57286.000000
65.038700 2838.300000
66.046500 6261.000000
67.054300 16977.200000
68.049500 23643.600000
79.054200 11945.600000
80.049600 3347.000000
81.033600 5178.100000
81.057300 8982.000000
81.069900 18028.200000
82.065200 63137.500000
83.060300 2783.000000
88.992900 2839.300000
91.054200 3999.000000
93.070000 8724.600000
94.041400 221194.400000
94.065100 28124.500000
95.049200 29907.600000
95.073000 43203.200000
96.057100 3030.300000
97.076000 29448.200000
98.083900 15769.800000
99.055300 4792.900000
102.037500 3202.200000
108.080800 55713.100000
110.096500 306661.100000
117.024500 3009.600000
123.067900 3094.500000
125.005200 2295.700000
130.055900 8366.200000
138.091600 20660.400000

>ms2peaks
55.041600 2883.100000
56.049500 6392.600000
58.065100 55386.500000
65.038600 5477.300000
66.046400 14346.500000
67.041700 3561.600000
67.054200 14235.600000
68.049500 15548.600000
79.054200 10001.500000
80.049400 5622.300000
81.033500 6794.900000
81.057300 14197.800000
81.069900 10359.600000
82.065100 49207.100000
88.992900 2886.400000
91.054300 3937.400000
93.069900 5016.900000
94.041400 210197.700000
94.065100 54977.700000
95.049200 15326.000000
95.073000 46121.200000
96.057000 1580.900000
97.076000 39888.000000
98.083800 7358.900000
99.055300 2743.500000
102.037300 2883.400000
108.080800 36641.800000
110.096500 111229.200000
123.067800 1393.800000
130.055900 3118.200000
162.994800 1387.900000

