>compound EA64266673
>parentmass 153.1022
>ionization [M+H]+
>formula C8H12N2O
>rt 204.000000
>profile orbitrap
#smiles_iso CC1=CC(=O)NC(=N1)C(C)C
#smiles_can CC1=CC(=O)NC(=N1)C(C)C
#inchikey AJPIUNPJBFBUKK-UHFFFAOYSA-N
#pubchem_id 135444498
#mb_accession EA270602,EA270603,EA270604,EA270605,EA270606,EA270607,EA270608,EA270609,EA270610,EA270611,EA270612,EA270613

>ms2
84.044600 144687.900000
138.078900 100530.600000
153.102200 54560662.200000

>ms2
84.044600 508514.600000
137.071500 180563.900000
153.102200 61866176.100000

>ms2
70.065200 399787.700000
84.044400 5289598.900000
137.071200 141634.900000
153.102200 53977466.900000

>ms2
70.065100 1748752.200000
84.044400 12017460.400000
138.078100 108914.600000
153.102200 25686615.100000

>ms2
70.065100 2800520.500000
84.044400 13504962.100000
137.071000 131665.400000
138.078900 226417.100000
153.102000 8841311.000000

>ms2
56.049500 64632.300000
67.017900 73919.700000
70.065100 2096827.100000
84.044400 9319086.600000
137.071000 197512.400000
138.078900 117363.500000
153.102000 1998294.200000

>ms2
84.044000 61513.200000
137.070400 47577.500000
153.102200 36266644.200000

>ms2
84.044400 234235.800000
137.070800 49439.200000
153.102200 36022241.500000

>ms2
70.065100 293612.800000
84.044400 3216129.300000
153.102200 30759292.200000

>ms2
70.065100 1212051.800000
84.044400 8454735.100000
108.080600 26754.800000
112.075600 42702.000000
138.078600 92426.800000
153.102200 17680878.600000

>ms2
67.017700 23212.900000
70.065100 1866658.800000
84.044400 9080094.500000
112.075600 35812.100000
136.075500 33862.500000
137.071100 78580.900000
138.078700 147875.900000
153.102200 6145738.200000

>ms2
56.049500 35334.000000
67.017800 29431.800000
70.065100 1456114.200000
84.044400 5738527.400000
108.080800 15599.500000
137.070900 152766.800000
138.078600 101957.800000
153.102100 1259753.400000

