>compound EA64432940
>parentmass 135.1016
>ionization [M+H]+
>formula C6H14O3
>rt 192.000000
>profile orbitrap
#smiles_iso COCCOCCOC
#smiles_can COCCOCCOC
#inchikey SBZXBUIDTXKZTM-UHFFFAOYSA-N
#pubchem_id 8150
#mb_accession EA064302,EA064303,EA064304,EA064305,EA064306,EA064307,EA064308,EA064309,EA064310,EA064311,EA064312,EA064313

>ms2
59.049100 827526.500000
103.075200 2195644.700000
135.101200 533616.400000

>ms2
59.049100 7573088.900000
103.075300 8945744.400000
135.101700 608703.400000

>ms2
59.049100 7183660.300000
103.075300 3003870.200000

>ms2
59.049100 5732574.300000
103.075300 666367.700000

>ms2
59.049100 3639134.300000
103.075300 134605.600000

>ms2
59.049100 2776770.100000

>ms2
59.049100 652257.500000
103.075300 1754437.900000
135.101600 462020.800000

>ms2
59.049100 7007265.200000
103.075300 7721494.800000
135.101600 445522.000000

>ms2
59.049100 5453818.100000
103.075300 2207599.800000

>ms2
59.049100 5053054.100000
103.075200 503948.000000
135.102200 51258.000000

>ms2
59.049100 3630006.100000
103.075000 113971.900000

>ms2
59.049100 2038206.800000
135.101000 18328.000000

