>compound EA64653580
>parentmass 420.95110000000017
>ionization [M+H]+
>formula C12H4Cl2F6N4S
>rt 780.000000
>profile orbitrap
#smiles_iso C1=C(C=C(C(=C1Cl)N2C(=C(C(=N2)C#N)SC(F)(F)F)N)Cl)C(F)(F)F
#smiles_can C1=C(C=C(C(=C1Cl)N2C(=C(C(=N2)C#N)SC(F)(F)F)N)Cl)C(F)(F)F
#inchikey FQXWEKADCSXYOC-UHFFFAOYSA-N
#pubchem_id 9953940
#mb_accession EA266802,EA266803,EA266804,EA266805,EA266806,EA266807,EA266808,EA266809,EA266810,EA266811,EA266812,EA266813

>ms2peaks
319.983200 2590.000000
420.950600 1390957.200000
421.954600 10039.600000

>ms2peaks
87.000700 2824.700000
96.985500 2602.000000
181.999800 4368.500000
262.964500 2565.000000
264.981400 6729.700000
284.006100 2782.300000
285.014100 4700.700000
315.979400 2835.500000
316.986800 132883.400000
319.983900 31622.400000
335.936200 17580.800000
351.955400 31456.600000
365.974600 2504.000000
385.981500 9831.400000
420.950600 1156375.500000
421.954200 9298.800000

>ms2peaks
80.024400 10818.200000
87.001100 18028.000000
96.985500 10132.300000
97.993200 28079.700000
154.988200 12080.600000
181.999300 9633.100000
212.947000 2660.500000
227.958900 4222.100000
228.966200 9561.000000
237.970000 9601.900000
239.959100 14811.000000
246.004000 37016.500000
251.972600 3592.900000
254.969400 31121.600000
257.928200 13801.500000
262.964900 6711.000000
264.980700 108804.100000
267.976600 11828.800000
273.013400 5389.000000
274.965100 14054.100000
282.016900 4818.700000
282.922800 12744.700000
284.007100 10481.300000
285.014900 35634.500000
289.975900 39034.900000
292.973000 4141.000000
315.982100 4087.300000
316.986600 784867.100000
317.990900 5487.200000
319.983400 97896.000000
335.936800 11976.300000
350.949100 7654.300000
351.955900 23551.600000
365.976300 5517.300000
385.982600 7365.900000
420.950700 130338.800000

>ms2peaks
80.024300 2971.800000
87.000900 10943.300000
96.985700 4854.700000
97.993200 51199.400000
154.988700 8156.700000
212.947800 8221.000000
227.959100 14274.700000
228.966800 18882.400000
233.008300 12419.900000
237.969700 124272.500000
238.950600 11221.800000
239.959200 11530.900000
246.003900 40823.700000
247.953800 10566.100000
250.045600 19521.700000
251.972600 21849.900000
254.969600 85210.500000
256.918700 5888.400000
257.927700 22928.500000
258.004400 15111.600000
262.965100 119685.000000
264.980700 231784.700000
267.976400 6727.700000
273.014000 6893.000000
274.965000 83782.700000
282.017700 19476.400000
282.922800 17584.300000
284.008200 9618.800000
285.014800 30674.400000
289.975700 147141.900000
315.982200 3564.400000
316.986600 275751.200000
319.983700 17747.400000

>ms2peaks
71.990200 2685.700000
87.001300 4172.300000
97.993200 47791.300000
165.979700 2628.900000
191.982100 7331.600000
200.947500 9910.900000
201.993300 14114.600000
207.952500 4547.000000
212.947500 14986.500000
213.956300 6389.100000
221.009500 10581.900000
227.958700 38036.400000
228.966600 19164.800000
230.992000 8096.200000
233.008500 10638.500000
237.969700 217278.900000
238.950300 15384.300000
239.959000 8150.600000
246.003700 26024.800000
247.953900 36618.900000
250.046000 15319.300000
251.973100 12068.700000
254.969600 63438.300000
256.919400 13986.200000
257.926400 7470.700000
258.003900 10805.400000
262.965000 199899.900000
264.980600 130707.600000
273.014000 4937.900000
274.964800 63699.500000
282.016200 7302.800000
282.922400 2772.800000
284.006900 1856.800000
285.013900 2828.500000
289.975500 40148.100000
316.988000 15903.500000

>ms2peaks
87.000800 2556.800000
97.993200 36048.800000
165.979200 10385.800000
191.982300 20837.200000
200.947700 14673.400000
201.993000 37180.000000
207.952000 6324.400000
212.947900 10339.800000
217.963600 11173.400000
220.001000 9258.900000
221.009100 10877.800000
226.988400 24356.600000
227.958700 32820.900000
228.966600 4584.400000
230.992800 10729.500000
233.008800 5042.500000
236.963100 3814.100000
237.969600 152380.500000
238.950500 10014.900000
239.959800 8079.900000
242.959000 11523.600000
246.004200 9615.000000
247.953800 37277.000000
254.969600 15423.900000
256.920000 16254.500000
258.004300 3500.700000
262.964900 104496.700000
264.980200 33893.000000
274.964900 8860.300000
325.917000 3491.000000

>ms2peaks
420.950600 736101.100000
421.952600 6262.600000

>ms2peaks
181.998900 2483.300000
246.004300 2379.700000
264.980400 3484.400000
285.015000 2651.500000
316.986900 69473.400000
319.983800 23793.500000
325.915000 2596.000000
335.936900 8507.900000
351.956000 13572.900000
385.981200 3352.100000
420.950800 641212.900000
421.955500 4359.300000

>ms2peaks
80.024200 3873.300000
87.001000 8706.600000
96.985400 4534.600000
97.993300 14625.500000
154.988200 5063.000000
181.998900 4290.900000
228.966200 4450.800000
233.008300 2383.500000
237.970200 4728.400000
239.958600 6068.300000
246.003800 20867.900000
254.969400 14401.500000
257.927900 8117.800000
258.003800 1995.200000
259.011700 1860.600000
262.965900 3278.900000
264.980600 51835.100000
267.977300 4842.300000
273.013200 1992.900000
274.965400 5344.900000
282.016700 1863.400000
282.922300 5352.400000
284.006600 4317.000000
285.014700 20733.200000
289.975800 18601.900000
292.972200 3079.800000
315.979000 1558.000000
316.986600 381277.300000
317.989400 3911.200000
318.975200 2077.700000
319.983400 43318.500000
335.936700 6284.600000
350.947500 4376.100000
351.955500 9940.800000
385.984000 3227.600000
420.950600 65190.100000

>ms2peaks
71.990000 1693.000000
80.024300 2749.100000
87.001000 4032.700000
97.993200 26171.700000
154.988100 4684.700000
212.947400 3721.500000
213.956200 1984.800000
227.958700 6845.700000
228.966600 12179.600000
233.008000 5540.300000
236.962800 1756.000000
237.969500 68007.600000
238.950500 6431.500000
239.958100 5373.300000
246.003600 21952.500000
250.045700 10823.600000
251.972800 10426.400000
254.969600 38489.300000
255.007200 3051.100000
256.918900 2377.800000
257.927400 14023.900000
258.003500 6318.300000
262.964900 62987.800000
263.973600 1963.600000
264.980600 115334.900000
273.014200 3346.200000
274.965000 40498.300000
282.017700 10641.500000
282.922700 9407.600000
284.007100 5338.100000
285.014600 10968.400000
289.975800 75479.700000
292.972200 3029.300000
316.986600 126695.400000
319.983300 6817.700000

>ms2peaks
71.990400 1831.200000
96.985200 1434.900000
97.993200 23188.500000
165.979500 2055.800000
200.947800 3863.100000
201.993300 5069.500000
203.982400 3379.400000
212.947300 5406.300000
220.000300 2490.000000
221.007900 4306.200000
227.958700 14935.500000
228.966300 7582.400000
230.992700 4165.900000
233.008600 5676.800000
237.969600 91616.200000
238.950900 11947.100000
239.958400 4023.700000
242.958100 1622.500000
246.003700 8341.800000
247.953800 15089.800000
250.045300 4533.100000
251.972300 6873.100000
254.969300 29060.600000
255.007300 2332.900000
256.919400 8038.600000
257.927800 2758.100000
258.003700 4580.400000
262.964800 82399.000000
264.980500 55168.100000
274.964800 29251.600000
282.017100 3327.400000
289.975900 18004.000000
316.987100 5503.000000

>ms2peaks
97.993200 15151.800000
200.947700 5938.700000
201.993000 20313.300000
203.982200 7772.200000
212.948300 5188.800000
217.963100 4198.800000
220.001200 2251.700000
221.008500 6077.000000
226.988400 10831.300000
227.958500 13983.600000
228.966500 3205.300000
230.992600 4216.900000
237.969600 65604.000000
238.950700 5449.700000
242.958900 4771.000000
246.004200 6057.200000
247.954100 15312.100000
254.969600 7448.500000
256.919200 4401.200000
262.964900 50550.300000
264.980700 15514.100000
274.964200 8672.900000
289.975800 2307.700000
316.987800 2234.000000
325.913900 2276.300000

