>compound EA65219525
>parentmass 256.16960000000006
>ionization [M+H]+
>formula C17H21NO
>rt 480.000000
>profile orbitrap
#smiles_iso CC1=CC=CC=C1O[C@H](CCNC)C2=CC=CC=C2
#smiles_can CC1=CC=CC=C1OC(CCNC)C2=CC=CC=C2
#inchikey VHGCDTVCOLNTBX-QGZVFWFLSA-N
#pubchem_id 54841
#mb_accession EA284602,EA284603,EA284604,EA284605,EA284606,EA284607,EA284608,EA284609,EA284610,EA284611,EA284612,EA284613

>ms2
117.069800 21189.200000
148.112100 813771.000000
256.169600 4057543.500000

>ms2
147.080600 25405.800000
256.168900 329340.500000

>ms2
121.064900 32011.000000
147.080800 55053.200000
197.095500 36603.400000

>ms2
117.070300 33536.100000
121.065000 41278.800000
147.081200 40476.900000

>ms2
91.054300 42105.800000
115.053700 14453.500000
117.069800 59572.200000
121.065000 41722.100000
148.112300 21518.300000
182.072500 22108.800000

>ms2
91.054200 90674.100000
115.054200 21584.400000
117.069900 91099.000000
182.072700 18456.700000

>ms2
148.112000 600811.600000
256.169600 3025227.400000

>ms2
117.069700 18495.200000
147.079800 15981.400000
256.169400 266409.600000

>ms2
117.070000 32170.700000
121.064600 24614.300000
147.080400 42145.100000
197.095600 26337.000000

>ms2
91.054300 27767.500000
117.069800 34486.000000
121.064900 39154.500000
147.080200 20923.000000
182.072400 8204.000000
197.096000 33133.100000
256.170500 11458.600000

>ms2
91.054300 30980.700000
117.069900 53512.300000
121.064800 27323.800000
147.080900 8991.700000
154.077600 8902.900000
182.072800 25101.300000
197.095900 18731.700000

>ms2
91.054200 40434.200000
115.054200 15115.200000
117.069800 59264.400000
121.064800 15499.200000
154.077800 10086.700000
182.072800 14311.100000

