>compound EA65991484
>parentmass 252.12300000000002
>ionization [M+H]+
>formula C13H17NO4
>rt 396.000000
>profile orbitrap
#smiles_iso CC1=C(C(=CC=C1)C)N(CCOC)C(=O)C(=O)O
#smiles_can CC1=C(C(=CC=C1)C)N(CCOC)C(=O)C(=O)O
#inchikey MHGMSAFPNAKIRZ-UHFFFAOYSA-N
#pubchem_id 86290105
#mb_accession EA253602,EA253603,EA253604,EA253605,EA253606,EA253607,EA253608,EA253609,EA253610,EA253611,EA253612,EA253613

>ms2peaks
176.107300 41920.300000
178.122800 141435.100000
206.117600 1211696.900000
220.096800 26052278.000000
252.122900 11639595.100000

>ms2peaks
132.080800 330499.600000
146.096500 286218.000000
148.075500 44758.000000
148.112100 342676.700000
176.107000 325389.200000
178.122700 870058.600000
206.117700 1433321.900000
220.096800 33701057.700000
252.123100 259388.500000

>ms2peaks
91.054000 47227.700000
105.069900 545856.400000
106.077700 93667.100000
107.085600 647182.200000
117.057400 100803.100000
118.065100 213156.800000
119.085700 51043.300000
120.080800 170966.400000
121.065000 22831.700000
130.065100 69936.800000
131.073100 413972.300000
131.085800 80386.700000
132.080800 3848743.300000
133.075700 35842.200000
133.088600 497284.300000
146.096500 1747900.100000
148.075700 408150.200000
148.112100 4177134.700000
158.096400 120010.000000
164.107700 25263.300000
174.091100 110077.000000
176.107000 1090851.000000
178.122600 688858.800000
192.102000 215033.100000
196.073700 25140.300000
206.117700 151089.500000
220.096800 19305119.900000

>ms2peaks
77.038700 21842.500000
79.054300 188861.500000
91.054200 434330.700000
93.070000 45757.400000
103.054300 208642.000000
105.070000 2608510.800000
106.077800 428023.400000
107.085600 1147932.900000
116.061700 48593.600000
117.057400 729423.700000
118.065200 1012321.600000
119.049000 21405.900000
119.060200 56877.500000
119.085600 180174.900000
120.080800 478596.000000
121.064900 62388.000000
121.088600 46817.800000
121.101200 60948.800000
129.069900 75504.000000
130.065100 226865.800000
131.073000 1509825.300000
131.085800 188485.800000
132.080800 5759375.600000
133.052800 91690.000000
133.076200 116089.400000
133.088600 1402409.500000
134.096500 46023.300000
143.072500 50655.200000
146.096500 1456056.500000
147.104800 64800.000000
148.075800 456439.400000
148.112100 5022554.800000
149.059900 76205.200000
158.096400 97604.600000
174.091300 106316.900000
176.107000 567050.600000
178.122900 95581.800000
192.102000 125234.800000
220.096900 3572607.300000

>ms2peaks
77.038700 198903.600000
79.054300 611694.600000
91.054300 928603.600000
93.070000 103366.900000
95.049000 30513.700000
103.054300 626827.100000
105.070000 3988204.800000
106.077700 557878.200000
107.072900 63398.300000
107.085500 601915.400000
115.054200 31585.800000
116.062200 66943.400000
117.057300 1634863.300000
118.065200 1650902.700000
119.049700 25305.600000
119.060400 111983.700000
119.085500 218486.300000
120.080800 552700.900000
121.064700 99707.400000
121.088900 72335.600000
121.101500 44267.600000
123.080600 23561.100000
129.069800 66127.700000
130.065200 557661.100000
131.073000 1954636.800000
131.085500 122461.700000
132.080800 4065023.500000
133.052400 138369.900000
133.075900 87713.300000
133.088600 1169025.900000
134.096500 46897.900000
143.072800 58391.700000
144.080400 25404.300000
146.060300 49012.800000
146.096500 632092.200000
148.075700 198685.000000
148.112100 1987820.100000
149.059600 53143.100000
158.096300 38117.600000
174.091600 43416.300000
176.107500 115229.900000
220.097300 265163.500000

>ms2peaks
77.038700 497614.400000
79.054300 1135844.400000
91.054300 1309296.500000
93.069700 80915.600000
95.049300 59046.800000
103.054300 1066017.300000
104.049500 35353.700000
104.061800 18480.900000
105.045000 248995.600000
105.070000 3227364.800000
106.065200 50857.700000
106.077800 344366.100000
107.073400 48603.100000
107.085600 151853.900000
109.064500 20070.200000
115.054600 45233.500000
116.062000 77165.000000
117.057400 1885054.700000
118.065200 1549016.000000
119.049300 30089.700000
119.060400 110627.600000
119.085400 94484.300000
120.080800 357624.500000
121.065100 49563.900000
121.088200 48999.200000
129.069800 42220.300000
130.065200 939129.400000
131.073100 1424719.900000
132.080800 2294915.400000
133.052200 111328.100000
133.076300 41549.700000
133.088600 476619.200000
134.096700 17674.900000
143.073000 44204.800000
144.080400 37600.000000
146.060300 31415.400000
146.096500 191230.700000
148.076000 43297.500000
148.112100 426347.700000
149.059300 27745.400000

>ms2peaks
146.096200 20724.900000
176.107600 27607.500000
178.122500 115265.300000
206.117600 908236.900000
220.096800 20244335.900000
252.122900 9127258.100000

>ms2peaks
132.080800 225444.600000
146.096500 222700.900000
148.076100 31821.400000
148.112100 263429.500000
176.106900 232230.500000
178.122700 644466.000000
206.117700 1057502.300000
220.096800 25635397.800000
252.122900 151654.800000

>ms2peaks
79.054000 14611.000000
91.054200 35080.300000
103.054300 20871.100000
105.069900 371485.700000
106.077700 66172.800000
107.085500 467902.900000
117.057400 63847.500000
118.065100 143586.400000
119.085600 26935.800000
120.080700 112740.500000
121.064800 14862.300000
130.065400 22089.900000
131.073000 265565.200000
131.085400 60112.800000
132.080800 2726161.200000
133.075900 21890.500000
133.088600 375073.000000
134.096400 24201.900000
146.096500 1229356.500000
147.104200 39375.600000
148.075700 241644.600000
148.112100 2961589.600000
158.096700 59673.700000
164.107200 20162.200000
174.091200 76998.300000
176.107000 769397.800000
178.122700 462243.800000
192.101900 120107.200000
206.117600 128264.600000
220.096800 13907952.300000

>ms2peaks
79.054200 93362.700000
91.054200 269033.400000
93.070000 29844.800000
103.054300 127251.900000
105.070000 1909332.600000
106.064900 16346.500000
106.077800 300966.700000
107.085500 782972.300000
115.054300 12796.800000
116.062300 28734.300000
117.057400 490288.800000
118.065100 659127.100000
119.060400 33048.400000
119.085500 110067.900000
120.080700 301302.300000
121.064900 38232.600000
121.088600 20895.200000
121.101400 28970.000000
123.080600 12133.900000
129.070100 35397.500000
130.065200 183768.700000
131.073000 1077181.400000
131.085600 158386.200000
132.080800 4052157.400000
133.052300 53599.300000
133.076100 64738.000000
133.088600 970453.600000
134.096300 25382.500000
143.073100 38274.200000
144.080400 8925.300000
146.096500 1008054.100000
147.104300 57921.800000
148.075800 284206.700000
148.112100 3433270.600000
149.059600 44210.100000
158.096700 48363.600000
164.106800 25284.500000
174.091400 53790.500000
176.107000 406054.000000
178.122400 62880.500000
192.102000 95405.600000
220.096900 2544715.200000

>ms2peaks
77.038600 105553.100000
79.054200 383120.000000
91.054200 559165.100000
93.069800 42136.100000
95.048800 10692.300000
103.054300 405627.200000
105.069900 2656257.300000
106.065100 20904.200000
106.077700 336097.500000
107.073000 32157.600000
107.085500 348177.700000
115.054200 30241.700000
116.062100 45948.300000
117.057300 1105044.200000
118.065100 1009059.100000
119.049100 10920.400000
119.060300 69708.600000
119.085600 124548.000000
120.080800 318915.100000
121.064800 52291.800000
121.088700 33000.300000
129.070000 35196.100000
130.065200 378272.300000
131.073000 1324181.300000
132.080800 2729828.500000
133.052300 85761.000000
133.076000 60922.200000
133.088500 809527.400000
134.096400 30665.800000
143.072800 41326.800000
146.060000 27190.800000
146.096400 387708.600000
148.075700 118626.400000
148.112000 1327460.700000
149.059700 29512.900000
158.096500 21586.200000
174.090800 23462.300000
176.107000 62364.000000
220.096800 188974.500000

>ms2peaks
77.038600 275611.300000
79.054300 770093.600000
91.054200 826736.100000
93.069900 53696.900000
95.049100 33399.300000
103.054300 719019.600000
104.049500 26431.300000
104.062000 17695.600000
105.044800 159687.600000
105.069900 2124097.300000
106.065300 20703.200000
106.077700 222748.400000
107.072900 28841.600000
107.085500 129637.400000
109.064700 9244.300000
115.054300 33147.400000
116.062200 48147.400000
117.057300 1394657.400000
118.065100 1068504.300000
119.049000 11541.100000
119.060300 59426.600000
119.085600 55877.500000
120.080800 229965.200000
121.064800 31249.200000
121.088500 32449.300000
123.080300 9043.200000
129.069600 12172.900000
130.065100 660877.200000
131.073000 966221.300000
132.080800 1495212.800000
133.052300 68917.600000
133.075900 20163.600000
133.088600 346746.200000
134.096300 21473.200000
143.072800 19851.300000
146.060100 18874.800000
146.096600 102486.900000
147.103500 12088.700000
148.075500 19523.500000
148.112100 249673.700000
149.059700 13061.000000
196.071700 13358.900000

