>compound EA65310829
>parentmass 234.18519999999992
>ionization [M+H]+
>formula C15H23NO
>rt 702.000000
>profile orbitrap
#smiles_iso CC(C)N(CC1=CC=CC=C1)C(=O)C(C)(C)C
#smiles_can CC(C)N(CC1=CC=CC=C1)C(=O)C(C)(C)C
#inchikey RJKCKKDSSSRYCB-UHFFFAOYSA-N
#pubchem_id 92299
#mb_accession EA025502,EA025503,EA025504,EA025505,EA025506,EA025507,EA025508,EA025509,EA025510,EA025511,EA025512,EA025513

>ms2
91.053800 289825.700000
142.122500 23866.900000
234.185500 13906951.000000

>ms2
57.069900 109452.700000
84.080800 106405.100000
91.054300 2905909.200000
114.091400 29890.000000
126.128200 21853.000000
133.101200 46180.100000
142.122700 315154.300000
192.138500 679989.100000
234.185400 10250634.900000

>ms2
57.069800 251207.100000
58.065200 24545.700000
65.038600 34209.800000
84.080800 136754.800000
91.054300 7988268.300000
105.070000 34076.800000
114.091200 46377.800000
133.101200 144241.900000
142.122700 401750.600000
192.138300 835802.700000
234.185700 1914857.700000

>ms2
57.069800 169867.500000
58.065200 23059.100000
65.038500 61323.900000
84.080700 62478.800000
91.054300 9076028.200000
105.069800 54950.900000
133.101300 117054.900000
142.122800 100950.200000
192.138500 141544.400000

>ms2
57.069800 88277.600000
58.065200 24707.600000
65.038700 68568.400000
84.080800 28149.500000
91.054300 9760842.400000
105.069900 88211.800000
133.101100 78703.500000

>ms2
57.069900 66706.100000
65.038600 144584.700000
91.054300 9475483.700000
105.070000 75753.500000
133.101200 55035.600000

>ms2
57.069700 15125.900000
91.053800 244955.300000
142.122200 20567.600000
192.138100 19058.100000
234.185400 14638562.900000

>ms2
57.069800 133860.100000
65.038800 11492.800000
84.080800 106089.100000
91.054300 3038806.600000
105.069700 12250.500000
114.091400 24350.900000
126.127700 32453.900000
133.101100 53686.400000
142.122600 328756.100000
192.138400 655561.700000
234.185400 10771338.600000

>ms2
57.069800 209970.500000
58.065100 19395.700000
65.038600 27021.400000
84.080800 133179.900000
91.054300 7957583.800000
105.069900 44663.100000
114.091300 44270.500000
133.101100 169145.000000
142.122600 357217.800000
192.138300 858523.300000
234.185100 1664638.000000

>ms2
57.069800 133949.000000
58.065100 17343.600000
65.038600 36093.700000
84.080800 66560.500000
90.046400 11963.700000
91.054300 8635117.200000
105.069800 42294.400000
114.091100 9959.100000
133.101200 118969.900000
142.122600 87020.400000
192.138300 138517.900000
234.184300 43160.500000

>ms2
57.069800 86795.600000
58.065100 17896.500000
65.038600 47129.600000
84.080800 27125.000000
91.054300 8299293.300000
105.069900 42054.600000
133.101200 74228.300000

>ms2
57.069800 60802.200000
58.065100 21034.600000
65.038600 113174.600000
91.054300 7590859.400000
105.069900 49594.200000
133.101200 33507.500000

