>compound EA65920393
>parentmass 249.01920000000004
>ionization [M+H]+
>formula C9H10Cl2N2O2
>rt 600.000000
>profile orbitrap
#smiles_iso CN(C(=O)NC1=CC(=C(C=C1)Cl)Cl)OC
#smiles_can CN(C(=O)NC1=CC(=C(C=C1)Cl)Cl)OC
#inchikey XKJMBINCVNINCA-UHFFFAOYSA-N
#pubchem_id 9502
#mb_accession EA016002,EA016003,EA016004,EA016005,EA016006,EA016007,EA016008,EA016009,EA016010,EA016011,EA016012,EA016013

>ms2
60.044400 10099.300000
62.060000 26407.200000
88.039400 6937.100000
159.971500 83534.900000
160.978900 11973.400000
182.024300 112725.100000
187.966000 6294.600000
249.019300 1674559.400000

>ms2
60.044300 44996.100000
62.060000 53558.800000
88.039100 4241.700000
132.960200 9762.700000
159.971500 531203.800000
160.979300 77380.500000
174.995500 2963.300000
182.024100 439577.200000
187.966700 10063.000000
216.992700 51768.500000
218.000100 12428.100000
249.018900 424519.700000

>ms2
60.044400 28181.000000
62.060000 31668.200000
123.994200 3999.000000
125.002900 8220.300000
132.960600 34061.100000
153.021600 13019.900000
159.971600 724205.400000
160.979300 182868.000000
174.995000 3681.400000
181.016700 5743.000000
182.024200 422464.000000
187.967200 6350.300000
216.993000 53071.500000
249.019700 18900.100000

>ms2
60.044400 16705.600000
62.059900 12906.100000
123.995000 17237.500000
125.002600 63615.500000
132.960600 170935.300000
153.021400 67613.800000
159.971600 554746.100000
160.979300 248480.600000
165.021500 7892.100000
173.986900 3022.000000
174.994600 3517.300000
181.016500 43169.900000
182.024100 236155.300000
216.992600 30870.100000

>ms2
60.044400 9435.300000
123.994700 33894.500000
125.002600 151688.100000
126.010800 4203.500000
127.018400 4464.500000
132.960600 317838.100000
133.968000 4485.300000
142.004600 6038.000000
153.021400 118587.000000
159.971600 263756.000000
160.979400 263325.800000
165.021400 7355.700000
167.000700 5559.100000
173.987600 3220.700000
181.016200 62195.100000
182.024200 87357.700000
216.993000 20227.000000

>ms2
60.044400 6425.600000
63.023000 2739.700000
72.983800 12170.000000
82.944900 4868.400000
90.033800 17445.600000
98.999600 12146.300000
106.944800 3096.300000
118.053000 3859.900000
119.060600 3042.000000
123.994700 27385.300000
125.002600 197082.600000
126.010300 23228.400000
132.960600 391160.100000
133.968300 13310.500000
142.006100 5485.500000
153.021300 132788.700000
159.971500 89575.200000
160.979300 210651.800000
163.005300 6549.600000
165.021800 6803.000000
167.000000 3410.900000
173.987200 5647.400000
181.016300 36975.200000
182.024300 22577.800000
201.968700 3629.400000
216.992100 8360.800000

>ms2
60.044400 5386.200000
62.060000 21082.100000
88.039100 4314.300000
132.960600 2434.700000
159.971500 61697.800000
160.979200 6908.200000
182.024100 75076.000000
187.966500 4293.600000
216.992000 2386.700000
218.000400 2722.500000
249.019300 1214066.500000

>ms2
60.044300 28625.300000
62.060000 40237.400000
88.039400 5232.200000
159.971600 393521.100000
160.979300 52595.600000
182.024200 319359.000000
187.966700 3964.100000
216.993000 30538.900000
218.000600 7995.200000
249.019100 294631.300000

>ms2
60.044300 17362.900000
62.060000 21321.500000
123.994600 3810.500000
125.002500 7781.500000
132.960500 25982.600000
153.021200 6642.100000
159.971600 504960.000000
160.979300 128775.700000
181.016300 7333.500000
182.024200 299148.700000
187.966600 2866.300000
216.992900 31965.700000
249.019400 14280.900000

>ms2
60.044300 8203.900000
62.060000 7174.200000
123.994800 13893.900000
125.002600 48764.000000
132.960600 112255.700000
153.021400 37097.200000
159.971500 401104.800000
160.979300 177842.500000
165.022000 5095.900000
173.986700 2546.600000
181.016300 29001.300000
182.024100 166015.400000
216.992800 26190.800000

>ms2
60.044200 5766.700000
62.059900 3327.600000
98.999600 2467.200000
119.060400 2078.000000
123.994800 26737.100000
125.002600 102589.700000
126.010500 3665.000000
132.960600 232372.600000
133.968100 1959.300000
142.005100 4021.800000
153.021300 81180.800000
159.971400 181846.500000
160.979300 181511.800000
165.021200 4829.900000
167.000900 3523.400000
181.016300 43363.000000
182.024000 52895.200000
216.992700 17200.100000

>ms2
60.044300 3057.900000
63.022800 1992.500000
72.983900 6508.400000
82.944900 3295.500000
90.033800 8550.500000
98.999500 5986.800000
106.944900 2533.400000
118.052500 1842.600000
123.994800 17206.600000
125.002600 127694.600000
126.010400 11340.700000
127.018200 2181.800000
132.960600 266123.600000
133.968300 10976.800000
142.005400 2825.300000
153.021300 88603.200000
159.971500 53149.900000
160.979300 148384.000000
163.005500 2722.800000
165.021300 4510.100000
167.000500 3551.900000
173.987000 3056.200000
181.016200 21413.200000
182.023900 12492.500000
201.969600 1400.000000
216.992500 6231.300000

