>compound EA65066816
>parentmass 265.06309999999996
>ionization [M+H]+
>formula C9H10F2N2O5
>rt 102.000000
>profile orbitrap
#smiles_iso C1=CN(C(=O)NC1=O)[C@H]2C([C@@H]([C@H](O2)CO)O)(F)F
#smiles_can C1=CN(C(=O)NC1=O)C2C(C(C(O2)CO)O)(F)F
#inchikey FIRDBEQIJQERSE-QPPQHZFASA-N
#pubchem_id 9871558
#mb_accession EA264902,EA264903,EA264904,EA264905,EA264906,EA264907,EA264908,EA264909,EA264910,EA264911,EA264912,EA264913

>ms2
113.034500 145759.700000
265.062900 342893.300000

>ms2
59.029200 4948.500000
87.024100 20989.200000
107.030200 9606.500000
113.034600 351919.500000
135.025300 6557.500000
162.993900 2718.600000
265.062500 34567.700000

>ms2
59.029100 11938.700000
70.029100 3029.800000
79.035300 9829.700000
87.024100 32987.600000
96.008000 3875.700000
107.030300 13639.300000
113.034600 316980.100000

>ms2
59.029200 17947.600000
70.028800 18953.600000
79.035600 14608.300000
87.024100 26902.300000
96.008100 10649.400000
107.030400 3792.100000
113.034600 240544.000000

>ms2
59.029100 18848.500000
70.028700 39363.800000
79.035600 6184.700000
87.024000 12818.200000
95.023800 4298.000000
96.008000 27774.200000
113.034500 142696.600000

>ms2
59.029000 16363.300000
70.028700 48780.300000
79.035500 3619.000000
87.024200 8977.500000
95.024200 5416.400000
96.007900 43655.500000
113.034500 62815.200000

>ms2
113.034500 137820.900000
265.062900 333199.700000

>ms2
59.029200 4591.600000
70.028800 2595.700000
79.035300 2804.700000
87.024100 17014.100000
107.030200 9428.300000
113.034600 315483.400000
135.025300 5746.200000
162.993900 2315.100000
265.063000 31916.300000

>ms2
59.029200 11151.200000
79.035400 7048.300000
87.024100 24983.500000
96.007900 3150.300000
107.030300 8937.100000
113.034600 260473.400000

>ms2
59.029200 10409.400000
70.028800 14991.500000
79.035400 9188.400000
87.024100 24438.900000
96.008000 10824.700000
107.030500 3091.700000
113.034600 188754.600000

>ms2
59.029200 12180.000000
70.028800 26829.000000
79.035400 4282.400000
87.024100 11874.500000
95.023600 1903.700000
96.008000 23107.800000
113.034600 115450.300000

>ms2
59.029100 9039.800000
70.028700 35276.300000
79.035300 1863.900000
87.024100 5765.000000
95.024000 5070.600000
96.008000 25077.000000
113.034500 44098.600000

