>compound EA66494584
>parentmass 777.8613999999999
>ionization [M+H]+
>formula C17H22I3N3O8
>rt 72.000000
>profile orbitrap
#smiles_iso CC(C(=O)NC1=C(C(=C(C(=C1I)C(=O)NC(CO)CO)I)C(=O)NC(CO)CO)I)O
#smiles_can CC(C(=O)NC1=C(C(=C(C(=C1I)C(=O)NC(CO)CO)I)C(=O)NC(CO)CO)I)O
#inchikey XQZXYNRDCRIARQ-UHFFFAOYSA-N
#pubchem_id 3734
#mb_accession EA024102,EA024103,EA024104,EA024105,EA024106,EA024107,EA024108,EA024109,EA024110,EA024111,EA024112,EA024113

>ms2
74.060100 23030.300000
531.896500 5054.100000
558.885400 99295.200000
686.798500 14267.600000
777.857900 10815.100000

>ms2
74.060000 14793.500000
277.081200 6942.500000
293.945600 6383.700000
313.929900 4673.800000
331.941800 9322.500000
332.973500 2691.500000
386.982900 152657.000000
404.993900 15100.600000
413.970400 25396.400000
430.973700 19026.300000
441.808100 4075.900000
485.833200 6176.500000
496.848600 13661.100000
514.855500 8454.900000
531.900900 10346.700000
540.873900 5382.500000
541.883300 49672.600000
558.885000 51691.900000

>ms2
74.060100 9791.100000
186.019000 3253.800000
229.061800 4778.300000
259.034800 6057.500000
259.072300 9554.800000
260.079700 13067.600000
269.940300 5460.400000
277.082500 11318.800000
285.935800 22455.000000
293.945700 7675.400000
295.093500 3491.800000
297.935900 3848.800000
312.945600 7328.700000
313.931100 61191.400000
331.941600 68472.300000
332.971400 2540.500000
368.972600 6914.800000
386.983400 62654.600000
396.846000 3469.500000
397.812900 6569.800000
404.994100 7350.200000
422.812200 29453.600000
438.843700 11588.000000
496.848500 3061.600000

>ms2
103.041500 4135.900000
113.997200 2492.800000
130.029400 3598.200000
131.036900 3686.000000
141.992200 8440.200000
143.036000 2712.600000
144.007900 6495.000000
159.018800 2793.600000
159.032100 9913.800000
176.022500 3308.200000
185.034100 5037.600000
186.018300 8970.800000
187.049700 4198.000000
201.030300 2975.700000
241.946200 5316.200000
243.924200 2352.700000
257.940600 13202.200000
259.071100 14159.300000
260.078300 4083.000000
269.940800 26423.800000
285.936100 65113.300000
293.948700 7349.800000
295.920800 15355.200000
297.934800 3333.900000
312.947300 3878.200000
313.930700 29249.100000
331.941400 29155.000000
339.806700 2699.900000
368.974500 2636.400000
422.812300 9207.000000
441.806600 4207.300000

>ms2
91.041900 2643.600000
102.033900 5178.000000
103.041600 12819.700000
113.013500 7537.200000
113.997600 6907.600000
115.041500 7424.700000
115.989200 6641.900000
116.013400 2356.900000
130.028600 5293.400000
131.036600 12266.200000
132.044100 3304.600000
134.024300 4446.800000
141.008200 10057.300000
141.021400 4720.600000
141.992000 11911.400000
143.037300 2836.200000
144.008000 7652.500000
154.899000 3189.500000
158.023700 4421.300000
159.031700 14227.000000
160.039000 2967.100000
162.018700 3376.500000
185.034400 9808.700000
187.050100 2493.100000
200.906800 5891.100000
204.914300 6223.100000
212.907300 4872.300000
257.941000 24607.400000
259.919100 4879.800000
269.940800 18873.200000
285.936100 25613.400000
293.948800 7670.100000
295.921500 6469.400000
339.806300 3472.300000
341.825500 3827.700000

>ms2
86.002600 2341.000000
88.018300 6603.400000
102.034000 6896.800000
103.041600 19332.400000
113.013500 10128.300000
113.997500 9387.300000
115.041900 5698.200000
115.989400 8711.900000
116.013200 4712.300000
129.045000 3240.400000
131.036600 8841.700000
134.023900 7042.100000
141.992600 6942.100000
143.037200 2825.800000
148.039000 4824.900000
154.898400 5201.100000
159.031700 4152.700000
160.038900 3459.500000
200.907000 8388.500000
204.914500 4051.700000
212.906700 7452.600000
257.941400 8648.900000
269.941800 5342.900000
285.934900 5540.000000
293.945500 7799.500000

>ms2
74.060000 18643.400000
293.910100 2830.600000
293.950000 2241.900000
558.885200 74215.200000
686.798600 13237.700000
759.852800 4339.700000
777.861700 12904.600000

>ms2
74.060000 9102.400000
277.081500 5323.400000
295.092500 2345.100000
313.929700 3670.900000
325.964400 2469.900000
330.919800 1604.500000
331.940800 4841.400000
386.948000 15388.300000
386.983400 109433.100000
404.994400 11164.000000
413.970500 13794.600000
422.811400 2772.500000
485.832800 4021.100000
496.849200 9975.600000
514.857800 7799.700000
531.900100 6416.900000
540.875500 4553.000000
541.882500 30443.300000
558.884600 16801.082690
558.885100 38488.100000

>ms2
74.060000 7653.500000
176.021700 2327.700000
229.060200 2808.300000
259.034400 5235.900000
259.071300 10618.300000
260.079000 5463.200000
269.940400 4615.100000
277.081300 7194.100000
285.935800 9815.600000
295.920300 3526.500000
297.935800 1737.300000
312.947200 3806.200000
313.930700 43403.200000
330.920800 2930.000000
331.941000 52812.300000
368.973100 5826.000000
386.948600 3305.200000
386.983500 50021.500000
396.845800 2490.300000
397.815900 5158.400000
404.994100 5282.100000
422.811500 17606.100000
438.843300 7951.500000
441.806600 5650.100000

>ms2
74.060000 2936.700000
91.041900 1395.900000
102.033600 1671.100000
103.041700 2974.000000
113.013000 1724.600000
130.028500 1928.700000
134.023300 1545.800000
141.992400 6139.100000
144.007400 4649.300000
159.018300 2489.400000
159.031400 6703.900000
176.021200 1774.300000
185.035000 3169.800000
186.018300 3658.900000
187.050300 2276.400000
201.028900 1983.300000
204.914500 3104.900000
229.945600 1977.000000
241.946000 2779.600000
257.940900 11153.100000
259.071100 6690.600000
260.078500 2277.600000
269.940700 17809.600000
285.935600 43582.700000
293.928800 8153.800000
295.919600 10515.400000
313.930500 21629.200000
325.968900 2597.200000
331.941300 22261.400000
339.810600 1812.300000
341.827100 3470.500000
368.971500 2573.800000
397.815900 2494.100000
422.810400 7210.400000
438.843300 7712.000000
441.805100 2044.700000

>ms2
103.041700 9251.600000
113.013500 2326.500000
113.997200 3633.500000
115.041400 3879.000000
115.989200 4698.900000
130.028800 2795.600000
131.036600 5319.400000
134.024000 2570.300000
141.008100 4670.500000
141.020800 3258.000000
141.992200 9626.300000
144.008000 5512.800000
144.044300 1818.300000
148.039200 2681.800000
154.898800 3284.900000
158.023400 2750.200000
159.031300 9669.000000
160.038900 1828.300000
162.018600 3020.000000
185.034200 6482.000000
186.018500 3284.600000
200.906900 3295.200000
204.913500 5511.500000
229.945600 3026.700000
241.946200 1991.300000
243.925600 1523.500000
257.941100 11374.400000
259.071000 3138.000000
259.919600 3394.800000
269.940700 13110.500000
285.935700 21897.700000
293.900500 1429.300000
295.921000 3362.500000
313.930900 3455.700000
339.810300 2227.100000
341.826300 3115.100000
438.843400 2038.700000

>ms2
86.002500 1538.800000
88.018300 2141.900000
102.033900 3565.600000
103.041600 12922.400000
113.013300 3702.800000
113.997200 3843.100000
115.041700 3551.500000
115.988900 5181.900000
116.013200 1854.700000
129.044600 2464.700000
130.028800 2056.700000
131.036400 3038.600000
132.044600 2285.100000
134.023800 3526.500000
141.008000 3778.900000
141.992500 3734.500000
143.037000 1715.800000
144.008000 4210.600000
144.044200 2665.400000
154.898700 1958.500000
159.031500 4817.200000
162.019300 1714.300000
185.033700 4076.100000
200.907200 2522.400000
204.914300 4201.300000
212.906500 3830.200000
257.940200 3015.600000
259.919600 2618.500000
269.940800 4022.300000
285.936000 2021.700000
293.910300 4814.600000
293.927600 4302.600000
325.968100 3107.900000
341.826300 1858.000000

