>compound EA66015726
>parentmass 255.933
>ionization [M+H]+
>formula C7H4Cl3NO3
>rt 618.000000
>profile orbitrap
#smiles_iso C1=C(C(=NC(=C1Cl)Cl)OCC(=O)O)Cl
#smiles_can C1=C(C(=NC(=C1Cl)Cl)OCC(=O)O)Cl
#inchikey REEQLXCGVXDJSQ-UHFFFAOYSA-N
#pubchem_id 41428
#mb_accession EA294602,EA294603,EA294604,EA294605,EA294606,EA294607,EA294608,EA294609,EA294610,EA294611,EA294612,EA294613

>ms2peaks
145.956400 7923.300000
179.916500 5725.200000
181.932600 11572.800000
197.927300 163229.000000
209.927300 401699.500000
237.922400 708724.700000
255.933000 1666053.500000

>ms2peaks
145.955800 26707.500000
163.966000 7661.000000
181.932600 111320.000000
197.927400 426935.500000
209.927500 1841749.700000
237.922400 256007.500000
255.932600 131049.800000

>ms2peaks
62.963200 21271.600000
109.979300 3587.000000
133.956000 2474.100000
145.955900 171663.000000
146.963800 2529.800000
161.950100 5748.600000
163.966500 171514.700000
173.950100 3780.600000
179.917000 75830.500000
181.932600 500903.200000
197.927500 299211.900000
209.927500 1146813.900000

>ms2peaks
62.963200 30999.700000
106.945000 23709.400000
109.979200 23068.400000
127.989500 9984.600000
133.956000 18944.200000
145.955900 437086.900000
146.964400 6224.300000
161.950700 27416.000000
163.966500 403837.800000
173.950600 6581.100000
179.917000 273236.200000
179.960800 19718.100000
181.932600 363877.200000
197.927500 340458.600000
209.927300 221880.800000
237.930600 3879.700000

>ms2peaks
61.979400 3794.800000
62.963200 32391.300000
84.984000 5082.800000
106.945000 78465.900000
108.971400 2698.900000
109.979200 147840.200000
118.944800 26255.600000
127.989700 24482.200000
133.955800 39175.000000
143.940100 63455.300000
145.955900 532328.100000
146.963700 10101.500000
152.906100 3264.500000
161.950900 59115.900000
163.966400 388638.900000
168.923900 5519.900000
179.917000 499089.900000
181.932500 109708.900000
197.927400 309254.800000
209.928100 18471.000000
237.932600 3306.400000

>ms2peaks
61.979100 14932.100000
62.963100 19314.300000
83.975900 3713.500000
84.983900 8424.700000
97.979000 7342.700000
99.994500 4428.500000
106.944900 134991.400000
108.971300 16328.200000
109.979100 264079.700000
118.944900 100446.700000
127.989700 35307.100000
133.955700 36463.600000
143.940100 156518.100000
145.955800 287286.500000
146.963300 8272.000000
152.906000 8889.000000
161.950600 87371.500000
163.966300 148989.200000
168.924100 7481.400000
179.916800 334702.600000
181.932300 17430.400000
197.927300 107782.000000
237.930300 3069.400000

>ms2peaks
145.955600 4262.400000
179.916900 3714.200000
181.931900 6747.600000
197.927400 130219.700000
209.927400 307538.500000
237.922200 520396.100000
255.933000 1255841.900000

>ms2peaks
145.955700 17177.300000
163.966300 5728.200000
179.916800 2989.100000
181.932400 69732.400000
197.927400 278616.700000
209.927400 1148976.500000
237.922100 155096.100000
255.932700 91761.100000

>ms2peaks
62.963200 15636.900000
127.989800 2279.200000
145.955800 119185.700000
161.950800 5281.300000
163.966300 120083.300000
173.950800 2219.500000
179.916800 43979.000000
181.932400 357717.800000
197.927300 204371.800000
209.927400 795983.600000
237.921700 3676.700000
237.932800 2581.800000

>ms2peaks
62.963200 19434.100000
106.944900 11588.200000
109.979200 13695.400000
127.989700 4661.700000
133.955700 11857.800000
143.940300 5337.100000
145.955800 285236.600000
146.963800 2565.900000
161.950800 15049.600000
163.966400 267235.600000
173.950600 2477.200000
179.916800 193528.500000
181.932500 248022.700000
197.927400 241425.800000
209.927400 158090.300000

>ms2peaks
62.963200 16904.400000
84.984100 3023.500000
99.994500 2965.800000
106.945000 44506.300000
108.971000 2034.800000
109.979200 71310.700000
118.944900 12964.900000
127.989600 13290.900000
133.955800 22890.300000
143.940100 34526.400000
145.955800 264222.300000
146.963400 6591.000000
161.950700 29817.500000
163.966300 192485.200000
179.916800 267680.700000
179.961000 13542.900000
181.932500 59415.600000
197.927400 162830.100000

>ms2peaks
61.979100 8396.300000
62.963200 12404.800000
83.976100 2445.400000
84.983900 8064.700000
97.979300 3342.700000
99.994500 2972.800000
106.944900 75272.100000
108.971300 6059.200000
109.979100 149578.200000
118.944900 58185.300000
127.989600 21144.300000
133.955800 18610.000000
143.940100 91214.100000
145.955800 152768.300000
146.963800 3712.400000
152.905800 6168.000000
161.950700 49072.200000
163.966300 83180.900000
168.924600 2450.200000
179.916800 189265.700000
181.932200 6365.000000
197.927300 66563.000000

