>compound EA67317774
>parentmass 425.1530000000002
>ionization [M+H]+
>formula C23H24N2O4S
>rt 378.000000
>profile orbitrap
#smiles_iso CCCCC1=NC=C(N1CC2=CC=C(C=C2)C(=O)O)/C=C(\CC3=CC=CS3)/C(=O)O
#smiles_can CCCCC1=NC=C(N1CC2=CC=C(C=C2)C(=O)O)C=C(CC3=CC=CS3)C(=O)O
#inchikey OROAFUQRIXKEMV-LDADJPATSA-N
#pubchem_id 5281037
#mb_accession EA277602,EA277603,EA277604,EA277605,EA277606,EA277607,EA277608,EA277609,EA277610,EA277611,EA277612,EA277613

>ms2
425.152700 899818.400000

>ms2
97.010700 45953.700000
107.049600 6854.000000
135.044100 59272.000000
163.123400 9129.700000
189.101500 3648.800000
207.112800 316022.000000
245.110600 16991.800000
272.097900 25966.000000
273.105900 24466.000000
290.107800 13953.100000
291.116100 9249.400000
341.149600 85005.300000
379.146800 10918.600000
407.142200 32380.900000
425.152800 452614.700000

>ms2
78.033800 6888.700000
80.049600 10232.500000
84.080800 4154.300000
97.010600 66822.600000
107.049100 49894.400000
124.039300 17607.400000
135.044100 347785.700000
137.107500 5957.300000
161.107200 4736.100000
162.037600 5070.300000
163.122900 110509.500000
201.048800 9983.300000
202.056400 13161.900000
207.112700 269471.100000
244.102800 42697.100000
245.110600 30289.700000
272.097500 43771.600000
273.104600 21535.700000
291.116500 8006.800000
297.159400 23968.500000
341.149500 47186.200000
379.147400 16129.600000
425.153100 5375.500000

>ms2
78.033900 18944.300000
80.049500 32143.100000
97.010700 44757.900000
106.028700 7133.600000
107.049200 167661.400000
119.060000 3909.000000
120.068300 10014.700000
124.039200 13596.200000
135.044200 310624.800000
137.107100 4547.300000
161.029300 13825.500000
161.107400 3874.400000
162.037200 14631.300000
163.123100 80934.300000
164.058200 7712.800000
201.048300 39653.800000
202.055900 30602.700000
207.112900 55827.300000
215.064200 5378.900000
244.103000 24515.300000
245.110900 11184.800000

>ms2
77.038500 3636.600000
78.033800 18537.700000
79.054300 5116.900000
80.049500 31198.400000
84.080800 4988.700000
91.053900 4478.700000
97.010600 30768.100000
106.028600 8205.500000
107.049100 303624.900000
119.060300 10193.700000
120.068000 17601.700000
135.026400 8834.000000
135.044000 143314.100000
153.102500 4885.400000
161.029400 12878.800000
162.036900 13599.600000
163.122700 24422.700000
164.058100 7440.400000
169.076300 3075.600000
174.037300 16937.000000
201.048000 35842.400000
202.056000 12339.500000
207.112200 7612.400000
215.064300 4982.500000

>ms2
77.038400 19307.800000
78.033900 15682.800000
79.054200 10952.800000
80.049300 24777.100000
91.053900 5074.800000
97.010600 28925.100000
105.044400 6058.200000
107.049100 306524.500000
119.060300 13705.200000
120.068400 9796.600000
134.018300 4043.900000
135.026900 7969.100000
135.043900 48531.800000
160.022100 9057.200000
161.029600 12444.900000
162.037200 5517.400000
173.028900 6514.800000
174.036800 21142.100000
201.047800 16988.200000

>ms2
425.152600 451002.600000

>ms2
78.033900 2154.900000
97.010600 26460.300000
124.039300 2610.400000
135.044000 29562.000000
163.122600 6450.600000
207.112700 161135.300000
244.103300 1826.000000
245.110700 6618.100000
272.097500 13280.500000
273.105200 11621.600000
290.108200 5249.000000
291.116300 5339.400000
297.159100 2263.000000
341.149400 47615.800000
353.103600 2447.500000
379.147400 7327.200000
407.142000 17799.700000
425.152500 226066.200000

>ms2
78.033800 3715.500000
80.049400 3517.200000
97.010700 29727.400000
106.029000 2787.800000
107.049000 18337.900000
121.010900 1910.500000
124.039300 4850.200000
135.044100 178275.700000
162.037300 3603.400000
163.122900 62577.300000
164.058200 2168.400000
201.047700 6815.900000
202.055900 6562.700000
207.112800 139552.800000
244.102900 19478.600000
245.110400 17984.300000
272.097700 18896.400000
273.105500 8844.400000
291.115000 2953.300000
297.159900 9820.100000
341.149300 21528.800000
379.147800 6187.300000

>ms2
78.033900 6591.600000
80.049500 15470.300000
84.080700 3916.900000
97.010700 22986.400000
106.028700 4167.400000
107.049100 86401.000000
119.060300 2780.300000
120.068200 4206.300000
124.039300 5583.300000
135.044100 159697.600000
153.102500 2206.300000
161.029600 4523.200000
161.108000 2632.700000
162.037300 3783.100000
163.123000 40138.900000
164.058000 3727.500000
169.076400 2088.900000
201.048100 17299.700000
202.055800 14791.100000
207.112600 25362.500000
215.064300 3057.000000
244.103000 10823.800000
245.110500 5561.100000
297.158700 3385.300000

>ms2
77.038500 2619.900000
78.033900 8271.700000
79.054200 3685.900000
80.049500 15689.600000
84.081000 3484.200000
91.054000 2831.700000
97.010600 16672.900000
106.028500 3000.800000
107.049100 155462.400000
119.060300 5064.000000
120.068000 6428.300000
124.039000 2975.600000
135.044000 79873.600000
161.029100 4877.700000
162.037200 6466.400000
163.122900 11445.600000
164.058500 2704.800000
174.037100 7904.400000
201.047900 21661.000000
202.055500 9950.400000
207.113000 7505.600000
215.062700 2134.400000
353.104400 2371.500000

>ms2
77.038500 7372.200000
78.033800 9201.600000
79.054200 6758.200000
80.049400 10948.200000
91.054200 3587.100000
97.010600 10019.300000
105.044700 2749.700000
107.049100 171956.000000
119.060300 5866.100000
120.068200 6081.000000
121.010200 1285.800000
134.018400 1905.800000
135.026400 3125.800000
135.044000 22482.200000
160.021400 3896.300000
161.029300 3607.500000
162.037200 4108.300000
173.028700 1722.100000
174.037000 12883.400000
201.048000 10249.900000
353.102900 1174.200000

