>compound EA67244646
>parentmass 361.201
>ionization [M+H]+
>formula C21H28O5
>rt 480.000000
>profile orbitrap
#smiles_iso C[C@]12C[C@@H]([C@H]3[C@H]([C@@H]1CC[C@@]2(C(=O)CO)O)CCC4=CC(=O)C=C[C@]34C)O
#smiles_can CC12CC(C3C(C1CCC2(C(=O)CO)O)CCC4=CC(=O)C=CC34C)O
#inchikey OIGNJSKKLXVSLS-VWUMJDOOSA-N
#pubchem_id 5755
#mb_accession EA278302,EA278303,EA278304,EA278305,EA278306,EA278307,EA278308,EA278309,EA278310,EA278311,EA278312,EA278313

>ms2peaks
147.080900 5980.800000
279.174500 2920.700000
289.159700 4167.100000
307.169400 15246.300000
325.179000 27892.600000
343.190200 47466.100000
361.200700 15051.000000

>ms2peaks
147.080400 14868.600000
265.159600 5618.900000
279.175300 6317.500000
289.158100 7076.800000
307.168000 7026.200000
343.189600 12234.700000

>ms2peaks
121.064600 9454.800000
147.080200 26700.200000
171.080600 11961.500000
173.095500 10114.700000

>ms2peaks
121.064800 7118.200000
147.080500 16723.700000
171.080000 6875.300000
173.096400 6296.400000

>ms2peaks
119.085600 3656.200000
121.064500 7526.600000
147.080200 9569.800000
171.080800 3824.500000

>ms2peaks
121.064500 4853.000000

>ms2peaks
147.080200 2913.000000
307.169500 5566.900000
325.180000 7826.500000
343.189900 27715.200000
361.201000 5117.000000

>ms2peaks
147.080400 8774.500000
171.079800 2423.400000
173.095600 3311.500000
307.169100 2515.700000
343.189700 6227.800000

>ms2peaks
121.064700 2801.600000
147.080600 9042.400000
171.080000 3319.200000
173.095900 4105.500000

>ms2peaks
147.080600 3983.400000
171.080200 5373.800000

>ms2peaks
119.085700 1944.900000
121.064800 5054.500000
147.080400 5457.300000
265.158000 1745.500000

>ms2peaks
121.064800 2431.700000

