>compound EA67137821
>parentmass 215.08489999999998
>ionization [M+H]+
>formula C9H14N2O2S
>rt 450.000000
>profile orbitrap
#smiles_iso CC1=CC=C(C=C1)NS(=O)(=O)N(C)C
#smiles_can CC1=CC=C(C=C1)NS(=O)(=O)N(C)C
#inchikey UDCDOJQOXWCCSD-UHFFFAOYSA-N
#pubchem_id 738302
#mb_accession EA034002,EA034003,EA034004,EA034005,EA034006,EA034007,EA034008,EA034009,EA034010,EA034011,EA034012,EA034013

>ms2
77.038500 13174.700000
79.054300 97300.400000
106.065200 1774792.600000
107.072900 140414.600000
108.080800 44470.800000
136.099400 18463.600000
151.123000 1121603.100000
215.084800 1341553.800000

>ms2
77.038500 27902.100000
79.054200 218931.100000
106.065200 2967787.900000
107.072900 167981.200000
108.080900 37308.400000
136.099400 33509.500000
151.122900 428021.600000
215.085000 73939.000000

>ms2
77.038600 40885.800000
79.054200 306365.300000
106.065200 3337822.500000
107.072900 170675.700000
108.080700 15542.100000
122.096600 5000.300000
136.099300 48135.800000
151.122500 70344.300000

>ms2
77.038600 115504.800000
79.054300 654418.500000
105.044600 17815.400000
106.065200 2810209.000000
107.072900 142172.500000
108.080900 10468.200000
136.099500 42756.400000
151.122800 7713.200000
215.084400 4927.000000

>ms2
53.038400 15378.600000
77.038600 289242.100000
79.054200 1161336.400000
93.057300 4348.500000
95.049200 27139.800000
105.044700 55858.500000
106.065200 1946935.100000
107.072900 108968.600000
136.099400 26444.800000

>ms2
53.038500 30140.900000
77.038700 555051.300000
79.054300 1279747.800000
81.033200 5657.000000
93.057500 4517.800000
95.049100 57821.500000
105.044700 141006.600000
106.065200 1029316.100000
107.073000 69757.000000
121.075800 5598.200000
135.092100 5922.200000
136.099100 6554.100000

>ms2
77.038600 10448.900000
79.054200 78540.900000
106.065200 1670538.600000
107.072900 129942.000000
108.080800 43590.200000
136.099500 19505.200000
151.123000 1002516.500000
215.084900 1251419.700000

>ms2
77.038600 18636.300000
79.054300 198284.300000
105.044700 3742.600000
106.065200 2625965.600000
107.073000 156867.200000
108.080800 26746.500000
136.099600 26761.700000
151.123100 355598.600000
215.085000 60019.900000

>ms2
77.038600 28144.400000
79.054300 277331.500000
105.044700 5646.500000
106.065200 2643658.800000
107.072900 133713.500000
108.080800 19535.100000
135.104900 5164.100000
136.099500 33982.500000
151.122900 57591.300000

>ms2
53.038600 2173.600000
77.038600 83081.300000
79.054300 484606.300000
95.049300 5320.500000
105.044700 14720.900000
106.065200 2052995.200000
107.072900 111526.500000
108.080800 9707.800000
135.103800 2133.700000
136.099500 30519.100000
151.122900 6775.500000
215.085600 3228.900000

>ms2
53.038500 10494.300000
77.038600 216741.600000
79.054200 887864.600000
91.054500 2815.000000
93.057100 4185.500000
95.049100 21037.000000
105.044700 45681.400000
106.065100 1435721.600000
107.072900 81573.600000
108.081100 4798.300000
136.099300 16360.700000

>ms2
53.038500 13598.500000
77.038600 392889.100000
79.054200 962858.300000
81.033400 3244.800000
91.054500 2762.600000
93.057200 4417.300000
95.049100 41548.400000
105.044700 107905.200000
106.065100 745309.400000
107.072900 48943.100000
121.075700 4864.100000
135.091600 5912.600000
136.099400 6225.500000

