>compound EA67345771
>parentmass 358.0841
>ionization [M+H]+
>formula C19H16ClNO4
>rt 774.000000
>profile orbitrap
#smiles_iso CC1=C(C2=C(N1C(=O)C3=CC=C(C=C3)Cl)C=CC(=C2)OC)CC(=O)O
#smiles_can CC1=C(C2=C(N1C(=O)C3=CC=C(C=C3)Cl)C=CC(=C2)OC)CC(=O)O
#inchikey CGIGDMFJXJATDK-UHFFFAOYSA-N
#pubchem_id 3715
#mb_accession EA020702,EA020703,EA020704,EA020705,EA020706,EA020707,EA020708,EA020709,EA020710,EA020711,EA020712,EA020713

>ms2peaks
138.994700 6232114.600000
174.091500 1856785.000000
202.086300 50784.600000
220.097600 21270.600000
312.078100 119939.800000
358.084500 10181293.500000

>ms2peaks
138.994500 17985687.200000
174.091300 826996.000000
312.078200 59633.200000

>ms2peaks
86.999700 27049.600000
110.999500 46855.100000
138.994500 17373459.500000
159.067700 19837.200000
174.091200 352944.300000

>ms2peaks
51.022900 45803.300000
75.022800 15623.200000
79.017800 26788.500000
86.999600 184531.800000
110.999600 91605.400000
114.994700 26949.000000
129.010100 48641.000000
131.073000 56026.500000
138.994500 13160116.600000
139.005600 2031772.500000
159.067900 58265.300000
174.091200 149109.500000

>ms2peaks
50.015100 47060.200000
51.022900 159795.700000
55.017800 9060.700000
60.984000 10667.100000
62.963100 10213.900000
75.023000 53179.000000
79.017900 67015.900000
80.025700 48976.100000
86.999700 562685.800000
93.033400 31457.100000
110.999600 305892.600000
114.994700 72641.900000
129.010200 127827.500000
131.073000 92319.900000
138.994800 7390590.300000
140.003000 32190.200000
159.068000 49486.900000

>ms2peaks
50.015100 59873.400000
51.022900 215312.800000
55.017800 11721.600000
62.963300 7835.400000
74.015100 9505.200000
75.023000 323570.100000
79.017900 102748.600000
80.025800 75604.700000
84.983900 16174.300000
86.999700 879758.600000
88.978700 13808.100000
93.033500 38661.000000
94.041900 7279.300000
108.020800 10113.600000
110.999600 652225.300000
113.987000 12710.800000
114.994500 107917.500000
129.010200 205549.800000
130.065200 8782.800000
131.073000 104864.600000
138.994700 3181864.900000
139.005700 6153376.300000
140.003000 47273.100000
159.068600 24759.500000

>ms2peaks
110.994600 8806.600000
138.994600 4038728.300000
174.091500 1245424.000000
202.086400 30969.400000
220.097000 18269.000000
312.078500 69648.100000
358.084100 6595595.900000

>ms2peaks
138.994600 11159152.600000
174.091400 487340.700000
202.086400 13034.100000
312.078600 42376.600000
358.085300 75465.800000

>ms2peaks
86.999700 13639.500000
110.999200 15567.800000
138.994600 9331156.400000
159.067900 15745.500000
174.091400 202254.200000

>ms2peaks
51.023000 24754.000000
79.017900 13761.200000
80.025700 9680.500000
86.999700 91932.300000
110.999600 51012.900000
114.994500 12207.600000
129.010200 21474.800000
131.073000 23668.200000
138.994600 7284526.200000
139.006000 904199.000000
159.067800 32033.600000
174.091400 81067.500000

>ms2peaks
50.015100 15796.100000
51.022900 76928.900000
55.017900 4461.600000
75.022900 21677.000000
79.017800 32926.100000
80.025700 18311.700000
86.999600 286544.400000
93.033600 16080.000000
108.020300 4496.300000
110.999600 143257.400000
114.994600 35482.900000
129.010200 73670.500000
131.073000 56862.100000
138.994600 3969663.500000
139.005500 2141358.500000
140.002900 18564.000000
159.067900 23803.000000
174.091600 23697.200000

>ms2peaks
50.015100 24767.100000
51.022900 92211.700000
55.017800 5438.400000
60.984000 2906.200000
62.963300 6792.800000
74.015200 3318.800000
75.023000 128595.600000
79.017900 42154.300000
80.025700 30731.100000
84.984100 5946.600000
86.999700 365171.000000
88.978900 5739.500000
93.033600 17885.300000
94.041400 4262.800000
108.020700 6280.000000
110.999700 275767.700000
113.986700 3217.400000
114.994600 42994.200000
128.002300 2942.000000
129.010200 92845.100000
131.073000 44085.200000
138.994700 1359362.000000
139.005700 2735446.900000
140.002800 21640.700000
159.067800 10456.900000
174.091800 3616.400000

