>compound EA68141339
>parentmass 212.15059999999997
>ionization [M+H]+
>formula C9H17N5O
>rt 342.000000
>profile orbitrap
#smiles_iso CCNC1=NC(=NC(=N1)OC)NC(C)C
#smiles_can CCNC1=NC(=NC(=N1)OC)NC(C)C
#inchikey PXWUKZGIHQRDHL-UHFFFAOYSA-N
#pubchem_id 15359
#mb_accession EA015702,EA015703,EA015704,EA015705,EA015706,EA015707,EA015708,EA015709,EA015710,EA015711,EA015712,EA015713

>ms2peaks
212.150500 100127476.200000

>ms2peaks
170.103500 8296520.300000
212.150500 107755294.100000

>ms2peaks
57.044600 156043.400000
68.024200 654737.300000
71.060100 227199.500000
75.055200 366789.500000
85.076300 252838.100000
86.035200 212896.000000
96.055600 1884192.600000
100.050600 1755572.900000
114.066300 1238252.800000
128.081700 911131.300000
138.102900 682451.200000
142.072500 1502473.700000
170.103800 49076978.500000
180.124400 138248.800000
184.119300 235195.800000
212.150600 61991834.300000

>ms2peaks
57.044600 1293250.500000
68.024300 3247709.000000
69.008300 2191018.300000
71.060400 1067668.300000
75.055300 2483968.800000
82.040200 189416.200000
83.023900 246189.200000
85.076000 1265532.300000
86.034800 1577836.500000
96.055600 4437219.400000
97.039700 1020459.200000
100.050600 7227915.700000
114.066200 4298684.500000
128.081900 3614565.200000
138.077400 526193.100000
138.102400 286703.400000
142.072300 5670829.600000
168.087400 200743.300000
170.103700 45882819.500000
180.124300 183813.400000
212.150400 13071233.100000

>ms2peaks
57.044700 2591939.100000
58.028600 390803.900000
68.024300 5148211.900000
69.008300 4628688.700000
71.060300 1857653.700000
75.055300 4546698.500000
82.040000 389698.100000
83.023900 597029.300000
85.076100 2257657.100000
86.034900 2898073.100000
96.055600 4924661.800000
97.039600 1500010.500000
99.066400 532493.800000
100.050500 11688312.800000
114.066200 4089990.700000
128.081800 4823949.400000
138.077300 774581.700000
142.072300 5632525.200000
153.076300 164166.200000
168.088300 225795.600000
170.103600 17498151.000000
212.150500 892715.400000

>ms2peaks
57.044700 3703921.500000
58.028700 822994.400000
68.024300 7928806.700000
69.008300 5536848.600000
71.060400 1534107.000000
75.055300 3881046.700000
82.040000 584290.400000
83.024000 775278.500000
85.076100 1445939.200000
86.034900 3027166.200000
96.055600 2974066.300000
97.039700 1203116.300000
99.066200 264971.900000
100.050600 12407521.000000
114.066200 1903924.600000
128.081900 2405185.900000
138.077800 382415.600000
142.072300 3349794.100000
170.103500 3175116.700000

>ms2peaks
170.103300 511817.500000
212.150500 111768173.000000

>ms2peaks
170.103700 8132187.300000
212.150700 109411299.800000

>ms2peaks
57.044600 242742.600000
68.024300 839759.500000
75.055200 331940.200000
85.076000 427455.600000
86.034900 172515.400000
96.055700 1907943.600000
97.040100 118716.600000
100.050600 1753484.300000
114.066200 1143345.800000
128.081900 898179.500000
138.077300 234241.100000
138.102600 483436.200000
142.072400 1287577.300000
142.097100 161190.400000
170.103800 46093641.700000
212.150700 62122913.900000

>ms2peaks
57.044700 1133246.000000
58.028700 161270.600000
68.024300 2512106.000000
69.008300 2072091.500000
71.060400 825242.900000
75.055300 2299300.500000
82.040000 201811.700000
83.023900 231265.900000
85.076000 1107536.700000
86.034900 1384034.100000
96.055600 4203806.300000
97.039700 930676.200000
99.066300 146154.800000
100.050600 6988917.300000
113.082200 174606.000000
114.066200 3958717.200000
128.081900 3369057.400000
138.077400 597786.800000
138.102600 212965.700000
142.072300 5835831.900000
170.103700 45583454.600000
184.119300 177336.200000
212.150600 11402079.900000

>ms2peaks
57.044700 2072765.300000
58.028700 331181.600000
68.024300 4633262.100000
69.008300 4218746.900000
71.060300 1381180.100000
75.055300 3574987.200000
82.039900 168093.600000
83.024000 504887.600000
85.050900 132459.200000
85.076000 1592144.700000
86.034900 2407357.700000
96.055600 3748825.700000
97.039700 1228866.500000
99.066600 277847.100000
100.050600 10245640.400000
113.082200 207369.700000
114.066200 3603221.000000
128.081800 3266022.000000
138.077400 781414.600000
142.072300 4768282.300000
168.088300 192183.500000
170.103600 14510622.500000
212.150200 717383.000000

>ms2peaks
57.044700 2623861.500000
58.028700 461507.200000
68.024300 6162870.800000
69.008300 4465899.300000
71.060400 1359908.600000
75.055300 3361221.500000
82.039900 336400.600000
83.024000 577792.000000
85.050900 253565.200000
85.076000 1040699.900000
86.034900 2283350.900000
96.055600 2667488.800000
97.039600 893219.400000
99.066500 213676.200000
100.050500 9836568.100000
114.066200 1801736.900000
128.081800 1923628.200000
138.077300 341150.900000
142.072200 2204825.500000
153.077000 160145.700000
168.087400 83042.700000
170.103600 2510898.900000

