>compound EA68922181
>parentmass 362.1154000000001
>ionization [M+H]+
>formula C19H20ClNO4
>rt 636.000000
>profile orbitrap
#smiles_iso CC(C)(C(=O)O)OC1=CC=C(C=C1)CCNC(=O)C2=CC=C(C=C2)Cl
#smiles_can CC(C)(C(=O)O)OC1=CC=C(C=C1)CCNC(=O)C2=CC=C(C=C2)Cl
#inchikey IIBYAHWJQTYFKB-UHFFFAOYSA-N
#pubchem_id 39042
#mb_accession EA020902,EA020903,EA020904,EA020905,EA020906,EA020907,EA020908,EA020909,EA020910,EA020911,EA020912,EA020913

>ms2
138.994300 14234.300000
276.078400 90717.200000
316.109400 181474.600000
344.104200 22042.300000
362.115000 380112.900000

>ms2
87.044000 4487.400000
121.064800 90521.100000
138.994500 236440.400000
161.096100 32049.300000
189.090600 4841.500000
207.102100 18678.800000
276.078500 167711.900000
316.109600 211493.000000
344.103800 8020.400000

>ms2
59.049100 5652.300000
87.043900 9063.100000
121.064700 217489.300000
138.994400 399974.800000
161.095800 47177.300000
316.108700 6155.900000

>ms2
59.049100 7046.200000
77.038600 3886.400000
91.054200 5980.100000
93.069800 17006.800000
103.054000 8176.700000
120.056800 4702.500000
121.064700 234545.700000
138.994400 292131.800000
161.095500 13237.400000

>ms2
59.049200 7595.700000
77.038500 11017.400000
91.054200 22938.000000
93.069800 35047.000000
103.054100 41970.400000
110.999400 6106.500000
120.057300 3108.100000
121.064700 169895.400000
129.010700 3960.200000
138.994400 192788.800000
139.005800 67060.900000

>ms2
59.049100 4339.700000
77.038500 28534.600000
91.054100 33579.500000
93.069700 29005.100000
95.049200 3604.400000
103.054100 57607.500000
105.044500 9185.500000
110.999500 15564.900000
120.057200 4673.200000
121.064600 77561.500000
129.010600 4817.200000
138.994400 84889.200000
139.005500 115060.100000

>ms2
121.064500 3983.300000
138.994500 4126.600000
276.078200 57635.700000
316.109400 114973.300000
344.104600 12263.400000
362.114900 236147.500000

>ms2
87.044200 4235.500000
121.064700 64062.000000
138.994400 150025.300000
161.095900 22115.600000
189.090700 2631.700000
207.101400 10503.000000
276.078300 92303.200000
316.109600 148023.800000
344.105500 3812.500000
362.116000 3952.300000

>ms2
59.049100 3170.900000
87.043900 4902.200000
120.056900 2937.300000
121.064700 124908.400000
138.994400 245594.400000
161.095900 27375.500000
189.091300 2506.700000
276.077600 3541.600000
316.110300 5196.100000

>ms2
59.049100 4193.000000
91.054100 3981.500000
93.069700 8491.400000
103.054100 5432.600000
120.056900 3650.200000
121.064600 138864.600000
138.994300 186686.100000
139.005500 10870.900000
161.095800 5049.600000
189.091400 2017.100000

>ms2
59.049000 3345.800000
77.038600 6548.000000
91.054100 13572.200000
93.069800 17512.400000
103.054100 20829.200000
110.999800 3230.500000
120.056700 3211.500000
121.064700 97649.900000
138.994400 118094.800000
139.005600 37763.000000

>ms2
59.049100 3633.900000
77.038500 17125.900000
91.054100 21175.800000
93.069800 14768.300000
95.049100 2086.600000
103.054100 33122.600000
105.044600 4633.000000
110.999500 6266.800000
121.064700 47692.600000
129.010000 4282.900000
138.994400 47980.000000
139.005600 70099.700000

