>compound EA68592643
>parentmass 325.1711
>ionization [M+H]+
>formula C20H21FN2O
>rt 396.000000
>profile orbitrap
#smiles_iso CN(C)CCCC1(C2=C(CO1)C=C(C=C2)C#N)C3=CC=C(C=C3)F
#smiles_can CN(C)CCCC1(C2=C(CO1)C=C(C=C2)C#N)C3=CC=C(C=C3)F
#inchikey WSEQXVZVJXJVFP-UHFFFAOYSA-N
#pubchem_id 2771
#mb_accession EA290102,EA290103,EA290104,EA290105,EA290106,EA290107,EA290108,EA290109,EA290110,EA290111,EA290112,EA290113

>ms2
109.044400 55126.500000
325.171300 19881104.900000

>ms2
58.065100 71374.300000
109.044800 2059686.000000
116.049500 272131.600000
123.024200 36978.400000
156.080800 122575.900000
166.065200 203908.300000
234.071100 203735.100000
236.086500 36304.500000
238.067100 51077.200000
242.095900 37105.800000
250.103000 56501.500000
262.102600 3776551.100000
280.113200 284365.000000
307.159800 301879.000000
325.171100 14015380.800000

>ms2
58.065100 358460.300000
84.080900 80718.300000
109.044800 6950207.900000
116.049400 953415.300000
121.045000 46991.800000
123.024000 65149.800000
130.064700 51861.100000
142.065400 43628.000000
144.044800 76976.400000
154.065800 42056.100000
156.080700 330543.500000
166.065000 784990.200000
168.080200 54308.000000
184.074900 54732.000000
221.063500 392684.500000
222.071700 203682.100000
227.072900 128483.300000
234.071300 1312346.000000
235.091500 273921.500000
236.086500 219910.800000
238.066400 286574.500000
242.096300 548405.000000
245.077000 37490.400000
247.079000 833869.600000
250.102700 281514.000000
260.086400 106017.800000
262.102500 4255574.100000
280.113100 133995.600000
307.160400 323954.500000
325.171300 1707597.300000

>ms2
58.065200 331046.100000
84.081200 101450.300000
109.044900 6976954.900000
116.049600 1187478.000000
121.044700 113231.600000
123.024000 98997.400000
129.069700 108145.500000
130.064800 72327.800000
140.049400 144883.400000
142.065300 98749.600000
144.044400 122624.700000
156.080900 301591.100000
159.060300 40319.000000
166.065200 873181.700000
203.072800 44572.600000
215.085300 194160.000000
216.081600 56035.100000
218.060800 154177.500000
220.068000 122805.200000
221.063600 556916.100000
222.071700 408243.800000
227.073100 674829.400000
233.076400 97823.500000
234.071500 1840319.200000
235.091600 206619.200000
236.086900 115917.700000
238.066500 312485.600000
240.081900 126444.900000
241.089200 139259.200000
242.096800 394665.500000
245.075300 47866.900000
246.071900 256054.300000
247.079200 1674474.800000
250.103200 301549.800000
260.087100 124712.700000
261.094800 226595.400000
262.102500 1143333.100000

>ms2
58.065100 330165.800000
83.028900 41050.600000
84.080500 48403.900000
89.038600 61298.900000
103.054400 62958.700000
109.044800 6377853.500000
116.049500 1193873.700000
121.045000 123477.100000
123.024000 93242.400000
128.062200 37389.700000
129.069600 152732.300000
130.064500 69801.300000
133.044800 103756.700000
139.053800 81686.900000
140.049300 357801.100000
142.064500 70994.300000
154.064500 96351.300000
155.060300 44747.800000
156.080900 136759.200000
159.060600 61103.400000
166.065000 795827.500000
183.059900 53088.300000
189.070000 37028.900000
190.065100 99529.300000
207.060800 80535.300000
208.055700 78657.200000
214.065700 85822.000000
215.085300 253115.000000
218.060400 161848.700000
221.063500 733902.100000
222.071600 217085.800000
227.072900 814140.100000
228.080400 46159.700000
233.075600 177714.300000
234.071200 1510470.300000
235.078700 206413.300000
238.066000 103304.800000
240.081200 283027.200000
241.088100 216119.700000
242.096500 116736.600000
245.064600 55730.100000
246.071100 989576.400000
247.079100 1581117.700000
250.103400 111595.200000
261.094800 209397.700000
262.101900 242077.300000

>ms2
58.065100 277529.800000
83.029200 246429.900000
84.081000 69093.900000
89.038500 200570.700000
103.054400 122190.700000
109.044900 5630659.400000
115.054100 84970.400000
116.049500 1108993.900000
121.045200 70259.200000
123.024400 57449.900000
129.044500 62399.200000
129.069600 98384.000000
133.045100 94953.400000
139.054500 105380.600000
140.049500 645540.300000
141.057500 38928.600000
142.065600 56680.300000
146.053000 78952.100000
154.065200 86172.600000
155.060900 107735.200000
156.080300 42353.500000
159.060400 44323.600000
166.065200 455241.400000
183.060300 111044.600000
190.065400 261660.700000
202.078000 66447.500000
207.060600 279001.200000
208.056200 345702.600000
209.076000 39071.100000
214.066000 196094.300000
215.085300 193257.300000
218.060200 115928.300000
219.047900 64989.600000
220.067600 470461.900000
221.063700 872264.700000
222.071100 104856.900000
226.066100 54414.400000
227.073000 907059.100000
228.080400 69362.200000
232.056300 75237.600000
233.076400 223901.800000
234.071300 718841.600000
235.079100 188947.000000
237.058000 98555.700000
238.066000 60619.600000
240.080700 410514.500000
241.089200 111982.600000
245.063400 297700.700000
246.071300 1371285.200000
247.079200 698214.500000
248.085800 42082.900000
259.078000 80834.400000
260.086200 118905.600000
261.094400 105297.500000

>ms2
325.171200 18160683.400000

>ms2
58.065100 49985.500000
109.044700 1919214.000000
116.049400 208226.100000
144.044300 43539.500000
156.080600 147896.300000
166.064900 178069.500000
184.075700 26845.200000
234.070900 124258.200000
236.086800 49838.800000
238.065800 67938.400000
242.095800 45203.400000
247.079600 46715.600000
250.102400 77051.900000
262.102500 3514157.900000
280.113100 302073.300000
307.160300 339015.500000
325.171100 13960820.300000

>ms2
58.065100 354811.900000
84.080700 65294.500000
109.044800 6356108.300000
116.049400 942274.200000
121.044700 55562.400000
123.024100 69458.100000
123.060300 57655.800000
130.065000 61995.800000
133.045400 20459.800000
140.049200 72349.400000
142.065200 28613.800000
144.044400 79167.900000
147.060500 46167.000000
154.065100 53579.500000
156.080600 339874.200000
166.065000 659337.900000
168.080500 61460.700000
184.075700 32586.100000
215.085600 76103.200000
221.063400 333974.900000
222.071100 217776.300000
224.086900 42678.100000
227.072800 133260.600000
234.071200 1374812.300000
235.091600 238873.800000
236.086800 172369.300000
238.066100 288812.600000
240.081700 34058.200000
241.087900 56335.100000
242.096300 505638.000000
245.076100 34778.200000
247.079000 767675.300000
250.102400 242825.000000
260.086900 100392.700000
261.094200 60721.700000
262.102400 3819863.600000
280.113800 88417.300000
307.160300 350902.000000
325.170500 1400572.300000

>ms2
58.065100 329289.700000
72.080500 32058.500000
84.080800 125271.300000
97.044900 39329.100000
103.054100 23385.400000
109.044800 6368945.700000
116.049400 995985.800000
121.044900 65586.200000
123.024200 94765.800000
123.060200 48027.100000
125.040100 24157.500000
129.069800 107741.100000
130.065000 76033.200000
133.044700 51049.300000
140.049300 141374.200000
142.065000 51763.800000
144.044400 99652.400000
147.060600 35132.500000
154.065100 88259.100000
156.080700 285021.300000
159.060600 31975.800000
166.065100 764250.100000
184.075800 21942.900000
190.065100 35874.700000
215.085500 214705.600000
216.080500 27023.200000
218.060000 108131.700000
220.055500 28324.100000
220.068200 103220.000000
221.063400 497652.600000
222.071200 341889.200000
227.072800 521145.100000
233.076000 121672.100000
234.071200 1597623.500000
235.078900 98370.300000
235.091600 153316.700000
236.086700 117830.000000
238.066100 298303.800000
240.080700 120784.000000
241.088300 162611.100000
242.096400 354236.000000
245.075500 39545.600000
246.071000 190874.200000
247.079000 1488181.500000
250.102500 255340.800000
260.087200 125648.400000
261.094600 193642.700000
262.102400 965969.800000
307.160500 37639.000000

>ms2
58.065100 291507.500000
72.080600 45791.400000
83.029100 49022.400000
84.080800 50239.100000
89.038400 63313.100000
103.054100 30874.500000
109.044800 5403631.300000
115.054300 42753.900000
116.049400 1037769.300000
121.044700 112339.800000
123.024000 57653.400000
123.060500 43389.100000
129.044300 24382.400000
129.069700 172506.000000
130.065300 41967.200000
133.044800 67226.300000
139.053900 47755.800000
140.049300 365094.000000
141.057100 24404.400000
142.064700 74100.500000
146.052600 30528.900000
153.057300 22316.900000
154.065300 89229.800000
155.060000 45635.200000
156.080700 116748.900000
159.060300 46240.900000
166.065000 671492.900000
190.064700 115576.700000
195.060100 26513.300000
196.069100 35319.300000
202.065200 28311.800000
202.077400 39163.500000
203.072300 51449.800000
207.060100 98414.600000
208.055500 91105.900000
209.075400 29210.500000
214.064800 55942.000000
215.085300 228715.800000
216.080300 38880.800000
218.060000 170741.200000
220.055300 109053.700000
220.068000 316396.800000
221.063400 710247.500000
222.071200 254661.300000
227.072800 743624.600000
228.080400 45106.300000
232.055900 23201.000000
233.062800 32589.800000
233.075900 123923.700000
234.071200 1198855.700000
235.079100 166496.300000
237.058400 46422.500000
238.066300 86749.100000
240.080700 199964.500000
241.088500 166432.400000
242.096300 103177.200000
244.068700 43416.900000
245.063600 50149.700000
245.075900 37618.900000
246.071100 928897.100000
247.079000 1287748.200000
250.102700 85502.100000
259.079700 24696.200000
260.086500 110391.300000
261.094800 153638.600000
262.102100 234536.400000

>ms2
58.065100 238512.400000
72.080700 15372.900000
83.029100 162186.800000
84.080700 29641.200000
89.038600 118727.300000
97.044700 28130.800000
103.054200 76047.200000
109.044800 4592859.800000
115.054200 82507.200000
116.049500 834085.700000
121.044700 61471.400000
123.024000 56314.700000
123.060500 23399.600000
128.062000 46550.800000
129.044600 62237.600000
129.069900 81522.000000
130.065100 40404.300000
133.044800 73897.400000
139.054200 136406.700000
140.049400 533238.900000
141.057300 47699.300000
142.065100 40203.700000
146.052600 30811.700000
153.057300 22262.500000
154.065000 60158.700000
155.060300 80141.400000
156.080900 27287.800000
159.060500 31488.200000
166.065000 343579.600000
183.060400 90412.900000
189.070000 42387.800000
190.065000 220972.600000
195.060300 82907.900000
196.068100 24928.200000
202.064800 21269.200000
202.077500 48023.700000
207.060400 200131.000000
208.055600 326481.200000
209.076000 16710.000000
214.065100 152197.100000
215.085400 155362.900000
218.060200 53398.900000
219.047600 41421.100000
220.055600 81654.000000
220.068200 284133.200000
221.063400 622419.800000
222.071100 83717.100000
226.064700 34881.700000
227.072800 744559.400000
228.080700 68801.800000
232.055700 84980.900000
233.063200 52136.800000
233.075900 165836.600000
234.071200 550360.700000
235.079100 126895.700000
237.058300 66400.100000
238.066100 17339.200000
240.080700 275044.100000
241.088400 76985.200000
242.096000 22238.200000
244.068000 55071.000000
245.063300 232343.900000
246.071200 1146285.700000
247.079000 593104.100000
248.087000 18678.400000
259.078900 55597.300000
260.086700 124096.300000
261.094600 73689.100000

