>compound EA69664937
>parentmass 310.2165
>ionization [M+H]+
>formula C21H27NO
>rt 504.000000
>profile orbitrap
#smiles_iso CCC(=O)C(CC(C)N(C)C)(C1=CC=CC=C1)C2=CC=CC=C2
#smiles_can CCC(=O)C(CC(C)N(C)C)(C1=CC=CC=C1)C2=CC=CC=C2
#inchikey USSIQXCVUWKGNF-UHFFFAOYSA-N
#pubchem_id 4095
#mb_accession EA282802,EA282803,EA282804,EA282805,EA282806,EA282807,EA282808,EA282809,EA282810,EA282811,EA282812,EA282813

>ms2peaks
105.033100 41043.600000
265.158500 2364864.700000
310.217000 12435083.700000

>ms2peaks
57.033200 54768.700000
91.054400 77109.500000
105.033400 713191.800000
105.069900 114572.400000
159.116900 246485.500000
161.096500 21862.000000
187.111700 137957.000000
195.116900 106626.000000
219.116700 213727.800000
223.111700 569150.700000
247.148100 459602.600000
265.158800 12782158.300000
310.216300 1377195.700000

>ms2peaks
57.033500 110432.100000
77.038700 114487.200000
91.054300 489334.900000
105.033600 3157613.700000
105.070100 411341.100000
117.070000 283420.000000
129.069900 106973.400000
131.085500 50315.900000
143.085700 75944.000000
145.065300 43471.800000
145.100700 30208.700000
147.080200 34260.900000
159.079500 41355.500000
159.117000 403763.500000
167.085600 36500.500000
169.100600 46746.600000
187.111700 189150.300000
195.117000 641549.600000
204.093100 30254.300000
205.101100 130540.100000
207.116600 101209.500000
218.109100 148784.100000
219.116900 962746.600000
223.112000 1376097.100000
236.120000 70227.600000
247.148400 456393.400000
265.158900 2135651.200000

>ms2peaks
57.033500 82172.200000
77.038700 175001.300000
91.054200 926133.700000
105.033500 4161680.700000
105.069900 471822.300000
115.054500 44369.400000
117.069800 650834.000000
129.069900 239740.500000
131.084900 74140.700000
143.085500 66892.100000
145.064600 107676.300000
145.100900 31122.600000
147.080500 46078.100000
159.079000 34704.200000
159.116900 141409.900000
167.085300 212863.200000
169.101300 46841.400000
191.085700 55644.600000
194.072500 92823.300000
195.080000 43652.100000
195.116800 406096.400000
203.084600 39808.300000
204.093000 312701.500000
205.101300 177070.200000
217.101000 57721.300000
218.108700 288144.400000
219.116700 613142.800000
223.111400 288464.400000
224.119300 54472.200000
232.124600 64908.200000
236.120200 89917.300000
247.146900 31015.800000

>ms2peaks
57.033400 62117.400000
77.038600 477866.300000
91.054200 946632.000000
95.049100 47132.900000
103.054300 32419.000000
105.033500 3140077.500000
105.070000 334977.100000
107.049000 30100.100000
115.054200 103220.300000
117.069900 672673.500000
128.061900 39555.800000
129.069800 200278.100000
131.085600 67221.600000
141.070100 39136.000000
143.084900 40385.900000
145.064800 61651.700000
147.080400 29696.900000
155.059800 16788.400000
158.072600 25442.400000
159.080200 27538.900000
166.078300 24827.100000
167.085600 267436.600000
169.102000 16614.400000
178.077500 56965.800000
179.085300 52047.100000
190.077700 26421.800000
191.085700 73572.700000
192.093000 24638.700000
194.072400 174392.500000
195.080900 26110.000000
203.085600 162279.700000
204.093400 515657.200000
205.102000 70651.700000
217.101100 134737.600000
218.108800 222541.300000
219.116900 116585.100000
221.095400 42397.700000
236.118900 20262.900000

>ms2peaks
53.038600 43465.500000
57.033400 24927.900000
77.038600 936831.100000
79.054100 43933.900000
91.054200 1016981.400000
95.049100 115387.000000
103.054300 78750.500000
105.033500 2175644.700000
105.044700 306567.200000
105.069900 330691.400000
107.049600 25244.900000
115.054200 224903.200000
117.069800 493203.600000
128.062000 127482.500000
129.069900 162347.100000
131.086100 38845.600000
141.069900 73311.700000
145.064700 44996.300000
152.062200 65685.600000
154.077200 22726.100000
155.060300 76558.700000
165.069500 159311.700000
166.077500 66170.000000
167.085400 195476.000000
178.077000 69691.100000
179.086400 35014.100000
190.077000 31097.700000
191.085500 69746.400000
194.072500 198699.400000
202.077700 93524.700000
203.085500 295802.100000
204.093300 338786.800000
205.101700 33446.200000
217.101000 220936.000000
218.108200 75771.400000
219.117300 28160.200000

>ms2peaks
105.033200 18913.100000
265.158700 1737258.700000
310.216700 9046756.400000

>ms2peaks
57.033400 46009.500000
77.038600 20879.900000
91.054100 33794.400000
105.033400 478617.100000
105.069900 63099.700000
117.069800 24040.500000
159.116800 141911.100000
187.111800 83571.800000
195.116700 84561.300000
207.116300 13903.700000
218.108000 14861.900000
219.116700 155923.300000
223.111700 357445.100000
247.148100 296558.300000
265.158900 8644161.400000
310.217100 1091922.400000

>ms2peaks
57.033500 63953.600000
77.038600 72917.300000
91.054200 329056.800000
105.033500 2243493.900000
105.069900 314534.700000
115.054600 11569.900000
117.069900 201740.400000
129.069900 93849.000000
131.085400 39634.600000
135.080300 38410.100000
143.085500 50872.400000
145.064900 36301.200000
145.101200 27362.800000
147.080600 36550.500000
159.080100 44590.800000
159.116800 305633.600000
161.096400 13079.400000
167.085600 42439.100000
169.101400 32812.800000
178.077500 13447.500000
179.085900 19640.800000
187.111800 146352.200000
191.085200 28267.600000
195.080900 22753.500000
195.116800 443586.000000
204.093000 18116.600000
205.101100 100586.500000
207.116900 72292.200000
218.109100 105120.400000
219.116900 674563.900000
223.111700 1002165.400000
224.119700 23631.200000
232.124700 38149.800000
236.119600 53247.300000
247.148000 314462.200000
265.158900 1551910.700000

>ms2peaks
57.033500 56167.600000
77.038600 137701.400000
91.054300 605268.700000
95.049300 11157.300000
105.033600 2629830.100000
105.069900 289067.300000
107.049000 12535.400000
115.054200 23066.500000
117.070000 453828.800000
129.069900 151242.800000
131.085500 46079.900000
135.080600 25744.300000
141.070100 12066.700000
143.085500 42281.800000
145.064800 68405.600000
145.101000 14327.700000
147.080200 34272.900000
159.080400 45018.200000
159.116800 111965.900000
167.085500 137873.200000
169.100900 30572.100000
178.077900 22141.000000
179.085700 28898.500000
187.111800 21768.900000
191.085400 32135.100000
194.072800 57033.400000
195.080800 38656.500000
195.116800 251627.600000
203.085900 35920.900000
204.093400 216852.400000
205.101300 115174.800000
207.116400 16682.000000
217.100900 26445.400000
218.109000 234275.200000
219.116900 421065.400000
223.111800 182212.100000
224.119600 25433.000000
232.124700 53069.500000
236.120000 66561.700000
247.147500 28651.800000

>ms2peaks
53.038600 13168.600000
57.033400 41138.900000
77.038600 305898.300000
79.054200 17578.700000
91.054200 667743.200000
95.049200 27006.100000
103.054400 18342.200000
105.033500 2236168.800000
105.069900 237623.700000
107.049100 16902.300000
115.054300 63552.300000
117.069900 439584.100000
128.062000 39729.700000
129.069800 136901.700000
131.085500 43825.000000
141.069800 30750.100000
143.085200 13873.200000
145.064900 59170.800000
145.101500 16722.500000
155.060300 28222.600000
165.069700 26302.900000
166.077600 22957.900000
167.085500 179519.900000
178.077600 33723.500000
179.085700 28412.900000
190.077700 19208.600000
191.085600 33197.600000
194.072600 87560.500000
195.117000 30673.400000
202.078000 15116.200000
203.085400 120100.900000
204.093400 347957.500000
205.101400 67322.200000
217.101200 123275.000000
218.108800 138317.900000
219.116700 66940.600000
221.096700 19950.400000
232.125300 21304.800000
236.119400 15584.000000

>ms2peaks
53.038500 14080.300000
57.033500 14703.700000
77.038600 630290.000000
79.054300 24255.500000
91.054200 614688.300000
95.049100 67193.400000
103.054200 44786.700000
105.033500 1368808.400000
105.044700 168206.900000
105.069900 184202.700000
107.049100 11511.500000
115.054200 153022.700000
117.069900 311454.400000
128.062000 65879.200000
129.069900 105686.600000
131.085500 25661.400000
141.069900 42970.900000
145.064700 26832.900000
152.061900 39520.100000
154.077800 7705.500000
155.060300 36251.000000
158.072700 8864.400000
159.080400 6816.400000
165.069900 80573.700000
166.077700 39650.400000
167.085500 129350.700000
178.077700 50918.400000
179.085600 18174.900000
190.077500 17648.500000
191.085400 37137.300000
192.093300 10908.400000
194.072600 141451.800000
202.077800 64253.600000
203.085500 153997.400000
204.093300 218644.100000
205.101100 16565.200000
217.101100 124834.200000
218.108800 35489.800000

