>compound EA69744839
>parentmass 134.07130000000004
>ionization [M+H]+
>formula C7H7N3
>rt 162.000000
>profile orbitrap
#smiles_iso C1=CC=C2C(=C1)NC(=N2)N
#smiles_can C1=CC=C2C(=C1)NC(=N2)N
#inchikey JWYUFVNJZUSCSM-UHFFFAOYSA-N
#pubchem_id 13624
#mb_accession EA013802,EA013803,EA013804,EA013805,EA013806,EA013807,EA013808,EA013809,EA013810,EA013811,EA013812,EA013813

>ms2
134.071200 18731561.600000

>ms2
134.071200 23107389.500000

>ms2
134.071300 23807503.800000

>ms2
92.049300 306792.700000
93.057500 76367.800000
107.060600 67558.400000
133.063800 38279.500000
134.071200 24199742.700000

>ms2
65.038600 219868.300000
92.049500 1782077.300000
93.057300 336803.700000
107.060300 420583.300000
117.044900 48842.100000
133.062800 55660.600000
134.071300 21260666.800000

>ms2
65.038500 883557.500000
80.049400 201420.900000
92.049400 4419575.700000
93.057200 872626.200000
107.060300 1100178.800000
110.060100 27353.700000
117.044600 121679.700000
133.063500 178311.000000
134.071200 16049071.800000

>ms2
133.063700 27522.700000
134.071200 17422529.500000

>ms2
134.071200 21942452.100000

>ms2
92.049500 23075.900000
134.071200 21280812.200000

>ms2
65.038400 40318.900000
92.049400 214143.300000
93.057300 49844.600000
107.060300 40135.200000
134.071200 22147911.000000

>ms2
65.038500 185452.800000
80.049500 29558.000000
92.049400 1766171.000000
93.057200 373163.600000
107.060300 420979.400000
117.044700 47411.900000
133.063600 79575.600000
134.071200 19889233.300000

>ms2
65.038500 679133.900000
80.049400 166365.700000
92.049400 3850259.200000
93.057200 768953.600000
107.060300 849854.700000
110.060000 20974.100000
117.044600 75715.200000
133.063300 111083.900000
134.071200 14062848.500000

