>compound EA69895178
>parentmass 172.1332
>ionization [M+H]+
>formula C9H17NO2
>rt 216.000000
>profile orbitrap
#smiles_iso C1CCC(CC1)(CC(=O)O)CN
#smiles_can C1CCC(CC1)(CC(=O)O)CN
#inchikey UGJMXCAKCUNAIE-UHFFFAOYSA-N
#pubchem_id 3446
#mb_accession EA256102,EA256103,EA256104,EA256105,EA256106,EA256107,EA256108,EA256109,EA256110,EA256111,EA256112,EA256113

>ms2peaks
137.096700 22165.800000
154.122600 909665.400000
155.106600 64289.400000
172.133400 11270698.000000

>ms2peaks
55.017800 35334.600000
67.054200 24192.400000
93.069900 26664.600000
95.085600 95216.300000
109.101100 29197.300000
119.085400 100383.500000
137.096100 339004.700000
154.122700 4029027.600000
155.106600 210848.100000
172.133300 9135156.700000

>ms2peaks
55.017800 187299.000000
67.054200 170991.700000
91.054200 200491.200000
93.069800 155986.000000
95.085500 479531.500000
109.101200 279230.800000
112.112400 14586.800000
119.085600 694491.400000
126.127600 32749.000000
136.112100 64793.100000
137.096100 1410472.500000
154.122800 5931677.100000
155.106700 250907.800000
172.133300 3121457.400000

>ms2peaks
55.017800 378991.500000
67.054300 458049.900000
79.054400 23038.300000
81.069800 32357.600000
91.054300 445181.200000
93.069900 337527.300000
95.085500 1041868.400000
109.101200 606449.300000
110.096300 95704.900000
112.112300 31873.100000
119.085500 1158927.100000
126.127800 105980.900000
136.112100 177370.600000
137.096100 1631253.700000
154.122600 3363576.900000
155.106500 117493.600000
172.133100 518335.900000

>ms2peaks
55.017800 382569.700000
65.038600 20710.700000
67.054200 691051.000000
69.069800 22294.200000
77.038400 23171.600000
79.054200 21134.100000
81.069800 106777.900000
83.049500 19136.700000
91.054200 573707.500000
93.069900 442024.900000
95.085500 1506212.500000
109.101200 617425.700000
110.096400 126824.700000
112.112200 64028.700000
117.069700 19434.000000
119.085500 779957.900000
126.127700 76155.400000
136.112100 176534.400000
137.096000 723175.800000
154.122800 978589.000000
172.132700 22213.000000

>ms2peaks
55.017800 326486.300000
55.054100 30953.000000
65.038700 32901.200000
67.054300 847636.200000
69.070100 41303.100000
72.044500 12040.800000
77.038700 37693.200000
79.054200 40709.100000
80.049800 24231.400000
81.069900 149065.700000
83.049100 14059.600000
83.085400 20403.200000
91.054200 592957.500000
93.069900 457126.300000
95.085600 1621582.300000
107.085100 23891.300000
109.101200 403684.500000
110.096500 107617.600000
112.112000 32764.200000
117.070200 23992.300000
119.085600 329064.900000
126.128000 33524.000000
136.112100 102166.700000
137.096100 189721.400000
154.122300 197993.100000

>ms2peaks
137.096200 37644.400000
154.122700 744144.700000
155.106700 53855.800000
172.133400 8845190.900000

>ms2peaks
55.017800 22883.200000
67.054200 20736.300000
91.054400 14484.100000
95.085600 66774.400000
109.101100 26035.400000
119.085600 77407.900000
137.096200 268077.500000
154.122800 3267723.000000
155.106700 159783.800000
172.133400 6930403.500000

>ms2peaks
55.017800 150723.600000
67.054200 126049.200000
81.069900 11823.500000
91.054200 137269.700000
93.069900 107183.200000
95.085600 325095.500000
109.101200 199775.200000
110.096500 24364.900000
112.112000 10046.000000
119.085600 531880.500000
126.127800 21953.200000
136.112000 36349.000000
137.096200 1110843.700000
154.122800 4630195.000000
155.106700 163141.700000
172.133300 2355062.900000

>ms2peaks
55.017800 253370.700000
65.038600 9210.400000
67.054200 311958.800000
77.038500 9293.300000
79.054100 15127.200000
81.069900 30201.900000
91.054200 272576.400000
93.069900 253807.600000
95.085600 733101.300000
109.101200 448788.700000
110.096400 64809.800000
112.112100 34030.700000
117.069700 8136.000000
119.085600 802234.800000
126.127800 61444.100000
136.112000 129373.100000
137.096100 1113452.200000
154.122700 2391526.400000
155.106600 72061.400000
172.133100 323297.700000

>ms2peaks
55.017800 267004.300000
65.038600 11900.100000
67.054200 466995.700000
69.069900 18786.700000
71.049100 7276.800000
72.044200 5908.900000
77.038500 18358.000000
79.054300 24988.200000
81.069900 63557.900000
83.085500 17838.500000
91.054200 386806.700000
93.069900 302228.600000
95.085600 1089796.200000
107.085800 10467.000000
109.101200 465605.500000
110.096400 96337.200000
112.112000 39278.000000
117.069600 10877.400000
119.085500 530492.700000
126.127700 51017.100000
136.112100 125920.700000
137.096100 522443.700000
154.122600 722898.700000
155.106600 17602.500000

>ms2peaks
55.017900 189344.400000
55.054300 10993.700000
65.038600 18347.300000
67.054300 555364.100000
69.069900 22547.400000
71.049200 8984.000000
77.038600 24351.800000
79.054300 21874.800000
80.049600 11653.800000
81.069900 77531.300000
83.049200 10223.500000
83.085600 7870.800000
91.054300 405454.700000
93.069900 285548.700000
95.085600 1113888.500000
107.085500 12680.600000
109.101200 250132.800000
110.096500 61388.300000
112.112200 12293.900000
117.069900 16019.900000
119.085600 228395.000000
126.127900 16483.300000
136.112100 66048.100000
137.096200 130582.100000
154.122700 116171.700000

