>compound EA69540768
>parentmass 230.1167
>ionization [M+H]+
>formula C9H16ClN5
>rt 594.000000
>profile orbitrap
#smiles_iso CC(C)NC1=NC(=NC(=N1)Cl)NC(C)C
#smiles_can CC(C)NC1=NC(=NC(=N1)Cl)NC(C)C
#inchikey WJNRPILHGGKWCK-UHFFFAOYSA-N
#pubchem_id 4937
#mb_accession EA274102,EA274103,EA274104,EA274105,EA274106,EA274107,EA274108,EA274109,EA274110,EA274111,EA274112,EA274113

>ms2peaks
230.116700 23359524.400000

>ms2peaks
146.023200 339723.000000
188.070200 3644607.700000
230.117000 21893146.500000

>ms2peaks
68.024300 273108.500000
79.005700 65951.300000
104.001000 519439.000000
110.046100 70704.800000
110.071100 103149.000000
146.022800 4978634.000000
152.118700 62044.000000
188.069900 9998294.200000
230.116500 7525646.200000

>ms2peaks
61.979100 39786.000000
68.024300 723898.600000
79.005800 670588.800000
104.001100 1410555.900000
110.046200 325313.100000
110.070900 38674.400000
128.056700 61814.900000
146.022900 10460732.100000
152.093000 71335.200000
188.070100 5387501.000000
230.116200 825814.800000

>ms2peaks
61.979100 70084.500000
68.024300 1289310.100000
79.005800 1639494.900000
104.001000 2466193.900000
110.046100 578590.900000
128.056500 121756.400000
146.022800 7714292.200000
152.093600 30497.100000
188.068800 809154.900000

>ms2peaks
61.979200 159783.900000
68.024400 1639967.900000
79.005900 2056405.100000
104.001200 2935601.900000
110.046200 490001.300000
128.056700 72942.700000
146.022900 3576982.700000

>ms2peaks
146.022500 45003.600000
188.070200 194848.500000
230.116800 18926636.600000

>ms2peaks
68.024200 23854.800000
104.000700 18481.200000
146.022600 244638.500000
188.069900 2669235.600000
230.116800 16232027.700000

>ms2peaks
68.024300 202373.000000
79.005700 58852.800000
104.001000 408959.000000
110.046100 44877.000000
110.071400 56748.900000
146.022900 3961425.700000
152.093300 21712.400000
152.118500 44246.300000
188.069900 7857251.500000
230.116800 6538078.300000

>ms2peaks
61.979200 24957.900000
68.024300 584557.600000
79.005800 442833.200000
104.001000 1112531.700000
110.046100 242868.300000
110.071300 32441.300000
128.056700 59859.600000
146.022800 7899655.700000
152.092800 41989.900000
172.037800 15541.000000
188.069800 3895385.000000
230.116900 750650.100000

>ms2peaks
61.979300 35232.700000
68.024300 1008133.600000
79.005800 1263111.500000
104.001000 1981220.800000
110.046100 419913.000000
128.056600 73667.400000
146.022800 6387931.500000
188.069700 689532.600000

>ms2peaks
61.979200 78475.800000
68.024400 1185177.800000
79.005800 1432355.000000
104.001100 2250367.200000
110.046100 351243.900000
128.056700 36637.000000
146.022900 2634915.300000
188.069700 50399.900000

