>compound EA70584978
>parentmass 204.1131
>ionization [M+H]+
>formula C11H13N3O
>rt 156.000000
>profile orbitrap
#smiles_iso CC1=C(C(=O)N(N1C)C2=CC=CC=C2)N
#smiles_can CC1=C(C(=O)N(N1C)C2=CC=CC=C2)N
#inchikey RLFWWDJHLFCNIJ-UHFFFAOYSA-N
#pubchem_id 2151
#mb_accession EA084502,EA084503,EA084504,EA084505,EA084506,EA084507,EA084508,EA084509,EA084510,EA084511,EA084512,EA084513

>ms2
56.049300 277149.700000
83.060300 80672.800000
85.075900 40741.500000
94.065200 55245.200000
111.055200 63478.700000
145.076300 19201.300000
159.091600 364420.900000
173.071000 145189.900000
176.118700 18276.600000
187.086600 513920.100000
189.088900 56655.800000
204.113400 9936433.700000

>ms2
56.049500 1323660.400000
58.065200 23996.600000
68.049400 21034.700000
77.038600 19280.800000
83.060500 588820.600000
85.076100 322887.000000
94.065200 408685.600000
104.049300 36239.600000
111.055200 111014.000000
118.065100 27409.700000
145.076300 100613.900000
146.060100 209717.100000
158.060400 36199.700000
159.091800 933148.200000
173.071200 286323.700000
176.118500 44232.000000
187.086700 1053290.800000
189.089700 166663.300000
204.113500 5479871.300000

>ms2
56.049500 2213712.900000
58.065100 56762.600000
68.049500 39126.800000
83.060400 558086.200000
85.076000 385426.400000
94.065100 773341.800000
104.049500 141991.100000
111.055300 74338.500000
118.064900 70906.100000
128.049800 22957.700000
130.065200 29074.700000
145.076200 110350.600000
146.059900 322336.500000
158.060100 81145.600000
159.091600 651216.500000
169.076200 13773.500000
173.070800 133568.400000
187.086500 383952.800000
189.089600 187080.800000
204.113300 782456.700000

>ms2
56.049500 2096494.700000
58.065200 90256.100000
68.049500 44420.600000
77.038500 41648.400000
83.060500 359350.800000
85.076100 166624.700000
94.065200 795077.300000
104.049500 208758.100000
111.055400 35402.000000
118.065200 64010.300000
128.049900 42767.600000
130.065200 40944.700000
132.044300 28474.500000
132.080900 38385.600000
142.064800 21250.100000
145.076300 75398.400000
146.060200 224011.000000
158.059600 39846.700000
159.091800 297095.700000
160.086500 14919.300000
173.071300 28944.200000
187.087100 75369.900000
188.082300 13805.600000
189.090400 85879.700000

>ms2
56.049500 2064607.100000
58.065100 94260.500000
68.049400 34771.100000
77.038600 91223.900000
83.060400 240204.300000
85.076100 62429.600000
94.065200 767960.800000
104.049500 157356.700000
105.044800 25195.300000
118.065000 61765.300000
128.049500 82563.800000
130.065100 50250.300000
132.044200 31532.700000
132.080900 78234.900000
145.075900 58291.200000
146.059900 104565.400000
159.091700 111950.700000
160.086800 20299.200000
188.082600 23607.100000

>ms2
53.038400 14027.300000
56.049500 1844776.300000
58.065200 75465.200000
68.049500 27143.000000
77.038600 166912.500000
83.060400 237272.300000
91.054000 23658.600000
92.049300 15245.100000
93.057100 15783.600000
94.065200 553507.400000
95.049600 22097.900000
103.054300 23319.200000
104.049500 114874.800000
105.044900 50531.300000
117.057600 15694.800000
118.065400 43746.500000
128.049600 76994.600000
130.065200 44849.900000
132.044600 23165.300000
132.081200 63936.800000
145.076200 27508.100000
146.060000 35326.600000
160.086500 17187.600000

>ms2
56.049500 219854.500000
83.060400 62638.100000
85.076100 59821.800000
94.065200 60797.600000
111.055400 51865.500000
145.076100 18386.200000
146.060000 29531.000000
159.091800 324302.700000
173.071000 138046.600000
187.086600 436726.500000
189.089900 43853.500000
204.113300 9271641.900000

>ms2
56.049500 1232391.700000
58.065100 26353.000000
68.049600 16011.200000
83.060400 592174.100000
85.076100 282928.200000
94.065200 428573.500000
104.049400 27922.300000
111.055400 107396.200000
118.065200 43370.300000
145.076100 89248.100000
146.060100 168114.400000
158.060100 54992.800000
159.091800 896665.700000
173.071000 255326.000000
176.118300 28672.600000
187.086700 928362.600000
189.089800 184820.700000
204.113400 4993127.400000

>ms2
56.049500 1895709.200000
58.065100 46214.400000
68.049500 33863.700000
77.038500 20636.000000
83.060400 525638.500000
85.076000 327714.100000
94.065100 677681.000000
104.049500 125251.900000
106.065200 11562.900000
111.055300 87249.100000
118.065200 47296.800000
122.060100 9431.400000
128.049400 10869.600000
130.065000 26069.900000
132.044400 15042.500000
132.081000 12580.500000
145.076100 98868.300000
146.060000 284313.600000
158.060000 79113.300000
159.091700 537958.900000
173.071000 105713.800000
185.070900 16547.900000
187.086500 386106.500000
189.089700 162131.600000
204.113000 617403.900000

>ms2
56.049500 1838102.900000
58.065100 90468.700000
68.049500 47674.000000
77.038500 26245.700000
83.060400 307013.900000
85.076000 129321.000000
94.065100 694111.700000
104.049500 189289.600000
111.055300 39795.100000
115.054200 10249.400000
118.065100 56669.800000
122.060200 10279.000000
128.049400 49879.900000
130.065200 44050.400000
131.059800 9518.700000
132.044800 19064.000000
132.080900 31695.700000
145.076100 67667.500000
146.060000 198413.800000
158.060100 40467.600000
159.091700 266109.800000
160.086800 9026.200000
173.070800 27250.100000
185.070700 14821.000000
187.086400 39016.800000
189.089800 71891.100000

>ms2
56.049500 1705928.900000
58.065100 81148.300000
68.049500 37043.300000
77.038600 78533.600000
83.060400 239280.400000
85.076000 37857.400000
92.049700 12656.000000
94.065200 630100.200000
95.049500 9405.900000
104.049500 144579.500000
105.044700 22462.700000
106.065200 9359.100000
118.065300 43896.100000
122.060100 8185.700000
128.049500 57531.400000
130.065100 49862.100000
132.044200 15487.000000
132.080600 60513.500000
142.064900 9060.900000
145.076000 33808.300000
146.060000 86557.000000
159.091700 102747.900000
160.086900 25930.300000
185.070900 8395.100000
189.089500 11399.800000

>ms2
53.038500 15074.800000
56.049500 1493415.800000
58.065100 50134.600000
68.049400 12915.400000
77.038600 146022.200000
83.060400 150074.900000
85.076000 10813.100000
91.054200 16339.900000
92.049500 7418.900000
93.057300 8483.400000
94.065200 462300.700000
95.049100 12193.700000
103.054200 12399.700000
104.049500 67582.600000
105.044700 40666.800000
106.065100 12175.600000
115.054300 16818.200000
117.057200 13644.100000
118.065100 28995.100000
128.049500 63946.100000
130.065100 39844.500000
132.044100 16004.700000
132.080700 39250.900000
145.076000 23867.600000
146.060100 26595.900000
159.091500 17832.000000
160.086900 19880.800000
188.081900 8859.700000
204.113500 12675.700000

