>compound EA70464403
>parentmass 311.0809
>ionization [M+H]+
>formula C12H14N4O4S
>rt 342.000000
>profile orbitrap
#smiles_iso COC1=NC(=NC(=C1)NS(=O)(=O)C2=CC=C(C=C2)N)OC
#smiles_can COC1=NC(=NC(=C1)NS(=O)(=O)C2=CC=C(C=C2)N)OC
#inchikey ZZORFUFYDOWNEF-UHFFFAOYSA-N
#pubchem_id 5323
#mb_accession EA018302,EA018303,EA018304,EA018305,EA018306,EA018307,EA018308,EA018309,EA018310,EA018311,EA018312,EA018313

>ms2peaks
156.011700 5762.000000
311.081100 1301570.200000

>ms2peaks
65.038500 2428.900000
92.049400 31012.700000
108.044400 66094.300000
155.068500 9279.000000
156.011400 166751.500000
156.076800 211688.300000
218.023000 47551.000000
245.103300 84193.100000
311.080900 707972.100000

>ms2peaks
65.038600 14318.500000
68.049500 12537.700000
92.049400 86217.200000
93.057500 4826.500000
108.044400 188337.900000
127.049900 9600.300000
154.060800 19835.100000
155.068800 28877.100000
156.011300 191242.300000
156.076800 345092.400000
173.058600 18320.200000
218.022900 32136.000000
230.079500 15623.400000
245.103200 67608.600000
311.080000 34360.900000

>ms2peaks
65.038600 30504.000000
68.049500 18693.300000
82.028600 2583.400000
92.049500 128923.400000
93.057500 9455.300000
96.044500 5506.400000
99.055200 4016.900000
108.044400 217809.000000
110.060300 7183.300000
124.050200 2711.100000
125.058500 6735.000000
126.066300 5756.100000
127.050100 14177.300000
140.045400 5574.100000
141.053500 5721.600000
154.061100 48371.500000
155.068900 12359.500000
156.011400 46215.100000
156.076800 230034.700000
157.047200 5188.200000
173.058700 39480.500000
230.080000 10977.200000
245.102300 9943.500000

>ms2peaks
65.038500 58671.300000
67.029100 6136.400000
68.049500 14162.300000
80.049200 9704.100000
89.071100 6320.100000
92.049500 150246.200000
93.057200 5168.000000
99.055100 7066.200000
108.044400 164086.000000
110.034900 5106.500000
110.060000 15243.100000
113.057900 3079.600000
124.050600 7715.500000
125.058700 5385.500000
127.050100 7121.800000
140.045300 3576.800000
141.053300 24097.300000
154.061100 29708.100000
156.010700 5347.800000
156.076700 96296.300000
172.049900 3114.700000
173.058500 22538.700000

>ms2peaks
65.038600 79961.000000
67.029100 12139.100000
68.013000 5127.000000
68.049700 6147.000000
80.049500 23305.500000
82.028700 9089.900000
92.049500 114251.100000
93.057500 5620.700000
108.044400 115177.200000
110.035200 7829.800000
110.060100 11302.400000
113.058900 4727.500000
124.050500 5526.200000
126.066100 2714.000000
141.053400 20835.600000
154.061000 17123.500000
156.076700 28553.600000
157.047200 2512.600000
173.057600 13568.500000
311.081500 4672.600000

>ms2peaks
108.044300 2941.400000
156.077300 5594.200000
311.080800 733887.600000

>ms2peaks
92.049400 15771.300000
108.044400 37240.600000
155.068800 8866.900000
156.011300 95765.600000
156.076600 112812.200000
218.022800 26895.500000
245.103100 47327.400000
311.080700 417547.100000

>ms2peaks
65.038500 9339.400000
68.049400 7618.100000
92.049400 55842.100000
93.057200 5534.600000
96.044000 2493.700000
108.044300 113127.600000
127.049900 5851.600000
154.060900 13360.400000
155.068900 23400.800000
156.011300 117945.000000
156.076700 209679.900000
173.058300 11482.300000
218.022800 20927.900000
230.079600 11561.500000
245.103100 40022.900000
311.080600 19447.400000

>ms2peaks
65.038500 19060.100000
68.049400 10984.400000
72.044300 2890.200000
92.049400 78878.100000
93.057200 3218.500000
99.055400 2648.900000
108.044300 130042.100000
110.059900 5186.800000
124.050400 1991.800000
125.058400 3717.800000
126.066200 3156.500000
127.050100 9416.200000
140.045600 2658.800000
141.053100 7210.300000
154.061100 24094.100000
155.068800 7238.200000
156.011400 29667.300000
156.076700 142695.400000
157.048400 2877.200000
173.058100 22809.900000
218.023000 2609.400000
230.079700 6963.800000
245.104000 6750.500000

>ms2peaks
65.038600 32481.700000
67.029100 3409.200000
68.013300 1878.100000
68.049400 8106.200000
72.044300 2647.500000
80.049400 4065.900000
82.028600 3282.600000
89.070500 2902.000000
92.049400 95645.200000
99.055100 3596.400000
108.044400 116400.300000
110.035000 2031.800000
110.060000 9490.200000
124.050700 6997.400000
125.058500 2274.100000
126.066200 5264.200000
127.050200 5804.900000
140.046200 2943.600000
141.053200 11625.400000
154.061100 26469.800000
156.076600 68590.000000
157.048100 3672.600000
172.050000 2722.700000
173.058200 14101.100000

>ms2peaks
65.038500 50982.500000
67.029000 5016.100000
68.049400 4306.600000
80.049400 12787.300000
82.028700 3876.900000
92.049400 76801.600000
93.057300 3770.400000
99.055200 2979.000000
108.044300 74328.700000
110.034700 4609.300000
110.059900 6759.800000
113.058200 1908.100000
124.050400 4078.700000
126.066200 1640.600000
141.053100 12516.100000
154.060900 14006.600000
156.076700 16491.100000
172.050300 3431.300000
173.058200 6127.900000

