>compound EA70439326
>parentmass 278.19030000000004
>ionization [M+H]+
>formula C20H23N
>rt 516.000000
>profile orbitrap
#smiles_iso CN(C)CCC=C1C2=CC=CC=C2CCC3=CC=CC=C31
#smiles_can CN(C)CCC=C1C2=CC=CC=C2CCC3=CC=CC=C31
#inchikey KRMDCWKBEZIMAB-UHFFFAOYSA-N
#pubchem_id 2160
#mb_accession EA282102,EA282103,EA282104,EA282105,EA282106,EA282107,EA282108,EA282109,EA282110,EA282111,EA282112,EA282113

>ms2peaks
91.054000 35798.700000
105.069500 34877.000000
278.190400 16386066.800000

>ms2peaks
58.065000 41348.100000
84.080800 117280.700000
91.054200 661256.600000
105.069800 468299.400000
117.069800 673215.200000
141.069300 29615.000000
155.085500 178261.400000
178.077400 54114.000000
179.085300 62393.700000
191.085400 352578.300000
205.100900 73271.200000
207.117000 42067.800000
218.109200 53216.800000
233.132500 3132305.600000
278.190500 11817261.400000

>ms2peaks
58.065100 114097.100000
84.080800 464649.000000
85.088900 39734.400000
91.054200 1657609.100000
105.069900 1685210.300000
115.054200 25620.600000
117.069900 1677682.900000
129.069900 270192.900000
141.070100 77071.400000
155.085500 624637.700000
178.077800 250693.700000
179.085500 374400.300000
191.085600 1271735.500000
192.093400 78439.200000
193.101200 184132.800000
204.093400 194837.700000
205.101200 649677.400000
207.116800 115940.300000
218.109100 656553.400000
231.116900 63459.200000
233.132500 3064820.500000
278.189600 1511884.200000

>ms2peaks
58.065000 92030.500000
84.080800 457751.000000
85.088500 28394.900000
91.054200 1912292.800000
103.054300 65354.600000
105.069900 1860314.500000
115.054000 126874.700000
117.069800 1731422.800000
129.069900 476345.500000
141.069600 139469.200000
153.069600 44023.800000
155.085500 727287.000000
178.077500 380480.700000
179.085400 544541.300000
190.078300 27717.200000
191.085400 1421794.600000
192.093200 221870.200000
193.101100 265546.700000
203.085400 381012.800000
204.093200 499966.600000
205.101000 990165.300000
207.117400 54589.100000
217.101700 118527.900000
218.108900 1146546.000000
231.116600 73698.300000
233.132300 662508.300000

>ms2peaks
58.065100 88683.000000
70.065100 47059.900000
72.080700 16897.100000
77.038500 30847.000000
79.054300 73105.900000
84.080800 314845.700000
85.088800 33209.200000
91.054300 1788465.800000
103.054300 126766.700000
105.069900 1566495.200000
115.054200 296916.300000
117.069900 1464482.500000
128.062200 64152.500000
129.070000 535112.500000
141.069900 209355.000000
142.078200 37613.500000
153.070100 104416.100000
154.077800 71305.400000
155.060300 64200.200000
155.085500 435779.200000
165.070000 54932.400000
178.077800 526929.200000
179.085500 508398.100000
189.069300 44593.500000
190.077700 209247.200000
191.085600 1362541.900000
192.093200 249588.300000
193.101400 118197.300000
202.077500 84308.600000
203.085500 961853.000000
204.093500 524592.300000
205.101200 534426.000000
216.093100 64354.400000
217.101300 416526.600000
218.109100 730676.100000
231.117800 37919.800000

>ms2peaks
58.065100 77646.300000
65.038700 26211.500000
70.065100 54333.000000
77.038600 90708.900000
79.054300 180542.500000
84.080800 210159.000000
91.054200 1591188.200000
103.054300 195930.000000
105.069900 999126.200000
115.054200 614722.100000
117.069900 968886.200000
128.062000 228458.000000
129.069900 394591.400000
141.069900 182389.400000
142.078100 20282.000000
152.061900 27047.400000
153.069900 137767.000000
154.077700 84900.100000
155.060300 154677.500000
155.085400 167623.400000
165.070000 148877.900000
178.077700 791511.500000
179.085500 297235.700000
189.069800 146456.500000
190.077600 359374.500000
191.085500 1092136.500000
192.093100 175801.700000
193.100700 45295.900000
202.077800 297059.100000
203.085400 1169499.000000
204.093200 363346.000000
205.101100 186925.500000
215.085700 111618.700000
216.093300 73905.000000
217.101100 591796.100000
218.109000 237186.900000
231.115800 21827.600000

>ms2peaks
91.054500 14964.800000
117.070000 17784.800000
191.085200 15403.500000
202.078700 12267.600000
233.133000 71323.800000
278.190600 12182118.200000

>ms2peaks
58.065100 37038.500000
84.080700 87268.600000
91.054200 435573.500000
105.069900 441737.200000
117.069800 496278.700000
129.070000 27070.900000
141.069700 25100.600000
155.085400 158967.500000
178.077400 32680.800000
179.085500 55651.500000
191.085500 270098.500000
193.100800 18796.100000
205.101000 59458.300000
207.116100 18544.700000
218.109100 43140.300000
233.132500 2439499.900000
278.190400 8570961.300000

>ms2peaks
58.065100 82396.500000
72.080900 8662.600000
84.080800 315502.700000
85.088600 25614.400000
91.054200 1221485.800000
103.054300 15121.500000
105.069900 1290678.900000
115.054200 18306.300000
117.069900 1274690.700000
129.069900 181623.600000
141.069900 80478.600000
155.085500 479417.400000
178.077700 184915.200000
179.085500 242346.900000
191.085600 890081.000000
192.093300 46736.600000
193.101200 130023.400000
203.085100 33808.200000
204.093400 145669.900000
205.101200 453892.300000
207.116800 100126.000000
218.109000 495791.500000
231.117100 42015.500000
233.132600 2307603.500000
278.189800 1205892.600000

>ms2peaks
58.065100 64067.300000
70.065100 34060.800000
72.080800 12640.500000
79.054200 26722.600000
84.080800 331307.300000
85.088600 32824.900000
91.054200 1404670.500000
103.054300 41538.700000
105.069900 1300749.900000
115.054200 81591.500000
117.069900 1261395.700000
129.069900 330713.800000
141.069900 114389.200000
153.069900 32807.600000
154.077000 10430.800000
155.085500 495914.600000
165.069400 18197.700000
178.077700 314432.300000
179.085500 334778.400000
190.077500 30054.700000
191.085500 1076856.700000
192.093300 132759.100000
193.101200 155790.700000
203.085600 225822.600000
204.093400 297620.900000
205.101200 693748.700000
207.116900 45234.900000
215.086300 8972.600000
216.093000 27024.700000
217.101600 59463.100000
218.109000 851259.500000
231.116600 51789.900000
233.132400 454528.400000

>ms2peaks
58.065100 63117.000000
70.065200 29335.400000
77.038700 20751.300000
79.054200 54169.200000
84.080700 217692.900000
85.088500 31452.100000
91.054200 1220603.000000
103.054200 82686.500000
105.069900 1053783.400000
115.054200 220060.200000
117.069900 985486.500000
128.062100 47228.800000
129.069800 344087.100000
141.069800 122733.300000
142.077300 11420.400000
153.069800 63170.300000
154.077700 40197.400000
155.060500 45786.900000
155.085400 295854.500000
165.069600 39022.600000
167.085800 12261.900000
178.077600 378333.600000
179.085500 350671.600000
189.070000 24661.300000
190.077600 145769.200000
191.085500 993200.600000
192.093200 187010.200000
193.101200 97641.800000
202.077800 54676.800000
203.085500 619479.500000
204.093300 409298.900000
205.101100 373254.400000
215.085600 23620.300000
216.093500 40618.100000
217.101100 290284.100000
218.108900 541773.900000
231.117000 15781.500000

>ms2peaks
58.065100 50398.100000
65.038600 9637.200000
70.065100 36016.200000
72.080500 6593.400000
77.038600 50719.100000
79.054200 94873.400000
84.080800 119843.400000
85.088600 10155.600000
91.054300 1089197.700000
103.054200 150619.900000
105.069900 657601.200000
115.054200 410600.400000
117.069900 648551.000000
128.062100 143502.800000
129.069900 290471.300000
141.069900 145081.200000
142.077600 19597.800000
152.062000 15376.600000
153.069900 89401.100000
154.077700 40665.200000
155.060400 90039.600000
155.085500 115720.600000
165.069900 106851.200000
167.085200 8491.100000
178.077700 566329.300000
179.085500 200360.200000
189.069900 122375.700000
190.077700 225746.700000
191.085600 763047.900000
192.093300 115213.700000
193.101300 29206.700000
202.077800 182632.500000
203.085600 781447.500000
204.093300 263478.600000
205.101200 109276.300000
215.085500 72694.300000
216.093500 40336.500000
217.101200 405615.100000
218.109000 157402.400000
233.132900 6246.400000

