>compound EA70528742
>parentmass 170.10359999999997
>ionization [M+H]+
>formula C6H11N5O
>rt 84.000000
>profile orbitrap
#smiles_iso CC(C)NC1=NC(=O)NC(=N1)N
#smiles_can CC(C)NC1=NC(=O)NC(=N1)N
#inchikey GCKLGRUZDXSATG-UHFFFAOYSA-N
#pubchem_id 135510207
#mb_accession EA027702,EA027703,EA027704,EA027705,EA027706,EA027707,EA027708,EA027709,EA027710,EA027711,EA027712,EA027713

>ms2
86.035200 57324.300000
170.103700 48005496.700000

>ms2
86.035100 271038.700000
128.056800 7638053.400000
170.103700 85299947.700000

>ms2
69.008400 181882.000000
85.050900 157464.900000
86.035000 3129527.500000
128.056800 34641181.400000
170.103700 40109208.800000

>ms2
68.024600 86484.900000
69.008300 576631.700000
85.050900 871891.800000
86.035000 13153478.900000
110.046200 90253.200000
128.056700 44403714.500000
170.103600 10628741.000000

>ms2
60.055800 84902.400000
68.024300 312709.900000
69.008400 970598.500000
85.051000 1852325.000000
86.035000 20426213.600000
110.046100 256523.200000
111.029900 107107.700000
128.056800 25452184.800000
170.103700 1406260.800000

>ms2
60.055600 140043.100000
68.024300 570462.700000
69.008400 1893929.400000
85.050900 1998155.600000
86.034900 23922742.800000
110.046100 337014.800000
111.030000 119641.500000
128.056700 11076248.700000

>ms2
128.056600 176788.000000
170.103600 38434044.700000

>ms2
86.035000 172633.000000
128.056800 6191000.600000
170.103700 68833612.200000

>ms2
69.008400 114103.700000
85.051000 115640.300000
86.035000 2785595.600000
128.056700 31757128.500000
170.103700 37757648.800000

>ms2
68.024300 79186.600000
69.008400 474482.000000
85.051000 745941.900000
86.035000 10317547.600000
110.046400 54052.600000
111.030400 39005.900000
128.056800 35637814.400000
170.103800 8967936.200000

>ms2
60.055600 76934.000000
68.024400 252331.600000
69.008400 811226.400000
85.050900 1532502.700000
86.034900 17999889.100000
110.046200 218774.200000
111.030200 57984.300000
128.056700 19581780.500000
170.103600 1164912.900000

>ms2
60.055700 119832.100000
68.024400 417426.600000
69.008400 1206884.100000
85.050900 1470338.600000
86.034900 16692642.700000
110.046200 213762.400000
111.030200 76384.400000
128.056700 7595400.400000
170.103200 121467.600000

