>compound EA70818206
>parentmass 214.11209999999997
>ionization [M+H]+
>formula C8H15N5S
>rt 402.000000
>profile orbitrap
#smiles_iso CC(C)(C)NC1=NC(=NC(=N1)N)SC
#smiles_can CC(C)(C)NC1=NC(=NC(=N1)N)SC
#inchikey MWWBDLRPMWTLRX-UHFFFAOYSA-N
#pubchem_id 13019211
#mb_accession EA028302,EA028303,EA028304,EA028305,EA028306,EA028307,EA028308,EA028309,EA028310,EA028311,EA028312,EA028313

>ms2peaks
214.112400 37525256.700000

>ms2peaks
158.049600 15354988.200000
214.112100 27060391.300000

>ms2peaks
57.069900 73354.800000
85.050800 173179.000000
110.046200 59430.200000
116.027600 109224.700000
158.049700 32798163.900000
214.112100 6608101.600000

>ms2peaks
57.069800 80610.200000
68.024400 814899.600000
74.005800 274227.900000
85.050900 1808824.700000
91.032500 288688.500000
110.046200 729434.100000
116.027700 1134474.500000
128.056300 110632.200000
143.026100 112762.100000
158.049800 29840395.800000

>ms2peaks
57.069800 117087.900000
68.024400 2585283.300000
74.005900 910744.800000
85.050900 3500660.800000
91.032500 545442.700000
110.046200 1715531.700000
112.061300 51379.200000
116.027700 2304180.400000
128.056600 120431.700000
143.026000 100196.800000
158.049500 14386009.900000

>ms2peaks
57.070100 183693.700000
68.024300 4824520.000000
74.005900 1799454.400000
85.050900 3302319.200000
91.032400 469006.600000
110.046100 1484910.400000
116.027600 2375731.800000
158.049700 4775352.200000

>ms2peaks
158.049600 1769308.500000
214.112100 37864518.700000

>ms2peaks
158.049500 19249753.400000
214.112100 35254389.900000

>ms2peaks
68.024400 113897.500000
85.051000 242382.300000
110.046200 108501.300000
116.027800 163126.300000
158.049600 39650483.800000
214.112100 7390138.800000

>ms2peaks
57.070000 77132.000000
68.024300 791924.600000
74.006000 240769.200000
85.050900 1867311.200000
91.032500 286142.100000
110.046200 777159.300000
116.027700 1300890.400000
128.056600 145177.700000
143.026200 108737.800000
158.049700 31326799.600000
214.111200 354578.100000

>ms2peaks
57.069900 113589.000000
68.024400 2194181.600000
74.005900 726859.500000
85.051000 2925521.200000
91.032500 439093.900000
110.046200 1342019.000000
112.061800 62251.900000
116.027700 1844875.500000
128.056600 108556.100000
143.026000 91527.000000
158.049700 13194398.100000

>ms2peaks
57.069900 78775.600000
68.024400 3347854.700000
74.006000 1378687.500000
85.051000 2414279.300000
91.032500 360495.200000
110.046200 1211153.800000
112.061900 19938.700000
116.027800 1888079.700000
128.056800 62035.300000
143.026000 75972.300000
158.049600 4005618.400000

