>compound EA71292559
>parentmass 278.10550000000006
>ionization [M+H]+
>formula C14H16ClN3O
>rt 510.000000
>profile orbitrap
#smiles_iso CC1=C(C(=CC=C1)C)N(CN2C=CC=N2)C(=O)CCl
#smiles_can CC1=C(C(=CC=C1)C)N(CN2C=CC=N2)C(=O)CCl
#inchikey STEPQTYSZVCJPV-UHFFFAOYSA-N
#pubchem_id 49384
#mb_accession EA026902,EA026903,EA026904,EA026905,EA026906,EA026907,EA026908,EA026909,EA026910,EA026911,EA026912,EA026913

>ms2
76.978700 4747.500000
134.096600 992791.700000
210.068300 1074987.500000
278.105500 243431.700000

>ms2
134.096500 1662877.400000
210.068100 572259.100000

>ms2
76.979000 7979.300000
134.096600 1953875.900000
210.068000 38498.800000

>ms2
76.979000 14156.000000
105.070000 22685.000000
132.080900 2941.700000
134.096600 1972769.700000

>ms2
76.979000 11750.500000
79.054300 8463.400000
91.054300 2981.400000
103.054200 4227.200000
105.070000 204669.000000
106.077400 4204.300000
107.085700 12072.300000
117.056800 4710.500000
119.073200 7056.500000
132.081100 11813.200000
133.075800 10914.700000
134.096600 1570705.700000

>ms2
76.979100 7650.500000
77.038700 15596.300000
79.054300 58668.600000
91.054300 10865.800000
103.054300 29849.100000
105.070000 545117.500000
106.077600 10418.900000
107.085600 15248.500000
117.057000 5271.400000
118.065600 3079.700000
119.073200 10607.300000
132.081000 18018.300000
133.075800 9930.500000
134.096600 927892.900000

>ms2
76.978500 2870.800000
105.069400 2169.900000
134.096600 858274.800000
210.068200 902639.900000
278.105400 215090.800000

>ms2
134.096500 1341621.900000
210.068100 428837.200000

>ms2
76.978800 4473.700000
132.081000 2024.900000
134.096600 1475850.400000
210.068100 34000.300000

>ms2
76.978900 8657.400000
105.070000 18355.700000
107.085500 2770.200000
117.057100 1847.600000
132.081000 3437.900000
134.096600 1343047.900000

>ms2
76.978900 7264.100000
79.054300 5823.000000
103.054100 3941.600000
105.069900 128612.600000
106.077800 3589.800000
107.085700 5727.400000
117.057200 2293.500000
119.073100 2988.300000
132.080700 3989.900000
133.076100 6489.300000
134.096500 1043941.300000

>ms2
76.978900 3902.200000
77.038600 8773.200000
79.054300 31296.000000
91.054200 4179.900000
103.054200 20181.200000
105.069900 335669.800000
106.077700 5707.600000
107.085500 8953.400000
117.057300 2541.100000
118.064700 2212.100000
119.073000 7018.400000
132.080700 8091.600000
133.076100 7344.000000
134.096500 529316.100000

