>compound EA71571346
>parentmass 340.04849999999993
>ionization [M+H]+
>formula C14H13NO7S
>rt 372.000000
>profile orbitrap
#smiles_iso CS(=O)(=O)C1=CC(=C(C=C1)C(=O)C2C(=O)CCCC2=O)[N+](=O)[O-]
#smiles_can CS(=O)(=O)C1=CC(=C(C=C1)C(=O)C2C(=O)CCCC2=O)[N+](=O)[O-]
#inchikey KPUREKXXPHOJQT-UHFFFAOYSA-N
#pubchem_id 175967
#mb_accession EA025802,EA025803,EA025804,EA025805,EA025806,EA025807,EA025808,EA025809,EA025810,EA025811,EA025812,EA025813

>ms2peaks
227.995900 138148.400000
340.048000 435492.400000

>ms2peaks
104.012800 6647.500000
227.996000 574258.600000
340.047900 26159.800000

>ms2peaks
62.989800 9718.500000
77.026100 14213.700000
78.033700 5541.400000
104.013000 60353.200000
166.013800 9138.800000
227.996100 331903.900000

>ms2peaks
62.989900 9571.700000
76.018200 7936.100000
77.026000 21808.300000
78.033600 3510.800000
78.984800 6470.400000
79.017500 3499.600000
104.013000 89800.100000
107.012300 4189.300000
166.013400 13618.900000
227.995700 59297.300000

>ms2peaks
62.990000 6883.400000
76.018000 16341.100000
77.026000 16605.500000
78.033600 3797.400000
78.984800 6061.000000
104.013000 54872.300000
107.012700 3446.300000
154.979500 8085.300000
166.013300 4930.900000
227.996800 2962.100000

>ms2peaks
76.018000 12944.000000
77.026000 11105.900000
79.018000 3154.600000
104.013000 26529.300000

>ms2peaks
227.996000 73649.100000
340.048000 196453.000000

>ms2peaks
227.995900 274060.900000
340.047900 13472.300000

>ms2peaks
62.989800 2605.600000
76.018000 1786.300000
77.025800 4482.200000
78.984600 2173.000000
104.013000 24869.600000
166.013800 5095.300000
227.995900 159097.600000

>ms2peaks
62.989800 1910.700000
76.018100 4174.300000
77.026000 10640.900000
78.984900 1814.900000
104.013100 44261.400000
166.013500 2598.400000
227.996000 24603.700000

>ms2peaks
76.018100 5766.400000
77.026000 6052.300000
104.013100 27928.200000
154.980200 3513.300000

>ms2peaks
76.018100 4744.900000
77.025900 3404.900000
104.013000 8654.400000

