>compound EA71248162
>parentmass 369.2173000000001
>ionization [M+H]+
>formula C22H28N2O3
>rt 654.000000
>profile orbitrap
#smiles_iso CC1=CC(=CC(=C1)C(=O)N(C(C)(C)C)NC(=O)C2=C(C(=CC=C2)OC)C)C
#smiles_can CC1=CC(=CC(=C1)C(=O)N(C(C)(C)C)NC(=O)C2=C(C(=CC=C2)OC)C)C
#inchikey QCAWEPFNJXQPAN-UHFFFAOYSA-N
#pubchem_id 105010
#mb_accession EA293502,EA293503,EA293504,EA293505,EA293506,EA293507,EA293508,EA293509,EA293510,EA293511,EA293512,EA293513

>ms2peaks
133.064400 17564.200000
149.059400 171260.600000
313.154000 77326.600000

>ms2peaks
133.064600 49959.300000
149.059500 177921.900000
313.146400 4638.200000

>ms2peaks
91.054000 3077.100000
93.069500 3465.300000
105.070100 3525.600000
133.064700 68108.800000
149.059500 164759.400000
313.155000 3260.200000

>ms2peaks
77.038300 2560.300000
91.054100 26684.100000
93.069800 11588.600000
105.069800 23432.800000
119.060100 12754.300000
121.065100 4353.800000
133.064600 56187.100000
133.076700 14499.000000
149.059500 100707.000000

>ms2peaks
77.038300 5722.500000
79.054400 5263.100000
91.054100 59000.300000
93.069900 8377.500000
103.054300 7091.100000
105.069700 49260.700000
119.060200 18980.800000
133.064700 25167.700000
133.075800 17677.800000
149.059500 34089.700000

>ms2peaks
65.038500 5004.300000
77.038500 14579.100000
79.054200 15283.100000
91.054200 95896.500000
103.054000 15953.800000
105.044900 6742.300000
105.069800 59150.100000
106.041200 4021.200000
119.060200 17272.200000
133.064500 10307.500000
133.075800 11158.100000
149.060000 5616.800000

>ms2peaks
133.064600 31293.400000
149.059500 288072.500000
313.154100 131574.800000

>ms2peaks
133.064600 96044.000000
149.059600 386078.000000

>ms2peaks
91.054100 7933.300000
93.069700 6954.300000
103.054700 1503.600000
105.069800 4696.300000
121.064200 1750.100000
133.064600 140537.500000
149.059500 365952.000000

>ms2peaks
77.038400 3163.200000
79.054100 5048.000000
91.054200 47175.000000
93.069800 26235.500000
103.054200 5810.100000
105.044900 2161.400000
105.069700 39173.400000
109.064600 3356.100000
119.060200 28820.600000
121.064700 4881.200000
123.080200 2475.200000
133.064700 110544.800000
133.075800 24782.700000
149.059500 208300.500000

>ms2peaks
65.038400 2701.500000
77.038400 8329.500000
79.054200 10311.900000
91.054100 107278.200000
93.069800 20594.600000
103.054200 13059.900000
105.044500 4097.000000
105.069700 79716.600000
109.064500 3286.800000
119.060200 36467.900000
121.064700 4199.600000
123.080500 2980.000000
133.064700 40653.600000
133.075800 29476.100000
149.059500 64160.100000
313.147000 2639.700000

>ms2peaks
65.038500 5071.200000
77.038500 19122.100000
79.054100 30532.300000
91.054100 146071.200000
93.069800 6442.400000
103.054100 21803.600000
105.044600 12398.800000
105.069700 95776.500000
106.041300 4264.300000
109.064700 3681.200000
119.060200 25022.800000
123.079900 1377.000000
133.064600 17501.900000
133.075800 21760.100000
149.059600 11397.200000
313.154900 1798.900000

