>compound EA71697853
>parentmass 293.0702999999999
>ionization [M+H]+
>formula C12H12N4O3S
>rt 216.000000
>profile orbitrap
#smiles_iso CC(=O)NC1=CC=C(C=C1)S(=O)(=O)NC2=NC=CC=N2
#smiles_can CC(=O)NC1=CC=C(C=C1)S(=O)(=O)NC2=NC=CC=N2
#inchikey NJIZUWGMNCUKGU-UHFFFAOYSA-N
#pubchem_id 64952
#mb_accession EA024802,EA024803,EA024804,EA024805,EA024806,EA024807,EA024808,EA024809,EA024810,EA024811,EA024812,EA024813

>ms2
136.075000 2716.700000
293.070500 850367.500000

>ms2
93.033400 3884.200000
96.055700 31842.800000
108.044400 36029.700000
118.065200 3549.900000
134.060000 66912.900000
136.075700 76404.300000
150.055100 11241.900000
156.011900 5556.000000
158.002000 22473.600000
162.066200 21119.200000
198.021900 136800.200000
227.092600 49913.000000
293.070300 409436.300000

>ms2
65.038600 18016.600000
93.033400 15911.200000
96.055600 64697.600000
108.044400 110610.500000
134.060000 240673.300000
136.075500 39554.400000
150.054900 8496.400000
156.011300 15108.200000
158.001700 26346.800000
162.066000 34397.400000
185.082500 9783.800000
198.021900 88160.300000
227.092400 41152.900000
293.070600 24234.500000

>ms2
65.038600 90445.300000
92.049500 15785.700000
93.033400 16672.500000
93.057300 2979.500000
94.064900 9215.100000
96.055600 48255.000000
106.065100 4350.700000
108.044300 87213.000000
134.060000 235190.500000
136.075600 14599.900000
156.011300 9393.000000
158.001500 8328.700000
162.065800 9269.500000
185.081900 17281.700000
198.022300 7035.600000
227.092800 6140.300000

>ms2
65.038600 117103.700000
67.029200 3676.800000
79.054100 2797.000000
92.049600 28584.600000
93.033500 10145.900000
93.057000 3542.300000
94.065400 8434.200000
96.055700 37782.700000
106.065200 8508.900000
108.044500 68651.600000
134.060200 81670.900000
158.001600 3727.900000
185.082000 16018.800000

>ms2
65.038600 110944.700000
67.028800 2833.700000
79.054100 5467.500000
92.049500 30791.500000
93.033700 3506.600000
93.057200 3762.500000
94.065000 3859.800000
96.055600 26696.200000
106.065200 8272.800000
108.044400 45234.400000
110.059900 4974.500000
134.060300 13282.500000
168.056200 4300.300000
185.081600 7065.600000

>ms2
136.076100 3073.900000
198.022500 3959.900000
293.070400 483502.700000

>ms2
93.033500 2142.700000
96.055600 18591.700000
108.044400 22886.000000
134.060000 33044.000000
136.075600 41594.800000
150.054900 9585.100000
156.011300 3876.200000
158.001800 10128.900000
162.066200 12421.200000
198.021900 75588.900000
227.092800 19714.000000
293.070100 201337.600000

>ms2
65.038600 9042.300000
92.049900 3073.700000
93.033500 7584.800000
94.065300 2704.900000
96.055700 33594.600000
108.044400 50593.600000
134.060100 128120.400000
136.075700 21140.200000
150.054900 6383.800000
156.011400 11830.300000
158.001900 11921.100000
162.066300 15916.800000
185.082300 4991.200000
198.022100 45205.400000
227.092700 21326.500000
293.069500 9529.700000

>ms2
65.038600 39759.300000
92.049400 6884.500000
93.033500 9270.300000
93.057200 2322.600000
94.065100 5768.800000
96.055700 25992.400000
106.065500 2933.100000
108.044400 42954.400000
134.060000 114593.100000
136.076000 4888.400000
156.011400 4322.800000
158.002200 4306.400000
162.066300 4644.700000
185.082300 9251.100000
198.021900 4095.100000
227.092400 5438.900000

>ms2
65.038600 62626.100000
79.054200 2162.400000
92.049600 10192.800000
93.033500 4494.200000
94.065200 3441.600000
96.055600 19669.800000
106.065300 3434.400000
108.044400 33791.200000
110.060100 3013.800000
134.060000 39281.800000
185.081800 4437.800000

>ms2
65.038600 53662.300000
79.054200 3503.900000
92.049500 12052.500000
93.057200 1365.500000
96.055600 12473.000000
106.065100 2497.600000
108.044400 19526.700000
110.059900 1119.100000
134.059900 8024.900000
168.055200 1393.200000

