>compound EA72210015
>parentmass 251.05969999999994
>ionization [M+H]+
>formula C10H10N4O2S
>rt 132.000000
>profile orbitrap
#smiles_iso C1=CN=C(N=C1)NS(=O)(=O)C2=CC=C(C=C2)N
#smiles_can C1=CN=C(N=C1)NS(=O)(=O)C2=CC=C(C=C2)N
#inchikey SEEPANYCNGTZFQ-UHFFFAOYSA-N
#pubchem_id 5215
#mb_accession EA017902,EA017903,EA017904,EA017905,EA017906,EA017907,EA017908,EA017909,EA017910,EA017911,EA017912,EA017913

>ms2
92.049300 6630.500000
94.065100 6542.800000
96.056000 3889.000000
108.044200 5431.600000
156.011100 45101.000000
251.059700 998656.100000

>ms2
65.038400 3322.000000
68.049300 3837.300000
92.049400 74443.100000
93.057400 2836.400000
94.065000 41605.500000
96.055500 47790.200000
108.044300 117305.100000
112.033800 2440.200000
156.011300 318272.600000
158.001800 33719.500000
176.012100 3398.200000
185.081600 10608.900000
233.050300 4249.100000
251.059500 364738.400000

>ms2
65.038500 21360.000000
68.049500 18761.800000
92.049500 121107.300000
94.065100 22036.700000
96.055600 80904.300000
108.044400 254383.200000
147.035200 2613.700000
156.011300 273791.200000
158.001800 28907.100000
185.082100 15425.900000
251.060000 21625.900000

>ms2
65.038600 43671.800000
68.049400 27745.500000
78.034000 4387.700000
80.049300 4755.400000
92.049400 178697.200000
93.057500 4047.200000
94.064800 10131.800000
96.044700 6170.400000
96.055600 83524.300000
108.044300 264870.400000
110.060100 12975.300000
156.011200 63269.400000
158.001800 12484.800000
185.082200 14471.500000

>ms2
65.038500 79301.800000
68.049400 15822.500000
80.049500 10395.800000
92.049400 207077.800000
93.057200 3805.400000
94.065200 5777.500000
96.055600 70212.400000
108.044300 216577.300000
110.060000 17592.100000
147.035200 3588.200000
156.011400 4199.600000
158.002200 4961.800000
185.081900 5166.100000

>ms2
65.038500 118077.100000
68.049400 6257.000000
80.049400 23655.800000
92.049400 165479.700000
93.057300 5243.000000
94.065300 3135.400000
96.055500 66606.800000
108.044300 143984.700000
110.060000 15712.500000

>ms2
92.049300 4679.600000
94.065200 3319.700000
96.055200 2481.300000
108.044100 7330.400000
156.011100 36566.400000
158.001900 3986.100000
251.059700 823748.400000

>ms2
65.038500 2525.200000
68.049500 2023.800000
92.049400 53563.400000
94.065100 29994.400000
96.055600 38967.600000
108.044400 95647.900000
156.011400 254313.900000
158.001800 27433.100000
176.011800 2655.700000
185.082100 10346.300000
251.059600 296367.700000

>ms2
65.038600 13087.800000
68.049500 12985.800000
92.049500 94660.500000
94.065100 17413.000000
96.055600 64681.300000
108.044400 189630.900000
156.011400 208432.300000
158.001800 22055.400000
176.012100 3566.700000
185.082200 14320.000000
251.059400 18203.400000

>ms2
65.038600 30661.900000
68.049500 18118.900000
78.033800 2497.700000
80.049300 2888.600000
92.049400 139723.200000
93.057300 3563.100000
94.065000 9071.200000
96.044400 3525.100000
96.055600 56227.500000
108.044400 203424.800000
110.060100 7488.900000
112.033600 1659.500000
156.011300 44200.800000
158.001800 10318.000000
185.082300 12219.900000
251.060900 5030.400000

>ms2
65.038600 55756.500000
67.029000 2162.300000
68.049400 9847.600000
80.049400 5986.600000
92.049500 139647.400000
93.057200 2368.000000
94.064800 2574.500000
96.055600 51753.300000
108.044400 150150.800000
110.060000 12535.200000
156.010900 4445.400000
185.082400 5541.400000

>ms2
65.038600 70490.600000
67.029100 1741.400000
68.049400 2481.500000
80.049400 15015.200000
92.049500 108789.200000
93.057200 2264.100000
96.055600 39200.100000
108.044300 89606.600000
110.060000 8899.500000

