>compound EA72150074
>parentmass 327.1371
>ionization [M+H]+
>formula C18H19ClN4
>rt 384.000000
>profile orbitrap
#smiles_iso CN1CCN(CC1)C2=NC3=C(C=CC(=C3)Cl)NC4=CC=CC=C42
#smiles_can CN1CCN(CC1)C2=NC3=C(C=CC(=C3)Cl)NC4=CC=CC=C42
#inchikey QZUDBNBUXVUHMW-UHFFFAOYSA-N
#pubchem_id 135398737
#mb_accession EA284102,EA284103,EA284104,EA284105,EA284106,EA284107,EA284108,EA284109,EA284110,EA284111,EA284112,EA284113

>ms2peaks
192.067900 17362.200000
327.137500 6982728.200000

>ms2peaks
84.080900 234364.700000
85.076200 17206.200000
270.079300 2347174.400000
296.095100 144676.300000
327.137600 4667693.200000

>ms2peaks
58.065200 20612.800000
84.080800 534690.400000
85.076400 24425.900000
192.068300 112420.800000
227.037000 336229.300000
229.052100 30551.800000
244.064500 14505.900000
253.053200 21583.100000
268.062700 18075.400000
270.079300 4958592.400000
296.094900 546055.400000
327.137300 487747.500000

>ms2peaks
58.065100 53696.300000
82.065400 8616.300000
84.080800 349015.000000
85.076300 11680.300000
191.060800 17852.500000
192.068200 1037661.500000
200.026900 9497.300000
206.083100 19225.900000
226.029700 32283.500000
227.037000 843050.400000
229.052800 45806.300000
234.102700 19000.600000
235.109800 44090.300000
241.053500 22754.600000
243.066700 11006.500000
253.053100 47342.200000
255.054500 25659.700000
270.079200 3069761.600000
280.062900 9193.600000
281.070600 16551.300000
296.094900 431716.900000

>ms2peaks
58.065100 64846.600000
82.065500 11158.600000
84.080900 157716.100000
85.076400 14518.600000
123.995000 33419.600000
132.067800 12514.200000
164.050000 18284.800000
191.060700 57162.800000
192.068500 2778768.900000
194.084200 16281.900000
200.026200 57746.400000
205.075900 11615.600000
206.084000 32478.100000
207.090700 17412.800000
209.070700 24158.200000
215.036000 16624.600000
217.075600 9388.300000
218.084200 49430.500000
219.066300 22067.600000
220.087700 37953.500000
226.029500 165927.200000
227.037200 467149.400000
228.044900 36058.200000
229.052600 32769.200000
233.094900 12953.500000
234.102700 57558.000000
235.110500 38872.800000
239.037100 10308.600000
240.045600 31216.400000
241.053200 16996.900000
243.066700 12287.000000
246.103700 16305.600000
253.053400 81451.600000
254.048600 25636.000000
268.064100 24927.600000
270.079200 953379.200000
296.094800 120539.000000

>ms2peaks
58.065100 56386.700000
84.080800 64453.100000
90.033800 54997.700000
98.999300 19898.000000
123.994900 79392.500000
126.010300 7965.600000
132.068900 9461.100000
164.049300 69921.900000
165.057400 61380.300000
183.068200 20641.700000
191.060500 107943.600000
192.068300 3067721.500000
193.075500 11449.500000
194.083700 24050.900000
200.026100 71276.800000
205.076300 19927.600000
206.083200 26109.600000
207.091700 26783.700000
208.098600 19292.800000
209.071200 13915.100000
213.033100 9199.700000
214.041800 11281.900000
215.037100 41105.200000
217.075800 22217.600000
218.083900 55937.800000
219.067500 22331.000000
220.086900 45635.100000
226.029200 285448.700000
227.036900 139188.500000
228.045000 45980.600000
229.053100 13023.500000
234.102400 61028.700000
235.109300 14620.800000
240.043700 22163.800000
241.053700 15483.400000
252.044400 18041.800000
253.053700 46225.600000
254.048200 30767.500000
255.055200 10201.600000
268.063800 23522.500000
270.079300 139531.800000
296.095300 12456.300000

>ms2peaks
192.069100 11211.400000
270.079900 13308.900000
327.137700 4642706.600000

>ms2peaks
84.080800 137346.800000
85.075900 8497.100000
229.052700 5006.200000
244.064100 8066.500000
254.048500 3901.900000
270.079400 1520876.300000
296.095000 94761.500000
327.137500 3080746.700000

>ms2peaks
58.065200 10410.300000
84.080900 354903.200000
85.076100 18245.400000
192.068300 48641.100000
227.037200 220201.400000
229.052200 18320.100000
235.110000 10772.500000
244.064100 10558.900000
253.052500 15529.800000
270.079600 3093351.700000
296.095000 340634.800000
327.137900 342516.100000

>ms2peaks
58.065100 31347.100000
82.065300 6247.700000
84.080900 201102.900000
85.076000 8525.800000
123.995000 6527.300000
191.060500 14056.400000
192.068300 649567.100000
206.083600 11066.500000
207.091500 5240.000000
208.099300 6569.200000
215.037100 6044.500000
218.083000 7142.300000
219.066600 5991.000000
220.087200 13054.400000
226.029500 24165.100000
227.037200 524484.300000
228.044500 14114.600000
229.052800 27590.300000
234.102900 17127.200000
235.110200 22315.700000
240.045000 9885.300000
241.052500 17388.400000
243.067800 8041.500000
253.052700 43827.000000
254.048200 6562.600000
254.061100 6892.100000
255.055700 25583.100000
256.064100 5236.100000
268.064300 7310.400000
269.073100 6241.000000
270.079500 1946564.400000
281.071500 4607.100000
296.095000 279729.100000

>ms2peaks
58.065100 34620.400000
82.065100 5959.600000
84.080800 91765.100000
85.076100 9648.800000
90.033900 15421.500000
98.999400 4918.400000
117.056900 2993.100000
123.994900 25272.100000
132.068400 9627.200000
164.049500 10140.700000
191.060300 26784.600000
192.068300 1590618.400000
193.075700 3546.500000
194.084100 12601.700000
200.026000 31134.300000
205.075600 7887.300000
206.083800 19177.800000
207.091500 9905.900000
208.099300 12584.300000
209.071000 12529.600000
213.033200 4088.300000
214.041800 3807.400000
215.037000 18707.000000
218.083600 29103.700000
219.066500 14879.700000
220.086800 28769.300000
226.029200 95746.200000
227.037000 301561.300000
228.044600 22108.900000
229.052800 16372.700000
233.095600 6014.000000
234.102400 41773.800000
235.110300 25235.100000
239.037200 9562.700000
240.044800 14425.400000
241.052400 12070.300000
243.069300 7568.400000
246.102700 10951.100000
252.044000 4187.400000
253.052500 45063.400000
254.047800 13690.000000
254.061100 7922.700000
255.055900 18946.800000
256.063400 4712.200000
268.063200 7750.700000
269.073200 6092.700000
270.079100 556193.900000
280.063800 12466.800000
281.071500 8357.600000
294.078900 8782.900000
296.094800 69790.800000

>ms2peaks
58.065100 33903.400000
82.065200 5825.800000
84.080800 36066.500000
85.076100 4659.200000
90.033900 25471.300000
98.999600 6174.400000
117.057200 4161.500000
123.994900 45076.000000
126.010500 2896.400000
132.068000 3641.100000
164.049500 46250.600000
165.057400 27607.500000
183.068100 7712.900000
191.060500 52150.200000
192.068400 1843989.000000
193.076100 10664.900000
194.083900 13277.900000
200.026200 34244.700000
205.076200 14519.100000
206.084000 15096.200000
207.091700 14548.200000
208.099600 10665.700000
209.070800 12705.900000
213.034400 4011.400000
214.041900 4988.400000
215.037200 18715.000000
217.076200 7333.300000
218.083900 31907.300000
219.066400 12099.000000
220.087000 24986.000000
226.029300 156066.700000
227.037100 76702.300000
228.044800 28150.800000
229.052700 6496.500000
233.095100 9662.500000
234.102600 34885.000000
235.110500 11635.900000
239.037100 11229.200000
240.044800 13635.100000
241.052900 8682.300000
246.102300 5160.500000
252.044800 8215.700000
253.052800 33509.800000
254.048100 15089.300000
254.060700 4789.800000
255.056200 6975.200000
268.063800 8378.000000
270.079200 73886.200000
280.063800 6085.400000
294.079700 5820.900000
296.094800 5464.400000

