>compound EA73335847
>parentmass 361.12010000000004
>ionization [M+H]+
>formula C20H21ClO4
>rt 942.000000
>profile orbitrap
#smiles_iso CC(C)OC(=O)C(C)(C)OC1=CC=C(C=C1)C(=O)C2=CC=C(C=C2)Cl
#smiles_can CC(C)OC(=O)C(C)(C)OC1=CC=C(C=C1)C(=O)C2=CC=C(C=C2)Cl
#inchikey YMTINGFKWWXKFG-UHFFFAOYSA-N
#pubchem_id 3339
#mb_accession EA033602,EA033603,EA033604,EA033605,EA033606,EA033607,EA033608,EA033609,EA033610,EA033611,EA033612,EA033613

>ms2
138.994600 11843.000000
233.036300 276665.000000
273.066800 8308.500000
319.072600 7514.900000
361.120100 963014.300000

>ms2
121.028300 53909.800000
138.994500 141963.300000
233.036400 1207278.700000
361.120000 37360.300000

>ms2
121.028500 270502.600000
138.994700 608760.900000
233.036500 380964.400000

>ms2
59.049100 3771.600000
86.999600 3811.700000
121.028400 311923.200000
138.994600 661419.100000
233.036700 35842.800000

>ms2
59.049200 4566.000000
65.038500 9221.000000
86.999600 14324.800000
93.033600 9847.800000
110.999700 16529.000000
121.028400 227249.200000
121.039600 38683.500000
129.009600 4930.000000
138.994600 456709.700000
139.006100 132103.800000

>ms2
50.015000 4522.300000
51.022900 4165.300000
59.049000 3936.000000
65.038500 23527.700000
75.022800 8346.500000
86.999600 22876.100000
93.033300 18710.900000
110.999600 30125.300000
111.043900 3089.400000
121.028400 124559.800000
121.039600 48090.300000
129.010000 10387.800000
138.994500 208053.700000
139.005600 234271.100000

>ms2
139.006400 2117.200000
233.036300 146501.500000
273.068000 4684.200000
319.073800 5458.600000
361.120200 530118.500000

>ms2
121.028400 27325.000000
138.994500 67990.800000
233.036500 651002.700000
361.120000 16855.700000

>ms2
121.028400 130956.400000
138.994500 324281.200000
233.036200 183627.400000

>ms2
121.028400 159339.800000
138.994500 346101.900000
233.036300 16429.100000

>ms2
59.049200 2843.200000
65.038500 6895.800000
86.999500 6490.400000
93.033500 2927.300000
110.999500 4492.900000
121.028400 110264.300000
121.039600 15661.000000
129.010200 4719.300000
138.994500 208619.800000
139.005700 69854.400000
353.114200 2243.700000

>ms2
50.015100 1463.700000
51.022900 1850.200000
59.049100 3521.600000
65.038500 10707.500000
75.022900 3840.700000
86.999600 6639.700000
93.033500 8811.300000
110.999600 9116.400000
111.044100 2003.000000
121.028400 61906.700000
121.039600 23140.000000
129.010100 5224.500000
138.994500 95912.900000
139.005700 111106.300000

