>compound EA73616642
>parentmass 289.1311999999999
>ionization [M+H]+
>formula C12H21N2O4P
>rt 570.000000
>profile orbitrap
#smiles_iso CCOP(=O)(OCC)OC1=NC(=NC(=C1)C)C(C)C
#smiles_can CCOP(=O)(OCC)OC1=NC(=NC(=C1)C)C(C)C
#inchikey VBLJFQYCTRKKKF-UHFFFAOYSA-N
#pubchem_id 13754
#mb_accession EA270502,EA270503,EA270504,EA270505,EA270506,EA270507,EA270508,EA270509,EA270510,EA270511,EA270512,EA270513

>ms2
153.103100 1483713.050000
261.099200 656009.700000
289.131100 106064980.100000

>ms2
84.044300 59600.300000
135.091700 160638.300000
153.102300 47751351.700000
233.068800 3781338.400000
261.100100 5894446.400000
289.131100 45669830.800000

>ms2
66.034000 192650.200000
84.044500 490562.500000
93.044800 901869.600000
98.984400 155533.200000
109.005000 651497.200000
135.091800 2095742.400000
153.102200 82680491.400000
215.057600 165960.400000
233.068600 5693575.600000
261.100100 1001493.900000
289.131000 2447119.600000

>ms2
52.018400 116066.900000
66.033900 788897.900000
70.065200 394241.200000
80.973600 192000.500000
84.044400 6133238.600000
90.994400 100342.600000
93.044800 1623623.000000
98.984100 663248.100000
109.005000 1339945.100000
135.091700 2441278.500000
153.102300 65437988.500000
215.058800 96355.400000
233.068400 1210292.000000

>ms2
52.018200 165222.100000
66.033900 1183402.100000
70.065200 1318894.400000
80.973700 451060.500000
84.044400 14868670.500000
90.994400 205462.300000
93.044800 1297249.800000
98.984200 1237661.900000
108.080400 49149.300000
109.005000 1197521.200000
112.075800 77604.800000
135.091800 711442.700000
137.070300 55312.900000
138.079100 189831.100000
153.102200 29682764.100000
233.068000 111631.500000

>ms2
52.018100 70832.300000
64.978700 59807.700000
66.033900 1176459.300000
70.065200 1750629.800000
80.973700 462047.300000
84.044400 15158261.300000
90.994300 236529.600000
93.044700 596809.200000
98.984200 1588668.300000
109.005000 984138.200000
112.075700 57432.900000
135.091500 102324.100000
137.071400 154273.200000
138.078700 227727.800000
153.102100 8136124.000000

>ms2
153.102000 770129.200000
261.100000 465577.600000
289.131000 70720886.300000

>ms2
84.044500 43899.100000
93.044300 35184.500000
135.091800 85821.500000
153.102400 31076068.500000
215.057100 34389.600000
233.068700 2429670.300000
261.099900 3839741.300000
289.131100 29259140.900000

>ms2
66.033900 89305.800000
84.044400 276067.300000
93.044800 499234.500000
98.984100 113727.700000
109.005000 341743.600000
135.091800 1276202.900000
153.102400 52441026.000000
215.057800 86013.300000
233.068800 3837420.500000
261.100100 590109.600000
289.131800 1438438.600000

>ms2
52.018200 94488.200000
66.033800 486703.700000
70.065100 194432.700000
80.973500 117455.300000
84.044400 3442369.000000
93.044700 867269.000000
98.984200 349286.500000
109.004900 646954.900000
135.091700 1302887.200000
138.079400 38969.300000
153.102300 37318445.200000
215.057400 66968.100000
233.068600 631481.400000

>ms2
52.018200 125049.100000
66.033800 676196.000000
70.065100 688594.900000
80.973600 220669.400000
84.044400 8217472.400000
90.994200 78009.600000
93.044700 599063.500000
98.984100 660634.900000
108.080800 32350.800000
109.005000 641544.200000
135.091700 405218.700000
136.075500 29657.300000
138.079000 57172.700000
153.102200 16126521.700000
215.057700 21087.100000
233.068700 61766.100000

>ms2
52.018100 61791.700000
64.978600 43963.900000
66.033800 645249.800000
70.065100 859821.300000
80.973500 224094.100000
84.044400 8227835.900000
90.994300 87513.300000
93.044700 314655.200000
98.984100 851363.000000
109.004800 474168.300000
135.091600 60629.300000
137.070700 96965.600000
138.078700 100551.100000
153.102200 4221923.500000
289.130000 21603.300000

