>compound EA74600539
>parentmass 226.1662000000001
>ionization [M+H]+
>formula C10H19N5O
>rt 402.000000
>profile orbitrap
#smiles_iso CC(C)NC1=NC(=NC(=N1)OC)NC(C)C
#smiles_can CC(C)NC1=NC(=NC(=N1)OC)NC(C)C
#inchikey ISEUFVQQFVOBCY-UHFFFAOYSA-N
#pubchem_id 4928
#mb_accession EA013202,EA013203,EA013204,EA013205,EA013206,EA013207,EA013208,EA013209,EA013210,EA013211,EA013212,EA013213

>ms2
226.166400 37837685.700000

>ms2
100.050800 71034.900000
142.072700 197208.200000
184.118900 2499510.700000
226.166600 40208346.600000

>ms2
68.024200 363154.000000
75.055200 58307.900000
86.034900 144400.500000
100.050500 524725.400000
110.071300 167199.700000
142.072400 6306553.900000
152.118900 92215.400000
184.119500 15400628.900000
226.166400 21547617.900000

>ms2
57.044600 418188.200000
58.028700 82427.600000
68.024300 1115482.800000
69.008500 50904.400000
75.055300 381133.600000
82.039900 77579.200000
86.034900 1760923.300000
99.066300 233961.800000
100.050600 2006746.500000
110.071500 149719.600000
142.072400 16356090.700000
152.093000 50816.000000
152.118000 44496.300000
184.119300 11554964.500000
226.166000 3490243.100000

>ms2
57.044700 1002020.900000
58.028700 110855.300000
68.024300 1348868.400000
69.008400 156169.400000
75.055300 678078.400000
82.040000 294364.600000
83.024100 155706.800000
85.050900 163212.000000
86.034900 3785792.900000
99.066500 623274.400000
100.050600 3852979.500000
110.046100 144815.900000
110.071600 48645.000000
142.072500 13779178.600000
184.118900 2565233.300000

>ms2
57.044700 1577727.900000
58.028600 190375.200000
68.024300 1678605.200000
69.008200 279388.400000
74.071200 28832.300000
75.055300 795483.200000
82.040000 436027.500000
83.024000 322754.900000
85.050900 215914.700000
86.034900 4003019.500000
99.066500 486192.700000
100.050600 3996567.700000
110.046300 179599.400000
125.045600 65619.800000
142.072300 5489840.500000

>ms2
184.119500 113021.700000
211.141800 45096.300000
226.166200 35878251.300000

>ms2
142.072500 204457.700000
184.119300 2329903.100000
226.166300 35070536.000000

>ms2
57.044700 46516.700000
68.024300 298203.500000
75.055300 49006.200000
86.034900 155465.300000
100.050500 408925.800000
110.071300 175761.200000
142.072400 5443162.600000
152.093200 23262.000000
152.118300 110197.500000
184.119300 13025703.500000
226.166200 17855718.100000

>ms2
57.044700 314945.700000
58.028600 32171.600000
68.024300 834235.900000
69.008300 45704.100000
75.055300 368288.500000
82.040000 59931.100000
83.023700 22926.700000
86.034900 1403657.500000
99.066500 172584.100000
100.050500 1779333.500000
110.046200 55924.700000
110.071200 115004.700000
142.072300 13272086.600000
152.093500 29201.900000
152.118200 67909.900000
184.119300 9682364.800000
226.166300 3277024.100000

>ms2
57.044700 889419.700000
58.028700 93450.100000
68.024300 1126177.500000
69.008300 78959.400000
75.055300 582540.500000
82.040000 234717.000000
83.024000 107873.600000
85.050900 103976.500000
86.035000 3172392.400000
99.066600 480378.900000
100.050600 3005056.500000
110.046100 121526.900000
110.071600 42923.200000
125.045500 24983.900000
142.072400 11066161.800000
152.093100 21144.600000
184.119200 2084497.100000
226.165900 139691.400000

>ms2
57.044700 1289530.000000
58.028700 179967.000000
68.024300 1185837.700000
69.008300 208955.900000
74.071200 29192.600000
75.055300 556068.500000
82.040000 269680.500000
83.024000 185010.500000
85.050900 130877.200000
86.034900 3069906.500000
99.066500 382905.500000
100.050600 3034807.100000
110.046100 113219.500000
125.045900 15020.500000
142.072400 4464724.600000
184.119300 231731.200000

