>compound EA75711255
>parentmass 130.1087
>ionization [M+H]+
>formula C4H11N5
>rt 48.000000
>profile orbitrap
#smiles_iso CN(C)C(=N)N=C(N)N
#smiles_can CN(C)C(=N)N=C(N)N
#inchikey XZWYZXLIPXDOLR-UHFFFAOYSA-N
#pubchem_id 4091
#mb_accession EA255002,EA255003,EA255004,EA255005,EA255006,EA255007,EA255008,EA255009,EA255010,EA255011,EA255012,EA255013

>ms2
60.055700 339708.000000
71.060300 22213.800000
85.051100 61770.300000
88.087000 25246.100000
113.082200 37925.900000
130.108900 5354616.500000

>ms2
60.055700 781489.900000
71.060400 113874.200000
85.050900 170533.600000
88.087000 145903.100000
113.082100 119417.700000
130.108800 5855389.900000

>ms2
60.055700 1372849.900000
68.024400 17533.200000
71.060400 579012.100000
85.050900 429381.100000
88.086900 492297.500000
113.082100 278249.900000
130.108800 3361207.100000

>ms2
60.055700 1315887.800000
68.024300 36177.000000
71.060400 1210941.000000
85.050900 579689.500000
88.087000 651032.500000
113.082200 368493.900000
130.108800 1159032.400000

>ms2
60.055600 918428.700000
68.024400 82921.600000
71.060400 1679645.500000
85.050900 599460.900000
88.087000 547640.500000
96.055400 12427.900000
113.082200 313232.800000
130.108800 288683.700000

>ms2
60.055600 567404.000000
68.024300 131591.400000
71.060400 2006565.700000
85.050900 440974.000000
88.086900 312723.300000
96.055400 16065.600000
113.082100 192798.000000
130.108200 41849.100000

>ms2
60.055600 262694.100000
71.060200 23735.800000
85.050800 42673.700000
88.086900 25640.800000
113.082300 34325.300000
130.108800 5233231.200000

>ms2
60.055700 798175.900000
68.024300 6704.000000
71.060400 105988.900000
85.050900 154177.700000
88.086900 131212.800000
113.082200 111690.700000
130.108800 5780905.700000

>ms2
60.055700 1211793.700000
68.024400 15422.000000
71.060400 461813.800000
85.050900 370578.600000
88.087000 393035.800000
113.082200 248983.100000
130.108800 2995103.200000

>ms2
60.055600 1273298.300000
68.024400 38928.200000
71.060400 1106690.900000
85.050900 526784.200000
88.087000 601584.100000
113.082200 330376.300000
130.108800 1144547.400000

>ms2
60.055700 929278.200000
68.024300 74578.400000
71.060400 1726781.700000
85.050900 535622.100000
88.087000 530522.600000
96.055700 10959.500000
113.082200 296978.200000
130.108700 257889.700000

>ms2
60.055700 548139.600000
68.024300 132612.900000
71.060400 1861441.400000
85.050900 370484.800000
88.087000 302989.700000
96.055600 14379.800000
113.082200 148186.600000
130.108700 35861.400000

