>compound EA75571125
>parentmass 152.01649999999998
>ionization [M+H]+
>formula C7H5NOS
>rt 306.000000
>profile orbitrap
#smiles_iso C1=CC=C2C(=C1)C(=O)NS2
#smiles_can C1=CC=C2C(=C1)C(=O)NS2
#inchikey DMSMPAJRVJJAGA-UHFFFAOYSA-N
#pubchem_id 17520
#mb_accession EA030102,EA030103,EA030104,EA030105,EA030106,EA030107,EA030108,EA030109,EA030110,EA030111,EA030112,EA030113

>ms2peaks
152.016300 13517226.200000

>ms2peaks
109.011000 108411.400000
152.016500 79214714.700000

>ms2peaks
105.033600 336815.500000
109.010700 1125151.600000
134.006100 338414.800000
152.016500 76325411.300000

>ms2peaks
80.049500 352149.800000
105.033500 2483200.700000
109.010700 5971500.000000
124.021700 222220.400000
134.005900 3716841.500000
152.016500 62993335.800000

>ms2peaks
53.038600 53051.100000
65.038800 83124.000000
77.038700 156846.900000
80.049500 1353170.800000
90.033900 443161.500000
97.010600 178440.400000
105.033500 6556153.900000
106.994900 114418.600000
109.010600 11256356.200000
124.021600 468036.800000
134.005900 10349279.600000
135.997800 150582.300000
152.016400 37276382.000000

>ms2peaks
53.038600 133259.900000
63.023000 223986.300000
65.038600 218304.500000
68.979200 58220.400000
77.038700 500277.400000
80.049500 2235069.400000
81.033700 64784.200000
90.033900 1649947.400000
92.979700 35279.800000
97.010800 318653.700000
105.033500 8458668.300000
106.995100 503713.000000
108.002900 112489.500000
109.010700 11249775.500000
119.037000 63417.300000
124.021700 335460.300000
132.998100 139810.000000
134.005900 13678012.800000
135.001600 101284.100000
135.997900 354035.200000
152.016500 17505614.900000

>ms2peaks
134.006200 40017.700000
152.016500 9558855.200000

>ms2peaks
152.016500 59539211.500000

>ms2peaks
105.033500 173433.300000
109.010700 747256.300000
134.005900 230609.200000
152.016500 56548291.700000

>ms2peaks
80.049500 196063.900000
105.033600 1780952.900000
109.010700 4230111.000000
124.021600 165844.500000
134.005900 2546647.200000
152.016500 45888131.700000

>ms2peaks
53.038500 23224.000000
65.038600 42581.400000
77.038600 73431.000000
80.049500 723891.200000
90.033900 185174.200000
97.010800 79794.000000
105.033600 3932037.400000
106.995000 57360.100000
109.010700 6545657.000000
124.021600 223891.700000
134.006000 6304548.200000
135.001500 25095.700000
135.997800 97728.400000
152.016600 22592953.900000

>ms2peaks
53.038600 104068.500000
63.022900 116102.500000
65.038600 142897.900000
68.979300 27633.000000
77.038600 247498.300000
80.049500 1252418.200000
81.033500 31690.300000
90.033900 1023886.400000
92.979300 35270.800000
97.010700 160277.400000
105.033600 5040487.500000
106.995100 296917.700000
108.003000 52478.900000
109.010800 6645231.400000
119.036800 20249.600000
124.021600 216310.400000
132.998200 96269.900000
134.006000 8227591.000000
135.001300 69730.500000
135.997800 171653.400000
152.016600 10316729.600000

