>compound EA75203351
>parentmass 316.10759999999993
>ionization [M+H]+
>formula C16H15F2N3Si
>rt 744.000000
>profile orbitrap
#smiles_iso C[Si](CN1C=NC=N1)(C2=CC=C(C=C2)F)C3=CC=C(C=C3)F
#smiles_can C[Si](CN1C=NC=N1)(C2=CC=C(C=C2)F)C3=CC=C(C=C3)F
#inchikey FQKUGOMFVDPBIZ-UHFFFAOYSA-N
#pubchem_id 73675
#mb_accession EA009702,EA009703,EA009704,EA009705,EA009706,EA009707,EA009708,EA009709,EA009710,EA009711,EA009712,EA009713

>ms2
316.107400 16734629.800000

>ms2
79.000800 41923.400000
91.054300 136174.100000
105.069900 291920.700000
109.045100 23126.600000
141.016600 40957.900000
149.041900 33368.600000
151.037500 107664.600000
165.069900 609539.500000
166.077800 169269.500000
169.047900 3650891.200000
171.044100 38156.300000
183.063800 41390.700000
185.076300 64446.100000
199.036700 25910.400000
219.044200 68002.300000
220.070100 108655.100000
227.069000 34520.900000
247.074700 2225997.800000
316.107300 8838094.700000

>ms2
61.010300 46186.300000
64.985600 22325.800000
77.038500 465142.600000
79.000900 328182.600000
79.054600 47103.600000
80.996700 121302.100000
91.054100 145822.000000
95.048800 40081.000000
99.007000 81974.400000
103.054000 49408.400000
105.044700 133047.900000
105.069700 364890.700000
109.044900 46767.000000
115.053700 35369.600000
125.022300 53458.100000
128.061700 37136.500000
141.016600 235572.400000
141.069800 211141.800000
151.037300 411253.800000
152.061900 232776.300000
153.069800 237821.400000
155.085100 42686.200000
157.027600 149778.100000
165.069900 4997448.900000
166.077600 1254933.000000
167.032700 53888.500000
169.047800 2575997.700000
171.043500 432905.200000
178.077800 71111.400000
179.085600 156903.800000
181.076300 64047.400000
181.101900 63872.400000
183.060600 196931.600000
185.076100 875903.200000
193.075600 89414.800000
199.036800 80959.000000
217.048000 151193.200000
219.043300 515271.000000
220.069600 50177.600000
227.068600 275747.700000
231.043600 51595.700000
232.051500 112110.000000
237.054000 103356.400000
245.078600 167295.900000
247.074500 1397210.400000
265.085200 86183.400000

>ms2
53.038500 60691.200000
61.010400 50159.100000
64.985400 58936.500000
77.038600 1151673.200000
79.001000 308251.000000
79.054200 105045.500000
80.996900 93562.700000
91.054200 214297.300000
95.049200 120233.200000
99.007500 73780.600000
103.054200 131817.300000
105.044600 228800.900000
105.069900 456359.000000
109.044900 184323.700000
115.054100 81741.200000
125.021800 154644.400000
128.062000 47797.900000
141.016600 331864.000000
141.070000 188700.600000
143.032700 28494.700000
149.021900 34788.600000
151.037400 332886.900000
152.062100 322427.000000
153.069900 350919.300000
155.060100 28677.200000
155.085800 35757.000000
157.028000 310246.400000
159.060100 36592.500000
164.062500 48808.700000
165.070000 5215930.400000
166.077700 496984.300000
167.032100 87896.400000
169.047800 707133.500000
170.052300 40269.600000
171.043600 320385.100000
175.020500 28954.400000
178.077700 152128.300000
179.085300 154358.700000
181.075800 49084.200000
183.060400 359268.100000
184.068500 37911.900000
185.076100 1031265.500000
193.075600 31700.900000
199.038100 135167.200000
217.047900 154071.200000
219.043600 864503.400000
227.068500 183248.400000
232.051200 77850.400000
235.039200 88236.500000
237.054000 144032.500000
245.078800 96777.500000

>ms2
53.038500 54747.700000
61.010400 77479.600000
63.006100 27638.000000
64.985200 75663.000000
65.038500 21722.700000
77.038500 1131143.200000
79.000800 156623.500000
79.054200 221616.700000
80.996700 48384.900000
91.054100 528027.900000
95.049100 109108.800000
99.007000 41692.400000
103.054200 205969.500000
105.044600 289265.200000
105.069800 476606.300000
109.044600 580511.600000
115.054100 187465.800000
123.005700 65092.400000
125.021400 182440.200000
128.061700 50188.400000
129.069800 36993.600000
139.054400 74607.400000
141.016600 285055.000000
141.069800 89515.400000
143.012300 23696.000000
143.032200 26153.800000
149.021300 55095.200000
149.041700 27977.200000
151.037300 189177.400000
151.053600 74535.800000
152.061800 529864.400000
153.069700 289630.400000
155.060000 52173.300000
157.028000 240144.100000
159.060400 62804.100000
164.061800 191619.500000
165.069800 4168103.600000
166.077500 100734.300000
170.052400 143082.300000
171.043400 83204.100000
178.077400 201205.200000
179.059900 31364.600000
179.085700 78592.800000
181.075900 36786.500000
183.060200 575033.300000
184.068000 112771.900000
185.075900 525168.900000
199.037700 97533.400000
203.066100 28056.400000
217.027200 49056.900000
217.047500 122844.500000
219.043100 747307.800000
227.068800 41642.300000
235.038000 156943.000000
237.054100 100726.700000

>ms2
53.038500 32059.200000
61.010400 53569.700000
64.985300 72724.000000
65.038600 99669.800000
77.038600 892740.700000
79.001000 132831.400000
79.054300 212040.500000
80.997000 27461.500000
83.029200 33893.100000
91.054300 830540.000000
95.049300 86739.300000
99.007000 30202.800000
103.054200 191111.500000
105.044700 259275.800000
105.069900 244173.300000
109.044800 1007233.400000
115.054300 238541.600000
123.006000 216613.400000
125.021700 120358.600000
128.062000 51155.700000
139.054300 172713.600000
141.016700 139624.900000
141.069800 45551.300000
149.021700 79813.600000
151.038000 57833.900000
151.054300 188566.800000
152.062100 812316.900000
153.069800 151203.300000
155.060300 78037.500000
157.027800 106558.900000
159.060900 105842.700000
164.062100 310391.700000
165.070000 3214797.500000
167.032400 192355.800000
168.056900 101587.800000
169.048000 100014.100000
169.064700 40400.000000
170.052600 254218.100000
171.044000 21895.700000
175.020100 23233.000000
178.077900 159370.400000
179.060100 77243.700000
179.085100 35780.100000
183.060500 851920.000000
184.068300 116631.500000
185.022900 34191.500000
185.076000 170322.400000
217.027800 47133.500000
217.047400 80360.100000
219.043400 254116.800000
235.038600 192886.600000

>ms2
169.047700 21351.300000
187.057900 25055.800000
247.076100 25935.500000
316.107200 14419610.500000

>ms2
77.038600 14861.700000
79.000800 37024.600000
91.054100 126936.000000
105.069800 247326.100000
109.044100 17040.100000
141.069500 24880.900000
149.041400 46353.300000
151.037200 107384.200000
153.070000 33077.700000
165.069700 457005.600000
166.077600 142429.600000
169.047900 3262501.700000
171.043600 41686.200000
181.101600 16211.800000
183.063900 41605.300000
185.075900 63979.800000
201.073800 38296.200000
219.043600 68759.900000
220.069900 100698.400000
227.068600 27896.500000
245.078600 25407.600000
247.074600 2049547.800000
265.085200 140988.600000
316.107400 7894263.800000

>ms2
61.010300 13913.900000
77.038500 389970.500000
79.001000 233836.000000
79.054300 19737.200000
80.996600 109636.000000
91.054200 126901.600000
95.049000 29178.200000
99.007100 72520.500000
103.054000 37427.000000
105.044700 86974.700000
105.069800 252742.500000
109.044400 33116.000000
125.021700 28628.500000
128.062000 25286.900000
131.060300 24922.200000
141.016500 131444.200000
141.069800 127073.900000
149.041700 32340.400000
151.037300 295342.000000
152.062000 171080.100000
153.069800 174220.300000
155.085500 26268.600000
157.027800 100198.100000
165.069900 3758830.000000
166.077600 873908.000000
167.032400 16881.600000
169.047800 2011152.300000
171.043500 336452.000000
178.077500 58183.800000
179.085400 129355.400000
181.075900 50874.000000
181.101400 35837.200000
183.060100 142955.900000
185.075900 720297.700000
193.075900 60139.900000
199.037400 49106.400000
201.073600 21041.000000
217.028300 12119.100000
217.047500 89991.300000
219.043300 440313.700000
220.069600 30448.700000
227.068500 167392.900000
232.051300 76531.900000
235.038500 36873.800000
237.053700 81009.500000
245.059300 32087.500000
245.078800 102838.100000
247.074600 1147776.500000
249.053800 29557.800000
265.085400 67975.600000
316.107400 270356.700000

>ms2
53.038500 40614.800000
61.010300 48280.400000
63.006000 12236.300000
64.985300 46037.200000
77.038600 847549.000000
79.000900 221459.800000
79.054200 104043.500000
80.996600 72718.900000
91.054200 169448.700000
95.049000 78016.900000
99.007200 42666.500000
103.054200 97034.800000
105.044600 223603.100000
105.069800 321827.300000
109.044700 151123.000000
115.054200 47814.100000
123.005600 11971.600000
125.021700 113142.500000
128.062200 46670.800000
129.069700 12478.000000
131.060400 12539.600000
139.054000 19675.000000
141.016500 259816.600000
141.069700 136047.500000
143.012000 18242.800000
149.021400 33381.400000
149.042000 24633.400000
151.037300 299434.600000
152.062000 235702.800000
153.069800 322034.000000
155.060200 27077.400000
155.085600 33914.400000
157.027900 259064.800000
159.026800 18801.500000
159.060500 40645.600000
164.062000 34073.100000
165.069900 3961577.600000
166.077600 368040.400000
167.032200 65774.800000
168.056800 22655.000000
169.047800 497778.900000
170.051800 25490.000000
171.043500 285904.100000
175.022000 18317.600000
175.038900 16540.400000
178.077700 102679.600000
179.085500 103474.300000
181.076000 47129.600000
183.060300 260898.000000
184.068500 41019.000000
185.076000 742005.900000
193.076300 16046.000000
199.037800 76107.100000
203.066700 15100.300000
217.027100 20406.500000
217.047800 144594.900000
219.043400 660315.900000
227.068700 124136.400000
231.042800 34030.600000
232.051000 35232.200000
235.038600 42495.800000
237.054000 103013.600000
245.058700 16139.400000
245.079100 55380.800000
247.074900 74673.800000
249.054000 25745.800000

>ms2
53.038400 38022.300000
61.010300 48539.200000
63.005900 18093.100000
64.985300 72305.800000
65.038500 15898.700000
77.038500 813889.100000
79.000900 109669.100000
79.054200 143712.700000
80.996700 36381.100000
91.054200 403318.200000
95.049000 107541.500000
99.007200 30056.800000
103.054200 128669.100000
105.044700 192435.100000
105.069800 334104.000000
109.044700 403840.200000
115.054100 132849.400000
123.006000 55447.400000
125.021600 150943.600000
127.054500 12859.800000
128.062100 42060.300000
129.069600 12581.600000
139.054000 49551.700000
141.016500 232760.700000
141.069600 71917.800000
143.032400 21110.300000
149.021700 46259.800000
149.041400 15973.700000
151.037400 122163.300000
151.054000 52053.900000
152.062000 420288.400000
153.069700 230352.500000
155.060300 41601.900000
155.085400 16090.500000
157.027900 166432.100000
159.060400 45501.000000
164.062000 124776.500000
165.069800 3091910.300000
166.077600 89819.800000
167.032100 130649.500000
168.056800 50344.300000
169.047800 223801.500000
170.052500 128704.100000
171.043400 66564.000000
175.022100 32512.000000
178.077500 142618.000000
179.059900 16421.900000
179.085300 80198.700000
181.075700 20003.500000
183.060300 418911.100000
184.068100 84190.200000
185.075900 390964.900000
187.058300 121619.400000
196.051800 16552.200000
199.037700 69273.000000
217.028200 29799.800000
217.047800 97365.500000
219.043400 465649.600000
227.068100 25753.400000
231.043700 27108.400000
232.051600 13101.500000
235.038100 104645.600000
237.053900 65585.700000
245.058700 15223.800000
245.079100 22927.600000
247.068800 13497.700000
247.080200 20409.600000
249.053800 18894.800000

>ms2
53.038400 21486.800000
61.010300 30328.000000
63.006000 13758.800000
64.985300 41907.900000
65.038500 56963.000000
77.038600 638594.500000
79.001000 89734.800000
79.054200 136121.800000
80.996600 26497.000000
83.029100 10741.800000
91.054200 571976.200000
95.049100 60386.600000
99.007200 17512.600000
103.054100 140353.400000
105.044700 161049.500000
105.069800 159942.400000
109.044700 691866.200000
115.054200 179219.700000
123.006000 134008.900000
125.021600 73170.300000
127.054200 20473.400000
128.061900 35183.000000
139.054200 103092.300000
141.016600 65921.100000
141.069700 34029.900000
143.011700 8818.800000
143.032200 10710.900000
149.021600 43787.600000
151.037300 35205.300000
151.054200 104505.200000
152.062000 597299.300000
153.069800 90605.600000
155.060300 65557.700000
157.027800 71871.700000
159.026800 17311.100000
159.060300 52549.700000
164.061900 190244.100000
165.069800 2328026.500000
166.077900 10320.300000
167.032100 108616.500000
168.056800 55242.900000
169.047700 56951.400000
169.064700 25129.500000
170.052500 167721.600000
175.022100 23507.000000
175.038500 12172.200000
178.077600 116437.700000
179.060200 47982.100000
179.085400 23250.000000
183.060300 540577.600000
184.068200 69458.300000
185.022700 27482.400000
185.076000 88918.300000
196.051700 20459.500000
199.037300 27417.900000
217.027700 30805.500000
217.047700 44394.900000
219.043400 141673.000000
231.042900 11930.100000
235.038200 103297.700000
237.053700 20021.200000
247.069800 8451.400000
247.081200 12745.500000

