>compound EA75505853
>parentmass 201.06919999999994
>ionization [M+H]+
>formula C8H12N2O2S
>rt 378.000000
>profile orbitrap
#smiles_iso CN(C)S(=O)(=O)NC1=CC=CC=C1
#smiles_can CN(C)S(=O)(=O)NC1=CC=CC=C1
#inchikey QCDQDISRALTLNQ-UHFFFAOYSA-N
#pubchem_id 78441
#mb_accession EA029602,EA029603,EA029604,EA029605,EA029606,EA029607,EA029608,EA029609,EA029610,EA029611,EA029612,EA029613

>ms2peaks
65.038700 76914.600000
92.016300 67069.700000
92.049500 832670.600000
93.057300 1309936.200000
94.065100 686168.000000
108.011000 28582.600000
108.080900 43155.500000
122.084000 61820.300000
137.107400 4274614.500000
156.011100 85865.900000
201.069400 6940297.700000

>ms2peaks
65.038600 391217.900000
92.049600 4106494.300000
93.057400 2276420.700000
94.065200 698029.000000
108.011000 55207.700000
108.080800 68243.800000
120.081000 16380.000000
122.083900 135874.300000
137.107500 3207848.600000
156.011100 43748.500000
201.069200 1058137.900000

>ms2peaks
65.038600 613041.800000
92.049500 6083630.800000
93.057300 1919103.200000
94.065100 393476.100000
108.011500 68950.300000
108.080700 109714.100000
120.080800 26675.100000
121.088800 63446.700000
122.083900 180361.600000
135.091100 31250.700000
136.100000 22433.700000
137.107500 858034.300000

>ms2peaks
65.038600 900908.700000
92.049600 6449284.000000
93.057400 1565043.700000
94.065200 262314.000000
108.011200 37461.500000
108.080900 71795.900000
110.096400 25276.500000
121.088400 56720.600000
122.083900 211223.300000
135.092100 20413.600000
136.099000 15918.500000
137.106900 124093.800000

>ms2peaks
65.038600 1533734.000000
92.049500 4867199.300000
93.057300 1298991.100000
94.065200 162288.500000
108.011300 16968.300000
108.043900 11156.600000
108.080900 24842.800000
120.080700 23051.500000
121.075900 23181.200000
121.088600 29723.500000
122.084000 112772.700000
135.091800 13070.100000
136.099600 17721.400000

>ms2peaks
65.038600 2413029.000000
66.046600 13533.100000
77.038400 38794.500000
92.049500 3185997.500000
93.057300 1042930.100000
94.065200 95494.000000
107.060600 28074.800000
120.080700 33255.700000
121.076200 31438.600000
121.088700 18264.800000
122.083800 45513.100000
135.091300 13213.200000

>ms2peaks
65.038500 58245.100000
92.016500 71823.800000
92.049500 648720.000000
93.057400 1076855.600000
94.065200 585555.000000
108.011400 23467.900000
108.080600 33825.500000
122.083900 51532.400000
135.092100 9084.200000
137.107500 3499428.200000
156.011600 73009.200000
201.069400 5348417.600000

>ms2peaks
65.038600 310847.300000
92.049600 3270735.200000
93.057400 1728681.300000
94.065200 553145.600000
108.011300 52334.500000
108.080800 72055.400000
110.096200 8797.000000
121.088400 29673.900000
122.083900 116386.900000
135.091900 11714.400000
137.107400 2458123.700000
156.011400 38075.300000
201.069400 915980.300000

>ms2peaks
65.038600 453436.000000
92.049500 4674713.600000
93.057300 1447615.700000
94.065100 281696.000000
108.011300 57360.600000
108.080800 73706.600000
110.096200 16127.600000
120.080700 12058.100000
121.088400 22966.200000
122.083900 144100.900000
135.091700 17953.300000
137.107300 604124.500000
201.070000 45403.100000

>ms2peaks
65.038600 673720.900000
77.038700 7774.500000
92.049500 4324035.800000
93.057300 1117575.700000
94.065100 192199.100000
108.011300 32084.000000
108.044200 11166.600000
108.080700 50748.200000
110.096500 14316.500000
120.080700 14624.600000
121.075800 9484.600000
121.088700 37840.500000
122.083800 124226.100000
135.091700 16844.100000
136.099700 17426.400000
137.107300 94456.000000

>ms2peaks
64.031000 5568.800000
65.038600 1137951.500000
77.038800 9822.000000
79.054300 7751.300000
92.049500 3556501.100000
93.057300 903977.600000
94.065100 132604.700000
107.060200 11566.700000
108.080900 21433.900000
120.080900 25833.000000
121.076100 11334.400000
121.088600 22475.800000
122.083800 75177.600000
135.092100 9664.800000
136.099800 9163.000000
137.106700 16217.600000

>ms2peaks
64.030700 4492.700000
65.038600 1677116.100000
66.046400 9746.000000
77.038600 20740.000000
79.054200 5857.300000
92.049500 2085861.100000
93.057300 733545.600000
94.065100 67391.600000
107.060400 10466.500000
108.080900 9669.700000
120.080700 26762.100000
121.076000 19728.800000
121.088700 7020.700000
122.083900 26029.100000
135.091600 11123.100000
136.099600 5439.600000

