>compound EA75554604
>parentmass 285.0789
>ionization [M+H]+
>formula C16H13ClN2O
>rt 606.000000
>profile orbitrap
#smiles_iso CN1C(=O)CN=C(C2=C1C=CC(=C2)Cl)C3=CC=CC=C3
#smiles_can CN1C(=O)CN=C(C2=C1C=CC(=C2)Cl)C3=CC=CC=C3
#inchikey AAOVKJBEBIDNHE-UHFFFAOYSA-N
#pubchem_id 3016
#mb_accession EA262602,EA262603,EA262604,EA262605,EA262606,EA262607,EA262608,EA262609,EA262610,EA262611,EA262612,EA262613

>ms2peaks
285.079100 3483527.300000

>ms2peaks
105.033600 4301.600000
154.041700 18650.800000
182.037200 12214.100000
222.114700 5872.500000
228.058500 7369.500000
241.052100 4086.800000
257.084300 45861.400000
285.079000 3197305.300000

>ms2peaks
58.028600 4552.600000
91.054300 21804.000000
105.033600 45788.000000
147.067900 5982.700000
150.011100 3699.500000
154.041700 288824.500000
167.013500 16697.700000
172.062900 25932.700000
179.037000 25337.800000
180.020900 27415.500000
182.036700 90950.800000
193.088500 95044.200000
207.032100 9061.800000
216.056700 6931.400000
221.107100 15159.500000
222.115100 171173.100000
227.048800 15209.900000
228.057400 197207.800000
230.072400 9295.500000
241.052500 21025.500000
242.060100 8406.700000
243.067700 6231.300000
255.067700 21803.900000
257.083900 350742.100000
285.079000 1884267.100000

>ms2peaks
58.028600 7993.300000
91.054200 64916.400000
104.049500 8029.100000
105.033500 32829.000000
116.049600 20787.800000
117.057300 20274.400000
118.065000 13029.400000
119.072600 3919.700000
125.015200 14200.100000
138.994700 5509.400000
140.026300 9077.100000
141.034200 18266.800000
143.059800 7141.200000
144.043900 3973.700000
144.068500 5827.900000
147.067800 23245.100000
150.010300 13981.500000
152.026300 18740.500000
154.041800 518274.800000
165.021300 5608.300000
167.013200 40534.500000
172.063100 74647.800000
179.037000 58538.500000
180.021100 45500.900000
182.036600 48881.000000
192.081300 7246.100000
193.088600 419813.100000
194.097000 8764.000000
204.080900 10581.100000
205.088800 12576.900000
206.083700 8045.400000
207.031900 5364.900000
207.092200 13856.400000
216.057400 35082.900000
221.083600 7476.300000
221.107200 38528.600000
222.115200 354876.200000
226.041200 10526.900000
227.049600 52287.600000
228.057400 272598.300000
230.073000 25136.300000
240.056900 14516.400000
241.052800 97632.500000
242.061200 20102.500000
255.068200 63734.900000
257.084000 223171.000000
285.078500 317637.900000

>ms2peaks
58.028800 6250.000000
77.038500 7181.100000
89.038600 5571.700000
91.054300 110548.600000
104.049500 18194.000000
105.033800 12543.800000
105.044800 3770.300000
113.015300 5365.400000
114.010500 3362.400000
116.049600 32365.400000
117.057500 53083.200000
118.065200 39665.100000
119.073000 27410.400000
125.015300 63386.000000
127.030600 4306.200000
131.060600 7778.100000
138.010300 10127.700000
138.994700 6913.700000
140.026400 11680.000000
141.034300 11575.000000
143.060500 26809.400000
144.068400 19577.200000
145.075400 3725.900000
147.068000 17932.500000
150.010600 32573.500000
152.026200 17967.300000
154.041900 373489.600000
163.005100 4382.200000
165.021500 4047.900000
165.069800 12805.300000
166.077100 6065.300000
167.013500 34055.200000
172.063200 43712.300000
177.021500 26045.300000
179.037200 58195.300000
180.021000 27031.700000
180.080900 19158.300000
181.088800 6856.900000
182.037000 5660.900000
191.073100 13893.200000
192.081000 23581.000000
193.088800 522469.800000
194.096400 24433.100000
199.031100 5530.100000
204.081100 28592.100000
206.084400 40783.000000
207.091900 47476.400000
208.100000 4216.500000
216.058000 20070.800000
221.083900 15251.900000
221.107400 54144.300000
222.115300 203930.800000
226.042000 11937.400000
227.049800 56099.400000
228.057700 87514.400000
230.074200 8401.800000
241.052900 147629.000000
242.060800 15806.100000
255.068500 51247.400000
256.076400 4347.900000
257.084300 31567.500000
269.046800 6085.800000

>ms2peaks
58.028600 7996.900000
65.038600 5009.400000
77.038700 11450.300000
89.038500 28674.000000
90.046500 14449.500000
91.054200 130410.200000
98.999400 8743.900000
104.049500 25891.000000
105.033100 4772.800000
114.010800 5997.100000
116.049500 34533.100000
117.057300 69278.200000
118.065100 54056.600000
119.072900 38359.200000
122.999400 8591.300000
125.015200 107794.100000
126.023500 9228.700000
127.031400 3623.700000
131.060200 3568.100000
138.010500 20278.200000
139.006000 7844.800000
139.018500 9017.700000
140.026300 12827.600000
141.033400 6666.600000
143.060400 63290.800000
144.068400 19680.200000
145.076300 4224.700000
147.067800 9358.600000
150.010500 29952.500000
151.017900 10059.100000
152.025900 12637.900000
152.061500 5294.100000
153.033300 7452.900000
154.041700 176482.400000
162.010500 3253.100000
163.005700 33578.600000
165.069800 57354.100000
166.077700 13770.900000
167.013400 8333.400000
172.063000 12497.700000
177.021200 19017.400000
179.036900 25547.100000
180.021100 6982.500000
180.080600 41229.500000
181.088600 4912.900000
191.072900 18814.800000
192.080700 51456.500000
193.088500 344161.300000
194.096100 33381.900000
199.031100 6907.500000
204.080500 33963.100000
206.084000 89874.400000
207.091900 53782.200000
214.041800 7699.600000
216.057100 7076.400000
221.082800 6038.500000
221.107100 33413.800000
222.114900 51693.500000
226.041400 7380.900000
227.049300 29868.900000
228.056800 18155.400000
239.036200 9928.700000
240.044600 7623.600000
241.052700 144980.000000
242.060200 5320.400000
255.069000 13511.200000
269.048900 7006.200000

>ms2peaks
285.079000 2079568.100000

>ms2peaks
105.033600 4705.700000
182.036500 6874.000000
222.114900 5022.600000
228.057000 7626.800000
257.084000 30333.700000
285.079000 2049574.600000

>ms2peaks
58.028700 2197.600000
91.054200 13574.400000
105.033500 23092.800000
116.049500 2411.100000
141.034000 3859.100000
147.067700 5842.700000
154.041800 167335.100000
167.013500 9340.000000
172.063200 13093.600000
179.036900 12943.200000
180.021200 15953.100000
182.036800 52301.800000
193.088600 66827.700000
207.031800 5255.800000
216.057400 5587.700000
221.107100 12364.200000
222.115100 107919.800000
226.041300 3613.700000
227.049300 6883.300000
228.057400 114688.000000
230.073500 4246.700000
241.052600 15116.900000
243.068100 3164.700000
255.068300 14629.400000
256.076400 2241.600000
257.083900 233483.400000
285.079100 1130047.200000

>ms2peaks
58.028700 6029.900000
91.054200 40822.600000
104.049500 5195.700000
105.033500 15476.800000
116.049400 9090.700000
117.057400 9920.200000
118.065100 6213.700000
119.073000 3002.700000
125.015400 7318.200000
138.994400 3493.500000
140.026400 5921.000000
141.034000 8400.700000
143.060500 2069.600000
144.044200 2051.300000
144.067700 3776.900000
147.067800 14754.100000
150.010500 9656.400000
152.025900 8077.900000
154.041800 315022.700000
165.021300 4248.000000
167.013200 26485.500000
172.063100 38890.500000
179.037000 33566.400000
180.021100 32244.700000
180.079900 4520.100000
181.088000 2195.200000
182.036600 33205.900000
191.073200 4074.800000
193.088600 250180.000000
194.096400 6732.600000
204.080800 8486.000000
205.088700 5072.900000
206.084200 3564.300000
207.031400 4516.400000
207.091800 7491.400000
216.057400 20200.300000
220.099000 6019.900000
221.083500 5504.800000
221.107100 20972.500000
222.115100 207410.600000
226.041700 9064.100000
227.049500 22885.600000
228.057400 162394.100000
230.073200 12201.000000
240.057600 6423.200000
241.052600 60874.000000
242.060500 16758.200000
243.068200 3128.600000
255.068300 44561.200000
256.076300 2930.600000
257.083900 131339.600000
269.048200 2833.600000
285.078600 178144.000000

>ms2peaks
58.028700 5978.600000
89.038400 2267.300000
91.054200 62293.900000
104.049500 8932.400000
105.033400 5607.200000
116.049400 20173.300000
117.057300 30760.000000
118.065100 21682.400000
119.072900 18258.500000
125.015200 35318.100000
127.031100 2699.000000
131.060600 3084.900000
138.010500 7189.500000
138.994400 2941.500000
139.018500 4178.100000
140.025800 6464.200000
141.034000 7581.400000
143.060400 18287.700000
144.068200 13453.100000
145.076300 5514.200000
147.067900 10730.000000
150.010600 13396.500000
151.018700 3100.900000
152.026200 7996.700000
154.041800 225776.600000
163.005100 3201.700000
165.021500 4293.300000
165.069900 10426.600000
166.077900 3927.800000
167.013200 21685.300000
172.063100 36712.800000
177.021400 11750.200000
179.037000 32322.600000
180.020900 15498.600000
180.080900 8552.700000
181.088600 2575.800000
182.037000 6317.100000
191.072900 8850.600000
192.080600 12481.500000
193.088700 291098.900000
194.096400 15402.500000
204.080700 23939.900000
205.075800 2772.400000
205.088400 5917.500000
206.083700 23788.800000
207.091700 33967.000000
208.099200 3598.600000
214.041800 2416.200000
216.057700 13118.900000
221.084300 6801.600000
221.107200 30877.800000
222.115100 125047.800000
226.042000 3613.800000
227.049700 28395.900000
228.057400 50159.600000
230.072900 5008.200000
239.036600 3260.700000
240.058000 4387.800000
241.052700 93084.200000
242.060300 9395.700000
255.068400 27484.200000
257.083500 12842.700000
269.047400 4084.300000
285.079300 10626.000000

>ms2peaks
58.028800 3493.000000
65.038500 1995.300000
77.038500 5886.900000
89.038600 14274.300000
90.046400 7325.400000
91.054200 72493.900000
98.999600 1628.900000
104.049500 14380.000000
105.033500 2544.500000
105.044700 1943.500000
113.015200 3034.200000
114.010500 2164.400000
116.049400 18713.000000
117.057300 32842.900000
118.065100 29467.000000
119.073000 19698.600000
122.999500 2531.100000
125.015300 57781.700000
126.023100 3694.700000
127.030900 2478.500000
138.010500 11586.100000
139.005900 4280.600000
139.018300 7052.200000
140.026100 9847.200000
141.033900 3849.900000
143.060300 34008.700000
144.068200 10143.000000
145.076000 3440.100000
147.067900 6124.700000
150.010400 17982.600000
151.018300 4243.500000
152.026200 5283.700000
152.062000 3825.300000
153.033700 3727.000000
154.041800 106443.000000
162.010400 1649.200000
163.005800 13385.800000
165.021300 6988.400000
165.069900 33373.000000
166.077600 7979.200000
167.013300 5185.600000
172.063200 5881.100000
177.021400 11733.500000
179.037000 16774.400000
180.021000 5363.700000
180.080800 22208.100000
181.088700 3856.700000
191.072900 11374.700000
192.080800 25755.600000
193.088600 204687.000000
194.096400 17651.600000
199.030900 4192.800000
204.080800 24269.900000
205.076100 7736.300000
205.088600 3455.400000
206.083800 54547.400000
207.091700 31181.600000
208.099800 2269.800000
216.057000 5300.900000
220.099100 2005.800000
221.083300 3506.400000
221.107300 20922.000000
222.115100 28396.300000
226.041600 3289.400000
227.049500 18192.400000
228.057700 8886.200000
230.073000 1700.400000
239.036900 4342.100000
240.045000 4631.100000
241.052600 87324.200000
242.060200 3190.300000
255.068500 4156.700000
269.047700 2080.400000

