>compound EA75030425
>parentmass 272.20089999999993
>ionization [M+H]+
>formula C18H25NO
>rt 396.000000
>profile orbitrap
#smiles_iso CN1CC[C@@]23CCCC[C@@H]2[C@@H]1CC4=C3C=C(C=C4)OC
#smiles_can CN1CCC23CCCCC2C1CC4=C3C=C(C=C4)OC
#inchikey MKXZASYAUGDDCJ-NJAFHUGGSA-N
#pubchem_id 5360696
#mb_accession EA282402,EA282403,EA282404,EA282405,EA282406,EA282407,EA282408,EA282409,EA282410,EA282411,EA282412,EA282413

>ms2
272.201000 15942549.500000

>ms2
215.142900 140252.400000
272.201100 16378736.800000

>ms2
121.064900 88851.700000
147.080400 422239.300000
159.080500 145717.400000
171.079600 65512.200000
199.111600 26405.700000
213.127300 985539.800000
215.142800 2372683.100000
241.159000 80265.800000
272.200900 12086127.800000

>ms2
58.065400 16840.300000
79.054600 19997.300000
81.069900 44226.000000
91.054300 35303.300000
93.069700 17784.100000
121.064800 399407.100000
132.056800 74780.600000
135.080300 99759.900000
144.056400 32836.300000
145.064600 37141.500000
147.080500 2017574.500000
159.080400 623846.300000
161.096300 63367.300000
171.080400 637976.700000
173.096000 603204.100000
185.096400 21929.400000
187.112600 29313.000000
198.103800 176120.100000
199.111900 146136.700000
213.127500 3158103.200000
215.143000 3185097.600000
241.158200 109448.200000
272.200800 3876235.200000

>ms2
67.054200 26652.400000
69.069800 43922.500000
81.069900 75633.900000
91.054100 104927.300000
93.069700 41771.400000
95.085800 53776.800000
117.069400 18230.100000
121.064700 577305.300000
132.056800 166456.200000
135.080400 224942.600000
141.069700 22893.300000
144.056700 114890.100000
145.064700 100061.400000
147.080400 2571036.800000
158.072400 116184.500000
159.080400 817376.600000
160.087500 28778.700000
161.096400 92346.500000
171.080400 2468043.500000
172.088800 16793.300000
173.096000 900956.500000
181.100700 79350.700000
182.109200 30644.500000
184.087900 35026.800000
185.095700 80946.000000
187.111700 24050.700000
198.103900 676834.200000
199.111500 166830.000000
200.119600 46594.500000
211.112000 22745.700000
213.127400 2470508.400000
215.142700 1114563.900000
241.158600 37842.600000
272.200300 415438.700000

>ms2
67.054300 34351.400000
69.069900 62347.200000
77.038600 20508.400000
79.054100 31314.000000
81.069700 56298.900000
91.054200 301805.700000
105.069800 59721.000000
107.049200 40230.100000
115.054100 75645.300000
116.062000 31920.400000
117.069800 69968.100000
119.085400 72380.100000
121.064800 505896.300000
128.062000 149834.700000
129.069700 54971.600000
131.048900 27494.200000
132.057200 184066.100000
135.080500 186539.300000
141.069900 126631.800000
142.078400 24207.200000
143.085800 23257.100000
144.056900 233816.700000
145.064700 134084.000000
146.072300 37638.600000
147.080400 1640854.100000
153.069500 40076.400000
154.077900 30279.200000
155.060200 38369.200000
155.085100 41176.600000
156.056800 111502.900000
157.064700 49874.600000
158.072600 266521.100000
159.080400 566400.300000
160.087900 27178.100000
161.096200 79909.700000
165.069600 36218.000000
166.077600 68936.400000
170.072500 126857.000000
171.080500 3692224.600000
172.088300 49551.400000
173.096000 537156.300000
181.101000 87622.600000
182.109300 46101.500000
183.080700 59589.300000
184.088100 59410.200000
185.096200 106774.100000
187.111300 23643.400000
197.095300 33022.000000
198.103900 708465.700000
199.111700 62976.800000
200.119900 24349.500000
209.107300 45666.400000
213.127200 731549.100000
215.143900 159588.800000

>ms2
171.080400 26810.600000
272.200800 12419012.500000

>ms2
171.080600 13285.300000
213.126900 21035.000000
215.142900 89494.000000
272.200800 12215152.900000

>ms2
121.064800 54288.300000
132.056900 13725.300000
147.080300 317634.400000
159.080200 102181.000000
171.080500 44159.600000
173.096000 59887.200000
199.111400 29275.100000
213.127300 712536.800000
215.143100 1777154.400000
241.158300 52707.300000
257.178200 13885.000000
272.201000 9006798.200000

>ms2
58.065200 9943.400000
69.070000 13527.900000
79.054000 9668.600000
81.069800 21444.100000
91.054100 14856.200000
93.069900 10073.800000
95.085400 11782.900000
121.064700 289380.700000
132.056900 38779.800000
135.080400 84190.500000
144.056800 19497.200000
145.064900 23993.900000
147.080400 1358726.000000
158.072000 18067.200000
159.080300 415872.800000
161.095800 27144.700000
171.080400 476729.500000
173.096000 405100.400000
185.096200 25355.800000
187.111900 18095.300000
198.103800 135540.600000
199.111700 105559.400000
200.119600 16160.300000
213.127400 2113394.300000
215.143100 2220168.200000
241.158600 88014.500000
272.201000 2790784.100000

>ms2
67.054200 16525.500000
69.069800 37317.500000
79.054300 14868.600000
81.069900 45094.700000
91.054200 99695.700000
93.069900 17660.300000
95.085500 23553.700000
107.049300 8412.900000
107.085400 8578.200000
115.054300 7958.800000
119.085600 22764.900000
121.064800 379786.300000
128.061900 9756.400000
129.069700 11433.400000
132.057000 100278.600000
135.080400 149928.100000
141.069400 22427.100000
144.057000 83296.200000
145.064800 60679.000000
146.072600 8723.200000
147.080500 1625728.900000
157.064800 11143.800000
158.072500 72112.100000
159.080400 540263.300000
160.088400 23560.300000
161.096000 63265.300000
166.078000 16022.600000
170.072800 20559.600000
171.080500 1563448.300000
172.087900 13934.300000
173.096000 560176.900000
174.103400 11951.200000
181.101200 42033.300000
182.108900 19042.800000
184.088200 25913.800000
185.095900 47826.300000
187.111800 30974.300000
198.103900 449499.800000
199.111700 82584.100000
200.119400 29656.700000
209.106700 14101.100000
211.112300 10575.800000
213.127400 1615389.100000
215.143000 734865.500000
241.158400 19830.700000
272.201100 330053.400000

>ms2
67.054200 22117.200000
69.069900 37496.400000
77.038500 10292.700000
79.054100 14590.100000
81.069900 32189.100000
91.054200 181725.000000
93.069800 9938.300000
95.085500 18969.900000
105.069800 20755.700000
107.049100 28184.300000
107.085400 7046.300000
115.054200 35982.600000
116.062000 12765.700000
117.069900 43167.600000
119.085400 29607.700000
121.064700 310573.800000
128.061900 89006.500000
129.069800 23771.400000
131.049200 15378.900000
132.056900 98949.800000
135.080400 117592.100000
141.069800 75401.600000
142.077600 11905.500000
143.085400 26815.700000
144.056900 138562.500000
145.064700 60595.600000
146.072400 22030.800000
147.080400 1081727.300000
153.069900 21255.400000
154.077600 24818.200000
155.060200 18185.400000
155.085400 8318.900000
156.056900 58366.300000
157.064700 31381.200000
158.072500 185343.800000
159.080400 355634.900000
160.088200 18165.900000
161.096000 59317.100000
165.069800 26726.200000
166.077600 40724.700000
170.072500 76077.400000
171.080400 2282625.000000
172.088200 28875.800000
173.096000 384322.300000
174.103900 7085.000000
181.101000 56012.600000
182.108800 34634.100000
183.080300 30078.500000
184.088100 33528.800000
185.095900 59769.800000
187.111700 18082.600000
197.096000 19272.400000
198.103800 407989.800000
199.111500 35174.400000
200.119600 13880.500000
209.107200 22900.000000
211.111400 10971.700000
213.127300 452721.800000
215.142900 84745.500000
272.199900 13837.200000

