>compound EA76969914
>parentmass 241.09630000000004
>ionization [M+H]+
>formula C9H13ClN6
>rt 396.000000
>profile orbitrap
#smiles_iso CCNC1=NC(=NC(=N1)Cl)NC(C)(C)C#N
#smiles_can CCNC1=NC(=NC(=N1)Cl)NC(C)(C)C#N
#inchikey MZZBPDKVEFVLFF-UHFFFAOYSA-N
#pubchem_id 30773
#mb_accession EA275902,EA275903,EA275904,EA275905,EA275906,EA275907,EA275908,EA275909,EA275910,EA275911,EA275912,EA275913

>ms2
71.060200 13082.400000
214.085100 499591.200000
241.096500 11287599.400000

>ms2
68.024400 11942.900000
87.017300 8642.000000
96.055700 48392.400000
104.001300 32046.100000
163.097500 27981.100000
174.054100 118967.400000
186.053800 12057.100000
205.119700 218221.900000
214.085600 3684799.400000
241.096700 8148035.400000

>ms2
61.979000 17563.200000
68.024300 235133.300000
71.060400 50723.800000
79.005700 55222.500000
83.060200 38497.800000
96.055600 455498.200000
104.001000 326199.800000
110.071200 75662.400000
119.037000 69378.100000
132.032300 219666.300000
136.087000 87274.100000
138.077400 24210.400000
146.023000 86794.200000
163.097800 105093.900000
171.043100 36348.100000
173.059000 76794.700000
174.054000 643722.800000
177.088600 57713.800000
178.108700 69790.400000
180.124200 15175.700000
186.054000 100495.900000
205.119500 460277.100000
214.085500 6216080.600000
241.096600 2472794.000000

>ms2
58.065400 13740.800000
61.979300 55508.800000
68.024300 695102.500000
71.060400 316366.100000
79.005800 183682.200000
83.060400 205083.900000
85.076100 20559.000000
90.010600 48646.800000
96.055700 795959.800000
104.001100 1027587.700000
108.055500 49249.900000
110.046500 18996.900000
110.071300 159289.100000
111.079400 16161.000000
119.037100 230882.700000
132.032300 871069.800000
136.086900 309399.500000
138.077400 92105.900000
144.032300 50773.700000
146.022800 256657.500000
150.076800 32821.800000
163.098100 31226.800000
173.058800 147616.400000
174.054100 601422.400000
177.088100 66194.800000
178.108900 112348.900000
186.054100 119663.700000
197.058500 37944.600000
205.119600 110137.900000
214.085300 3334430.800000

>ms2
58.065200 29627.900000
61.979300 114527.800000
67.029100 25874.000000
68.024400 1068936.900000
71.060400 528214.600000
79.005800 261997.000000
83.060400 378291.300000
85.076100 15867.500000
90.010500 56689.700000
96.055700 668786.500000
104.001100 1358865.000000
108.055700 49263.600000
110.046000 43512.700000
110.071300 96214.500000
111.079600 23275.000000
119.037000 187485.900000
132.032300 652912.400000
136.087000 219919.700000
138.077200 60766.400000
144.032500 64900.200000
146.022800 176435.900000
150.077400 13534.200000
173.058700 78782.900000
174.054100 220094.200000
178.108900 40048.300000
186.053900 46790.400000
197.059400 11235.900000
214.085300 619060.600000

>ms2
58.065200 43427.400000
61.979200 139485.600000
67.029100 19131.100000
68.024400 1233543.000000
71.060400 480600.600000
79.005800 257170.000000
83.060400 354391.600000
90.010600 18328.500000
96.055600 360571.200000
104.001000 1289790.800000
108.055700 30932.000000
110.046200 35383.200000
110.071300 64980.700000
119.037200 61849.700000
132.032300 222390.000000
136.086800 65988.600000
138.077500 35613.000000
144.032200 14313.100000
146.022700 109611.400000
174.053800 54273.700000
214.085700 71731.200000

>ms2
214.085400 346852.200000
241.096400 8492765.500000

>ms2
96.055500 41846.500000
104.000900 13998.100000
163.097600 18859.900000
174.054100 90170.300000
205.119600 158792.200000
214.085500 3272257.400000
241.096400 6641539.200000

>ms2
58.065100 7437.000000
61.979100 14306.400000
68.024300 181931.900000
71.060300 41976.900000
79.005800 56541.400000
83.060300 27491.400000
90.010600 13194.500000
96.055600 337571.600000
104.001000 243099.300000
110.071300 56187.200000
119.037100 60088.300000
132.032300 168058.900000
136.086900 58562.400000
138.077500 20454.100000
146.022800 74633.700000
163.098000 62555.900000
171.042900 22521.100000
173.058800 53926.600000
174.054100 478512.200000
177.088400 46828.100000
178.108700 49469.600000
180.124400 10835.100000
186.054000 67185.000000
205.119500 354211.900000
214.085500 4827651.200000
241.096200 1771289.700000

>ms2
58.065100 10071.900000
61.979100 40020.400000
67.029100 9481.400000
68.024400 484628.200000
71.060400 210890.800000
79.005800 121262.500000
83.060400 151166.000000
85.076200 12927.100000
90.010500 37559.200000
96.055700 553511.600000
104.001000 698521.900000
108.055700 23994.500000
110.046200 17532.100000
110.071300 88820.200000
111.079200 24349.200000
119.037100 184926.200000
132.032300 569273.800000
136.086900 213302.400000
138.077500 60098.200000
144.032300 40547.900000
146.022800 171455.000000
150.077500 29829.700000
163.097700 14508.400000
171.043500 11040.700000
173.058800 117055.800000
174.054100 423781.200000
177.088300 53504.700000
178.108700 71741.800000
180.124200 11202.900000
186.054100 92459.500000
197.058700 18020.700000
205.119600 107224.700000
214.085400 2413396.900000
241.096700 165091.600000

>ms2
58.065000 14444.300000
61.979100 62223.000000
67.029100 12362.200000
68.024400 708776.000000
71.060400 361790.200000
79.005800 182661.400000
83.060400 254608.200000
85.075900 14263.600000
90.010500 35483.200000
95.060400 9005.800000
96.055600 456324.400000
104.001000 973287.100000
108.055700 42469.300000
110.046100 26010.100000
110.071300 71322.200000
111.079100 12964.400000
119.037100 107975.100000
132.032300 432545.000000
136.086900 142817.600000
138.077400 53195.700000
144.032400 31226.300000
146.022800 141868.600000
150.077300 12161.400000
173.058900 42268.000000
174.054000 160556.300000
177.088600 16797.500000
178.108700 32856.000000
186.053900 46520.600000
197.058500 11383.300000
214.085200 449611.000000

>ms2
58.065100 20936.900000
61.979200 82607.000000
67.029100 12818.000000
68.024300 754615.900000
71.060400 277498.500000
79.005800 141199.900000
83.060400 233549.900000
85.076000 7319.500000
90.010500 17770.300000
95.060400 4587.800000
96.055600 224773.200000
104.001000 837224.000000
108.055600 29960.900000
110.046100 21611.400000
110.071200 27068.500000
111.078900 6338.600000
119.037000 33689.500000
132.032300 135853.000000
136.086800 38568.200000
138.077400 17617.100000
144.032000 7795.900000
146.022700 66164.500000
150.077400 7582.800000
173.058700 8215.900000
174.054000 38133.900000
177.088500 3974.700000
186.054100 7651.400000
214.085100 41224.300000

