>compound EA76607341
>parentmass 258.07949999999994
>ionization [M+H]+
>formula C11H15NO4S
>rt 354.000000
>profile orbitrap
#smiles_iso CC(C)N(C1=CC=CC=C1)C(=O)CS(=O)(=O)O
#smiles_can CC(C)N(C1=CC=CC=C1)C(=O)CS(=O)(=O)O
#inchikey BFSZJLBDHMMCAH-UHFFFAOYSA-N
#pubchem_id 16212221
#mb_accession EA066502,EA066503,EA066504,EA066505,EA066506,EA066507,EA066508,EA066509,EA066510,EA066511,EA066512,EA066513

>ms2peaks
94.065000 34580.100000
136.075600 22257.300000
198.022000 30563.300000
216.032700 1377270.600000
258.079800 3894418.300000

>ms2peaks
94.065300 501703.700000
106.065000 16550.300000
118.065600 7605.800000
120.044600 15711.100000
134.060200 75342.400000
136.075800 276698.200000
156.011700 5455.900000
176.106900 15758.100000
198.022200 302119.600000
216.032800 2725850.600000
240.069200 18534.600000
258.079600 525747.900000

>ms2peaks
59.012700 20086.300000
77.038600 5412.700000
91.054400 9117.200000
94.065300 1220591.300000
104.049400 4549.400000
106.065200 143394.000000
117.057300 45454.000000
118.065200 36505.300000
120.044400 72270.900000
122.974700 15956.000000
134.060100 214716.500000
135.067900 7597.000000
136.075700 312731.500000
156.011100 7478.200000
159.104100 6304.800000
176.106900 5228.500000
198.022100 459873.000000
216.032400 539253.200000
240.069300 9080.200000

>ms2peaks
59.012700 18246.100000
77.038600 11292.600000
79.054200 8842.000000
91.054200 18967.400000
92.049600 6180.300000
93.057800 6385.200000
94.065200 1086796.700000
104.049600 12831.700000
106.065100 316959.500000
117.057300 197263.000000
118.065100 68848.500000
120.044400 76323.800000
122.974600 12184.400000
134.060000 119679.600000
135.067900 9721.100000
136.075700 80977.200000
144.080200 3649.000000
159.104400 8919.500000
198.021900 164957.400000
216.032800 33014.400000

>ms2peaks
53.038600 2592.600000
59.012900 7139.300000
77.038600 28092.200000
79.054300 26361.200000
91.054300 26295.400000
92.049700 11615.000000
92.062200 9650.200000
93.057600 11366.700000
94.065200 796542.700000
104.049600 7568.100000
105.044600 11342.300000
106.065200 335326.900000
116.048500 2390.100000
117.057300 256851.200000
118.065200 52838.300000
120.044400 57207.300000
134.060200 39153.800000
135.067900 7562.900000
136.075300 8961.700000
144.081400 3481.900000
198.022300 25169.400000

>ms2peaks
53.038600 6468.400000
59.012700 3226.800000
77.038600 68848.900000
79.054200 42414.600000
91.054200 30820.800000
92.049400 10697.900000
92.061900 9335.200000
93.057200 12150.200000
94.065100 512375.200000
105.044700 35633.000000
106.065100 244991.100000
116.048400 2683.700000
117.057300 174475.800000
118.065200 23325.100000
120.044400 30731.400000
134.060100 13544.000000

>ms2peaks
94.065500 13552.100000
136.075600 8862.000000
198.021900 13457.600000
216.032600 524855.500000
258.079600 1438146.300000

>ms2peaks
59.013000 1555.200000
94.065100 175967.800000
106.065300 7523.700000
117.057400 2255.400000
118.064800 3125.800000
120.044400 5153.000000
134.059900 27403.600000
136.075600 93661.600000
176.106900 5851.500000
198.021800 98669.400000
216.032600 991496.400000
240.068800 4734.800000
258.079300 174385.200000

>ms2peaks
59.012700 4077.800000
94.065200 422562.600000
106.065100 46043.600000
117.057200 12084.400000
118.065000 14108.700000
120.044300 19972.000000
134.060000 73601.000000
135.067600 2159.400000
136.075600 93005.000000
159.104100 2326.700000
198.021900 145473.300000
216.032400 174586.600000
240.068900 2287.400000

>ms2peaks
59.012800 4423.800000
77.038400 4283.100000
79.054400 1854.200000
91.054200 6698.300000
94.065200 358833.800000
104.049300 4569.900000
106.065100 100881.600000
117.057300 59422.500000
118.065200 19632.900000
120.044400 18898.600000
122.974500 4001.300000
134.060000 35095.900000
135.067700 4155.200000
136.075700 25649.900000
198.021900 52880.900000
216.031700 9993.700000

>ms2peaks
59.012900 2975.300000
77.038500 7107.100000
79.054200 7736.900000
91.054200 7288.400000
92.049700 3568.000000
94.065100 241143.900000
104.049600 2504.800000
105.044800 2933.700000
106.065100 101581.900000
117.057200 73557.500000
118.065000 16455.400000
120.044300 15806.300000
134.059900 13763.900000
135.067600 2510.900000
136.075700 2620.700000
198.021400 7397.500000

>ms2peaks
53.038600 2719.900000
77.038600 21400.000000
79.054200 11174.900000
91.054300 6840.800000
92.049700 3328.900000
92.061900 3340.900000
93.057000 3182.100000
94.065200 164932.700000
105.044800 12253.300000
106.065100 74140.800000
117.057300 54472.800000
118.065100 10162.000000
120.044300 11436.200000
134.060300 3569.300000

