>compound EA76132731
>parentmass 287.09479999999996
>ionization [M+H]+
>formula C13H18O5S
>rt 600.000000
>profile orbitrap
#smiles_iso CCOC1C(C2=C(O1)C=CC(=C2)OS(=O)(=O)C)(C)C
#smiles_can CCOC1C(C2=C(O1)C=CC(=C2)OS(=O)(=O)C)(C)C
#inchikey IRCMYGHHKLLGHV-UHFFFAOYSA-N
#pubchem_id 33360
#mb_accession EA011702,EA011703,EA011704,EA011705,EA011706,EA011707,EA011708,EA011709,EA011710,EA011711,EA011712,EA011713

>ms2peaks
93.070100 7013.700000
121.064900 597911.100000
149.096100 59748.900000
161.059800 30812.100000
162.067600 5921.700000
163.075500 139080.900000
179.070100 8025.300000
180.077500 4779.500000
191.107400 4015.800000
241.053000 220130.100000
259.063600 1461652.600000
277.072700 2894.000000
287.094800 851390.200000

>ms2peaks
71.049300 5940.200000
77.038400 5388.000000
81.000600 6083.500000
91.054200 11053.000000
93.070000 31393.900000
103.054600 9922.700000
121.065000 1608030.700000
133.065000 28069.400000
135.080800 5592.500000
137.060000 45539.900000
145.065100 18416.800000
147.044300 6135.600000
149.096300 79488.100000
161.059900 424842.400000
162.067700 81751.900000
163.075600 91636.600000
179.070400 139542.900000
180.078700 20684.800000
189.090800 7141.700000
213.058100 13189.900000
241.053200 303139.200000
259.063700 474578.200000
287.094200 10125.200000

>ms2peaks
71.049000 9186.200000
77.038400 7466.300000
81.000600 8006.000000
91.054500 16701.600000
93.069900 33701.700000
103.054100 13087.000000
105.069900 28679.900000
109.064400 5214.300000
115.054100 10379.600000
117.069800 9547.000000
121.064900 1293284.000000
133.064800 150637.200000
134.072600 17434.400000
135.080800 19333.200000
137.059700 197040.500000
145.064800 39424.800000
147.044500 10891.000000
149.096200 57685.200000
161.059800 812192.700000
162.067600 213892.300000
163.075500 83844.500000
173.071000 96182.900000
179.070300 151339.400000
180.077700 12567.500000
190.098100 5363.200000
213.058300 16856.400000
241.053000 50102.500000
259.062800 12000.600000

>ms2peaks
53.038400 4379.400000
77.038400 13826.600000
79.054300 13106.200000
81.000600 10198.000000
81.070000 15503.700000
91.054200 59647.400000
93.070000 68309.300000
95.049400 8598.600000
103.054200 52449.100000
105.069900 181439.800000
107.049300 23752.700000
107.085200 3792.400000
109.028400 15953.400000
109.064700 20528.100000
115.054200 64762.900000
117.069900 35513.200000
119.049300 12310.400000
121.064800 818601.900000
123.044000 9748.600000
133.064800 318726.600000
134.072600 89023.500000
135.080500 42642.300000
137.059700 225264.700000
143.049000 20722.400000
145.064800 63323.800000
147.044200 16422.500000
149.096200 22929.000000
155.060600 5955.900000
161.059700 465927.400000
162.067500 186493.000000
163.075300 55291.300000
173.070900 116314.500000
179.070300 33389.200000
185.026800 9633.800000
213.057000 4121.000000

>ms2peaks
53.038500 3661.000000
55.018000 4405.100000
65.038800 3928.400000
68.997100 3828.500000
77.038600 41255.300000
78.046700 3283.800000
79.054300 67411.900000
81.000600 15053.500000
81.033400 3561.500000
81.069900 31283.100000
91.054300 179283.900000
93.070000 94818.000000
95.049200 15441.100000
103.054400 180403.700000
105.070000 356111.800000
106.077800 18671.700000
107.049300 52405.900000
107.085100 3863.100000
109.028500 26939.000000
109.064900 39918.900000
115.054400 140360.400000
116.062000 12122.500000
117.070000 46880.600000
119.049300 31214.900000
121.064900 453356.400000
123.044300 20724.000000
133.065000 283486.600000
134.072800 126628.200000
135.080500 36016.000000
137.059800 123688.800000
138.068000 3826.200000
143.049400 25495.000000
144.056900 13020.300000
145.064900 36125.500000
147.044100 25730.500000
149.096300 5055.900000
155.060500 14094.300000
161.059900 132946.500000
162.067700 70961.200000
163.075300 17533.000000
173.071100 51609.300000
185.027200 5828.900000

>ms2peaks
53.038500 9221.100000
55.017700 7448.700000
62.989800 3888.000000
65.038300 10036.800000
68.997000 3823.500000
71.049300 3835.800000
77.038600 120426.600000
78.046400 4741.200000
79.054300 146858.400000
81.000400 9925.200000
81.033500 8398.800000
81.069900 35823.600000
91.054300 283940.300000
93.069900 63712.900000
94.041300 6389.800000
95.049300 27318.400000
103.054300 293070.600000
105.044500 33451.400000
105.069900 334619.800000
106.077700 28974.300000
107.049200 68370.800000
109.028500 15870.200000
109.064900 43909.400000
115.054300 186912.400000
116.062300 17268.000000
117.069900 31708.800000
119.049200 43566.600000
121.064800 153010.600000
123.044300 21615.600000
127.054000 5821.600000
133.064900 139463.000000
134.072700 82635.800000
135.080400 20130.200000
137.059600 36237.300000
143.049700 9163.300000
144.057200 9806.700000
145.064900 17463.000000
147.044100 24053.900000
155.059900 12026.300000
161.059600 35392.700000
162.067800 13664.600000
173.071000 8999.600000

>ms2peaks
93.069900 6263.200000
121.064900 651729.800000
137.059300 2840.500000
149.096100 52871.100000
161.059700 25809.700000
162.067700 3587.400000
163.075400 157538.400000
179.070400 8261.000000
180.078100 7295.600000
191.106600 5244.600000
241.052900 238928.600000
259.063600 1669770.800000
269.083500 3416.400000
287.094700 910223.700000

>ms2peaks
71.049200 5579.300000
77.038500 3883.700000
81.000500 4831.100000
91.054300 6558.100000
93.069900 34115.200000
103.054400 8369.500000
121.064900 1509771.100000
133.064800 22453.300000
135.080400 8464.400000
137.059800 43918.700000
145.064800 15522.900000
147.044400 5658.600000
149.096200 75485.400000
161.059900 404627.100000
162.067600 70448.000000
163.075500 92463.300000
165.091000 3137.300000
173.071000 15903.300000
179.070400 132063.700000
180.078200 24992.700000
189.090800 4367.600000
190.098500 3017.300000
213.058000 12458.000000
241.053000 287524.600000
259.063600 464978.300000
287.094300 10620.400000

>ms2peaks
71.049100 4795.300000
77.038300 4750.700000
81.000500 12791.300000
91.054200 16313.300000
93.069900 29827.200000
95.048800 3655.900000
103.054300 7114.200000
105.069900 24359.300000
107.049100 5980.400000
109.028300 6472.200000
109.064900 8554.700000
115.054300 10706.400000
117.069800 6023.400000
121.064900 1164460.700000
123.043900 3705.300000
133.064800 126533.400000
134.072600 18682.300000
135.080500 19919.400000
137.059700 189658.800000
138.068200 4167.300000
143.049100 3413.900000
145.064900 36321.900000
147.044300 10456.000000
149.096100 48878.400000
161.059800 720790.800000
162.067600 195936.300000
163.075400 84468.700000
165.090600 3009.300000
173.071000 99981.400000
179.070300 136407.100000
180.078200 11631.600000
185.026600 3844.600000
189.091100 3881.100000
213.058000 19875.100000
241.052800 41125.000000
259.063900 19803.500000

>ms2peaks
55.017800 5563.300000
62.989800 2551.300000
71.049100 5701.500000
77.038500 12631.500000
79.054200 11257.800000
81.000500 10208.300000
81.069900 12078.200000
91.054200 51276.200000
93.069900 67326.300000
95.049200 5952.000000
103.054200 47222.100000
105.069900 151526.000000
106.077700 3393.200000
107.049100 22219.100000
109.028400 14300.800000
109.064800 17480.000000
115.054200 48050.100000
116.062600 4511.600000
117.069900 29696.300000
119.049200 10535.600000
121.064900 738594.200000
123.044100 16533.900000
133.064900 265872.500000
134.072600 80579.400000
135.080500 36188.200000
137.059700 195570.300000
138.067700 6675.100000
143.049200 13058.100000
144.057000 2146.800000
145.064900 50819.600000
147.044200 13389.800000
149.096000 16263.100000
155.060600 4828.400000
160.051600 2916.500000
161.059800 400666.700000
162.067600 159784.100000
163.075400 57304.500000
173.071000 101367.300000
179.070200 25493.700000
185.026000 4032.100000
213.057800 4494.100000

>ms2peaks
55.017800 4693.300000
65.038600 2171.000000
68.997200 1874.300000
71.049100 5541.100000
77.038600 28694.000000
79.054300 52964.100000
81.000600 5536.400000
81.033600 2264.800000
81.069900 22260.200000
91.054300 135631.600000
93.069900 79658.100000
95.049100 15662.700000
103.054200 141026.800000
105.069900 280808.900000
106.077700 15920.300000
107.049100 38955.700000
109.028500 15347.300000
109.064800 34912.000000
115.054200 112684.500000
116.062200 8166.400000
117.069900 33887.700000
119.049100 22185.700000
121.064900 350626.500000
123.044100 13488.300000
127.054600 2332.900000
133.064800 206020.300000
134.072600 112203.500000
135.080400 31253.600000
137.059700 97679.600000
138.067200 2916.500000
143.049200 19518.500000
144.056800 6545.700000
145.064800 29669.700000
147.044000 24884.700000
149.096500 4612.100000
155.060500 9785.700000
160.052200 2782.200000
161.059800 110864.100000
162.067500 55619.300000
163.075400 14991.200000
173.071000 39867.200000
185.026800 2576.600000

>ms2peaks
53.038500 5353.300000
55.017800 4209.500000
62.989900 4038.900000
65.038500 5108.400000
71.049100 1520.900000
77.038600 81270.900000
78.046400 2815.200000
79.054300 108962.100000
81.000500 3429.100000
81.033500 5288.200000
81.069900 26330.700000
91.054300 208732.400000
93.069900 45513.600000
94.041400 3880.300000
95.049100 18686.000000
103.054300 217955.700000
105.044700 23291.600000
105.069900 250052.100000
106.077700 19398.100000
107.049100 45359.000000
109.028400 10100.400000
109.064800 31924.300000
115.054300 131069.200000
116.062100 10743.100000
117.069900 23554.400000
119.049100 25751.900000
121.064800 114417.800000
123.044000 16704.700000
127.054200 4664.200000
133.064800 96440.000000
134.072600 56475.000000
135.080400 12192.700000
137.059700 29442.300000
143.049100 9813.000000
144.057000 6183.300000
145.064900 11724.300000
147.044000 16859.900000
155.060500 7331.900000
161.059700 17042.000000
162.067500 10784.800000
173.070900 7074.400000
185.026700 1543.800000

