>compound EA76541583
>parentmass 193.13349999999994
>ionization [M+H]+
>formula C11H16N2O
>rt 516.000000
>profile orbitrap
#smiles_iso CC(C)C1=CC=C(C=C1)NC(=O)NC
#smiles_can CC(C)C1=CC=C(C=C1)NC(=O)NC
#inchikey DOULWWSSZVEPIN-UHFFFAOYSA-N
#pubchem_id 182167
#mb_accession EA030402,EA030403,EA030404,EA030405,EA030406,EA030407,EA030408,EA030409,EA030410,EA030411,EA030412,EA030413

>ms2peaks
94.064700 81724.600000
136.112100 295359.900000
151.087200 655635.700000
193.133700 14063422.800000

>ms2peaks
94.065100 753877.200000
134.096600 14138.900000
136.112100 1348624.300000
151.086600 3501410.900000
162.091100 34028.300000
193.133600 8749907.600000

>ms2peaks
58.028500 42940.500000
77.038900 29800.100000
93.057100 15905.300000
94.065200 3041624.500000
134.096500 120021.800000
136.112200 2257187.100000
151.086700 4128111.900000
162.091300 93060.300000
193.133000 1683326.900000

>ms2peaks
58.028800 88217.300000
77.038800 45545.800000
91.054100 27094.000000
92.049500 28778.500000
93.057400 17305.800000
94.065200 4609257.800000
105.044700 12287.300000
107.085100 20358.200000
120.044900 50796.400000
134.096400 237025.200000
136.112100 1658375.500000
147.091800 38218.000000
151.086600 1322209.300000

>ms2peaks
58.028800 124864.400000
77.038600 127720.800000
91.054300 117252.200000
92.049400 50966.100000
94.065200 4797469.300000
95.048700 15789.800000
105.044900 35360.000000
107.085400 29626.300000
117.069500 20134.800000
119.073300 21597.400000
120.044600 58884.700000
121.088900 26400.700000
134.096500 170240.000000
136.112200 786713.500000
147.091900 43831.500000
151.086300 207227.700000

>ms2peaks
53.038700 19047.300000
58.028800 161834.200000
77.038600 413481.400000
91.054300 234076.200000
92.049500 44163.400000
93.057400 37723.100000
94.065200 3879202.200000
95.049200 46428.500000
104.062200 39600.700000
105.044700 117030.700000
107.085400 52943.000000
117.069800 39496.200000
119.072800 45388.400000
120.044800 28388.600000
120.080600 21433.700000
121.089200 25039.700000
134.096500 89255.900000
136.112100 247428.000000
147.092400 20556.700000

>ms2peaks
94.064800 68206.600000
136.112100 176862.300000
151.086700 422467.000000
193.133700 10859554.500000

>ms2peaks
94.065200 585095.700000
134.096500 14124.000000
136.112200 962607.400000
151.086800 2623575.900000
162.091500 25579.900000
193.133700 6745752.700000

>ms2peaks
58.028800 25195.700000
77.038500 17440.900000
94.065200 2150260.400000
120.044400 15444.800000
134.096400 88869.000000
136.112200 1666516.100000
151.086700 2823813.700000
162.091400 67535.000000
193.133700 1385632.400000

>ms2peaks
58.028700 56718.900000
77.038500 30829.000000
91.054100 18454.700000
92.049600 19478.000000
94.065200 3237315.000000
107.085700 16427.000000
117.069500 9146.200000
120.044500 41782.200000
121.089000 7758.800000
134.096500 150331.500000
136.112200 1197544.900000
147.091800 30767.100000
151.086700 954384.400000
162.091500 21342.200000
193.133600 116484.600000

>ms2peaks
58.028700 76533.200000
77.038600 86823.500000
91.054200 78142.600000
92.049600 25338.700000
93.057500 20363.500000
94.065200 3313588.000000
95.049200 10234.700000
105.044700 25865.200000
107.085700 24462.500000
117.069600 16936.600000
119.073100 13448.200000
119.085500 8262.500000
120.044400 25810.400000
120.080600 6404.800000
121.088800 26727.700000
134.096400 139189.200000
136.112100 520018.900000
147.091600 32795.700000
151.086600 151109.900000

>ms2peaks
53.038600 14422.500000
58.028700 96293.000000
77.038600 259112.900000
91.054300 138699.200000
92.049600 27026.600000
93.057300 39490.000000
94.065200 2455312.300000
95.049200 29024.900000
104.062100 20846.600000
105.044700 75569.600000
107.085600 20138.000000
117.070000 18741.400000
119.073000 23993.800000
119.085600 5551.900000
120.044300 12258.900000
120.080900 14922.900000
121.088600 19704.700000
134.096500 58561.500000
136.112100 151375.700000
147.091700 22381.900000
151.086400 7108.700000

