>compound EA77651855
>parentmass 330.13700000000006
>ionization [M+H]+
>formula C15H23NO5S
>rt 468.000000
>profile orbitrap
#smiles_iso CCC1=CC=CC(=C1N(C(C)COC)C(=O)CS(=O)(=O)O)C
#smiles_can CCC1=CC=CC(=C1N(C(C)COC)C(=O)CS(=O)(=O)O)C
#inchikey CIGKZVUEZXGYSV-UHFFFAOYSA-N
#pubchem_id 6426849
#mb_accession EA050202,EA050203,EA050204,EA050205,EA050206,EA050207,EA050208,EA050209,EA050210,EA050211,EA050212,EA050213

>ms2
298.110400 272172.000000
330.136700 235934.300000

>ms2
73.064900 6131.200000
175.134800 3507.200000
176.143500 6502.200000
202.123400 6864.400000
298.110500 506990.500000

>ms2
73.064800 13459.700000
136.112300 7931.600000
146.096500 10182.400000
160.112000 53523.300000
174.127500 27734.600000
175.135600 18199.100000
176.143300 41541.100000
188.107100 4202.800000
202.122400 132453.100000
298.110600 195532.700000

>ms2
73.064900 12341.000000
132.080400 8088.700000
134.096500 10923.800000
136.112400 8040.400000
144.080100 4195.700000
146.096300 19572.500000
158.096100 5469.300000
159.104100 4878.600000
160.112000 97845.900000
174.127600 56882.800000
175.135400 6209.800000
176.143300 36277.200000
188.107100 7058.800000
202.122500 156371.600000
298.110500 11068.200000

>ms2
73.064800 10347.200000
120.080200 3701.400000
132.080700 15591.600000
133.088300 4638.900000
134.096300 11398.500000
144.081000 9341.600000
145.088700 20917.900000
146.096400 28119.200000
158.096600 7613.500000
159.104000 12746.400000
160.075100 4882.900000
160.111900 86084.300000
174.127600 52660.000000
176.143100 5350.800000
202.122500 65648.400000

>ms2
73.064800 5012.000000
91.053900 4888.000000
117.069900 5549.500000
119.073200 3876.100000
120.080900 5643.100000
131.072900 13194.600000
132.080600 17947.600000
133.088200 6565.100000
134.096200 8810.800000
144.080500 17444.600000
145.088500 43142.200000
146.096400 24409.300000
158.096300 13860.000000
159.104500 20517.600000
160.112000 44271.100000
174.127900 26568.200000
202.123200 10055.900000

>ms2
298.110500 177284.500000
330.136700 161334.800000

>ms2
73.064800 3553.900000
160.111800 2246.800000
202.122700 5176.800000
298.110600 334616.200000
330.138000 2427.600000

>ms2
73.064800 7549.700000
136.112200 5757.700000
144.080800 3058.200000
146.096500 4289.800000
160.112100 30446.800000
174.127600 14763.100000
175.135500 10692.500000
176.143200 23304.000000
202.122500 81428.900000
298.110500 106106.800000

>ms2
73.064800 7258.100000
132.080800 3154.400000
134.096000 3273.400000
136.111900 2712.000000
144.080600 2896.800000
145.088500 3117.300000
146.096400 13476.500000
158.096200 2963.600000
159.104600 3063.300000
160.112000 57419.300000
174.127500 32219.800000
175.135400 3027.500000
176.143200 19245.400000
188.106900 4427.600000
202.122500 99181.200000
298.110700 9442.000000

>ms2
73.064800 3325.000000
91.053900 1794.000000
120.080600 2682.600000
132.080600 9478.600000
133.088500 4000.600000
134.096300 4180.600000
144.080800 6078.600000
145.088500 8781.300000
146.096300 18058.400000
158.096700 3203.800000
159.104200 6769.900000
160.112000 45771.400000
174.127700 34717.800000
176.143200 3299.600000
202.122600 36251.200000

>ms2
73.064800 2480.100000
91.054200 1412.400000
117.070000 2313.200000
119.072800 2040.800000
120.080700 3243.800000
131.072800 4179.100000
132.080700 9407.600000
133.088600 3441.200000
134.096600 2534.200000
144.080800 10766.700000
145.088500 20722.100000
146.096400 8442.600000
158.096400 4774.700000
159.104200 6601.900000
160.075600 2081.900000
160.112000 24664.700000
174.127600 12929.900000
202.122600 4072.200000

