>compound EA77851123
>parentmass 134.07130000000004
>ionization [M+H]+
>formula C7H7N3
>rt 348.000000
>profile orbitrap
#smiles_iso CC1=CC2=NNN=C2C=C1
#smiles_can CC1=CC2=NNN=C2C=C1
#inchikey LRUDIIUSNGCQKF-UHFFFAOYSA-N
#pubchem_id 8705
#mb_accession EA016702,EA016703,EA016704,EA016705,EA016706,EA016707,EA016708,EA016709,EA016710,EA016711,EA016712,EA016713

>ms2peaks
134.071400 19792450.300000

>ms2peaks
77.038600 34991.200000
79.054300 36353.900000
134.071300 25139761.100000

>ms2peaks
77.038400 122221.700000
79.054300 359202.100000
106.065300 485892.600000
134.071500 24850128.500000

>ms2peaks
77.038600 1062877.500000
79.054300 1830930.700000
80.049200 42217.500000
89.038400 34963.500000
95.048900 62721.000000
104.049200 29819.200000
105.044800 158593.000000
106.065200 1731593.300000
134.071300 20907092.600000

>ms2peaks
53.038600 57006.800000
65.038400 23176.400000
66.046600 32651.400000
67.041700 55428.000000
77.038600 2706369.700000
78.033900 69665.000000
79.054300 3760076.100000
80.049500 135360.400000
89.038600 111638.700000
91.041800 91349.800000
95.049200 226938.600000
96.044300 90884.000000
104.049400 31998.500000
105.044800 671181.800000
106.065200 2185681.300000
134.071400 12834543.400000

>ms2peaks
53.038500 132663.600000
63.022700 22520.100000
65.038700 41368.200000
66.046400 66992.600000
67.041700 123593.700000
77.038600 4575161.900000
78.033800 125290.500000
78.046400 62827.100000
79.054200 4107898.200000
80.049400 224213.600000
81.033100 41226.100000
89.038600 200757.300000
91.041700 245457.900000
95.049200 517690.400000
96.044500 88893.100000
104.049500 65701.100000
105.044700 1145575.000000
106.065100 1790817.200000
134.071300 6196661.500000

>ms2peaks
79.054400 30299.900000
134.071300 16858088.900000

>ms2peaks
79.054400 32459.800000
106.065100 43157.900000
134.071400 18550378.300000

>ms2peaks
77.038400 80233.500000
79.054200 234639.800000
106.065100 317507.900000
134.071400 17520536.000000

>ms2peaks
77.038600 691672.700000
78.033700 18915.600000
78.046300 15879.000000
79.054300 1329144.700000
80.049500 38957.300000
89.038500 36513.500000
95.049100 41884.800000
105.044700 150755.200000
106.065200 1218249.200000
134.071300 14294038.600000

>ms2peaks
53.038600 61484.900000
66.046400 23589.500000
67.041700 23077.900000
77.038600 1916020.700000
78.034000 34530.800000
79.054300 2682394.600000
80.049500 90083.900000
89.038600 83931.900000
91.041700 60958.400000
95.049200 177672.900000
96.044500 57872.100000
104.049200 30744.800000
105.044700 470733.800000
106.065200 1588723.200000
134.071300 8895963.900000

>ms2peaks
53.038600 64685.200000
63.023000 14697.900000
65.038600 19908.300000
66.046400 44621.200000
67.041700 62089.000000
77.038600 2709504.100000
78.033900 51165.700000
78.046400 13328.300000
79.054300 2593594.100000
80.049500 127172.700000
81.033500 14175.200000
89.038600 102722.000000
91.041700 150944.900000
95.049200 283573.500000
96.044400 62334.400000
104.049400 29927.500000
105.044800 685164.600000
106.065200 1112930.900000
134.071300 3858786.300000

