>compound EA77260816
>parentmass 256.0209
>ionization [M+H]+
>formula C9H9N3O2S2
>rt 168.000000
>profile orbitrap
#smiles_iso C1=CC(=CC=C1N)S(=O)(=O)NC2=NC=CS2
#smiles_can C1=CC(=CC=C1N)S(=O)(=O)NC2=NC=CS2
#inchikey JNMRHUJNCSQMMB-UHFFFAOYSA-N
#pubchem_id 5340
#mb_accession EA018502,EA018503,EA018504,EA018505,EA018506,EA018507,EA018508,EA018509,EA018510,EA018511,EA018512,EA018513

>ms2
92.049200 13117.800000
108.044400 17802.000000
156.011200 110861.200000
256.020900 1067602.200000

>ms2
65.038400 6441.400000
68.049400 4740.000000
92.049400 103277.000000
101.016800 26135.700000
108.044300 180533.400000
149.013900 1918.000000
156.011300 543727.300000
256.020600 243343.000000

>ms2
65.038500 18685.200000
68.049600 21351.800000
78.033500 3211.900000
92.049500 156019.100000
101.016800 42494.000000
108.044400 298376.300000
156.011400 338663.800000
256.020500 8544.600000

>ms2
65.038500 44471.700000
68.049400 29670.100000
78.033800 4154.900000
80.049300 6268.000000
92.049500 209729.600000
96.044500 8485.300000
101.016800 36784.700000
108.044400 311834.700000
110.060000 13952.200000
120.055800 3657.800000
156.011300 73569.100000

>ms2
65.038600 93464.100000
68.049400 20699.500000
80.049700 7110.500000
92.049500 224290.800000
96.044300 3687.400000
101.016800 35069.800000
108.044400 215812.900000
110.060100 20962.100000
156.011700 7949.300000

>ms2
65.038600 141989.100000
68.049200 5866.700000
80.049500 29499.700000
92.049500 186890.300000
100.009000 4626.500000
101.016700 28526.900000
108.044400 147758.100000
110.060100 14530.800000

>ms2
92.049400 9061.600000
101.016400 3049.000000
108.044300 15298.900000
156.011300 78110.100000
172.972800 2213.600000
256.021000 775643.000000

>ms2
65.038500 4226.700000
68.049500 5084.500000
92.049500 63276.300000
101.016800 21782.800000
108.044400 125806.500000
149.014100 2002.800000
156.011400 365796.200000
190.043000 3910.200000
256.020800 168984.200000

>ms2
65.038600 16014.000000
68.049400 11861.900000
80.049400 2717.200000
92.049500 108892.300000
96.044300 3267.100000
101.016700 26858.800000
108.044400 205683.300000
156.011400 233096.700000
190.042900 2859.500000
256.021200 8279.900000

>ms2
65.038500 34900.400000
68.049500 24146.400000
78.033800 2122.500000
80.049400 3800.200000
92.049500 150413.400000
96.044400 2699.100000
100.008800 2789.100000
101.016800 25110.200000
108.044400 208130.600000
110.060100 12944.800000
156.011300 47400.600000

>ms2
65.038600 69603.300000
68.049500 13255.600000
78.033800 1933.900000
80.049600 4452.600000
92.049500 165315.700000
100.009100 3184.000000
101.016800 23731.400000
108.044400 147678.200000
110.060100 17762.300000
120.055600 2821.300000
156.011200 4086.900000

>ms2
65.038600 83914.400000
68.049500 4844.400000
80.049500 19019.100000
92.049500 124456.500000
101.016800 18326.700000
108.044400 99777.500000
110.060000 8172.400000
156.012000 2031.800000

