>compound EA77684613
>parentmass 264.1958
>ionization [M+H]+
>formula C16H25NO2
>rt 294.000000
>profile orbitrap
#smiles_iso CN(C)C[C@H]1CCCC[C@@]1(C2=CC(=CC=C2)OC)O
#smiles_can CN(C)CC1CCCCC1(C2=CC(=CC=C2)OC)O
#inchikey TVYLLZQTGLZFBW-ZBFHGGJFSA-N
#pubchem_id 33741
#mb_accession EA256702,EA256703,EA256704,EA256705,EA256706,EA256707,EA256708,EA256709,EA256710,EA256711,EA256712,EA256713

>ms2peaks
58.065100 1976875.700000
246.185100 114877.200000
264.195900 11874662.800000

>ms2peaks
58.065200 4863647.000000
246.185100 132163.700000
264.196000 1867597.800000

>ms2peaks
56.049400 20589.600000
58.065100 4481070.700000

>ms2peaks
58.065100 3922214.700000
121.064600 28732.000000

>ms2peaks
58.065100 3576699.100000
121.064600 32751.900000

>ms2peaks
58.065200 3028295.100000
121.065100 20333.300000

>ms2peaks
58.065200 1289514.900000
246.185000 70200.500000
264.196100 7718598.100000

>ms2peaks
56.049200 7624.500000
58.065100 3368881.900000
246.185000 84474.200000
264.196200 1361408.900000

>ms2peaks
58.065100 2955305.700000
246.186000 10757.300000
264.195600 29507.300000

>ms2peaks
56.049500 10606.800000
58.065100 2393100.800000
121.064800 11660.700000

>ms2peaks
58.065100 2012483.600000
121.064800 21672.200000

>ms2peaks
56.049400 4755.100000
58.065100 1663874.400000
121.064700 13131.400000

