>compound EA78841055
>parentmass 174.0219
>ionization [M+H]+
>formula C6H7NO3S
>rt 54.000000
>profile orbitrap
#smiles_iso C1=CC(=CC=C1N)S(=O)(=O)O
#smiles_can C1=CC(=CC=C1N)S(=O)(=O)O
#inchikey HVBSAKJJOYLTQU-UHFFFAOYSA-N
#pubchem_id 8479
#mb_accession EA065202,EA065203,EA065204,EA065205,EA065206,EA065207,EA065208,EA065209,EA065210,EA065211,EA065212,EA065213

>ms2
93.057300 128684.800000
94.064900 4161.900000
108.044500 8318.600000
156.011300 60719.000000
174.022000 410702.300000

>ms2
65.038500 5418.400000
68.049500 12131.700000
92.049500 71942.400000
93.057300 1446821.700000
94.065200 14056.400000
108.044400 185862.300000
110.060000 4117.800000
120.055900 2937.800000
127.955900 5890.800000
156.011400 471180.300000
174.022000 1087990.300000

>ms2
65.038600 14954.300000
68.049500 32834.000000
78.033900 4100.600000
80.049600 2912.000000
92.049500 129832.200000
93.057300 1632814.900000
94.065200 6543.300000
96.044700 9558.300000
108.044400 284716.100000
110.060100 17982.900000
125.046900 4422.700000
156.011400 227203.300000
174.021900 631639.900000

>ms2
65.038600 47846.400000
68.049500 25641.500000
78.033600 3156.100000
79.017700 3434.200000
80.049600 3324.900000
92.049500 214887.500000
93.057300 1725053.700000
94.065000 7225.600000
96.044500 7322.600000
108.044400 233402.500000
109.028300 6180.800000
109.051900 3507.500000
110.060100 43212.700000
120.055500 3779.200000
125.047200 31326.300000
156.011500 41119.400000
174.022000 266077.200000

>ms2
65.038600 88774.600000
66.046500 7877.800000
68.049500 16393.800000
79.017700 2824.200000
80.049300 8156.100000
92.049400 201357.700000
93.057300 1583097.900000
94.064900 6121.000000
108.044300 146583.200000
109.028100 10941.600000
109.052800 3658.600000
110.060100 40076.200000
125.047100 63710.700000
174.022000 80396.400000

>ms2
65.038600 142460.400000
66.046400 29148.300000
68.049300 4855.500000
75.022800 2765.500000
76.030800 3872.300000
80.049500 22750.700000
81.033700 5849.000000
92.049500 171331.800000
93.057300 1498993.600000
94.065000 3286.300000
108.044400 87786.200000
109.028600 7711.900000
109.052000 3826.200000
110.060100 21547.200000
125.047200 76278.200000
174.021800 12292.500000

>ms2
93.057300 88441.900000
94.065400 3822.800000
108.044300 6171.100000
156.011400 37632.700000
174.021900 311074.200000

>ms2
68.049500 4683.600000
92.049500 37575.700000
93.057300 1058483.800000
94.065100 9765.500000
108.044400 132457.600000
110.059900 4395.300000
127.956200 4988.500000
156.011300 335877.700000
174.021900 824189.100000

>ms2
65.038500 10634.400000
68.049500 18077.300000
78.033700 1804.300000
79.017800 4628.800000
92.049500 90395.100000
93.057300 1154418.400000
94.064900 4124.800000
96.044500 5254.600000
108.044400 179357.200000
110.060100 10979.000000
125.047200 4503.500000
127.956100 3264.800000
156.011400 151953.900000
174.021900 439074.800000

>ms2
65.038600 23273.700000
68.049500 16024.000000
79.017800 1929.500000
92.049500 125536.400000
93.057300 1136386.300000
94.065200 3726.900000
96.044300 4037.500000
108.044400 139556.700000
109.028400 4916.200000
109.052100 3132.400000
110.060100 22371.300000
120.055500 2259.000000
125.047200 20681.600000
156.011500 27473.900000
174.022000 178412.200000

>ms2
65.038600 57946.800000
66.046400 5253.100000
68.049500 8917.200000
80.049600 5238.200000
92.049500 116249.700000
93.057300 1041655.600000
94.065300 2295.200000
96.044200 2735.100000
108.044400 83335.800000
109.028400 6854.000000
109.052200 1720.100000
110.060100 23593.500000
125.047100 40835.900000
156.011400 1939.200000
174.021900 43304.700000

>ms2
65.038600 76620.000000
66.046400 16608.300000
75.022800 1836.800000
76.030900 2674.500000
78.033700 1552.900000
80.049400 11797.200000
81.033600 2961.100000
92.049500 93847.700000
93.057300 942804.600000
108.044400 52539.800000
109.028500 3414.400000
109.052500 1736.000000
110.060100 12081.800000
125.047100 46170.300000
174.022100 5984.400000

