>compound EA78719811
>parentmass 274.11859999999996
>ionization [M+H]+
>formula C14H15N3O3
>rt 330.000000
>profile orbitrap
#smiles_iso CC1=C(C(=CC=C1)C)N(CN2C=CC=N2)C(=O)C(=O)O
#smiles_can CC1=C(C(=CC=C1)C)N(CN2C=CC=N2)C(=O)C(=O)O
#inchikey PHMHHVKFXZNTKU-UHFFFAOYSA-N
#pubchem_id 86290103
#mb_accession EA070602,EA070603,EA070604,EA070605,EA070606,EA070607,EA070608,EA070609,EA070610,EA070611,EA070612,EA070613

>ms2peaks
69.044800 239168.800000
107.085000 4085.700000
134.096500 514254.700000
162.091400 182248.500000
206.081200 262264.900000
230.128500 7164.100000
274.118700 35080.100000

>ms2peaks
69.044800 226585.700000
105.069900 4640.900000
107.085600 11293.900000
119.072400 6722.300000
134.096500 434626.800000
162.091500 38229.000000
206.081200 358809.600000

>ms2peaks
69.044800 196269.200000
105.069700 10857.700000
106.078100 6028.300000
107.085500 42200.200000
119.072900 22850.200000
134.096500 562980.400000
162.092000 7513.900000
206.081100 73029.300000

>ms2peaks
69.044800 150507.200000
91.054200 9058.600000
105.069900 58030.700000
106.077900 24936.400000
107.085600 52835.400000
119.073100 29687.300000
132.080700 9026.100000
134.096500 438113.000000
206.082000 4508.700000

>ms2peaks
69.044800 112446.700000
77.038500 4010.700000
79.054300 14628.200000
91.054400 26787.200000
103.054500 5416.100000
105.070000 123368.700000
106.077900 41260.700000
107.085700 35091.600000
118.064600 6962.600000
119.073100 33471.600000
132.080800 10102.100000
133.076100 4019.600000
134.096600 230589.300000

>ms2peaks
69.044700 90019.700000
77.038600 10714.900000
79.054300 33834.200000
91.054200 51309.600000
103.054300 20185.400000
105.069900 155205.800000
106.077800 25531.100000
107.085600 11344.700000
118.065100 13437.100000
119.072800 18716.300000
132.080500 6486.600000
134.096500 77010.000000

>ms2peaks
69.044700 103198.000000
134.096400 239521.100000
162.091300 83789.300000
206.081000 120590.200000
230.128800 3557.500000
274.118700 16449.700000

>ms2peaks
69.044700 85930.500000
107.085400 5282.100000
119.072800 3388.200000
134.096500 193705.500000
162.091400 12505.300000
206.081200 155568.100000

>ms2peaks
69.044800 76207.500000
105.069900 4301.400000
107.085500 18137.800000
119.072900 8840.400000
134.096500 249575.700000
206.081100 24714.600000

>ms2peaks
69.044800 64164.900000
91.054200 4095.200000
105.069900 28160.400000
106.077700 14157.100000
107.085500 23726.300000
119.073000 14887.600000
132.081000 2849.600000
134.096500 187896.300000

>ms2peaks
69.044700 42664.300000
79.054300 3751.200000
91.054200 10445.600000
103.054300 3145.700000
105.069900 49887.800000
106.077700 13141.800000
107.085500 11844.600000
118.065000 1971.700000
119.072900 9502.900000
132.080900 4058.700000
133.075700 2539.500000
134.096400 79379.900000

>ms2peaks
69.044800 27110.500000
77.038700 2631.300000
79.054200 11405.900000
91.054300 18346.700000
103.054300 4849.800000
105.069900 42544.700000
106.077700 9238.700000
107.085500 5361.400000
118.065200 5723.900000
119.073000 4923.000000
132.081000 4273.800000
134.096500 27496.900000

