>compound EA78491893
>parentmass 146.01160000000002
>ionization [M+H]+
>formula C4H4ClN3O
>rt 78.000000
>profile orbitrap
#smiles_iso C1=NNC(=O)C(=C1N)Cl
#smiles_can C1=NNC(=O)C(=C1N)Cl
#inchikey FEWPCPCEGBPTAL-UHFFFAOYSA-N
#pubchem_id 95827
#mb_accession EA069802,EA069803,EA069804,EA069805,EA069806,EA069807,EA069808,EA069809,EA069810,EA069811,EA069812,EA069813

>ms2
146.011500 2152187.900000

>ms2
146.011700 11389904.300000

>ms2
116.997900 38205.100000
146.011700 11181021.700000

>ms2
54.033900 38553.700000
72.984000 26972.000000
75.994900 37415.700000
82.028800 15644.200000
87.994900 25214.200000
89.002800 22153.600000
90.010600 50549.200000
100.990200 122295.700000
101.974100 9906.500000
103.005800 11645.500000
110.035100 10139.200000
116.997700 389061.700000
128.985100 10140.400000
146.011700 9633610.800000

>ms2
54.033900 68585.100000
55.029100 11069.100000
62.999600 12510.600000
63.994900 29392.500000
66.021500 10537.800000
67.029100 7658.000000
70.040100 16321.000000
72.984000 77273.800000
73.979300 16345.900000
73.992000 15711.200000
74.999600 9914.500000
75.995000 100721.400000
82.028900 29062.700000
83.036600 14849.900000
83.047800 13301.200000
87.995000 102711.400000
89.002800 51829.200000
90.010600 88332.300000
91.006000 17616.700000
99.994400 6500.400000
100.990200 478188.100000
101.974300 40240.100000
103.005900 32834.500000
110.035000 20401.500000
116.997700 1083323.100000
119.000800 11438.400000
128.985100 31496.800000
146.011700 6120684.400000

>ms2
54.033800 92093.200000
55.017900 4014.900000
55.029000 12496.400000
61.979500 7290.400000
62.963400 5860.600000
62.999600 13542.600000
63.994900 51616.200000
66.021300 47617.900000
67.029100 13439.400000
70.040100 21492.300000
71.023900 4233.200000
72.984000 98688.000000
73.979200 47594.100000
73.991900 24577.300000
74.987100 3713.400000
74.999600 12347.700000
75.971200 11136.800000
75.994900 170036.600000
82.028800 23703.000000
83.024000 3593.700000
83.036600 15699.200000
83.047900 33051.100000
85.979500 9662.700000
87.994900 229847.300000
89.002700 57232.000000
90.010500 64319.000000
90.994400 4117.100000
91.005800 36329.100000
99.995000 7529.600000
100.990100 845821.800000
101.974200 65174.000000
103.005800 51173.000000
103.989900 13813.700000
110.034900 20952.200000
116.997600 1456808.300000
119.001000 8758.900000
126.029400 5634.200000
128.985100 37009.700000
146.011500 2886535.800000

>ms2
146.011400 1638599.800000

>ms2
146.011600 9125530.600000

>ms2
116.997700 30203.300000
146.011700 9239143.000000

>ms2
54.033800 28256.500000
72.983900 23804.500000
75.994900 25135.400000
82.028800 11370.200000
87.994800 17396.900000
89.002700 12490.400000
90.010600 34640.400000
100.990200 97688.100000
101.974100 7978.500000
116.997600 292739.300000
146.011700 7946388.800000

>ms2
54.033800 55525.100000
55.029100 7800.000000
62.999600 9447.000000
63.994900 18375.300000
66.021300 8481.200000
67.029100 5560.700000
70.040000 8931.400000
72.984000 48970.300000
73.979200 15582.500000
73.991900 5893.200000
74.999600 10008.600000
75.971100 5473.200000
75.994900 71655.700000
82.028800 18609.500000
83.036600 11375.700000
83.047900 11479.000000
87.994900 71411.600000
89.002700 30193.500000
90.010500 49385.300000
91.005800 12531.500000
100.990100 348971.100000
101.974200 23180.100000
103.005800 19786.400000
110.034900 17343.800000
116.997600 855015.400000
119.000800 10015.000000
128.985100 20458.400000
146.011600 5023072.500000

>ms2
54.033800 73979.600000
55.017900 2965.500000
55.029100 12809.600000
61.979300 3508.100000
62.963300 6021.300000
62.999600 9021.600000
63.994900 35161.800000
66.021300 35237.200000
67.029100 9759.800000
70.040000 11803.200000
72.984000 65351.900000
73.979200 40333.400000
73.991800 13422.100000
74.987200 2648.700000
74.999600 5789.000000
75.971100 7861.500000
75.994900 110081.200000
82.028800 13593.900000
83.024200 2922.400000
83.036500 10938.400000
83.047800 25256.600000
85.979300 2624.900000
87.994900 181493.500000
89.002700 50329.000000
90.010600 48228.600000
90.994600 3394.800000
91.005800 27009.800000
99.995000 5904.500000
100.990100 672090.300000
101.974200 48870.600000
103.005800 30852.000000
103.989900 8777.400000
110.034900 14646.100000
116.997700 1162536.200000
119.000800 7865.200000
126.029900 3734.600000
128.985100 27467.600000
146.011600 2248173.000000

