>compound EA79922412
>parentmass 282.0481
>ionization [M+H]+
>formula C11H17Cl2NOS
>rt 918.000000
>profile orbitrap
#smiles_iso CCCCCCCCN1C(=O)C(=C(S1)Cl)Cl
#smiles_can CCCCCCCCN1C(=O)C(=C(S1)Cl)Cl
#inchikey PORQOHRXAJJKGK-UHFFFAOYSA-N
#pubchem_id 91688
#mb_accession EA034402,EA034403,EA034404,EA034405,EA034406,EA034407,EA034408,EA034409,EA034410,EA034411,EA034412,EA034413

>ms2peaks
71.085400 14160.800000
169.923100 436287.200000
282.048300 2942448.900000

>ms2peaks
57.069900 87916.500000
71.085600 109580.500000
169.923000 1683321.800000
282.048000 575606.300000

>ms2peaks
57.069900 113147.800000
71.085600 108756.300000
169.923100 1207543.300000

>ms2peaks
57.069900 114120.100000
71.085600 43848.200000
126.917100 17154.800000
134.954000 15047.700000
151.912500 10334.700000
169.923100 999963.900000

>ms2peaks
55.054300 5162.100000
57.069800 79492.800000
59.990300 5983.500000
71.085500 16778.800000
78.940400 7654.600000
82.945000 14420.300000
90.940400 6889.700000
126.917000 55371.400000
134.954000 89237.900000
151.912600 25902.900000
169.922900 610333.700000

>ms2peaks
57.069800 46987.200000
59.990100 7740.300000
78.940500 16931.800000
82.944900 33046.900000
90.940200 8919.100000
91.948400 7000.900000
107.940300 17404.200000
122.939900 6929.900000
126.917000 50110.300000
134.953900 151537.800000
151.912200 27463.100000
169.922700 283602.200000

>ms2peaks
57.069600 13709.000000
71.085400 18454.400000
169.922900 510865.400000
282.048100 3332198.000000

>ms2peaks
57.069900 78393.300000
71.085500 113056.300000
169.923000 1692306.300000
282.048200 580202.900000

>ms2peaks
57.069800 105558.100000
71.085500 92201.200000
169.923000 1251499.400000
189.903500 2101.200000

>ms2peaks
57.069800 91162.100000
71.085500 36284.800000
126.917100 15994.400000
134.954000 15478.700000
151.912300 4860.300000
169.922900 837671.400000

>ms2peaks
57.069800 73603.400000
71.085500 13325.500000
78.940300 8054.000000
82.944900 11063.600000
90.940200 3781.400000
126.916800 44098.400000
134.953900 71693.400000
151.912100 21116.200000
169.922700 540656.700000
189.904900 2482.500000

>ms2peaks
55.054100 2348.600000
57.069800 30908.700000
59.990100 3828.400000
71.085500 2355.000000
78.940400 11628.000000
82.944900 23370.600000
90.940300 8999.600000
91.948100 5520.600000
107.940200 7854.800000
122.939800 6902.100000
126.917000 34362.400000
134.954000 117605.300000
151.912200 18813.100000
169.922900 220150.700000

