>compound EA79872835
>parentmass 212.05850000000007
>ionization [M+H]+
>formula C9H10ClN3O
>rt 276.000000
>profile orbitrap
#smiles_iso C1CN(C(=O)N1)CC2=CN=C(C=C2)Cl
#smiles_can C1CN(C(=O)N1)CC2=CN=C(C=C2)Cl
#inchikey ADWTYURAFSWNSU-UHFFFAOYSA-N
#pubchem_id 15390532
#mb_accession EA295602,EA295603,EA295604,EA295605,EA295606,EA295607,EA295608,EA295609,EA295610,EA295611,EA295612,EA295613

>ms2
99.055100 158826.600000
128.026200 1036925.200000
212.058500 99379264.800000
214.062300 280138.700000

>ms2
99.055400 2573592.900000
126.010500 527930.900000
128.026200 13641720.200000
169.052700 139125.600000
176.081600 251933.200000
195.032300 517355.700000
212.058500 88862178.000000
214.062500 140596.000000

>ms2
56.049500 216434.600000
70.028900 65614.100000
71.060600 149942.100000
85.039600 220888.500000
92.049500 86811.400000
93.057400 94450.600000
99.055300 9268562.200000
107.060600 84346.800000
114.010500 388579.700000
126.010500 7629997.500000
127.018000 110851.800000
128.026200 42767351.300000
133.076200 196418.000000
142.005400 103114.700000
169.016500 219543.600000
169.052600 689686.700000
176.081900 1447122.900000
177.089000 47799.200000
194.048000 420734.300000
195.032000 1623029.000000
212.058400 38936504.800000

>ms2
56.049500 363250.600000
65.038800 100635.400000
70.028700 218021.200000
71.060400 222503.200000
85.039600 337732.800000
90.033800 157084.900000
92.049600 656840.800000
93.057400 516311.600000
99.055300 10177090.000000
106.065100 167377.700000
107.060400 400659.700000
110.060200 278306.700000
114.010500 1895202.000000
118.053000 50453.900000
120.068100 81369.600000
121.075600 74693.900000
123.055400 179793.600000
126.010500 17639675.400000
127.018400 860337.800000
128.026200 46418590.200000
133.076000 949546.100000
135.055300 51469.500000
141.021700 81262.800000
142.005600 357483.600000
142.029000 141127.600000
144.021200 226426.600000
148.087200 68399.300000
154.005600 83947.300000
156.044700 68168.800000
167.037200 101435.300000
168.021300 79696.300000
169.016400 297576.700000
169.052800 712559.400000
176.081900 2022235.300000
177.089300 75485.900000
194.048000 595138.800000
195.032100 1218896.500000
212.058700 8019031.900000
214.062600 77069.400000

>ms2
56.049500 511830.300000
65.038600 587446.700000
67.054200 51875.300000
70.028800 441896.600000
71.060400 255389.000000
78.033800 143383.200000
79.054300 88163.100000
80.049400 161981.400000
85.039700 241442.800000
90.033900 888965.600000
91.041700 151705.800000
92.049500 2228171.300000
93.057300 1503859.600000
96.044400 435155.600000
98.999600 510074.400000
99.055300 8989309.400000
101.015600 142146.600000
106.065100 393794.200000
107.060400 729066.300000
109.052300 89526.700000
110.060100 691396.900000
114.010500 3888172.400000
116.049500 67093.000000
118.052800 112829.200000
120.068100 252638.900000
121.076000 144847.200000
123.055400 400232.600000
126.010500 20373723.800000
127.018400 2374129.900000
128.026200 33366035.700000
131.060600 113168.000000
132.067900 124694.200000
133.076100 1193203.900000
134.083200 73846.800000
140.026100 67198.200000
141.021300 307907.100000
142.005500 446961.500000
142.029300 303140.900000
144.021100 649518.100000
149.071700 80060.900000
154.029100 119392.000000
156.045100 91765.000000
168.020900 61962.800000
169.016300 247134.900000
169.052700 316326.200000
176.081800 928112.000000
194.048000 503544.500000
195.032100 407447.500000
210.042100 78561.900000
212.059500 1054747.000000
214.060600 86286.900000

>ms2
56.049500 818676.800000
63.023000 158147.000000
65.038600 1356316.900000
67.054200 73983.200000
70.028800 785990.900000
71.060500 220597.900000
72.983700 123640.300000
78.033900 423538.500000
79.054300 217966.500000
80.049500 287605.900000
85.039700 217226.600000
90.033900 2126279.700000
91.041600 548478.700000
92.049600 3439498.200000
93.057400 2716588.900000
96.044500 1406627.500000
98.999700 1530560.900000
99.055400 6740069.800000
101.015300 158580.700000
104.049400 70393.000000
105.045000 115450.000000
106.065200 530739.400000
107.060400 743986.900000
109.052400 369311.100000
110.060100 883157.700000
114.010600 4201117.100000
116.049900 64704.800000
118.052500 181004.300000
120.068400 253276.000000
121.076200 122254.200000
123.055400 365108.600000
126.010600 14537844.200000
127.018500 3669202.400000
128.026200 17123842.900000
131.060500 186958.500000
132.068500 229325.100000
133.076100 681778.100000
140.026800 61386.100000
141.021500 543636.300000
142.005400 296847.600000
142.029300 200213.200000
144.021200 818210.200000
151.006300 126699.100000
153.021400 63798.100000
154.029500 100765.200000
167.037100 51127.100000
169.016100 147896.000000
169.052800 101538.600000
176.082000 209076.800000
194.048400 259127.800000
195.031900 82694.200000

>ms2
99.055300 92469.300000
128.026200 694747.300000
212.058400 80851205.300000

>ms2
99.055300 2027908.900000
126.010600 461247.700000
128.026100 11317172.500000
169.052500 89183.600000
176.081800 132439.500000
195.031900 443553.100000
212.058500 75509362.100000

>ms2
56.049400 115543.000000
70.028700 35813.000000
71.060300 71014.000000
85.039600 186307.400000
92.049400 87030.900000
93.057400 86011.500000
99.055300 7019802.800000
107.060300 44268.500000
114.010500 211991.100000
126.010500 5544430.400000
127.018400 77561.100000
128.026200 32902846.700000
133.076000 102638.700000
142.005300 72276.500000
169.016000 85197.600000
169.052700 463397.100000
176.081800 1109019.000000
194.048100 289414.400000
195.032000 1251190.700000
212.058500 28529097.800000

>ms2
56.049500 224145.300000
65.038600 79726.700000
70.028800 116111.000000
71.060400 155586.000000
78.034000 34018.200000
85.039600 246873.900000
90.033900 93722.600000
92.049400 299895.600000
93.057300 338230.700000
96.044700 38594.900000
99.055300 7365121.300000
106.065200 123028.500000
107.060400 245684.700000
110.060000 185671.000000
114.010500 1285295.900000
120.068500 71174.900000
123.055300 84588.600000
126.010500 12888196.600000
127.018300 615685.900000
128.026200 33336409.800000
133.076000 616532.900000
135.055700 36541.800000
141.021200 41194.000000
142.005500 188173.500000
142.029300 98244.300000
144.021100 156754.700000
148.087100 50659.800000
156.044700 48056.800000
167.037200 50564.100000
168.021200 68576.600000
169.016200 202450.000000
169.052800 512177.800000
176.081800 1389234.000000
194.048000 489023.200000
195.031900 761130.000000
210.043600 34320.200000
212.058600 5671067.000000

>ms2
56.049500 373654.800000
63.022800 28022.500000
65.038600 402863.500000
70.028700 318092.100000
71.060300 117744.500000
72.983900 36225.000000
78.033700 85131.400000
79.054100 51287.100000
80.049300 99825.100000
85.039700 181976.600000
90.033800 520232.700000
91.041600 89492.800000
92.049400 1321001.500000
93.057300 879516.200000
96.044300 322899.400000
99.055200 6060869.600000
101.015200 58336.700000
105.044600 40589.900000
106.065100 225582.800000
107.060300 460986.500000
109.052100 48759.200000
110.060000 454787.500000
114.010400 2597092.600000
116.049200 31005.800000
118.052500 76208.400000
120.068200 150223.900000
121.076000 64649.500000
123.055200 238178.600000
126.010500 13681676.400000
127.018300 1611266.200000
128.026100 22094490.200000
131.060300 66347.200000
132.068100 85649.300000
133.076000 915910.900000
134.084300 24971.300000
135.055100 46351.900000
140.025800 36346.300000
141.021400 237975.000000
142.005400 299595.800000
142.029200 149806.400000
144.021000 453521.200000
148.087100 38138.000000
149.070600 53788.400000
151.006200 30649.100000
154.029500 53105.400000
156.044800 39879.900000
167.037000 79105.400000
168.020500 68420.500000
169.016200 144625.100000
169.052700 188424.900000
176.081700 556165.700000
177.089600 38599.700000
194.047900 323277.200000
195.031800 230026.300000
210.042300 66716.300000
212.058400 631940.900000

>ms2
56.049400 468725.400000
63.022900 65103.100000
65.038500 807947.500000
67.054200 32099.200000
70.028700 496600.400000
71.060300 156737.300000
72.983900 79173.400000
78.033800 266399.400000
79.054200 107514.300000
80.049400 164544.900000
85.039600 144959.300000
90.033800 1258954.000000
91.041700 255713.700000
92.049400 1947226.200000
93.057200 1627192.400000
96.044300 798233.300000
98.999500 999853.900000
99.055200 4416938.900000
101.015100 102597.400000
104.049500 61068.900000
105.044600 50258.500000
106.065100 247286.600000
107.060300 378526.000000
109.052100 176849.800000
110.060000 539946.600000
114.010400 2681394.300000
116.049300 61614.100000
118.052400 146516.700000
120.068200 130233.000000
121.075900 43326.500000
123.055200 184486.800000
126.010400 9566909.700000
127.018200 2160111.600000
128.026000 10860969.500000
131.060400 73506.000000
132.068100 115370.100000
133.075900 403432.200000
135.056000 28305.400000
140.025900 34729.500000
141.021300 375763.000000
142.005400 202466.300000
142.029100 168961.600000
144.021000 500834.000000
149.070900 28037.400000
151.005400 79955.200000
153.021600 68340.300000
154.029000 75202.200000
156.045200 24230.600000
167.037700 28060.700000
168.020700 23391.300000
169.016900 46253.400000
169.053100 50029.500000
176.081600 138732.800000
177.089500 32664.800000
194.047700 161593.000000
195.032200 44178.500000
212.058100 125884.500000

