>compound EA80403463
>parentmass 264.13430000000005
>ionization [M+H]+
>formula C13H17N3O3
>rt 312.000000
>profile orbitrap
#smiles_iso CC(=O)N(C)N(C1=CC=CC=C1)C(=O)C(=O)N(C)C
#smiles_can CC(=O)N(C)N(C1=CC=CC=C1)C(=O)C(=O)N(C)C
#inchikey IRTZMJWVZQYURE-UHFFFAOYSA-N
#pubchem_id 68214
#mb_accession EA270802,EA270803,EA270804,EA270805,EA270806,EA270807,EA270808,EA270809,EA270810,EA270811,EA270812,EA270813

>ms2peaks
72.044400 373722.800000
92.049400 41854.700000
120.043900 3633.200000
149.071100 34071.000000
163.086700 55734.800000
191.081600 1081880.200000
204.113900 10993.500000
222.123900 1377504.100000
236.139600 54966.100000
264.134400 610131.100000

>ms2peaks
56.049500 8504.200000
65.038700 6104.200000
72.044400 791213.000000
92.049500 72295.200000
106.065400 3937.100000
134.060400 5640.300000
149.071000 72343.500000
163.086700 152442.000000
165.102500 5840.000000
177.066100 5725.500000
191.081600 1182299.400000
194.129100 12799.400000
204.113700 17908.500000
222.123800 511969.500000

>ms2peaks
56.049500 25241.400000
65.038500 6483.300000
72.044500 951077.500000
92.049600 99974.400000
106.065300 12619.000000
119.036400 6076.100000
121.076500 12563.000000
134.060300 16827.400000
148.063200 8086.100000
149.071100 318160.500000
163.086800 145376.500000
191.081700 522367.000000
204.113300 6352.500000
222.124500 23076.500000

>ms2peaks
56.013000 4006.500000
56.049400 34595.300000
65.038500 18021.000000
72.044400 914499.500000
85.075800 3605.000000
92.049500 88389.500000
93.033200 5593.800000
106.065100 20850.400000
119.036600 13329.900000
120.044300 6632.000000
121.076000 23723.900000
134.047400 19347.100000
134.059700 11241.500000
148.063000 27244.300000
149.071000 345961.000000
163.086600 91753.100000
191.081500 85542.000000

>ms2peaks
56.013100 4280.700000
56.049500 23823.000000
65.038600 43462.600000
72.044500 823500.200000
92.049600 76492.300000
93.033500 14798.100000
106.065100 16863.900000
107.072900 3554.400000
108.044800 3416.400000
111.044200 5142.500000
119.036600 18051.900000
120.044700 8945.700000
121.076100 18016.600000
134.047600 52725.300000
148.063300 31837.800000
149.071100 182448.100000
163.086600 27710.500000
191.081500 6280.000000

>ms2peaks
56.013000 4486.200000
56.049500 17075.700000
65.038600 60734.300000
72.044400 692094.600000
80.049200 3568.100000
91.042100 3815.500000
92.049500 60300.800000
93.033200 7758.200000
106.065300 7465.400000
107.072800 4919.600000
111.044300 4776.300000
119.036500 20870.100000
120.044200 5588.700000
121.076100 6958.500000
134.047400 50348.800000
147.055400 6026.800000
148.063400 17142.500000
149.071000 56815.200000
163.086100 6231.100000

>ms2peaks
56.049300 2503.700000
72.044400 205066.100000
92.049500 19149.500000
129.066400 1779.000000
149.070900 18516.500000
163.086600 31636.300000
177.066400 2992.100000
191.081700 558325.100000
194.128700 2872.200000
204.113500 3351.100000
222.123900 734472.900000
236.139400 23047.400000
264.134300 312547.200000

>ms2peaks
56.049500 1938.800000
65.038500 3613.300000
72.044400 406002.500000
92.049500 33699.000000
120.044900 2130.700000
121.076500 2533.600000
129.065700 3152.900000
149.070900 36498.200000
163.086600 69943.000000
165.103000 2702.800000
191.081600 588698.800000
194.128800 6828.900000
204.112800 6705.800000
222.123700 246567.400000

>ms2peaks
56.049500 12894.700000
65.038500 3806.200000
72.044400 477622.400000
85.075700 2203.200000
92.049500 41294.800000
106.065200 4765.400000
119.036300 2680.700000
121.076200 5160.500000
134.060200 5867.100000
148.062900 5007.200000
149.071000 148198.700000
163.086600 71595.500000
177.066400 2216.900000
191.081600 254471.400000
204.112800 2492.300000
222.123300 6849.400000

>ms2peaks
56.049500 15458.200000
65.038600 10411.500000
72.044400 448724.800000
92.049500 43374.100000
93.033400 4296.000000
106.065300 8147.900000
119.036700 6402.800000
120.044600 2726.700000
121.075900 7693.100000
134.047400 9005.800000
134.059700 6135.800000
148.063100 13336.700000
149.071000 157794.400000
163.086600 34260.700000
191.081500 32819.900000

>ms2peaks
56.049500 14646.000000
65.038600 18105.900000
72.044400 398125.300000
80.049600 1687.100000
92.049400 35076.900000
93.033400 4897.700000
106.065100 4794.600000
108.044100 2744.400000
119.036600 8514.900000
120.044000 4466.900000
121.075900 8008.800000
134.047400 18265.400000
134.060300 2439.900000
148.063200 15339.100000
149.070900 79298.400000
163.086600 13905.500000

>ms2peaks
56.049500 6249.900000
65.038600 23694.000000
72.044500 290921.600000
80.049400 1440.500000
91.041800 2153.100000
92.049500 21209.800000
93.033500 4351.600000
106.065200 4799.700000
111.044100 1621.600000
119.036500 9995.600000
120.044400 2622.900000
121.076000 2435.600000
134.047500 22228.200000
147.054800 1818.500000
148.063200 5300.600000
149.070900 19980.700000
163.086300 2288.300000

