>compound EA80875544
>parentmass 179.1179
>ionization [M+H]+
>formula C10H14N2O
>rt 480.000000
>profile orbitrap
#smiles_iso CC(C)C1=CC=C(C=C1)NC(=O)N
#smiles_can CC(C)C1=CC=C(C=C1)NC(=O)N
#inchikey ABBKOIZWGCVCKE-UHFFFAOYSA-N
#pubchem_id 185831
#mb_accession EA028502,EA028503,EA028504,EA028505,EA028506,EA028507,EA028508,EA028509,EA028510,EA028511,EA028512,EA028513

>ms2peaks
94.065100 32169.000000
136.112200 15208.800000
137.070900 768935.800000
179.118200 6753326.300000

>ms2peaks
94.065200 252469.900000
120.044400 22810.800000
134.096400 24931.300000
136.112100 88495.400000
137.071100 3408650.700000
162.091400 56726.800000
179.118100 4476218.300000

>ms2peaks
77.038600 15276.400000
92.049500 28186.000000
94.065100 837068.700000
120.044300 116715.600000
134.096500 116745.800000
136.112000 188772.000000
137.071000 3958687.900000
162.091200 93561.500000
179.117800 961681.300000

>ms2peaks
77.038600 30277.700000
91.054400 20091.400000
92.049500 122273.800000
94.065200 1821304.200000
107.085700 18591.200000
117.070400 12823.300000
119.085600 10397.900000
120.044400 232705.700000
134.096500 183101.700000
136.112100 189120.100000
137.071000 1843889.000000
147.092100 44254.700000
162.091100 36213.300000
179.118100 88605.800000

>ms2peaks
65.038400 12301.400000
77.038600 110323.600000
91.054200 93265.400000
92.049500 181935.600000
94.065200 2285574.700000
107.085500 27106.000000
117.070000 24233.600000
119.073300 16046.600000
120.044500 200952.800000
134.096400 130025.000000
136.112300 103414.000000
137.071000 509526.800000
147.091800 34388.400000
179.118500 26115.000000

>ms2peaks
53.038500 22904.200000
65.038600 16428.600000
77.038600 258957.800000
91.054200 130740.300000
92.049500 160917.100000
93.057400 27540.000000
94.065200 1984380.800000
95.049000 38824.600000
105.044700 82059.700000
107.085500 32729.700000
117.070000 22225.500000
119.072900 28912.200000
120.044400 104223.200000
134.096400 56198.200000
136.112200 37700.700000
137.071000 84076.900000
147.091400 13774.500000

>ms2peaks
94.065300 45950.700000
136.112400 8383.600000
137.071000 826690.800000
162.091500 9697.000000
179.118000 6792153.300000

>ms2peaks
77.038400 9115.800000
94.065100 196007.900000
120.044400 19325.100000
134.096500 25000.600000
136.112200 72808.000000
137.071100 2954902.700000
162.091500 52542.100000
179.118100 4061005.200000

>ms2peaks
77.038600 10737.000000
91.054100 6912.000000
92.049500 29220.900000
94.065200 747158.300000
107.085800 6121.700000
120.044500 108626.600000
134.096500 101254.100000
136.112200 160433.700000
137.071100 3499407.800000
147.091500 21373.100000
162.091400 91447.200000
179.118200 891445.400000

>ms2peaks
77.038600 27595.800000
91.054300 24962.700000
92.049500 84362.400000
94.065200 1492161.500000
107.085600 13122.200000
117.070300 5715.400000
120.044500 202260.300000
134.096500 163646.500000
136.112100 168048.500000
137.071100 1612729.000000
147.091800 47900.100000
162.091500 33172.800000
179.118100 95852.900000

>ms2peaks
53.038400 6392.600000
77.038600 73558.800000
91.054300 67088.400000
92.049500 146792.300000
93.057600 6338.800000
93.069800 10010.900000
94.065200 1798191.200000
95.049200 7852.300000
103.054100 4652.600000
105.044800 17669.800000
107.085500 17500.500000
117.070000 16681.400000
119.073000 12339.500000
119.085800 6039.500000
120.044400 168903.500000
134.096500 107315.300000
136.112100 87061.600000
137.071000 385659.400000
147.091700 28347.400000
162.091700 6308.300000

>ms2peaks
53.038600 17003.300000
65.038600 7210.600000
77.038600 206567.800000
91.054300 100165.900000
92.049500 127906.500000
93.057400 27698.900000
93.069800 4945.700000
94.065200 1499330.400000
95.049100 25502.500000
103.054200 3708.700000
105.044700 68689.200000
107.085600 24431.200000
117.070000 13410.900000
119.073000 21530.000000
120.044400 71313.700000
134.096400 39637.200000
136.112100 27629.700000
137.071000 65898.100000
147.091700 13793.900000

