>compound EA80165323
>parentmass 166.12259999999998
>ionization [M+H]+
>formula C10H15NO
>rt 174.000000
>profile orbitrap
#smiles_iso C[C@@H]([C@@H](C1=CC=CC=C1)O)NC
#smiles_can CC(C(C1=CC=CC=C1)O)NC
#inchikey KWGRBVOPPLSCSI-WPRPVWTQSA-N
#pubchem_id 9294
#mb_accession EA275802,EA275803,EA275804,EA275805,EA275806,EA275807,EA275808,EA275809,EA275810,EA275811,EA275812,EA275813

>ms2peaks
117.070200 10489.700000
133.088300 10659.100000
148.112100 4197068.400000
166.122700 6593869.700000

>ms2peaks
91.054600 14146.000000
117.069900 39943.900000
133.088200 17412.100000
135.080500 106954.400000
148.112200 8460625.300000
166.122700 2494918.600000

>ms2peaks
56.049300 54386.800000
57.033400 12270.700000
70.065200 54654.500000
91.054000 22036.300000
117.069900 480082.500000
133.088600 317144.100000
135.080400 189846.200000
148.112200 9544599.500000
166.122300 339990.900000

>ms2peaks
56.049500 151875.500000
70.065200 152414.300000
91.054200 150058.200000
93.070000 24469.100000
115.054200 230024.100000
117.069900 1553194.300000
118.064600 12852.400000
132.081000 35398.700000
133.088600 1423977.500000
135.080300 94636.800000
148.112100 6177030.100000

>ms2peaks
56.049500 239570.600000
70.065200 190872.000000
77.038300 7606.800000
79.054400 16593.800000
91.054300 418040.500000
92.061900 9088.200000
93.069900 46225.400000
104.062100 23033.300000
105.070300 27344.400000
115.054300 759840.900000
116.062100 73818.300000
117.070000 1679156.300000
118.065200 46065.000000
120.081000 13888.700000
132.080800 263654.900000
133.088800 2052949.800000
135.080900 21964.800000
148.112300 2476556.800000

>ms2peaks
56.049500 225892.700000
70.065200 135513.900000
77.038400 13546.600000
79.054100 18123.000000
91.054300 902126.000000
92.062300 22115.700000
93.069900 36702.800000
104.062100 120155.100000
105.069900 67834.900000
115.054300 1268263.800000
116.062000 164516.500000
117.069900 1152415.900000
118.065100 91349.000000
120.081300 18252.800000
130.065200 16791.100000
132.080800 571463.500000
133.088600 1749247.900000
148.112100 594089.000000

>ms2peaks
115.050400 7692.800000
115.054400 10798.600000
117.069800 13392.400000
133.088200 8753.500000
148.112100 4228065.700000
166.122700 6622954.900000

>ms2peaks
115.050700 9114.100000
117.069900 32296.700000
132.080500 11619.000000
133.088600 28596.000000
135.080400 114960.200000
148.112100 8427046.900000
166.122700 2441626.500000

>ms2peaks
56.049400 53483.100000
57.033500 9121.000000
70.065100 44951.400000
91.054200 35363.900000
93.069600 9570.200000
115.054000 22556.600000
117.069900 445603.000000
132.081200 18235.800000
133.088500 293638.600000
135.080500 170394.200000
148.112100 9106909.500000
166.122800 333028.500000

>ms2peaks
56.049500 144547.000000
70.065200 154528.900000
91.054200 117499.000000
93.069900 33569.700000
115.054200 208803.000000
116.062100 9610.900000
117.069900 1450170.900000
132.080500 42925.700000
133.088700 1246349.600000
135.080400 87960.600000
148.112100 5801334.400000

>ms2peaks
56.049500 204738.600000
70.065100 175390.500000
79.054400 12225.000000
91.054200 358927.000000
93.069900 55411.700000
104.061900 19892.800000
105.069900 24573.700000
115.054200 729757.300000
116.062100 82031.300000
117.069900 1580027.900000
118.065200 40735.600000
130.064600 11585.700000
132.080800 239641.700000
133.088600 1848749.900000
135.080300 15913.500000
146.096100 9773.600000
148.112200 2243336.100000

>ms2peaks
56.049400 199840.500000
70.065100 105793.300000
77.038600 7684.600000
79.054200 21605.500000
91.054200 756305.800000
92.062000 13550.500000
93.069800 31427.000000
104.062000 108517.400000
105.069800 53479.100000
115.054200 1061297.200000
116.062000 125367.700000
117.069800 987516.600000
118.065000 87885.400000
120.080700 6812.700000
130.065100 12780.800000
132.080800 521368.300000
133.088600 1452301.300000
146.096400 9501.600000
148.112000 594268.600000
166.123400 7334.100000

