>compound EA81579236
>parentmass 209.02669999999992
>ionization [M+H]+
>formula C10H8O3S
>rt 312.000000
>profile orbitrap
#smiles_iso C1=CC=C2C=C(C=CC2=C1)S(=O)(=O)O
#smiles_can C1=CC=C2C=C(C=CC2=C1)S(=O)(=O)O
#inchikey KVBGVZZKJNLNJU-UHFFFAOYSA-N
#pubchem_id 8420
#mb_accession EA065302,EA065303,EA065304,EA065305,EA065306,EA065307,EA065308,EA065309,EA065310,EA065311,EA065312,EA065313

>ms2peaks
128.062000 89377.900000
145.065200 2839.200000
191.016400 6861.700000
209.026700 163959.800000

>ms2peaks
103.054100 11317.200000
127.054100 2536.100000
128.062000 1056430.500000
129.069500 2695.200000
145.064800 21256.900000
155.060300 67669.500000
191.016000 13475.300000
209.026600 100500.300000

>ms2peaks
103.054200 17099.000000
127.054400 2383.400000
128.062000 955999.600000
144.056400 2430.300000
145.065000 18453.400000
155.060400 107688.700000
195.990400 2822.300000
209.027500 3595.900000

>ms2peaks
103.054300 29431.500000
127.054000 8197.400000
128.062000 996348.300000
144.056400 4254.300000
145.064900 29743.500000
155.060300 176330.000000

>ms2peaks
103.054100 28502.400000
127.054100 24103.000000
128.062000 687157.400000
144.056900 5264.700000
145.064900 22448.800000
155.060300 168876.000000
195.990400 3431.200000

>ms2peaks
102.046100 2600.900000
103.054200 23394.700000
115.054500 6431.800000
116.062400 2925.300000
126.046600 10762.200000
127.054200 63402.000000
128.062000 640642.900000
145.064800 21737.400000
155.060300 162168.700000

>ms2peaks
128.062000 72504.800000
155.059900 4130.100000
191.015900 3277.800000
195.990900 2102.500000
209.026500 122000.800000

>ms2peaks
103.054100 4575.000000
128.061900 681599.800000
145.064600 10387.100000
155.060200 44504.700000
191.016000 9900.200000
209.026500 61092.100000

>ms2peaks
103.054200 10041.600000
127.054000 1795.900000
128.061900 653591.800000
145.064700 10837.100000
155.060200 74845.700000

>ms2peaks
103.054100 12434.300000
127.053900 2329.600000
128.061900 500623.700000
144.056500 3221.700000
145.064600 12554.800000
155.060200 86868.200000

>ms2peaks
103.054200 12395.300000
116.062100 1583.100000
127.054200 14186.100000
128.062000 375578.400000
144.057200 4082.600000
145.064800 12352.100000
155.060300 86116.400000
195.989800 2513.700000

>ms2peaks
102.046000 1621.300000
103.054100 9457.800000
115.054100 4309.700000
126.046200 4223.500000
127.054200 29877.300000
128.061900 318058.200000
145.064600 12409.200000
155.060200 80355.500000

