>compound EA81443891
>parentmass 230.1167
>ionization [M+H]+
>formula C9H16ClN5
>rt 606.000000
>profile orbitrap
#smiles_iso CCNC1=NC(=NC(=N1)Cl)NC(C)(C)C
#smiles_can CCNC1=NC(=NC(=N1)Cl)NC(C)(C)C
#inchikey FZXISNSWEXTPMF-UHFFFAOYSA-N
#pubchem_id 22206
#mb_accession EA028402,EA028403,EA028404,EA028405,EA028406,EA028407,EA028408,EA028409,EA028410,EA028411,EA028412,EA028413

>ms2
230.116900 20560093.000000

>ms2
79.006000 29828.700000
174.054300 11966714.100000
230.116700 12185736.800000

>ms2
57.069800 48550.500000
68.024400 148347.900000
79.005800 262997.800000
96.055700 208312.500000
104.001100 116133.100000
132.032400 339960.700000
138.077700 84878.300000
146.023000 410317.400000
174.054400 18399458.400000
230.117100 1633870.400000

>ms2
57.069800 57896.900000
61.978900 58180.100000
68.024300 937407.800000
71.060400 225060.100000
79.005800 1072018.800000
90.010700 47072.800000
96.055600 1092495.600000
104.001000 885590.500000
110.046000 96277.500000
132.032400 1597347.200000
138.077500 424217.000000
146.022800 1486129.500000
174.054200 11855104.200000

>ms2
57.069800 69219.300000
61.979200 122307.100000
68.024300 2057777.900000
71.060400 558035.200000
79.005800 1499087.700000
90.010500 57341.600000
96.055700 1706687.800000
104.001100 2119825.200000
110.046100 149966.600000
128.056300 21699.800000
132.032400 1666480.700000
138.077500 509757.600000
146.022900 1550139.300000
174.054100 3938583.500000

>ms2
57.069900 78106.900000
61.979200 233984.500000
68.024400 2646755.200000
71.060400 606245.400000
79.005800 1289091.600000
90.010600 46729.200000
96.055600 1137867.200000
104.001100 2605629.400000
110.046200 177168.400000
132.032400 870529.700000
138.077500 279562.700000
146.022800 771385.400000
174.054400 782233.800000

>ms2
174.054200 1240704.500000
230.116800 17928016.900000

>ms2
132.031900 14917.800000
146.023000 12976.100000
174.054300 10102073.300000
230.116800 10701838.300000

>ms2
57.069800 30009.200000
68.024300 118270.000000
71.060400 20587.200000
79.005800 220264.700000
96.055600 167809.200000
104.001100 104800.400000
132.032300 294228.600000
138.077500 67087.500000
146.022900 337633.900000
174.054200 15775553.500000
230.116700 1287207.300000

>ms2
57.069900 43514.000000
61.979100 27484.700000
68.024400 754321.900000
71.060400 202758.400000
79.005800 935203.000000
90.010500 29976.800000
96.055700 914230.600000
104.001100 764241.300000
110.046100 69352.600000
132.032400 1286844.900000
138.077400 357348.400000
146.022900 1224883.200000
174.054300 9921315.500000
230.116500 48440.100000

>ms2
57.069900 62421.700000
61.979200 77765.400000
68.024400 1560595.200000
71.060400 452182.000000
79.005800 1139470.900000
90.010600 38519.200000
96.055700 1213949.800000
104.001100 1691984.200000
110.046200 143961.200000
128.056600 20640.200000
132.032400 1328464.400000
138.077500 393942.700000
146.022900 1183814.400000
172.038700 15625.500000
174.054200 3164365.800000

>ms2
57.069800 59657.600000
61.979200 95653.900000
68.024300 1910118.200000
71.060400 437918.600000
79.005800 976416.500000
90.010600 32526.200000
96.055600 889713.800000
104.001000 2078978.400000
110.046100 135771.800000
128.056800 9051.300000
132.032300 651858.300000
138.077400 173234.600000
146.022800 585098.400000
172.038500 9387.400000
174.054000 536852.700000

