>compound EA82440676
>parentmass 296.02399999999994
>ionization [M+H]+
>formula C14H11Cl2NO2
>rt 768.000000
>profile orbitrap
#smiles_iso C1=CC=C(C(=C1)CC(=O)O)NC2=C(C=CC=C2Cl)Cl
#smiles_can C1=CC=C(C(=C1)CC(=O)O)NC2=C(C=CC=C2Cl)Cl
#inchikey DCOPUUMXTXDBNB-UHFFFAOYSA-N
#pubchem_id 3033
#mb_accession EA020102,EA020103,EA020104,EA020105,EA020106,EA020107,EA020108,EA020109,EA020110,EA020111,EA020112,EA020113

>ms2peaks
214.042200 19464.200000
215.049700 133875.400000
250.018500 181307.500000
278.013500 235408.300000
296.024000 299353.200000

>ms2peaks
214.041700 86569.600000
215.049600 667128.500000
250.018300 228105.100000
278.012800 23494.900000

>ms2peaks
214.041900 303083.100000
215.049800 728273.600000
250.018300 24240.900000

>ms2peaks
180.080500 17084.300000
214.042000 830029.200000
215.049600 234490.500000

>ms2peaks
179.073000 5477.100000
180.080700 25504.700000
214.041900 1051900.400000
215.049300 23433.600000

>ms2peaks
151.054100 4065.300000
178.064900 37097.400000
179.072900 38941.500000
180.080500 27549.300000
214.041900 988474.100000

>ms2peaks
215.049600 134058.000000
250.018400 197546.900000
278.013200 244275.600000
296.023900 309469.700000

>ms2peaks
214.041700 82427.100000
215.049800 651310.500000
250.018400 240103.300000
278.013200 23658.200000
296.023800 8686.400000

>ms2peaks
180.080600 4217.900000
214.041800 259725.700000
215.049700 645132.400000
250.018500 22975.200000

>ms2peaks
180.080700 12001.500000
214.041800 687980.300000
215.049400 194146.100000

>ms2peaks
178.065900 2769.500000
179.072100 5073.000000
180.080600 19207.100000
214.041800 817060.200000
215.049800 18555.300000

>ms2peaks
151.054100 3223.600000
178.065000 22906.800000
179.072800 20846.400000
180.080700 15754.500000
214.041800 694595.300000
215.050400 2484.100000

