>compound EA82204661
>parentmass 821.8876
>ionization [M+H]+
>formula C19H26I3N3O9
>rt 96.000000
>profile orbitrap
#smiles_iso CC(=O)N(CC(CO)O)C1=C(C(=C(C(=C1I)C(=O)NCC(CO)O)I)C(=O)NCC(CO)O)I
#smiles_can CC(=O)N(CC(CO)O)C1=C(C(=C(C(=C1I)C(=O)NCC(CO)O)I)C(=O)NCC(CO)O)I
#inchikey NTHXOOBQLCIOLC-UHFFFAOYSA-N
#pubchem_id 3730
#mb_accession EA023102,EA023103,EA023104,EA023105,EA023106,EA023108,EA023109,EA023110,EA023111,EA023112

>ms2
293.915900 8501.700000
526.069400 3446.800000
602.913000 9808.000000
803.874700 24557.100000
821.885200 11101.100000

>ms2
293.976700 1829.100000
321.108500 11493.600000
357.958200 6938.300000
362.982700 3776.700000
374.983500 49287.100000
431.009500 13456.400000
435.003600 6682.200000
449.020200 39146.800000
451.827400 9998.700000
500.882500 12437.300000
528.874300 15932.000000
542.890100 8430.800000
591.946100 4350.300000
626.775800 3893.500000

>ms2
175.025800 4211.200000
193.037600 3420.600000
257.942100 2587.600000
275.950700 4719.000000
285.936300 3784.600000
301.930600 31709.900000
321.108800 7706.200000
357.956300 13976.800000
362.982700 3740.700000
374.983400 55438.200000
411.834500 3417.000000
413.814800 4137.500000
449.022000 4391.300000
451.828100 9198.300000
500.879900 20489.900000
528.875900 5224.500000

>ms2
119.036400 2633.500000
132.044200 2880.000000
142.029300 2988.500000
145.039200 2557.300000
147.031000 4640.300000
158.023500 4341.200000
175.027200 4999.400000
176.034500 2784.900000
257.940900 17151.500000
270.935500 4172.500000
273.935400 24122.300000
275.952300 3495.500000
285.935500 3003.500000
297.935900 2849.900000
301.930800 25092.800000
319.939500 2841.600000
325.948900 2803.600000
374.984300 5501.600000
398.848400 3061.300000

>ms2
114.033400 2882.900000
132.044900 2763.400000
142.028900 4302.700000
145.039500 6605.300000
175.026200 2755.300000
193.036000 2867.300000
228.938200 3243.100000
257.941300 14452.400000
273.935700 16949.600000
293.929600 7164.900000
301.931000 7704.200000
325.947700 2764.700000

>ms2
293.940700 5943.300000
293.977600 3219.900000
492.991200 1691.300000
602.912700 6277.900000
652.971500 6889.900000
803.877800 25662.900000
821.888100 8650.100000

>ms2
325.946600 3350.000000
357.955500 2929.200000
362.983300 2179.800000
374.983300 32242.600000
431.010300 7993.300000
435.003800 5465.600000
449.019900 23046.300000
451.827300 5002.000000
466.044100 2867.300000
500.879900 9092.000000
528.874600 8279.500000
542.891600 7498.800000
591.945900 3445.800000
602.914600 3724.500000
626.776500 1998.200000

>ms2
257.942100 2101.100000
273.934900 5094.400000
275.950800 1894.300000
293.918500 7393.000000
297.935000 2282.900000
301.930800 18032.600000
319.940100 3797.800000
321.108800 4364.500000
357.956400 7307.000000
362.985100 3960.500000
374.983200 31250.300000
411.833600 1588.800000
413.813700 2485.900000
449.020600 2121.300000
451.827400 4132.500000
500.879600 11560.900000
528.873900 4138.000000
626.779100 2243.000000

>ms2
114.034200 1647.500000
142.028600 2195.900000
158.023500 2404.800000
175.026300 2722.600000
176.034000 2274.900000
257.940700 9156.200000
270.937300 2220.800000
273.935500 14372.000000
293.928700 7715.300000
301.930700 14079.200000
325.955800 2386.300000
374.983200 3037.900000
398.849200 2498.400000
492.990300 1482.100000

>ms2
119.036100 1977.000000
132.044500 2193.000000
147.031500 5324.600000
176.034600 1792.300000
228.938600 2647.900000
257.941100 7188.100000
270.936600 2730.900000
273.935700 7625.200000
275.950900 1793.400000
301.929600 4045.000000
325.956200 1951.100000

