>compound EA82296077
>parentmass 272.1644999999999
>ionization [M+H]+
>formula C17H21NO2
>rt 702.000000
>profile orbitrap
#smiles_iso CCN(CC)C(=O)C(C)OC1=CC=CC2=CC=CC=C21
#smiles_can CCN(CC)C(=O)C(C)OC1=CC=CC2=CC=CC=C21
#inchikey WXZVAROIGSFCFJ-UHFFFAOYSA-N
#pubchem_id 27189
#mb_accession EA012002,EA012003,EA012004,EA012005,EA012006,EA012007,EA012008,EA012009,EA012010,EA012011,EA012012,EA012013

>ms2
58.064900 18444.700000
72.080800 125585.800000
74.096400 395742.400000
100.075600 15600.900000
100.112000 27266.000000
114.091300 71742.700000
128.107000 139594.500000
129.114700 172408.000000
171.080500 156114.200000
199.075500 640211.100000
272.164600 6620981.100000

>ms2
57.033500 14391.400000
58.065100 288585.600000
72.080800 568611.800000
74.096500 579923.900000
86.060000 9030.800000
100.075700 196868.500000
100.112200 108742.500000
101.083500 60539.500000
114.091400 696258.800000
128.107000 277276.800000
129.114900 1568585.500000
171.080500 1343127.400000
199.075300 1275180.900000
272.163800 686872.000000

>ms2
57.033500 20556.000000
58.065100 737751.100000
72.044400 51086.000000
72.080800 521701.800000
73.088600 6940.300000
74.096500 249274.800000
86.060100 29471.700000
100.075700 220613.800000
100.112200 155461.100000
101.083600 129706.700000
114.091400 484218.300000
128.107000 199606.600000
129.114900 1110336.600000
143.085300 64292.300000
144.056800 19779.300000
153.069600 23019.400000
171.080600 1650698.500000
199.075400 182130.900000

>ms2
57.033400 29078.200000
58.065100 790536.900000
72.044400 92395.500000
72.080800 449200.100000
74.096500 153578.100000
86.060100 37073.600000
100.075700 167417.900000
100.112100 179183.200000
101.083500 148056.700000
114.091400 141708.500000
128.062100 80843.500000
128.107000 102161.500000
129.070000 24134.700000
129.114900 273408.400000
143.085500 263227.900000
144.057100 32361.800000
145.064800 13454.500000
153.069900 102561.300000
155.060200 36145.700000
171.080500 946035.000000
181.075900 34126.300000

>ms2
57.033400 35103.900000
58.065100 520996.600000
72.044300 74539.700000
72.080800 402083.700000
74.096400 101088.000000
86.060000 26703.300000
100.075600 116128.400000
100.112000 173759.200000
101.083400 61382.500000
114.091300 41145.600000
115.054200 27423.100000
116.061900 5609.500000
128.062000 235741.100000
128.106800 27404.000000
129.070000 27800.000000
129.114700 33963.600000
141.070300 17834.500000
143.048600 17482.500000
143.085500 226828.600000
144.057100 32454.100000
145.064200 14278.000000
152.061900 41105.300000
153.070000 157303.100000
155.060500 78676.500000
171.080400 276359.800000
181.076100 45153.700000

>ms2
55.017700 12757.100000
57.033400 33161.500000
58.065100 356934.700000
72.044300 46895.700000
72.080700 265430.300000
74.096400 64893.400000
86.060100 9975.400000
100.075700 41267.300000
100.112100 112914.500000
101.083600 25259.700000
114.091300 21553.200000
115.054100 52774.400000
116.062100 19316.100000
127.054200 7860.700000
128.062000 334996.000000
129.069400 19403.400000
141.069900 15435.800000
142.077800 8602.700000
143.085400 87228.200000
144.056800 27643.900000
145.065300 6627.000000
151.054000 12199.300000
152.061900 127023.400000
153.069700 120578.400000
155.060300 140365.900000
171.080300 59235.000000
181.075900 22547.800000

>ms2
58.065100 14744.000000
72.080700 101959.700000
74.096400 274326.300000
100.075400 9444.300000
100.111900 19440.400000
114.091400 30541.900000
128.106900 90834.900000
129.114700 133099.900000
171.080300 105540.100000
199.075300 441856.000000
272.164500 4581617.800000

>ms2
57.033400 7271.600000
58.065100 184386.400000
72.080800 401240.000000
73.088600 3527.600000
74.096500 431972.100000
86.060000 7493.100000
100.075700 121513.500000
100.112100 79123.000000
101.083500 41631.200000
114.091400 489102.900000
128.107000 180694.100000
129.114800 1099606.100000
143.086000 6009.200000
153.070200 5175.700000
171.080500 977068.100000
199.075500 886130.300000
272.165000 561822.100000

>ms2
57.033400 15737.300000
58.065100 511579.700000
72.044400 34577.300000
72.080800 367523.200000
74.096400 166980.000000
86.060000 19401.900000
100.075700 128908.400000
100.112000 103916.800000
101.083400 97180.600000
114.091300 362631.000000
128.106900 137178.800000
129.114800 810237.200000
143.085400 51623.300000
144.057000 9020.000000
153.069900 18790.200000
171.080500 1156205.600000
199.075300 108480.400000

>ms2
57.033400 16674.100000
58.065100 497080.300000
72.044400 53289.100000
72.080800 300995.600000
74.096400 105269.700000
86.060100 21423.800000
100.075700 109316.700000
100.112100 113902.700000
101.083500 97251.400000
114.091400 86873.200000
115.054500 3862.200000
128.062100 47396.100000
128.107000 61792.700000
129.069800 13996.300000
129.114800 186414.300000
143.085500 181660.400000
144.057000 19895.200000
145.064900 6694.500000
152.061600 4110.400000
153.069900 79741.900000
155.060500 21300.000000
171.080500 648329.700000
181.075900 18494.600000

>ms2
55.017800 5345.500000
57.033400 23246.700000
58.065100 342980.900000
72.044400 42295.300000
72.080800 242010.800000
74.096400 67261.700000
86.060000 16794.700000
100.075700 71510.800000
100.112100 100379.900000
101.083500 51045.000000
103.054100 3583.500000
114.091300 29653.000000
115.054200 14334.500000
116.062000 3808.900000
117.069800 3731.800000
128.062000 147626.000000
128.107000 23435.700000
129.069900 20480.300000
129.114800 29111.800000
141.070100 4208.800000
143.085500 149476.100000
144.056900 18672.400000
145.064800 7085.700000
152.062000 32155.000000
153.069900 100812.800000
155.060400 53322.200000
169.064700 3852.800000
170.072100 4210.800000
171.080400 195047.500000
181.075800 25957.400000

>ms2
55.017800 5083.100000
57.033500 17844.000000
58.065100 239382.100000
72.044400 23858.000000
72.080800 181014.700000
74.096500 33093.200000
86.060100 9215.700000
100.075700 29935.300000
100.112100 71061.500000
101.083500 11721.800000
103.054300 2845.900000
114.091300 16300.700000
115.054200 25340.600000
116.062000 8056.700000
117.069900 2555.900000
127.054100 8140.100000
128.062100 217375.300000
129.069800 7620.100000
129.115400 2911.200000
141.069900 7611.700000
142.077800 3042.500000
143.049100 3360.000000
143.085500 53823.900000
144.057000 16409.300000
145.064800 9529.200000
151.054300 4788.800000
152.062100 84668.000000
153.069900 64260.300000
155.060400 80047.200000
169.065200 3350.300000
170.072800 4132.500000
171.080500 26201.000000
181.076100 17658.700000

