>compound EA82104508
>parentmass 436.94599999999997
>ionization [M+H]+
>formula C12H4Cl2F6N4OS
>rt 756.000000
>profile orbitrap
#smiles_iso C1=C(C=C(C(=C1Cl)N2C(=C(C(=N2)C#N)S(=O)C(F)(F)F)N)Cl)C(F)(F)F
#smiles_can C1=C(C=C(C(=C1Cl)N2C(=C(C(=N2)C#N)S(=O)C(F)(F)F)N)Cl)C(F)(F)F
#inchikey ZOCSXAVNDGMNBV-UHFFFAOYSA-N
#pubchem_id 3352
#mb_accession EA266602,EA266603,EA266604,EA266605,EA266606,EA266607,EA266608,EA266609,EA266610,EA266611,EA266612,EA266613

>ms2
367.950100 38985.200000
436.944300 42775.500000

>ms2
254.968400 7296.500000
289.976500 12230.427950
367.950200 84410.000000

>ms2
221.009200 11230.300000
254.969700 26133.700000
262.963800 4506.500000
280.975400 6813.200000
289.975500 19462.300000
367.950200 6913.300000

>ms2
221.008700 16298.000000
239.958900 6484.200000
249.004000 2881.000000
254.969600 22846.000000
262.965700 10384.200000
270.922200 3537.000000
289.975000 4419.900000

>ms2
221.008600 11553.200000
227.958700 5645.900000
239.959100 7934.100000
249.004100 5466.700000
254.967900 7723.100000
262.965100 6882.300000

>ms2
185.031700 6758.400000
212.947300 6388.700000
221.008700 3173.800000
239.957900 8652.600000

>ms2
367.950300 19338.400000
436.944700 27936.900000

>ms2
254.969700 5852.200000
289.975100 7051.500000
332.982200 2919.600000
367.950100 46816.800000

>ms2
254.969700 16772.200000
270.922400 2668.200000
280.975800 4561.300000
289.975600 10042.568620
332.981900 2714.400000
367.949900 3428.300000

>ms2
221.008900 6925.300000
239.958400 3852.000000
254.969700 12833.600000
262.965400 2870.100000
280.975500 2746.100000

>ms2
239.959800 3191.800000
254.970300 3852.800000
262.963800 3110.700000

>ms2
185.032100 2204.500000
212.947700 2716.600000
227.958800 1762.400000
239.958000 1571.800000

