>compound EA82511536
>parentmass 197.08400000000003
>ionization [M+H]+
>formula C10H13ClN2
>rt 312.000000
>profile orbitrap
#smiles_iso C1CN(CCN1)C2=CC(=CC=C2)Cl
#smiles_can C1CN(CCN1)C2=CC(=CC=C2)Cl
#inchikey VHFVKMTVMIZMIK-UHFFFAOYSA-N
#pubchem_id 1355
#mb_accession EA281802,EA281803,EA281804,EA281805,EA281806,EA281807,EA281808,EA281809,EA281810,EA281811,EA281812,EA281813

>ms2
197.084400 10682202.600000

>ms2
119.073000 30797.200000
154.042000 277975.200000
195.068000 28463.800000
197.084300 11575221.100000

>ms2
70.065200 36182.200000
118.065100 39699.900000
119.073100 347412.700000
140.026500 27461.800000
145.088400 16383.400000
152.026700 43839.100000
154.042000 2366028.000000
180.057500 86603.100000
195.068400 245364.800000
197.084300 7629029.000000

>ms2
58.065000 12853.600000
70.065300 82041.000000
117.056900 23313.200000
118.065100 217839.100000
119.073000 1091321.300000
130.064600 9953.900000
138.010700 28250.900000
140.026100 104296.800000
144.081200 19547.100000
145.088500 63962.700000
152.026100 60460.400000
154.041900 4369884.500000
166.042100 45901.700000
167.036400 11536.400000
168.045100 18276.500000
168.058000 23352.400000
180.057500 113417.900000
195.068500 371381.000000
197.084300 2755836.900000

>ms2
70.065200 105164.700000
77.038700 15634.500000
91.054500 52072.700000
92.062400 25689.300000
104.049600 50587.000000
110.999900 16783.100000
117.057700 52611.000000
118.065200 839213.200000
119.073100 1802324.100000
120.080400 25810.800000
126.010400 14179.100000
130.065300 35346.400000
132.081400 16856.700000
138.010600 57519.800000
139.005500 18134.700000
140.026300 215477.200000
144.081000 26427.600000
145.088800 53197.800000
152.026300 40798.500000
154.042000 3831807.600000
166.041800 100732.600000
167.037200 26681.700000
168.058000 19116.800000
180.057900 47753.500000
195.068500 180648.400000
197.084000 396301.200000

>ms2
56.049500 16962.500000
58.065200 19004.100000
70.065100 62094.000000
77.038600 40851.200000
91.054200 139815.700000
92.062100 67967.600000
98.999700 16325.300000
104.049400 148279.400000
105.044500 12260.100000
110.999600 37036.600000
112.007400 54440.400000
113.015600 13193.900000
117.057400 97768.400000
118.065200 1789620.500000
119.072900 1735517.600000
120.080700 17239.600000
126.010500 42081.600000
127.018300 36542.300000
130.065100 39857.500000
132.081300 14626.300000
138.010500 85711.800000
139.005700 90138.500000
140.026100 276773.300000
144.080500 41968.500000
145.088600 25498.700000
152.026000 39776.400000
154.041700 1963013.800000
160.099400 13424.500000
166.041600 76951.000000
180.058100 9640.700000
195.068600 27977.800000

>ms2
154.041300 23452.900000
197.084200 8622860.400000

>ms2
119.072900 23177.400000
154.042000 237621.700000
195.068500 29278.900000
197.084200 8823647.900000

>ms2
70.065100 32884.200000
118.065000 29303.300000
119.073000 258875.600000
140.026000 16107.000000
145.088700 14057.100000
152.026100 32741.500000
154.041900 1840177.200000
168.057900 7712.500000
180.057500 69767.900000
195.068500 207907.000000
197.084200 5870663.400000

>ms2
58.065100 9290.600000
70.065200 62386.100000
91.054100 6123.400000
117.057200 15248.400000
118.065100 167868.600000
119.073000 797221.600000
120.080800 9055.500000
130.064900 5238.100000
138.010400 12136.800000
140.026100 77313.900000
144.081100 17488.300000
145.088600 39087.500000
151.018600 4983.500000
152.026100 38858.900000
154.041900 3025903.200000
160.099700 5489.500000
162.115100 5469.300000
166.041800 33074.900000
167.037100 9058.300000
168.044500 7661.100000
168.057300 14910.600000
180.057500 87317.400000
195.068400 262327.100000
197.084200 1911348.100000

>ms2
56.049400 9245.500000
58.065100 14890.600000
70.065200 63295.500000
91.054200 41869.900000
92.062000 22041.400000
104.049400 47196.600000
110.999200 9064.900000
112.007300 11987.400000
117.057300 53706.900000
118.065200 578974.700000
119.073000 1242146.600000
120.081000 12253.900000
126.010500 16543.400000
127.018100 8474.600000
130.065200 21820.600000
132.080800 7343.600000
138.010500 35927.400000
139.005800 11504.800000
140.026200 154750.000000
144.080800 28157.200000
145.088600 28797.300000
152.026100 31243.200000
154.041900 2611017.000000
160.099400 9860.000000
166.041800 63155.700000
167.037100 11070.600000
168.044500 6091.400000
168.057200 13366.400000
178.042000 5825.100000
180.057600 28848.700000
195.068500 108439.900000
197.083700 279108.100000

>ms2
56.049500 6806.000000
58.065100 10651.500000
70.065100 35699.300000
77.038600 26104.100000
91.054200 76555.000000
92.062000 41855.500000
98.999500 8074.600000
104.049500 101248.200000
105.044600 3202.400000
110.999700 19056.600000
112.007500 28524.800000
113.015200 4453.000000
117.057300 76428.200000
118.065200 1139156.800000
119.073000 1117672.900000
120.080800 17898.800000
126.010500 27681.100000
127.018300 19536.500000
130.065100 20560.600000
132.080800 7269.300000
138.010500 51288.800000
139.005800 68328.500000
140.026200 165018.100000
144.080800 27126.600000
145.088600 10458.500000
151.018500 3888.700000
152.026100 17756.600000
154.041900 1321743.100000
160.099900 6613.700000
166.041800 53782.700000
167.037000 5298.200000
168.045200 5692.100000
168.057400 6702.800000
178.042100 4572.200000
180.057000 5940.900000
195.068500 16056.400000
197.084100 20629.900000

