>compound EA83428817
>parentmass 189.98209999999997
>ionization [M+H]+
>formula C7H5Cl2NO
>rt 240.000000
>profile orbitrap
#smiles_iso C1=CC(=C(C(=C1)Cl)C(=O)N)Cl
#smiles_can C1=CC(=C(C(=C1)Cl)C(=O)N)Cl
#inchikey JHSPCUHPSIUQRB-UHFFFAOYSA-N
#pubchem_id 16183
#mb_accession EA008502,EA008503,EA008504,EA008505,EA008506,EA008507,EA008508,EA008509,EA008510,EA008511,EA008512,EA008513

>ms2
172.955100 106456.400000
189.982000 6196671.800000

>ms2
143.952300 6205.900000
146.976600 17434.100000
171.971300 36292.300000
172.955400 1051629.400000
189.982100 5843812.800000

>ms2
108.984100 10157.900000
146.976400 58192.000000
171.971500 164102.200000
172.955500 3963649.200000
189.982100 3086511.500000

>ms2
84.983700 10835.900000
90.033800 7035.100000
139.005900 28605.600000
146.976300 40575.100000
154.006000 10628.900000
164.000800 37750.800000
171.971500 274829.400000
172.955600 4676477.900000
189.981900 684846.400000

>ms2
84.983700 37857.100000
86.963000 19686.500000
90.033600 30985.800000
108.983800 69095.300000
110.999300 9105.800000
118.029000 15569.200000
120.960600 23979.700000
126.994500 15556.500000
128.002000 9765.000000
139.005500 42912.900000
144.960400 63787.900000
146.975900 10602.500000
154.004700 8569.300000
162.971300 14152.500000
164.000700 156436.300000
171.971400 242854.200000
172.955900 3854104.300000
189.982200 114956.700000

>ms2
62.963200 5105.800000
63.022800 42778.900000
74.015000 36403.200000
75.022800 12503.400000
84.983900 61717.500000
86.963200 116653.900000
90.033800 43238.700000
99.000000 10203.400000
100.018100 52364.300000
108.983800 461337.300000
109.991200 9163.300000
110.999700 12143.100000
112.978600 10500.400000
118.028400 29723.000000
120.960400 32743.200000
126.994200 25364.100000
128.002400 19792.600000
135.994500 40235.800000
139.005600 34089.300000
144.960400 209228.600000
146.976600 7044.200000
154.004700 12537.000000
162.971000 37649.200000
164.000900 237863.900000
171.971400 128202.300000
189.981700 11464.900000

>ms2
172.954800 97007.300000
189.981900 5182637.800000

>ms2
146.976100 17343.800000
171.971300 16774.600000
172.955500 771496.100000
189.982000 4625241.400000

>ms2
139.005600 3751.000000
146.976100 45220.200000
171.971400 127587.000000
172.955500 2755214.200000
189.982000 2277623.200000

>ms2
84.983900 6070.000000
108.983500 8342.400000
139.005600 20209.600000
144.959900 14810.200000
146.976200 34478.200000
154.005200 10781.400000
164.000800 34997.700000
171.971400 203607.500000
172.955500 3626784.700000
172.965900 207995.000000
189.981900 514172.400000

>ms2
63.022900 6810.800000
74.014800 3745.100000
84.960200 3033.400000
84.983900 21954.300000
86.963100 10711.900000
90.033800 15854.400000
100.018000 5344.900000
108.983800 45277.100000
112.978700 5943.500000
118.028400 4631.400000
120.960600 13475.000000
126.994500 7406.800000
128.002400 7857.600000
135.994900 4851.800000
139.005600 30489.800000
144.960400 43925.900000
146.976100 13198.100000
154.005100 6786.400000
155.000700 3999.700000
162.970800 11762.900000
164.000900 113700.900000
171.971500 157452.400000
172.955500 2593502.900000
172.966600 883810.000000
173.963500 8095.800000
189.981900 56487.400000

>ms2
62.963100 2258.900000
63.022800 21788.900000
74.015100 16480.600000
75.022900 3925.400000
84.983900 37744.700000
86.963200 76760.200000
90.033700 30897.800000
98.999500 6958.700000
100.018100 35028.000000
108.983900 297445.000000
109.991900 4703.500000
110.999500 4152.400000
112.978800 8690.900000
118.028700 15373.000000
120.960500 21333.900000
126.994400 15927.000000
128.002200 11417.300000
135.994700 20287.700000
139.005600 26593.400000
143.952400 1679.400000
144.960500 128415.000000
154.005100 2701.000000
155.000500 9698.000000
162.971100 20863.600000
164.000900 155614.300000
171.971400 79249.000000
172.955500 1185051.000000
172.966600 1421395.700000
173.963600 10431.900000
189.981900 5546.500000

