>compound EA83231254
>parentmass 120.05559999999998
>ionization [M+H]+
>formula C6H5N3
>rt 264.000000
>profile orbitrap
#smiles_iso C1=CC2=NNN=C2C=C1
#smiles_can C1=CC2=NNN=C2C=C1
#inchikey QRUDEWIWKLJBPS-UHFFFAOYSA-N
#pubchem_id 7220
#mb_accession EA016602,EA016603,EA016604,EA016605,EA016606,EA016607,EA016608,EA016609,EA016610,EA016611,EA016612,EA016613

>ms2
120.055700 4816780.800000

>ms2
65.038600 49799.600000
92.049500 24491.100000
120.055600 17297789.600000

>ms2
65.038500 111174.600000
92.049500 138434.800000
120.055600 19087986.600000

>ms2
65.038500 649750.500000
92.049400 856870.500000
120.055600 17915726.200000

>ms2
65.038500 2196222.200000
92.049400 1904860.400000
120.055600 14459499.400000

>ms2
65.038600 4082366.700000
66.033900 37385.200000
92.049500 2314739.600000
120.055600 9505856.200000

>ms2
92.049800 20293.500000
120.055600 4423862.800000

>ms2
65.038400 26876.600000
92.049700 31323.400000
120.055600 15727444.800000

>ms2
65.038500 124029.700000
92.049400 116404.100000
120.055600 16277782.700000

>ms2
65.038500 543439.600000
92.049400 778665.600000
120.055500 14543206.700000

>ms2
65.038500 1813683.800000
66.033600 14983.200000
92.049400 1515236.100000
120.055500 10999779.900000

>ms2
65.038600 3025288.200000
66.033800 26219.200000
92.049500 1657395.700000
120.055500 7116586.500000

