>compound EA83538262
>parentmass 226.08739999999992
>ionization [M+H]+
>formula C11H12FNO3
>rt 372.000000
>profile orbitrap
#smiles_iso CC(C)N(C1=CC=C(C=C1)F)C(=O)C(=O)O
#smiles_can CC(C)N(C1=CC=C(C=C1)F)C(=O)C(=O)O
#inchikey FFKNXXCOXIZLJD-UHFFFAOYSA-N
#pubchem_id 16212222
#mb_accession EA066402,EA066403,EA066404,EA066405,EA066406,EA066407,EA066408,EA066409,EA066410,EA066411,EA066412,EA066413

>ms2
110.040100 412852.300000
138.035000 4320041.300000
180.082100 3870740.900000
184.040500 3985469.900000
226.087400 6183366.200000

>ms2
95.028700 30415.000000
110.040100 4656341.100000
122.040000 48144.500000
138.035100 11705323.800000
156.046000 28124.800000
180.082100 2218961.100000
184.040600 3179783.400000
226.087500 424955.600000

>ms2
83.029100 63944.900000
95.029400 15927.500000
110.040100 8083791.300000
122.040100 139946.900000
138.035000 10765046.100000
152.087700 21363.200000
156.046100 20041.400000
180.082100 181168.600000
184.040400 242183.600000

>ms2
83.029200 181624.800000
95.029200 18745.400000
110.040100 12013503.800000
112.056200 17564.000000
122.040100 168089.500000
123.035400 143898.900000
138.035100 4880446.800000
156.045400 16867.800000

>ms2
83.029200 518267.000000
95.028900 48061.500000
110.040100 14837993.100000
111.047600 22719.400000
112.055300 28566.500000
122.039900 98305.500000
123.035300 580624.400000
138.035000 1316178.600000

>ms2
57.013400 18641.000000
75.022900 30612.400000
83.029100 1633510.000000
95.029000 122176.500000
110.040000 12999960.100000
111.047900 46266.100000
112.055500 27239.500000
113.039700 70493.400000
122.040200 31474.300000
123.035300 1220238.900000
138.035000 211156.000000

>ms2
110.040100 437702.800000
138.035000 5648752.400000
180.082000 5326259.000000
184.040500 4900887.000000
226.087400 7961337.800000

>ms2
83.029300 19228.100000
110.040100 5678465.300000
122.039800 68778.200000
138.035000 13751033.200000
156.045800 22845.900000
180.082000 2756616.400000
184.040500 3612368.200000
226.087400 450251.800000

>ms2
83.029100 41668.700000
95.028700 16804.700000
110.040100 8901244.900000
122.040100 148720.400000
123.035700 13330.200000
138.035000 12094934.400000
152.087200 16891.100000
156.045500 17939.500000
180.081800 162517.700000
184.040500 292702.000000

>ms2
83.029200 178713.100000
110.040000 13900581.200000
112.055500 26979.400000
122.040000 180900.200000
123.035300 140299.200000
138.035000 5746344.600000

>ms2
83.029200 498756.100000
95.028900 42066.600000
110.040100 16166200.600000
112.055900 26584.100000
113.040000 22048.700000
122.040000 104358.000000
123.035400 614721.400000
138.035000 1452441.700000

>ms2
57.013400 19122.200000
75.023000 37669.100000
83.029200 1709274.300000
95.029200 126366.900000
110.040100 14319179.700000
111.048100 53405.100000
112.055700 17753.500000
113.039800 65810.500000
122.040000 37086.800000
123.035300 1316400.400000
138.035000 307031.200000

