>compound EA83549398
>parentmass 837.5318000000001
>ionization [M+H]+
>formula C41H76N2O15
>rt 606.000000
>profile orbitrap
#smiles_iso CC[C@@H]1[C@@]([C@@H]([C@H](/C(=N/OCOCCOC)/[C@@H](C[C@@]([C@@H]([C@H]([C@@H]([C@H](C(=O)O1)C)O[C@H]2C[C@@]([C@H]([C@@H](O2)C)O)(C)OC)C)O[C@H]3[C@@H]([C@H](C[C@H](O3)C)N(C)C)O)(C)O)C)C)O)(C)O
#smiles_can CCC1C(C(C(C(=NOCOCCOC)C(CC(C(C(C(C(C(=O)O1)C)OC2CC(C(C(O2)C)O)(C)OC)C)OC3C(C(CC(O3)C)N(C)C)O)(C)O)C)C)O)(C)O
#inchikey RXZBMPWDPOLZGW-XMRMVWPWSA-N
#pubchem_id 6915744
#mb_accession EA019202,EA019203,EA019204,EA019205,EA019206,EA019207,EA019208,EA019209,EA019210,EA019211,EA019212,EA019213

>ms2peaks
116.106700 5693.600000
158.117200 25246.700000
679.435600 36765.800000
837.528700 18751.200000

>ms2peaks
72.080700 10220.200000
83.049100 52840.300000
98.096300 12837.900000
113.059300 9713.200000
116.070500 20865.700000
116.106900 44835.900000
158.117500 171451.300000

>ms2peaks
72.080800 16227.200000
83.049100 59550.900000
88.075500 6036.400000
98.096400 22002.300000
116.070400 21720.000000
116.106800 34955.000000
158.117400 55493.700000

>ms2peaks
72.080700 24834.100000
83.049100 55756.400000
88.075400 5785.800000
98.096300 14336.600000
116.070500 11126.500000
116.107000 13822.600000
158.117900 10683.500000
430.268300 3503.500000

>ms2peaks
72.080700 24341.600000
83.049100 39127.800000
88.075300 4146.800000
98.096500 7928.200000
116.106400 4923.300000

>ms2peaks
72.080700 16327.000000
83.049000 16762.500000
98.096400 7258.500000

>ms2peaks
158.117300 13920.500000
679.436100 17600.800000
837.534800 6780.000000

>ms2peaks
72.080800 3848.700000
83.049000 23622.600000
98.096200 9235.500000
113.059600 7228.000000
116.070500 11108.900000
116.106800 20240.600000
158.117300 78415.600000

>ms2peaks
72.080700 7667.500000
83.049100 25902.700000
88.075600 4502.100000
98.096300 8430.700000
113.059500 3289.100000
116.070600 10681.700000
116.106800 17113.100000
158.117400 31509.100000
530.222300 2114.800000

>ms2peaks
72.080700 8816.400000
83.049000 26883.800000
88.075500 3080.000000
98.096200 6622.300000
116.070300 5157.100000
116.106900 7526.900000
158.117200 3346.100000

>ms2peaks
72.080700 9722.500000
83.049000 18271.000000
98.096300 6490.000000
116.106600 1980.800000

>ms2peaks
72.080700 8064.200000
83.049100 10442.700000
98.096200 2299.400000
530.217400 1888.200000

