>compound EA83802151
>parentmass 343.03989999999993
>ionization [M+H]+
>formula C18H12Cl2N2O
>rt 630.000000
>profile orbitrap
#smiles_iso C1=CC=C(C(=C1)C2=CC=C(C=C2)Cl)NC(=O)C3=C(N=CC=C3)Cl
#smiles_can C1=CC=C(C(=C1)C2=CC=C(C=C2)Cl)NC(=O)C3=C(N=CC=C3)Cl
#inchikey WYEMLYFITZORAB-UHFFFAOYSA-N
#pubchem_id 213013
#mb_accession EA293802,EA293803,EA293804,EA293805,EA293806,EA293807,EA293808,EA293809,EA293810,EA293811,EA293812,EA293813

>ms2peaks
139.989600 248504.900000
307.063800 626150.600000
343.039900 17203376.300000

>ms2peaks
111.994700 28179.000000
114.010700 64374.600000
139.989800 2122681.000000
195.946500 12013.200000
253.075200 15090.500000
271.085400 59121.900000
272.094000 133973.400000
307.063600 11637124.900000
343.040000 6592696.700000

>ms2peaks
78.033900 116317.800000
94.028600 21482.200000
96.044400 102212.900000
111.994900 139689.500000
114.010600 347968.600000
139.989900 2221765.200000
242.081000 16209.000000
243.091800 50180.700000
253.077200 15633.900000
254.084000 61795.000000
264.057200 23845.900000
271.086700 2359964.800000
272.094500 2246671.900000
279.069000 22097.800000
289.052600 542272.300000
305.048500 23335.800000
306.054300 19623.800000
307.063400 11373630.600000
328.016300 20864.200000

>ms2peaks
76.018500 10030.400000
78.033900 420314.300000
94.028800 99674.700000
96.044500 344459.800000
111.995000 480940.200000
112.039300 56197.100000
113.002400 17967.200000
114.010600 341552.600000
130.005400 50022.100000
139.989900 1382739.700000
152.062200 66871.800000
167.060500 35025.800000
177.057400 25645.800000
195.055700 35680.000000
196.063500 24093.500000
202.077000 20537.800000
204.080100 9962.400000
212.026800 36057.800000
216.081100 21571.400000
217.088600 37742.800000
227.073200 41940.500000
228.080500 59814.900000
229.088200 74949.900000
230.036900 35519.000000
238.042300 47613.100000
240.057500 12702.100000
242.083500 98362.200000
243.091900 436759.500000
244.076100 17774.100000
244.099600 219716.800000
245.082400 31865.200000
246.078500 7922.600000
253.076300 238187.400000
254.084100 397440.200000
255.092000 10604.000000
262.042100 31776.100000
264.057700 92535.200000
270.079800 117784.100000
271.086900 3867549.100000
272.094600 3926885.700000
278.059300 13308.400000
279.068000 64952.300000
280.053400 24517.900000
286.073800 10514.100000
289.052800 1040823.700000
290.037200 13117.000000
292.039400 26035.500000
305.048000 64792.100000
306.054700 50087.300000
307.063400 2535710.300000
328.016800 19556.300000

>ms2peaks
76.018200 44460.300000
78.033900 740401.300000
94.028800 105618.900000
96.044500 498561.500000
111.995000 794619.900000
112.039500 68927.800000
113.002800 54803.500000
114.010600 214608.800000
130.005500 173077.500000
139.989800 541955.000000
140.049100 39681.000000
144.992300 17252.700000
152.062100 171430.300000
167.060400 73266.300000
168.068000 19284.100000
177.057400 102300.700000
189.069300 13885.200000
190.064900 12971.600000
196.062900 49389.700000
201.034100 10926.400000
202.077100 62660.700000
203.073700 30830.500000
204.080500 41168.100000
212.026500 40400.600000
214.041800 18449.100000
214.064600 12792.400000
215.073300 13789.800000
216.080500 116580.100000
217.088200 146072.200000
225.045700 8706.600000
226.065500 60636.900000
227.072700 211199.800000
228.080500 190628.400000
229.029200 8819.600000
229.087500 130556.000000
230.037000 36379.200000
238.041600 72756.600000
241.076200 12936.000000
242.083900 368975.300000
243.091900 939822.100000
244.074900 51069.800000
244.099700 444634.200000
246.078800 15194.100000
253.076200 518399.900000
254.084100 564000.600000
257.070200 20015.100000
262.041800 66783.200000
263.036300 24087.500000
264.058000 63329.000000
269.070200 33587.200000
270.079100 208704.500000
271.086700 3297133.800000
272.094400 2002866.700000
277.051900 14396.900000
278.058900 26295.400000
279.068700 26786.000000
287.036900 10787.600000
288.044900 14414.600000
289.052700 381712.200000
290.035900 7428.300000
292.039000 10446.500000
305.046900 55544.500000
306.056500 43425.000000
307.063700 256015.300000
328.015900 7507.100000

>ms2peaks
76.018300 127682.900000
78.033900 871280.300000
84.984300 9440.800000
94.028900 80742.000000
96.044500 503650.200000
111.995000 822730.000000
112.039600 47850.400000
113.002800 66307.700000
114.010600 120465.900000
130.005500 208750.800000
139.989800 146831.800000
140.049500 101794.700000
141.045300 7971.000000
144.992900 23846.300000
151.054400 14330.400000
152.062200 232291.400000
166.052300 30911.600000
167.060200 45101.400000
167.073800 26709.200000
168.068200 43585.900000
175.053500 5968.900000
176.062800 15624.300000
177.057400 193631.700000
179.059900 9193.500000
186.023100 8580.800000
189.070000 69828.000000
190.065400 50388.700000
191.072800 17204.500000
195.946300 5839.500000
196.063300 37830.900000
199.030400 10618.300000
199.053800 16500.700000
200.062300 30339.200000
202.076800 87200.700000
203.073000 96205.500000
204.080900 73300.600000
212.027200 11252.400000
214.065100 47184.300000
215.072800 70039.200000
216.080700 272113.200000
217.088400 160659.400000
220.074800 10169.000000
225.056900 40165.800000
226.065000 91561.700000
227.072900 333341.700000
228.080400 230239.400000
230.037300 13469.400000
230.060100 9459.400000
241.076200 68724.400000
242.083900 793860.400000
243.091900 1226914.300000
244.074900 64750.300000
244.099800 261557.300000
245.071400 53624.600000
246.078800 16197.800000
252.068600 115309.600000
253.076300 602972.900000
254.083900 269980.200000
255.091600 17250.300000
257.071600 16791.100000
261.035200 9962.000000
262.041900 28520.300000
263.037800 26474.400000
264.057800 20684.900000
269.071700 48673.700000
270.079000 289561.700000
271.086700 1987201.500000
272.094400 413269.300000
277.052300 12668.300000
278.059000 20698.100000
286.073000 7872.000000
287.037800 11387.300000
288.043600 12420.100000
289.052600 67470.700000
305.048100 39911.600000
306.055200 13602.700000

>ms2peaks
139.989800 182746.000000
307.063300 365684.800000
343.039800 10672469.500000

>ms2peaks
111.994900 18024.300000
114.010500 34416.800000
139.989900 1166690.100000
195.948100 6836.600000
271.086800 56663.100000
272.093800 66450.300000
307.063100 6377467.600000
343.040200 3529635.400000

>ms2peaks
78.033900 59929.100000
94.028900 12226.100000
96.044400 49374.800000
111.995000 66583.100000
112.039400 8533.600000
114.010600 184437.200000
139.989900 1145268.500000
243.091800 22590.000000
244.099800 10545.900000
253.076400 11543.400000
254.083900 27921.700000
264.057800 12785.000000
271.086800 1201737.500000
272.094600 1160789.000000
279.068400 15252.500000
289.052800 266479.100000
305.047600 15244.300000
306.054300 8458.800000
307.063100 5756695.400000
328.016400 8206.500000
343.039900 146066.300000

>ms2peaks
76.018400 3078.700000
78.033900 206837.100000
94.028800 46417.300000
96.044500 181280.200000
111.995000 232053.200000
112.039400 26556.900000
113.002700 8483.400000
114.010600 187405.600000
130.005500 33722.100000
139.989900 695803.100000
144.992500 3698.800000
152.062200 31231.000000
167.060600 23374.000000
177.057500 18075.000000
195.055300 15384.500000
195.067700 4305.200000
196.063400 10734.200000
202.077900 9867.000000
204.081200 5871.300000
212.026100 18021.200000
214.041600 7505.400000
216.080800 14903.100000
217.088800 17611.600000
226.065900 3715.100000
227.073100 23525.200000
228.080800 26938.600000
229.030100 3356.800000
229.077100 4453.000000
229.088700 40486.000000
230.036900 21952.800000
238.041900 22104.200000
240.058100 8702.500000
242.083900 42095.900000
243.091800 218131.200000
244.099600 119380.000000
245.071100 4597.600000
245.083800 13812.500000
246.078400 3572.200000
251.050900 3984.700000
253.076200 114674.400000
254.084100 220834.900000
258.079600 3895.300000
262.041800 19112.200000
263.036800 4848.900000
264.057500 43770.200000
265.052800 5074.300000
269.070100 3842.900000
270.079000 64430.000000
271.086900 1883906.200000
272.094700 1949352.800000
278.060400 3867.000000
279.068500 33106.600000
280.052600 6736.400000
286.073300 3465.000000
289.052800 510203.600000
290.036700 4968.500000
292.039900 7390.300000
305.047700 31220.900000
306.055700 21172.100000
307.063400 1325130.900000
328.016800 8991.800000
343.040600 3647.400000

>ms2peaks
76.018300 19502.800000
78.034000 350310.200000
94.028900 55575.900000
96.044500 236709.700000
111.995000 398952.600000
112.039300 34709.100000
113.002800 20071.900000
114.010600 104467.100000
130.005500 78682.000000
139.989900 276739.500000
140.001200 17461.700000
140.049500 20118.900000
144.992700 10984.800000
152.062200 79850.700000
166.052300 4655.100000
167.060500 27812.700000
167.073400 4652.700000
168.068500 8541.900000
177.057500 47474.500000
179.073600 4094.700000
189.070100 10077.600000
190.065100 4421.100000
195.055400 9338.600000
195.067900 4876.400000
196.063300 24626.100000
199.030500 3079.500000
199.054100 2547.700000
201.070600 6084.300000
202.065800 3625.400000
202.077900 30118.300000
203.073100 20647.900000
204.081000 20230.900000
212.026300 19022.100000
214.042400 5818.900000
214.066200 4044.200000
215.073200 8081.400000
216.081000 57380.500000
217.088800 58670.900000
218.084100 12099.300000
218.096100 7092.400000
225.045700 3340.700000
225.056500 3737.300000
226.065300 26805.600000
227.073100 106986.700000
228.068800 6711.600000
228.080900 92449.000000
229.076200 20594.800000
229.088700 61446.800000
230.037100 10574.800000
230.059400 4186.800000
238.041900 31739.100000
240.057800 8137.500000
241.075400 4241.200000
242.084000 176768.700000
243.091900 450834.200000
244.076900 20745.100000
244.099600 207650.800000
245.070900 17021.200000
245.083800 18497.100000
246.079000 9129.500000
251.049800 4274.300000
252.068200 31456.700000
253.076200 256117.700000
254.084100 288168.400000
255.092500 7707.700000
257.071100 11235.300000
258.078000 3591.900000
262.041900 31094.500000
263.037000 16768.100000
264.057500 27870.800000
269.071000 16812.400000
270.079000 98294.200000
271.086900 1621410.800000
272.094600 1002212.700000
277.052600 7776.700000
278.060100 10689.500000
279.068400 9678.800000
280.051600 3469.300000
286.073800 3578.000000
288.044100 6482.500000
289.052800 178850.600000
290.037700 4172.500000
305.047700 29607.600000
306.055400 21313.400000
307.063500 112474.900000

>ms2peaks
76.018200 49411.600000
78.033900 354028.200000
84.984000 6098.000000
94.028800 30449.200000
96.044500 204337.700000
111.994900 357905.300000
113.002700 28193.500000
114.010600 43937.200000
130.005500 84703.500000
139.989800 61776.200000
140.001100 6779.600000
140.049500 44350.700000
141.044800 4214.000000
144.992600 11798.200000
151.054300 6309.000000
152.062100 109023.100000
166.052700 11575.700000
167.060400 21756.600000
167.072800 12960.100000
168.068300 19938.400000
175.054400 2538.900000
176.062000 6530.700000
177.057400 84539.200000
179.059900 2232.500000
179.072800 3176.600000
186.023300 5114.900000
189.069900 25267.400000
190.065100 16611.000000
191.072600 3968.700000
195.055200 6158.600000
196.063300 17052.600000
199.054300 8625.400000
200.062200 17937.200000
201.034400 2596.700000
201.069800 7908.500000
202.065100 8509.000000
202.077800 39329.600000
203.073000 38930.900000
204.080800 26540.700000
212.026300 7912.100000
214.042100 3491.600000
214.065300 19629.600000
215.073000 30971.700000
216.080800 114249.200000
217.088700 59890.800000
218.083900 27629.500000
218.096500 5325.800000
220.076100 3689.800000
225.057600 19149.000000
226.065300 41434.800000
227.073000 153251.500000
228.068500 19898.400000
228.080800 103599.900000
229.029100 2187.800000
229.076200 29498.600000
229.088600 26598.100000
230.036900 8016.800000
230.059500 5145.800000
238.041700 16483.200000
241.076000 36321.800000
242.084000 358181.900000
243.091800 520814.000000
244.076200 29154.500000
244.099500 107482.300000
245.071100 21877.300000
246.078600 6740.800000
251.049800 2781.800000
252.068200 44727.600000
253.076100 258809.900000
254.083900 113183.800000
255.092500 6931.100000
257.070500 4367.100000
258.079400 1922.000000
261.034000 3399.600000
262.041900 14515.400000
263.037300 11195.600000
264.057300 7905.500000
265.052700 2553.900000
269.070900 21685.100000
270.078900 121103.000000
271.086700 909462.600000
272.094400 178104.100000
277.052200 8957.600000
278.060500 10970.100000
286.073700 2666.400000
287.037500 4703.500000
288.043700 4312.700000
289.052700 28198.900000
305.047800 13330.400000
306.055800 7633.300000
345.041400 3616.500000

