>compound EA83206365
>parentmass 201.091
>ionization [M+H]+
>formula C13H12O2
>rt 588.000000
>profile orbitrap
#smiles_iso C1=CC=C(C=C1)OC2=CC=CC(=C2)CO
#smiles_can C1=CC=C(C=C1)OC2=CC=CC(=C2)CO
#inchikey KGANAERDZBAECK-UHFFFAOYSA-N
#pubchem_id 26295
#mb_accession EA032502,EA032503,EA032504,EA032506,EA032508,EA032509,EA032510,EA032511

>ms2
171.080400 8662.700000
183.080500 16328.200000

>ms2
171.080400 11713.800000
183.079800 13031.600000

>ms2
153.069400 4383.400000
171.081100 3725.000000
183.080300 8364.600000

>ms2
65.038700 3872.500000

>ms2
171.080300 7515.600000
183.080300 9288.100000

>ms2
171.080300 8934.700000
183.080300 8703.200000

>ms2
171.080200 4910.600000
183.080200 6520.800000

>ms2
65.038600 2960.000000
153.069600 3529.900000
183.080300 2619.000000

