>compound EA83304938
>parentmass 250.18019999999993
>ionization [M+H]+
>formula C15H23NO2
>rt 378.000000
>profile orbitrap
#smiles_iso COC1=CC=C(C=C1)C(CN)C2(CCCCC2)O
#smiles_can COC1=CC=C(C=C1)C(CN)C2(CCCCC2)O
#inchikey SUQHIQRIIBKNOR-UHFFFAOYSA-N
#pubchem_id 9795857
#mb_accession EA265802,EA265803,EA265804,EA265805,EA265806,EA265807,EA265808,EA265809,EA265810,EA265811,EA265812,EA265813

>ms2peaks
121.064800 260182.200000
124.112300 18615.900000
147.080500 127723.500000
159.080300 32365.700000
173.096500 22475.100000
201.127300 22065.600000
203.143200 166883.500000
215.143300 2661701.100000
232.169700 1768771.300000
250.180200 825596.700000

>ms2peaks
79.054300 11887.100000
81.069800 9765.500000
91.054100 19689.000000
93.069800 19442.600000
107.085600 19606.700000
121.064900 501643.300000
124.112400 22048.700000
135.080800 13159.700000
147.080500 240049.900000
159.080700 52760.600000
173.096200 63251.600000
201.127800 22833.700000
203.143000 89105.800000
215.143200 1972731.400000
232.169500 217189.300000

>ms2peaks
69.069900 8051.200000
79.054300 34960.200000
81.069900 34623.800000
91.054200 41235.900000
93.070100 30242.300000
107.085700 49424.800000
121.065000 837014.300000
124.111900 16483.000000
132.057100 26753.000000
135.080500 52154.300000
147.080600 591810.400000
150.091200 7860.600000
159.080600 151685.900000
173.096200 203583.600000
183.117400 17818.800000
187.112400 11837.600000
201.127700 23798.800000
203.142200 18643.700000
215.143100 652026.700000

>ms2peaks
67.054500 6012.300000
69.070000 15342.400000
79.054300 36681.200000
81.069900 69201.300000
91.054300 97129.200000
93.070000 31651.000000
105.070200 5966.300000
107.048700 7681.600000
107.085700 33815.000000
117.070100 6462.200000
119.060500 9704.500000
119.085000 7785.300000
121.065000 787584.800000
124.112200 6332.400000
132.057200 33566.200000
133.065200 5463.000000
135.080500 55046.000000
144.057400 8148.100000
145.065100 6393.100000
147.080600 487487.400000
150.091700 8920.700000
158.072800 19142.300000
159.080700 119391.300000
160.087500 4941.700000
161.096600 13229.200000
173.096300 144814.300000
174.103800 6297.800000
183.116700 10524.700000
215.143400 52779.000000

>ms2peaks
67.054500 5308.400000
69.070200 5964.500000
77.038500 11944.600000
79.054200 46997.800000
81.069900 61167.300000
91.054200 176352.000000
93.070000 21711.300000
105.069500 9540.300000
107.049100 17656.600000
107.085500 13903.000000
115.054200 8517.300000
117.070000 25349.400000
119.060600 7031.400000
119.085600 13635.400000
121.064900 690827.500000
129.070100 6963.800000
132.057000 38585.100000
133.064500 10449.000000
135.080400 34254.500000
141.069600 11706.800000
144.056900 18074.100000
145.064400 11053.300000
146.073200 4092.000000
147.080500 269086.300000
158.072700 48487.700000
159.080500 64744.400000
160.088000 9715.400000
161.096100 7969.700000
173.096400 79794.500000
187.111800 5309.000000
232.177500 8133.100000

>ms2peaks
67.054200 9585.600000
77.038700 26203.100000
78.046500 13316.400000
79.054200 50527.300000
81.069900 49882.000000
91.054300 252697.600000
93.069900 17286.100000
103.054700 4639.900000
104.062000 10426.000000
105.044400 7390.800000
105.069700 13673.400000
107.049100 30310.700000
107.085700 6341.700000
115.054400 35019.900000
116.061700 9081.600000
117.069900 36519.000000
119.060500 7070.300000
119.085800 10796.600000
121.064900 554860.900000
128.061900 8913.900000
129.069600 20814.300000
132.057100 45310.100000
135.080700 18308.200000
141.070100 10272.500000
144.057200 19392.900000
145.064900 11292.700000
146.073100 6380.600000
147.080500 111592.500000
155.059800 7849.100000
158.072500 48953.000000
159.080600 29643.300000
173.095800 22281.800000

>ms2peaks
81.069900 2820.700000
121.064800 144685.900000
124.112100 10293.100000
147.080400 58226.400000
159.080400 15235.300000
173.096200 18246.800000
201.127500 12719.500000
203.143100 93826.400000
215.143200 1514554.600000
232.169800 987050.100000
250.180200 502858.800000

>ms2peaks
79.054300 8475.900000
81.069900 7309.400000
91.054300 13065.900000
93.069900 10409.400000
107.085500 10975.700000
121.064900 296268.600000
124.112100 13158.100000
132.056900 4913.200000
135.080400 7473.500000
147.080500 139460.200000
159.080500 35084.300000
173.096200 38653.800000
183.116400 7609.700000
201.127500 14367.100000
203.143200 57775.000000
215.143300 1219920.100000
232.169600 114588.200000
250.179000 10323.800000

>ms2peaks
67.054200 2074.600000
69.070000 5109.800000
79.054300 23526.500000
81.069900 15701.200000
91.054200 16788.800000
93.069900 19968.200000
107.049200 2269.100000
107.085600 22423.400000
119.060400 3599.200000
121.064900 419080.900000
124.112100 8488.800000
132.057100 11172.000000
133.064400 2938.800000
135.080600 25010.700000
145.064600 3267.700000
147.080600 283732.900000
150.091300 3049.900000
158.072300 2422.000000
159.080500 68160.000000
161.096200 7653.800000
173.096200 94801.900000
183.116700 11069.100000
187.111200 4678.100000
201.127600 6508.600000
203.143000 10355.500000
215.143200 302393.000000
232.170400 17679.700000

>ms2peaks
67.054300 4443.600000
69.069900 5408.000000
77.038700 3640.600000
79.054300 21184.000000
81.070000 31661.100000
91.054300 38460.200000
93.069900 14156.000000
105.069800 3471.200000
106.041400 2182.900000
107.049200 2309.400000
107.085600 16216.700000
115.053800 2228.400000
117.069900 3622.200000
119.085600 5952.100000
121.064900 393845.600000
124.112100 4029.300000
129.069700 2478.000000
132.057100 13912.600000
133.064900 3530.600000
135.080400 22379.800000
141.069500 4636.600000
144.057300 2302.100000
145.065000 3837.100000
147.080600 234873.000000
150.091500 3217.900000
158.072600 9554.900000
159.080500 57421.200000
160.088500 2310.900000
161.096200 6102.100000
173.096200 84096.400000
174.103900 2059.500000
183.116800 4477.200000
187.111500 3950.500000
215.143300 33955.900000

>ms2peaks
67.054200 4192.500000
69.069900 4499.500000
77.038600 3909.900000
79.054300 24153.200000
81.070000 27614.800000
91.054300 72915.200000
93.070000 6787.200000
105.069900 4295.700000
107.049400 9472.300000
107.085700 6247.700000
115.054400 6084.700000
117.070000 8843.800000
119.060700 5270.600000
119.085700 6477.500000
121.064900 328738.500000
129.070200 4756.600000
131.049400 3970.100000
132.057100 19517.100000
133.065100 4761.900000
135.080500 15547.700000
141.069900 4371.400000
144.057200 10313.800000
145.065100 5585.200000
147.080600 129329.600000
158.072800 22720.200000
159.080600 27284.400000
160.088500 2049.800000
161.096300 6679.300000
173.096200 31387.700000

>ms2peaks
67.054300 1674.400000
69.070000 1431.700000
77.038600 6377.500000
78.046400 4092.800000
79.054200 17546.900000
81.069900 17041.100000
91.054300 97638.600000
93.069900 5487.000000
103.054300 2077.000000
104.062200 3897.000000
105.044700 4348.300000
105.069900 4923.900000
106.041100 2460.100000
107.049200 7142.600000
115.054300 14603.000000
116.062100 3034.600000
117.069900 10643.300000
119.060400 1726.100000
119.085500 6548.500000
121.064900 213095.400000
128.062200 5426.600000
129.069900 5454.900000
131.049100 5844.700000
132.057000 14270.400000
133.064800 2794.600000
135.080500 5624.700000
141.069900 4522.400000
144.057000 11353.000000
145.064800 4664.700000
146.072800 3112.800000
147.080500 37828.900000
155.060700 1807.200000
158.072600 15926.800000
159.080500 13267.300000
161.096000 1756.200000
173.096100 6613.100000
232.178700 1559.200000

