>compound EA84342538
>parentmass 295.21689999999995
>ionization [M+H]+
>formula C20H26N2
>rt 522.000000
>profile orbitrap
#smiles_iso CC(CN1C2=CC=CC=C2CCC3=CC=CC=C31)CN(C)C
#smiles_can CC(CN1C2=CC=CC=C2CCC3=CC=CC=C31)CN(C)C
#inchikey ZSCDBOWYZJWBIY-UHFFFAOYSA-N
#pubchem_id 5584
#mb_accession EA286102,EA286103,EA286104,EA286105,EA286106,EA286107,EA286108,EA286109,EA286110,EA286111,EA286112,EA286113

>ms2
100.112100 689136.800000
208.112800 28271.600000
295.217000 12946926.900000

>ms2
58.065100 1063327.200000
100.112200 6368752.500000
193.088100 30976.900000
208.112000 477518.300000
250.159300 295566.700000
295.216400 3634780.000000

>ms2
58.065100 1857892.200000
100.112100 5437180.500000
193.088100 39995.100000
208.112100 1306814.400000
250.158800 219838.100000

>ms2
58.065100 2099732.400000
85.088600 15210.800000
100.112100 3626671.700000
193.088500 455402.000000
208.112100 1261656.600000
234.127000 32852.500000
250.158900 66794.700000

>ms2
58.065100 2382194.600000
85.088600 28423.000000
100.112100 1939651.300000
193.088600 1128057.900000
207.103400 17631.000000
208.112100 788628.000000
234.127000 32149.600000

>ms2
56.049300 20755.600000
58.065100 2491712.900000
70.065000 24232.900000
71.072800 34493.600000
85.088500 74113.000000
91.054200 24735.600000
100.112100 882243.900000
180.081300 38384.300000
192.080500 91804.600000
193.088500 1613906.700000
207.104200 42471.500000
208.112000 335861.800000

>ms2
58.064800 69420.700000
100.112000 563720.200000
208.111300 16714.400000
295.217100 11484486.400000

>ms2
58.065100 850207.800000
100.112100 5250456.100000
208.112000 377132.900000
250.159000 196552.100000
295.217400 3457249.600000

>ms2
56.049300 11518.000000
58.065100 1508929.700000
100.112100 4746212.400000
193.089000 38430.700000
208.111900 1037556.100000
250.158800 157164.100000

>ms2
58.065100 1797962.000000
100.112100 3071298.800000
193.088600 315484.000000
208.112000 1040627.700000
234.127100 26746.300000
250.158900 60519.900000

>ms2
58.065100 1948391.300000
70.065300 9731.200000
71.073100 17173.000000
85.088600 30421.400000
100.112100 1655042.900000
180.080900 10813.100000
192.080900 15205.700000
193.088600 995219.800000
194.096100 11715.700000
206.096200 19323.400000
208.112000 633012.700000
234.128000 33434.800000

>ms2
56.049300 9675.600000
58.065100 1853803.400000
70.065100 10272.200000
71.073000 32760.400000
85.088600 40664.100000
91.054200 13162.100000
100.112100 734585.000000
180.080900 17435.700000
192.080600 75747.200000
193.088500 1240268.700000
194.096400 16821.000000
206.096500 20643.600000
207.103800 18781.100000
208.111900 233084.900000
234.127700 32756.500000

