>compound EA84520474
>parentmass 261.02329999999995
>ionization [M+H]+
>formula C9H13BrN2O2
>rt 420.000000
>profile orbitrap
#smiles_iso CCC(C)N1C(=O)C(=C(NC1=O)C)Br
#smiles_can CCC(C)N1C(=O)C(=C(NC1=O)C)Br
#inchikey CTSLUCNDVMMDHG-UHFFFAOYSA-N
#pubchem_id 9411
#mb_accession EA026602,EA026603,EA026604,EA026605,EA026606,EA026607,EA026608,EA026609,EA026610,EA026611,EA026612,EA026613

>ms2
204.961000 1647668.400000
206.955700 2202.300000
261.023500 808782.800000

>ms2
187.933400 5531.600000
204.960800 2269260.700000
261.023200 38919.200000

>ms2
161.955000 70400.300000
186.950200 17283.500000
187.934300 103563.800000
204.960800 2103865.400000

>ms2
54.033700 8086.100000
69.008200 2762.800000
69.992300 2952.400000
98.047600 7151.000000
106.948700 4403.500000
118.948900 3155.500000
131.944300 63751.600000
133.959800 21887.600000
143.944400 3923.400000
159.939400 4365.300000
161.954900 304014.800000
186.950100 92399.800000
187.934200 426851.900000
204.960700 1407885.400000

>ms2
54.033800 26018.200000
69.008400 14791.000000
69.992400 10851.300000
83.036800 7756.200000
92.933500 6560.600000
97.040000 3774.300000
98.047500 18014.700000
104.933800 8952.800000
105.928600 3413.200000
106.949200 21087.400000
108.031900 2603.600000
116.933600 4793.100000
118.949300 9507.300000
119.944200 4467.500000
131.944400 218966.200000
133.960000 60326.900000
143.943800 9867.000000
159.939500 7595.900000
161.955000 382306.100000
186.950200 119951.100000
187.934300 466493.300000
204.960800 584601.200000

>ms2
54.033800 46520.500000
69.008400 24547.400000
69.992400 19990.200000
83.036500 14309.000000
92.933500 13567.900000
98.047300 17635.600000
104.933600 25922.500000
105.928500 11945.100000
106.912500 9915.000000
106.949200 46360.500000
108.031700 4228.100000
116.933400 6359.900000
118.949100 11984.700000
119.944600 4022.000000
131.944400 394717.200000
133.960000 72078.200000
143.944600 15669.100000
159.939600 8289.200000
161.955000 234587.900000
186.950300 75305.200000
187.934400 263414.900000
204.960800 160456.000000

>ms2
204.960900 1370870.000000
261.023400 612242.800000

>ms2
161.955200 1759.700000
204.960800 1700482.500000
206.952000 2375.100000
261.023200 25800.300000

>ms2
131.944200 3378.800000
161.955000 45611.100000
186.950300 11966.500000
187.934200 67120.600000
204.960900 1415607.500000

>ms2
54.033700 3536.400000
98.047500 3009.600000
131.944400 34740.000000
133.960000 14178.500000
161.955000 170253.000000
186.950200 57852.200000
187.934300 244534.000000
204.960900 821029.700000
261.022900 2300.900000

>ms2
54.033800 14540.800000
69.008400 6735.000000
69.992300 5028.700000
83.036500 3613.100000
97.039400 3120.600000
98.047500 9032.600000
104.933600 2507.700000
106.912700 2586.100000
106.949100 12214.900000
118.949100 4160.300000
131.944400 122827.700000
133.960000 34857.700000
143.944300 6850.300000
159.939300 4661.300000
161.954900 198022.000000
186.950100 56186.300000
187.934200 236200.300000
204.960700 299944.400000

>ms2
54.033700 16642.800000
69.008300 7653.500000
69.992400 3122.100000
83.036500 4633.100000
92.933500 4872.600000
98.047400 6019.000000
104.933500 7878.400000
105.928700 5790.300000
106.912600 4447.100000
106.949100 20552.400000
118.949000 6431.200000
131.944400 168408.300000
133.960000 25405.000000
143.944300 7686.800000
159.939200 2997.700000
161.954900 104178.100000
186.950100 27608.700000
187.934200 119449.000000
204.960700 72604.100000
206.952600 1489.100000

