>compound EA84405366
>parentmass 246.12370000000007
>ionization [M+H]+
>formula C13H15N3O2
>rt 222.000000
>profile orbitrap
#smiles_iso CC1=C(C(=O)N(N1C)C2=CC=CC=C2)NC(=O)C
#smiles_can CC1=C(C(=O)N(N1C)C2=CC=CC=C2)NC(=O)C
#inchikey OIAGWXKSCXPNNZ-UHFFFAOYSA-N
#pubchem_id 65743
#mb_accession EA023602,EA023603,EA023604,EA023605,EA023606,EA023607,EA023608,EA023609,EA023610,EA023611,EA023612,EA023613

>ms2
83.060100 28221.900000
104.049000 16596.600000
204.113100 331832.000000
228.113100 1397689.100000
246.124000 6343216.600000

>ms2
56.049300 59619.700000
77.038600 22546.400000
83.060400 298185.700000
85.076200 15640.500000
94.065200 30525.500000
104.049500 387747.400000
111.055500 15243.600000
159.091800 67855.700000
173.071100 39143.600000
187.086700 122942.000000
189.088800 12346.000000
204.113300 2018078.900000
213.090300 22634.300000
228.113400 4571857.300000
246.124100 1732516.800000

>ms2
56.049500 291533.800000
77.038600 77491.100000
83.060500 1399019.500000
85.076200 67701.100000
94.065200 132425.400000
96.080700 18387.100000
104.049600 1286115.000000
105.044700 12295.900000
111.055700 29352.700000
145.076200 48206.900000
146.060000 40665.900000
147.055700 19582.200000
159.053900 20012.200000
159.091800 326415.700000
171.056100 18127.200000
171.091900 13068.100000
172.063700 38714.000000
173.071000 128984.700000
185.071200 30349.300000
186.078800 27373.900000
186.103900 18050.600000
187.086700 266689.400000
189.089200 44694.300000
200.082400 13032.500000
200.118500 21385.100000
204.113300 1238253.600000
213.089900 75673.800000
226.097400 35417.600000
228.113300 2077134.600000

>ms2
56.049500 486557.400000
58.065100 13558.400000
77.038600 104520.600000
83.060500 2187224.500000
85.076100 79568.200000
94.065200 197462.400000
104.049600 1521339.200000
105.045200 15416.800000
118.065000 27852.900000
119.060100 19608.700000
130.065400 16592.100000
131.060600 22594.900000
132.044500 17476.100000
145.076500 46860.800000
145.088400 22161.300000
146.060100 75554.300000
147.054800 10492.900000
159.054600 46045.300000
159.091700 382012.200000
172.063400 78433.400000
173.071100 78070.300000
185.071100 43266.000000
186.078400 31664.500000
187.086500 147603.000000
189.089700 40403.000000
204.113100 222066.300000
213.089900 51236.100000
226.097000 25988.600000
228.112900 228434.900000

>ms2
53.038400 13118.800000
56.049500 581616.800000
68.049400 13754.100000
77.038600 153766.500000
83.060400 2141035.600000
85.075900 44484.300000
94.065100 210893.200000
104.049500 1226287.400000
105.044600 66568.600000
118.065300 30185.400000
119.060900 17936.800000
130.065400 29053.200000
131.060400 35612.700000
132.044200 27063.200000
144.068000 17044.400000
144.081200 20086.200000
145.075800 35770.600000
145.088400 20150.200000
146.060000 77194.000000
159.054200 25119.800000
159.091800 211403.300000
171.055300 21174.400000
172.063400 36741.700000
185.070300 22433.200000
187.085500 21080.600000
189.089000 20843.700000

>ms2
53.038600 26417.700000
56.049500 543134.100000
58.065100 20724.100000
77.038600 287219.200000
83.060500 2082074.700000
92.049500 15460.900000
94.065200 188873.900000
95.049100 32547.400000
104.049500 747140.500000
105.044800 77877.600000
118.065100 25673.700000
119.060300 14257.300000
128.049300 24932.000000
130.065200 17072.200000
131.061000 17700.600000
132.080500 26496.100000
144.067700 30106.500000
144.080500 28372.600000
145.075800 13155.900000
146.059700 31005.300000
159.092100 80234.900000
171.054800 28202.800000
172.062900 13212.900000

>ms2
104.049000 15179.800000
187.085400 8478.100000
204.113200 395713.700000
228.113300 1683307.400000
246.123900 7663893.500000

>ms2
56.049400 58677.100000
77.038600 27768.200000
83.060400 299058.400000
85.076100 12373.300000
94.065200 21672.400000
104.049500 385842.200000
111.055500 8479.600000
145.075700 13695.100000
159.091700 77530.200000
171.055800 8880.500000
173.070900 36492.900000
187.086600 125024.700000
189.089300 9001.400000
200.081100 8494.600000
204.113400 2140894.500000
213.089900 22573.000000
226.098000 11258.800000
228.113400 4808741.000000
246.123900 1776713.800000

>ms2
56.049500 280378.600000
77.038700 71617.700000
83.060500 1340703.500000
85.076100 66479.300000
94.065200 134441.700000
96.080600 15763.400000
104.049600 1248517.200000
105.044600 19321.800000
111.055300 25340.500000
132.044800 9183.900000
144.080900 9642.500000
145.076100 54476.800000
145.089200 13139.000000
146.060000 49980.800000
147.055200 12410.100000
158.059800 17500.800000
159.055400 27018.100000
159.091700 331849.100000
171.055200 13030.700000
171.091500 15807.700000
172.063100 31409.100000
173.071000 103318.200000
185.071000 27990.900000
186.078600 16874.300000
186.103100 14601.200000
187.086600 291044.400000
189.089500 30887.900000
200.081600 13920.500000
200.118400 24418.100000
204.113300 1271183.400000
213.089800 91543.600000
226.097800 37681.100000
228.113400 2078207.500000

>ms2
56.049500 407651.800000
58.065100 8186.500000
68.049400 9381.200000
77.038600 93840.800000
83.060400 1855119.100000
85.076000 67543.900000
94.065100 170085.300000
96.080800 10882.700000
104.049500 1328400.000000
105.044700 19678.400000
106.065100 8486.800000
111.055300 20931.700000
118.064900 21534.500000
119.060400 16314.800000
130.065400 12375.600000
131.060200 19192.100000
132.044400 16185.500000
144.068800 8118.500000
144.080900 16329.900000
145.076000 57830.100000
145.088700 22234.000000
146.060000 76817.500000
158.060500 17896.900000
159.055300 33644.000000
159.091700 323187.000000
171.055700 17622.600000
171.091500 13571.800000
172.063200 66893.400000
173.071000 68510.600000
185.070900 32340.000000
186.078400 18275.800000
187.086500 113807.500000
189.089600 31486.000000
200.117600 9795.100000
204.113100 199857.400000
213.089500 36149.200000
226.097400 11533.300000
228.113100 209552.700000

>ms2
56.049500 407691.500000
58.065100 15063.800000
68.049700 8280.900000
77.038600 139413.100000
83.060400 1771070.800000
85.076000 23538.800000
92.049400 11630.200000
94.065100 165262.500000
95.049100 10872.400000
104.049500 939672.500000
105.044700 33110.600000
118.065300 13764.100000
119.060400 19228.000000
128.049400 10525.100000
130.065100 12411.300000
131.060200 30330.100000
132.044300 15849.500000
144.068300 14462.100000
144.080600 19875.600000
145.076000 21827.500000
145.089000 11062.100000
146.059900 47097.400000
159.055300 17866.800000
159.091600 182083.400000
171.055600 18048.100000
172.063100 39491.700000
173.070900 12614.900000
185.070700 21877.800000
186.078400 17180.000000
187.086400 12472.400000
189.090100 12688.600000
213.090200 9987.500000
226.097400 10050.200000

>ms2
53.038600 13204.500000
56.049500 383563.500000
58.065100 7790.300000
68.049500 4059.100000
77.038600 211925.600000
83.060400 1465206.600000
85.076200 3487.700000
92.049500 8794.500000
94.065100 123347.300000
95.049200 23158.500000
104.049500 527959.700000
105.044700 66131.900000
106.065200 4638.200000
118.065100 16649.400000
119.060400 12377.400000
128.049500 20692.800000
130.065100 17798.200000
131.060300 14842.200000
132.044400 8009.000000
132.080800 19244.300000
144.068100 15992.300000
144.080800 17690.200000
145.076000 12904.200000
145.089000 7053.300000
146.060000 22868.800000
158.059900 3568.200000
159.055400 5566.500000
159.091600 44694.200000
171.055500 14059.300000
172.063000 9976.600000
185.071200 9680.200000
187.086800 4843.200000

