>compound EA85586364
>parentmass 234.14890000000003
>ionization [M+H]+
>formula C14H19NO2
>rt 492.000000
>profile orbitrap
#smiles_iso CCC1=CC=CC(=C1N2C(COCC2=O)C)C
#smiles_can CCC1=CC=CC(=C1N2C(COCC2=O)C)C
#inchikey DVBDYPDVNRJKNJ-UHFFFAOYSA-N
#pubchem_id 179957
#mb_accession EA006702,EA006703,EA006704,EA006705,EA006706,EA006707,EA006708,EA006709,EA006710,EA006711,EA006712,EA006713

>ms2peaks
234.148900 5814133.500000

>ms2peaks
146.095900 15100.100000
148.112300 14003.800000
206.117800 17190.400000
234.148900 5932947.800000

>ms2peaks
70.064900 7438.600000
99.067900 42360.600000
105.069600 8464.100000
118.064800 11778.300000
119.085400 68663.800000
120.080700 109249.600000
134.096400 20356.200000
135.104500 8747.200000
146.096400 177225.300000
147.067800 43078.900000
147.104800 12424.800000
148.075600 249753.700000
148.112000 193492.100000
158.096200 24117.700000
160.112000 143153.600000
162.091100 9220.400000
174.127300 6246.500000
175.135500 83183.700000
176.106700 74160.000000
176.143400 76830.700000
188.142900 47439.400000
193.110000 12239.100000
205.109400 11706.300000
206.117400 276438.400000
216.139200 11031.500000
234.148800 4085696.800000

>ms2peaks
70.065100 12934.900000
91.054200 50108.300000
93.069900 34630.800000
99.067800 71138.100000
103.054000 9250.900000
105.070000 40806.900000
109.065100 8960.600000
117.069600 26318.600000
118.065100 69017.100000
119.072900 20863.700000
119.085500 153507.100000
120.080800 492503.400000
130.065300 20341.100000
131.072400 12459.200000
131.085800 19879.700000
132.080700 41941.100000
133.052100 39498.600000
133.088500 46139.800000
133.100800 14906.600000
134.096400 69791.000000
135.104300 40988.400000
144.080700 14318.400000
145.088700 15083.100000
146.096500 386186.100000
147.067800 197277.000000
147.104600 35058.700000
148.075600 484842.900000
148.112100 404021.200000
158.096100 54777.900000
159.104100 18148.300000
160.112000 349985.000000
161.082800 17893.300000
162.091200 52844.900000
174.127700 20393.200000
175.135300 82252.300000
176.106900 60996.100000
176.143400 100822.700000
186.127700 12103.000000
188.143100 57081.000000
193.109700 16040.700000
206.117500 265496.800000
216.138500 9390.800000
234.148900 1147654.000000

>ms2peaks
70.065100 11780.700000
77.038700 9616.800000
79.054100 13408.500000
91.054200 120026.000000
93.069800 121069.600000
99.067800 34576.200000
103.054200 33578.600000
104.062100 6771.000000
105.057700 9602.700000
105.069900 100536.200000
106.065200 13191.400000
107.072800 11602.400000
108.080300 7520.900000
109.064800 16205.400000
115.053700 7992.900000
117.057600 12485.800000
117.069700 50842.300000
118.065000 151220.600000
119.049400 13911.800000
119.073000 115956.600000
119.085500 124585.900000
120.080800 784210.700000
130.065000 30161.400000
131.072800 40509.300000
131.085300 26679.600000
132.080600 109100.300000
133.052200 103123.900000
133.088600 99043.100000
134.096500 90668.300000
135.104100 44252.300000
143.073300 10262.200000
144.080600 24435.500000
145.088600 21910.900000
146.059500 44617.200000
146.096400 307385.600000
147.067800 208106.800000
147.104400 25596.200000
148.075600 261484.100000
148.112000 288660.900000
158.096400 48468.100000
159.103700 15231.400000
160.112000 317956.800000
161.083400 22722.500000
162.091200 55797.400000
172.112400 9798.300000
174.127800 23249.600000
175.135600 25792.200000
176.107000 19006.200000
176.143300 53783.000000
188.142800 16893.200000
206.117200 73262.800000
234.148600 110039.200000

>ms2peaks
65.038600 4970.900000
70.065000 5708.700000
77.038600 26657.500000
79.054300 24553.400000
91.054200 233469.500000
92.062000 18898.600000
93.069800 180847.500000
99.067900 16033.600000
103.054300 54740.400000
104.049500 12368.200000
104.062000 21455.400000
105.045100 7238.300000
105.057300 20054.900000
105.069900 72946.700000
106.065100 20044.700000
107.072800 14056.400000
107.085200 6201.200000
108.080400 12675.800000
115.054200 16994.100000
116.062400 8112.400000
117.057500 31495.600000
117.069900 62388.600000
118.065100 233644.000000
119.048800 11528.900000
119.073000 169034.100000
119.085500 86852.000000
120.080800 643781.900000
129.070100 7869.800000
130.065100 43619.200000
131.072900 86613.600000
131.086000 12656.600000
132.044000 7540.700000
132.080700 127693.200000
133.052200 133805.800000
133.088500 112638.600000
134.096400 82670.300000
135.104400 20122.100000
143.072800 13733.200000
144.080600 30837.600000
145.088600 36197.200000
146.059900 75236.300000
146.096500 146919.700000
147.067800 128273.600000
147.092200 11564.400000
147.104300 14027.200000
148.075600 81618.200000
148.112000 118016.900000
158.096300 23853.400000
160.075500 10362.000000
160.112000 138442.600000
162.091200 26238.500000
172.111600 7223.600000
174.128600 6851.800000
176.107000 8085.400000
176.143900 10544.500000
206.117600 5248.500000

>ms2peaks
234.148800 4068622.900000

>ms2peaks
146.096500 5904.900000
148.075200 3887.600000
176.107600 4044.800000
206.117400 14371.300000
234.148900 3795280.400000

>ms2peaks
70.065200 6136.400000
91.054200 5716.700000
99.067900 22705.300000
105.070000 3950.400000
117.069900 3424.900000
118.065100 10628.700000
119.085500 51200.300000
120.080800 61592.100000
132.081000 3927.600000
133.088500 3205.300000
133.100500 3314.900000
134.096300 7352.200000
135.104300 7544.500000
145.088300 3210.600000
146.096400 110152.400000
147.067800 24717.500000
147.104300 5741.800000
148.075700 159470.500000
148.112100 122337.000000
158.096500 13592.600000
159.104000 3647.500000
160.112100 87606.100000
162.091800 6516.000000
174.127700 6149.400000
175.099300 3379.300000
175.135600 50073.500000
176.107000 46041.400000
176.143400 48036.200000
177.115000 5164.800000
186.127600 3549.000000
188.143500 30024.600000
193.109800 7349.100000
204.137900 3506.300000
206.117600 168677.500000
206.153000 9224.600000
216.138400 8521.500000
234.149000 2534179.800000

>ms2peaks
59.049100 3339.800000
70.065100 9391.800000
91.054200 30923.000000
93.069900 22795.300000
99.067900 44382.900000
103.054200 8941.200000
105.069800 27581.300000
109.064800 8737.700000
117.070000 13007.700000
118.065200 40275.400000
119.072900 10799.200000
119.085500 88711.300000
120.080800 305031.400000
129.070000 2771.900000
130.064700 7585.900000
131.073000 10243.800000
131.085600 11395.000000
132.080800 28770.300000
133.052300 18740.900000
133.088700 23575.100000
133.101200 7853.100000
134.096400 44718.300000
135.104200 27689.700000
136.112100 3411.500000
143.072800 5969.900000
144.081100 5258.200000
145.088400 7207.600000
146.096500 228722.200000
147.067900 109473.700000
147.104300 21707.800000
148.075700 280090.900000
148.112100 258369.700000
149.096000 5358.800000
158.096400 41613.300000
159.104100 4374.600000
160.112100 228427.600000
161.083600 15141.700000
162.091400 26558.200000
162.128100 3460.700000
174.127700 14618.300000
175.099100 5480.000000
175.135600 53222.600000
176.107000 39333.200000
176.143400 60572.800000
177.115000 3817.700000
186.127400 9034.700000
187.099400 3856.400000
188.143400 26738.200000
193.109500 6064.800000
204.138100 3500.600000
205.110200 3686.200000
206.117500 170989.800000
234.148900 664563.900000

>ms2peaks
59.049100 3314.200000
70.065200 6851.400000
77.038800 3613.900000
79.054200 5207.100000
91.054200 71456.100000
92.062100 2327.300000
93.069900 72421.800000
98.059700 2267.700000
99.067900 21721.300000
103.054200 21165.100000
104.061900 4514.700000
105.057500 2879.800000
105.069900 46705.300000
106.065300 7158.600000
107.073200 5217.600000
108.080800 5830.600000
109.064800 8999.500000
115.054200 6025.600000
117.057300 8677.400000
117.069900 26369.300000
118.065200 86869.300000
119.048900 5698.400000
119.073000 59284.400000
119.085500 68510.200000
120.080800 460448.400000
121.064800 6610.200000
129.069900 7587.400000
130.065200 14675.300000
131.073000 27952.000000
131.085500 12120.300000
132.080800 61406.700000
133.052200 57701.900000
133.088600 54905.000000
133.101100 9578.900000
134.096400 52121.400000
135.104200 20754.000000
136.112500 2169.200000
143.072900 7888.300000
144.080700 11349.900000
145.088600 17028.300000
146.060000 26890.300000
146.096400 184551.000000
147.067900 130138.900000
147.104300 19189.200000
148.075700 151775.800000
148.112100 177942.100000
149.095400 2229.200000
158.096300 27741.500000
159.104500 5292.500000
160.075500 8329.300000
160.112100 156863.100000
161.083300 9019.600000
161.120000 4277.900000
162.091300 29902.900000
172.112600 2812.200000
174.127600 11230.300000
175.135500 9790.700000
176.107000 13272.100000
176.143400 24722.100000
188.143300 8132.300000
193.109400 2260.100000
206.117500 47724.700000
234.148900 68022.600000

>ms2peaks
65.038500 2592.700000
70.065200 4841.400000
77.038600 12903.000000
79.054200 13571.500000
91.054200 133348.100000
92.062100 7445.900000
93.069900 106630.100000
99.067800 6027.900000
103.054200 30357.200000
104.049500 5832.300000
104.062100 8968.900000
105.044800 2775.400000
105.057300 11615.600000
105.069900 45142.800000
106.065200 12502.100000
107.072900 4091.900000
107.085400 2904.400000
108.080800 5672.200000
109.064800 6868.400000
115.054200 10446.900000
116.062100 4094.800000
117.057300 15310.100000
117.069900 29390.600000
118.065200 137069.900000
119.049200 8256.700000
119.073000 97905.100000
119.085500 45253.800000
120.080800 359415.800000
121.064800 3572.200000
129.069800 5115.500000
130.065100 18720.100000
131.072900 44119.100000
131.085400 5581.600000
132.044300 4647.300000
132.080800 66339.200000
133.052200 70736.500000
133.088600 59517.500000
134.096400 41139.800000
135.104200 12458.900000
143.072900 6617.200000
144.080800 16322.600000
145.088600 24564.100000
146.060000 41531.300000
146.096400 80395.500000
147.067900 71775.500000
147.091600 5259.000000
147.104300 7385.400000
148.075600 39583.300000
148.112100 66488.600000
158.096500 17239.000000
159.104500 2554.700000
160.075700 4567.300000
160.112000 70439.000000
161.083400 2443.400000
161.120200 1621.500000
162.091300 13173.400000
162.127900 2071.700000
172.111900 2132.800000
174.127800 4638.700000
176.106800 3479.100000
176.143300 5542.100000
206.117400 4907.900000

