>compound EA85849288
>parentmass 270.12550000000005
>ionization [M+H]+
>formula C14H20ClNO2
>rt 702.000000
>profile orbitrap
#smiles_iso CCC1=C(C(=CC=C1)CC)N(COC)C(=O)CCl
#smiles_can CCC1=C(C(=CC=C1)CC)N(COC)C(=O)CCl
#inchikey XCSGPAVHZFQHGE-UHFFFAOYSA-N
#pubchem_id 2078
#mb_accession EA027402,EA027403,EA027404,EA027405,EA027406,EA027407,EA027408,EA027409,EA027410,EA027411,EA027412,EA027413

>ms2peaks
90.010700 2761.800000
162.127500 37038.400000
208.088800 13479.600000
220.088300 8722.800000
224.083500 17161.700000
238.099200 573509.300000
270.125400 545935.800000

>ms2peaks
90.010400 10302.100000
145.101100 8674.100000
146.096500 4434.700000
162.127600 197225.500000
163.111200 10314.700000
206.073100 3406.100000
208.088400 31758.000000
220.088400 25262.900000
224.083500 38115.500000
238.099200 546052.700000
240.115400 3889.000000
270.125000 16502.000000

>ms2peaks
90.010500 32199.200000
134.096400 7332.900000
145.101100 9650.600000
146.096400 11956.700000
147.104200 9168.800000
148.112100 9729.200000
160.112600 5525.100000
161.119700 14687.300000
162.127800 298426.100000
163.111700 64470.800000
172.112100 8861.100000
173.083400 3048.600000
174.090800 4047.500000
184.112000 4902.700000
206.073500 12904.700000
208.088700 15080.000000
210.068200 5757.200000
220.088600 29067.000000
224.083100 15091.700000
238.099300 118830.600000

>ms2peaks
90.010500 24884.600000
105.069600 3697.600000
131.073600 3700.000000
132.080700 10939.700000
133.088800 3453.800000
134.096200 11996.000000
144.081000 6695.900000
145.101700 4782.200000
146.096300 18445.800000
147.104200 87341.800000
148.111800 10325.100000
160.112300 3178.800000
161.120300 7935.700000
162.127600 215291.300000
163.111500 45214.900000
170.095900 3269.700000
171.104500 3410.200000
173.083300 4330.000000
184.112100 3262.700000
206.072700 11636.000000
220.088900 9419.500000

>ms2peaks
76.979000 2874.200000
90.010400 19771.400000
91.054700 3089.400000
105.070000 5041.000000
118.064600 6457.500000
119.073000 4420.000000
120.080800 4573.100000
130.065200 4620.900000
131.072900 4637.800000
132.080900 38204.200000
133.088200 6437.900000
134.096300 9040.900000
144.080800 8495.000000
146.096600 23319.200000
147.104300 132270.500000
158.096500 3167.700000
162.127800 86342.600000
163.111700 14513.500000
170.096400 5266.900000
171.104100 5247.300000

>ms2peaks
90.010500 9418.800000
91.054500 5550.600000
105.069900 7603.300000
117.057300 6721.400000
118.065200 8722.000000
119.073000 6996.400000
120.081100 5021.000000
130.064800 4906.000000
131.072900 4680.600000
132.080700 77964.200000
133.088900 6171.500000
134.096900 4103.600000
144.080900 9460.900000
146.096600 26317.800000
147.104200 84038.100000
158.096100 4498.800000
162.127700 28781.100000
163.111600 3819.300000

>ms2peaks
162.127800 31389.800000
208.089000 14230.400000
220.088300 5716.300000
224.083900 18090.800000
238.099400 528349.200000
240.116100 2911.600000
270.125600 487528.100000

>ms2peaks
90.010500 9611.000000
145.101300 9892.200000
146.096200 2649.200000
160.112200 3464.600000
161.119900 3588.100000
162.127800 180371.000000
163.111600 11366.000000
172.112100 3759.000000
206.072800 4320.600000
208.088800 30421.500000
220.088900 25580.600000
224.083600 35039.300000
238.099300 527562.900000
240.115500 3783.800000
270.125400 20309.100000

>ms2peaks
90.010500 24739.700000
134.096300 3814.400000
144.081100 2897.000000
145.101100 8292.300000
146.096500 10295.900000
147.104400 12606.600000
148.112000 10356.900000
160.112100 5373.800000
161.120000 9242.000000
162.127800 242173.300000
163.111800 52389.300000
172.112200 2671.100000
173.083300 2776.200000
174.090900 4439.500000
206.073100 12250.100000
208.088800 13773.700000
210.067900 4135.700000
220.088800 23669.800000
224.083700 10701.900000
238.099200 101803.700000

>ms2peaks
76.979000 2392.200000
90.010500 16643.600000
105.069700 3134.900000
118.065400 2991.200000
119.085000 2610.400000
120.080800 2391.500000
132.080600 8980.900000
133.088800 3696.900000
134.096300 9800.500000
144.080900 6462.800000
145.101200 3672.600000
146.096500 15607.500000
147.104200 67721.300000
148.112100 5631.500000
160.112800 2707.900000
161.119700 6988.900000
162.127800 183376.700000
163.111700 38617.800000
170.095900 2890.600000
172.111900 5522.800000
184.112600 4576.800000
206.073300 10602.500000
220.088400 7363.000000
238.099200 9698.500000

>ms2peaks
90.010400 13602.300000
105.069900 7306.600000
118.064800 4192.100000
119.072600 4385.100000
119.085300 2345.200000
120.080600 3186.600000
130.065100 3490.700000
132.080700 32562.100000
133.088600 8012.400000
134.096500 5925.700000
144.080800 4963.800000
146.096400 25745.200000
147.104200 111187.800000
158.096000 4338.500000
161.119400 2956.800000
162.127700 73752.200000
163.111600 13092.300000
170.096400 3857.400000
171.104000 3522.400000
184.112100 2441.800000

>ms2peaks
90.010500 7451.800000
91.054200 4398.800000
105.069900 5434.400000
117.057300 5938.200000
118.065200 4986.700000
119.072900 7172.300000
120.080800 2371.400000
130.065200 4262.400000
131.072900 3260.400000
132.080700 65852.400000
133.088600 4306.600000
134.096400 2509.400000
144.080800 4395.000000
146.096400 22176.400000
147.104200 58403.400000
158.096400 6426.800000
162.127700 20709.500000
163.111600 5422.300000
170.096300 3675.400000
171.104300 3398.700000

