>compound EA85275539
>parentmass 215.0469
>ionization [M+H]+
>formula C10H11ClO3
>rt 600.000000
>profile orbitrap
#smiles_iso CC(C)(C(=O)O)OC1=CC=C(C=C1)Cl
#smiles_can CC(C)(C(=O)O)OC1=CC=C(C=C1)Cl
#inchikey TXCGAZHTZHNUAI-UHFFFAOYSA-N
#pubchem_id 2797
#mb_accession EA020403,EA020404,EA020409,EA020411,EA020413

>ms2
77.038500 5014.200000
105.044800 3846.400000
159.030900 8818.700000

>ms2
53.038600 3797.800000
77.038700 11041.700000
95.049600 4618.900000
105.045000 5962.200000

>ms2
53.038500 2683.500000
77.038400 8001.800000
95.049100 2433.300000
159.030100 8885.900000
169.017100 3495.800000

>ms2
53.038500 4767.300000
77.038500 4637.200000
95.049200 3448.800000
96.052600 3816.500000
105.044700 6827.800000

>ms2
53.038600 4232.200000
77.038400 5214.900000
95.048800 2677.900000
96.052500 3464.300000
105.044600 3631.100000

