>compound EA86974327
>parentmass 331.01499999999993
>ionization [M+H]+
>formula C12H11ClN2O5S
>rt 408.000000
>profile orbitrap
#smiles_iso C1=COC(=C1)CNC2=CC(=C(C=C2C(=O)O)S(=O)(=O)N)Cl
#smiles_can C1=COC(=C1)CNC2=CC(=C(C=C2C(=O)O)S(=O)(=O)N)Cl
#inchikey ZZUFCTLCJUWOSV-UHFFFAOYSA-N
#pubchem_id 3440
#mb_accession EA260002,EA260003,EA260004,EA260005,EA260006,EA260007,EA260008,EA260009,EA260010,EA260011,EA260012,EA260013

>ms2
81.033500 71051.900000
98.984000 19373.000000
174.992400 4271.900000
176.989200 11515.900000
252.997000 9433.900000
254.993500 3892.600000

>ms2
81.033500 60515.800000
98.984100 45569.200000

>ms2
81.033500 49484.700000
98.984100 50761.400000

>ms2
81.033400 42383.000000
98.984100 44966.700000

>ms2
81.033400 25342.100000
98.984100 40918.400000

>ms2
81.033300 13750.800000
98.984000 32820.800000
195.948400 2956.400000

>ms2
81.033400 30871.400000
98.984100 21778.600000
174.991700 3562.400000
176.988800 8934.300000
252.996600 11353.600000
254.993500 5603.700000

>ms2
81.033400 27028.800000
98.984100 47304.300000
195.950200 1846.000000
262.988800 1939.500000

>ms2
81.033400 22938.500000
98.984100 43012.800000

>ms2
81.033400 15675.700000
98.984100 41521.600000

>ms2
81.033400 10162.800000
98.984100 38625.300000

>ms2
81.033500 6333.500000
98.984100 30185.000000

