>compound EA86964020
>parentmass 376.03809999999993
>ionization [M+H]+
>formula C15H16Cl3N3O2
>rt 732.000000
>profile orbitrap
#smiles_iso CCCN(CCOC1=C(C=C(C=C1Cl)Cl)Cl)C(=O)N2C=CN=C2
#smiles_can CCCN(CCOC1=C(C=C(C=C1Cl)Cl)Cl)C(=O)N2C=CN=C2
#inchikey TVLSRXXIMLFWEO-UHFFFAOYSA-N
#pubchem_id 73665
#mb_accession EA009602,EA009603,EA009604,EA009605,EA009606,EA009607,EA009608,EA009609,EA009610,EA009611,EA009612,EA009613

>ms2
265.953900 31207.200000
308.000300 232184.600000
376.039700 20867.500000

>ms2
70.028700 40274.700000
70.065200 10334.300000
201.983300 3853.900000
222.947800 6479.800000
265.953300 36643.900000
308.000300 96635.700000

>ms2
56.049300 3852.000000
70.028700 42829.500000
70.065100 47220.700000
174.970300 3851.900000
194.916100 8351.100000
201.982900 4397.600000
222.947900 13433.000000
265.952600 5986.100000
307.999600 8432.400000

>ms2
56.049500 3416.000000
70.028800 33976.100000
70.065200 27998.600000
166.921200 3482.800000
194.916300 11766.400000
206.927800 7533.700000

>ms2
56.049700 3553.500000
70.028700 41496.400000
70.065100 20434.900000
132.960200 4471.300000
158.976200 5630.000000
161.963200 10595.700000
166.921500 13467.600000
194.916500 9970.100000
206.927500 10561.300000

>ms2
56.049400 3000.100000
70.028700 26783.300000
70.065300 11690.300000
132.960500 12107.400000
142.944400 6591.700000
158.975700 3292.100000
161.963400 9566.600000
166.921500 28252.100000
206.927000 7413.400000

>ms2
70.028700 12826.400000
85.088600 1862.600000
201.982000 2734.400000
244.029100 3793.600000
265.953400 83644.100000
280.005200 12160.600000
308.000500 639010.000000
376.037600 42987.600000

>ms2
56.049400 8246.800000
70.028700 97813.700000
70.065100 37427.000000
174.971200 6232.000000
194.916500 6494.500000
201.982100 17521.700000
222.947800 23489.700000
244.028900 18722.400000
265.953500 92745.000000
280.005400 39287.000000
308.000300 281910.000000

>ms2
56.049400 7326.200000
70.028700 95215.300000
70.065100 101761.100000
85.088600 4416.300000
98.060100 4370.300000
173.987200 3499.200000
174.971100 9224.800000
194.916500 22283.600000
196.932100 6921.500000
201.981900 12459.900000
222.947800 36881.500000
244.028500 4121.200000
265.953200 7972.300000
308.000500 14152.700000

>ms2
56.049400 7042.200000
70.028700 76029.500000
70.065100 56706.700000
85.088300 2310.000000
98.059900 1701.700000
158.976300 6583.000000
161.963500 7851.900000
166.921500 6214.400000
173.987700 2816.600000
174.970900 4496.200000
179.929400 3426.100000
194.916400 26558.700000
196.932100 17723.100000
206.927800 8107.900000
222.947800 8179.300000

>ms2
56.049400 4916.700000
70.028700 56788.200000
70.065100 28941.300000
132.960600 7312.400000
158.976300 4992.100000
161.963300 14280.200000
166.921600 21128.200000
194.916500 13396.600000
196.932300 5892.100000
206.928000 5232.000000

>ms2
56.049400 3721.500000
70.028700 25474.900000
70.065100 12893.300000
132.960600 15016.000000
142.944800 3218.600000
158.976100 5027.600000
161.963300 13084.800000
166.921600 33956.900000
179.929400 5420.400000
194.916400 4582.600000
206.927500 3927.700000

