>compound EA86335261
>parentmass 271.1077
>ionization [M+H]+
>formula C15H14N2O3
>rt 366.000000
>profile orbitrap
#smiles_iso C1=CC=C2C(=C1)[C@@H]([C@H](C3=CC=CC=C3N2C(=O)N)O)O
#smiles_can C1=CC=C2C(=C1)C(C(C3=CC=CC=C3N2C(=O)N)O)O
#inchikey PRGQOPPDPVELEG-KBPBESRZSA-N
#pubchem_id 114725
#mb_accession EA270102,EA270103,EA270104,EA270105,EA270106,EA270107,EA270108,EA270109,EA270110,EA270111,EA270112,EA270113

>ms2
180.080700 451198.000000
182.097000 57472.400000
208.076100 94519.500000
210.091400 1913052.600000
236.070700 3062696.800000
253.097300 10366138.100000
254.081200 1097777.500000
271.107900 417208.700000

>ms2
179.073000 16258.500000
180.080900 3793545.600000
181.089200 18482.600000
182.096500 409707.700000
192.080900 34771.700000
208.076000 705006.400000
210.091500 5987289.400000
236.070800 4670603.300000
253.097600 774254.900000
254.081300 2054265.500000
268.095600 12882.100000

>ms2
180.080900 7176683.800000
181.088800 264913.500000
182.096500 1802712.500000
192.081100 49175.400000
193.089400 14107.400000
208.075900 261083.200000
210.091400 4162992.000000
236.070900 468677.200000
254.081400 200735.900000

>ms2
165.070000 61582.200000
167.073100 207188.700000
179.073300 19864.200000
180.080900 8145523.000000
181.088700 301018.300000
182.096400 2686040.400000
192.080800 52332.300000
193.088800 46685.100000
208.076100 54256.600000
209.083800 9984.000000
210.091400 1218204.100000
253.106200 59705.200000

>ms2
117.057200 10648.600000
152.061900 37056.800000
153.069800 22693.100000
165.069900 136545.200000
167.073000 760255.800000
178.065100 12456.000000
179.073100 75657.800000
180.080800 8999025.200000
181.088700 131927.200000
182.096300 1530227.900000
191.072900 12982.500000
192.081300 31385.900000
193.088600 120661.100000
195.067200 10449.300000
208.076300 28248.500000
210.091700 189358.800000
236.070900 10268.200000
253.107200 63469.000000

>ms2
117.057500 18325.500000
128.049100 20769.900000
151.054500 14423.400000
152.062000 206143.800000
153.069900 61345.400000
154.065100 23901.800000
165.070000 166323.600000
166.064900 14313.200000
167.073000 1128554.100000
169.064700 10434.600000
178.065100 69100.500000
179.073100 313082.800000
180.080800 7967928.500000
181.088800 63114.000000
182.096400 474960.000000
191.073100 29914.700000
192.080900 34130.600000
193.088600 130723.700000
208.076600 13510.600000
253.105000 40903.300000

>ms2
180.080600 281411.300000
182.096600 27678.100000
208.075700 69109.200000
210.091300 1249988.400000
236.070600 2030861.800000
253.097100 6803976.100000
254.081100 693282.400000
271.107700 269490.600000

>ms2
180.080800 2184349.600000
181.088400 14194.000000
182.096400 227297.200000
192.081000 20854.900000
208.075800 349764.100000
210.091400 3316735.500000
236.070700 2738496.500000
253.097200 401215.000000
254.081100 1207316.500000

>ms2
165.070100 7740.700000
167.072400 7638.300000
180.080800 4454945.900000
181.088600 156526.300000
182.096400 1092423.500000
192.080800 30158.100000
193.088400 5587.700000
208.075700 165834.600000
210.091400 2521457.300000
236.070600 253341.000000
253.097700 6676.000000
254.081300 106827.100000

>ms2
165.069800 42017.000000
167.073000 128584.200000
179.072100 11486.700000
180.080800 5292656.200000
181.088600 200626.800000
182.096400 1701667.600000
192.080900 32794.800000
193.088800 29906.000000
208.075600 39331.300000
209.082900 6371.300000
210.091400 756366.800000
236.071000 7795.500000
253.107600 9376.800000

>ms2
117.057200 5872.100000
152.062000 17548.000000
153.069900 8254.500000
165.069900 71966.900000
167.072900 416671.200000
179.073000 34379.000000
180.080800 4956642.100000
181.088500 73069.700000
182.096400 854238.200000
191.073000 8705.100000
192.080700 19783.600000
193.088500 61913.200000
195.067700 5962.900000
208.075800 12331.600000
210.091500 97877.700000

>ms2
117.057300 7890.700000
128.049600 6765.100000
151.054300 7613.600000
152.062000 101317.200000
153.069900 34329.900000
154.065100 12474.700000
165.069900 77806.800000
167.072900 573983.600000
169.064800 4514.500000
178.065200 32045.300000
179.072900 155694.000000
180.080800 4109436.700000
181.088500 30523.900000
182.096400 234910.900000
191.072900 13352.600000
192.080700 18421.000000
193.088500 66869.600000
195.068000 6006.200000
208.075900 8241.100000
210.091500 11408.000000

