>compound EA87565016
>parentmass 268.19070000000005
>ionization [M+H]+
>formula C15H25NO3
>rt 306.000000
>profile orbitrap
#smiles_iso CC(C)NCC(COC1=CC=C(C=C1)CCOC)O
#smiles_can CC(C)NCC(COC1=CC=C(C=C1)CCOC)O
#inchikey IUBSYMUCCVWXPE-UHFFFAOYSA-N
#pubchem_id 4171
#mb_accession EA017202,EA017203,EA017204,EA017205,EA017206,EA017207,EA017208,EA017209,EA017210,EA017211,EA017212,EA017213

>ms2peaks
268.191000 43913113.900000

>ms2peaks
72.080800 527773.500000
74.060100 589456.100000
98.096500 733491.700000
116.107000 2039836.000000
121.064700 519505.000000
133.065200 163279.000000
159.080600 388753.100000
176.106900 390458.900000
177.090800 212170.700000
191.106900 1463479.300000
194.118100 205669.500000
218.154300 600981.000000
226.143200 986180.200000
250.180600 533612.100000
268.190400 39061782.000000

>ms2peaks
56.049500 737987.100000
58.065100 183622.700000
72.080800 1601197.600000
74.060100 2427236.100000
93.069600 47017.900000
98.096400 2170307.600000
100.112500 60568.300000
105.069900 181402.500000
116.107000 3614217.500000
121.064800 1933076.600000
131.085600 254255.800000
133.064800 1875703.300000
135.080800 74164.900000
141.069900 61404.500000
147.080500 254648.600000
148.075600 363033.200000
159.080500 2311098.100000
161.095800 135640.500000
163.111900 99227.100000
165.091000 529839.100000
169.075800 52396.100000
176.107000 893590.700000
177.090900 544225.700000
179.106600 125942.600000
191.106700 2296958.500000
194.117500 250892.200000
218.153900 411005.700000
226.143800 713717.600000
250.179700 223706.400000
268.190400 5822570.700000

>ms2peaks
56.049400 1003858.700000
58.065200 235986.000000
72.080700 1517123.100000
74.060000 2549353.700000
84.080600 98744.100000
91.054600 215678.900000
93.069900 133284.200000
98.096300 1095707.900000
103.054200 262031.800000
105.070000 690242.000000
116.106900 1748323.400000
119.085300 111469.000000
121.064700 1978296.300000
129.069800 130658.100000
131.085500 600464.200000
133.064700 3245496.100000
135.080900 233814.800000
141.070100 134460.800000
144.057000 175115.600000
147.080400 249182.000000
148.075400 569367.200000
159.080200 1759260.900000
163.086600 471134.900000
165.090700 280854.600000
176.106800 305151.600000
177.091100 290003.700000
191.106900 377333.100000

>ms2peaks
56.049500 836676.400000
58.065000 210464.400000
72.080700 716042.500000
74.060000 1653474.100000
77.038300 145081.800000
79.054100 289297.100000
91.054100 732560.300000
98.096300 317644.900000
103.054200 1439491.500000
105.070000 1194848.500000
115.054700 246585.300000
116.106800 440220.900000
121.064800 1670550.300000
131.085700 423985.800000
133.064900 1982351.300000
135.080400 352474.600000
148.075900 466519.000000
159.080600 461198.400000
163.086300 663880.200000

>ms2peaks
53.038300 59984.000000
56.049400 644667.700000
58.065100 165320.900000
72.080700 299234.800000
74.060100 790766.800000
77.038600 442187.300000
79.054200 530709.000000
84.080700 92369.500000
91.054200 908028.800000
93.069900 325955.600000
98.096400 84207.300000
100.112100 128439.900000
103.054200 2045622.500000
104.061900 57741.300000
105.044600 107080.600000
105.069800 1182703.700000
107.049600 86409.500000
115.053900 170648.000000
116.062300 166981.800000
116.106500 48346.300000
119.085600 52959.900000
120.057500 51097.200000
121.064700 936635.200000
129.070000 107107.300000
131.048600 55381.000000
131.085400 145857.900000
133.064800 640120.400000
135.080700 107079.900000
144.056800 263517.700000
148.076100 193318.000000
159.080100 44640.200000
163.086100 160302.600000

>ms2peaks
268.190900 36601912.200000

>ms2peaks
56.049400 89546.400000
72.080800 362645.400000
74.060000 540296.600000
98.096400 594258.400000
116.107000 1922862.300000
121.064800 415926.100000
133.064700 128834.700000
159.080400 465733.600000
165.091200 109409.600000
176.107000 430206.400000
177.091100 225562.300000
191.106600 1247659.000000
194.117700 180271.400000
218.154000 510138.400000
226.143800 796892.800000
250.180000 460703.100000
268.191000 34926887.000000

>ms2peaks
56.049500 548206.200000
58.065200 189960.700000
72.080800 1167586.600000
74.060100 1897326.700000
91.053900 61613.100000
98.096500 1678707.600000
105.069900 139372.500000
107.085300 28309.500000
116.107100 2886904.500000
117.069700 39817.300000
119.085600 40766.100000
121.064800 1483393.000000
131.085500 166183.700000
133.064900 1542741.400000
135.080600 72681.700000
141.070100 28222.400000
144.057100 55124.600000
147.080500 194023.400000
148.075800 249596.700000
151.074900 40781.800000
159.080500 1803410.100000
161.095300 58030.900000
163.086400 57102.200000
163.111800 91465.700000
165.091100 363806.000000
169.076100 40166.100000
176.107000 680056.600000
177.091100 492903.200000
179.107000 60618.500000
191.106700 1808035.700000
194.117500 154323.500000
218.154000 337863.200000
226.143800 475232.400000
250.180200 129528.800000
268.190800 4715927.000000

>ms2peaks
56.049500 694921.500000
58.065200 152333.800000
70.065200 24955.100000
72.080800 1002756.100000
74.060100 1609410.700000
79.054200 61061.800000
84.080800 70714.600000
91.054200 200368.100000
93.069800 53280.300000
98.096400 811046.800000
100.112100 78278.400000
103.054200 145415.100000
105.069900 464631.000000
107.049100 40508.700000
107.085700 33215.900000
115.054200 30074.000000
116.107000 1274374.000000
117.070000 57210.300000
119.085700 67649.800000
121.064800 1428330.200000
129.070000 96700.500000
131.049200 53392.000000
131.085600 358480.400000
133.064800 2283913.700000
135.080400 160537.000000
141.069900 67001.400000
144.056900 105446.000000
147.080500 234084.800000
148.075700 477591.900000
151.075300 37537.300000
159.080400 1066111.600000
161.095900 37903.100000
163.086600 407504.600000
163.111600 41520.400000
165.091000 172781.400000
169.075200 41125.500000
176.107000 122355.600000
177.091100 123443.200000
191.106600 325527.600000

>ms2peaks
56.049500 589458.900000
58.065100 128205.900000
70.065400 20602.500000
72.080800 464290.500000
74.060000 984800.400000
77.038600 73411.100000
79.054200 270788.300000
84.080800 62555.900000
91.054200 465267.700000
93.069900 124870.500000
98.096400 273946.800000
100.112000 138000.900000
103.054200 819731.700000
104.062300 26738.500000
105.069900 997014.600000
107.049300 27685.400000
115.054100 105797.600000
116.061900 80190.800000
116.106900 316587.000000
117.070000 83327.800000
119.049600 31949.600000
119.085500 59776.800000
120.056800 55096.600000
121.064800 1096230.300000
129.069800 109742.200000
131.049400 75981.900000
131.085500 264501.600000
133.064800 1403206.800000
135.080400 118621.800000
141.069800 102843.200000
144.057000 157888.900000
147.080300 76686.100000
148.075700 293549.200000
159.080500 312166.100000
163.086500 393278.700000
165.091300 30054.600000
177.090700 25565.500000
191.107200 46549.000000

>ms2peaks
53.038500 16523.200000
56.049500 395686.800000
58.065100 87111.200000
72.080800 230662.700000
74.060000 535153.300000
77.038600 227006.800000
79.054200 323503.000000
84.080800 55233.700000
91.054200 652601.800000
93.069900 124079.700000
98.096500 38778.000000
100.112000 55519.300000
103.054200 1336442.800000
104.062100 53036.900000
105.044600 78230.400000
105.069900 802462.200000
107.049100 38457.400000
115.054200 176078.100000
116.062000 129543.800000
116.107000 99141.100000
117.070000 44375.900000
119.049100 23040.300000
119.085400 18709.900000
120.056900 60568.300000
121.064800 566224.500000
129.069900 50596.900000
131.049100 36119.900000
131.085500 71430.500000
133.064700 390763.000000
135.080400 70354.600000
141.069800 53443.700000
144.056900 145701.500000
147.080500 22736.300000
148.075600 100688.800000
159.080300 37993.200000
163.086600 116590.700000

