>compound EA87201571
>parentmass 406.07200000000006
>ionization [M+H]+
>formula C19H17Cl2N3O3
>rt 846.000000
>profile orbitrap
#smiles_iso CC1COC(O1)(CN2C=NC=N2)C3=C(C=C(C=C3)OC4=CC=C(C=C4)Cl)Cl
#smiles_can CC1COC(O1)(CN2C=NC=N2)C3=C(C=C(C=C3)OC4=CC=C(C=C4)Cl)Cl
#inchikey BQYJATMQXGBDHF-UHFFFAOYSA-N
#pubchem_id 86173
#mb_accession EA293402,EA293403,EA293404,EA293405,EA293406,EA293407,EA293408,EA293409,EA293410,EA293411,EA293412,EA293413

>ms2
251.002700 312062.000000
337.039500 1125128.200000
406.072200 29812905.700000

>ms2
70.040200 55105.100000
139.030700 73518.300000
163.031500 34443.800000
164.038500 149438.900000
188.025200 26522.900000
188.041300 42569.800000
210.045500 29321.400000
251.002600 25607222.400000
264.982300 70489.200000
279.034300 91950.600000
291.033700 1393796.200000
295.999000 28434.200000
309.007700 60964.400000
309.045900 35505.600000
323.023200 580931.600000
337.039100 6052528.900000
348.029200 40577.300000
406.073000 5578422.000000
408.076500 34445.700000

>ms2
70.039900 32271.100000
126.994600 53290.200000
129.069800 104374.000000
141.009400 36980.500000
152.061800 53954.500000
163.030600 32462.700000
164.038600 331842.200000
181.064100 47740.400000
187.030900 162335.500000
188.038500 279089.400000
223.007600 301032.300000
251.002300 31009453.100000
256.063300 48639.300000
261.993600 91460.700000
263.002200 51247.900000
264.981700 1061521.400000
273.031400 52234.400000
291.033800 510898.500000
323.023300 387431.800000
337.036800 69110.600000

>ms2
70.040100 41423.000000
86.999900 25588.800000
110.999100 125195.100000
117.070300 31303.500000
126.994400 54118.900000
128.061800 26640.500000
129.010200 26076.800000
129.069900 294422.600000
139.005700 793667.800000
141.010100 596407.500000
149.015300 31411.600000
152.062000 1142759.100000
153.069800 579346.500000
164.038600 122156.600000
179.059700 46639.000000
181.064700 665908.100000
182.975900 40569.600000
187.030800 1136889.100000
188.038700 3662990.300000
202.017900 68458.500000
208.992800 24079.900000
215.026000 465635.600000
216.033400 357118.000000
223.007500 2361315.000000
251.002500 21623607.400000
261.993800 66260.400000
263.002000 30642.800000
264.981700 2026495.400000
273.031000 48273.800000
291.034000 73067.900000

>ms2
51.022800 72893.600000
70.040200 37006.700000
75.022900 85233.500000
77.038700 39265.000000
79.017800 46167.500000
86.999500 252959.400000
93.033800 28132.900000
98.999500 57055.300000
105.033500 23398.100000
110.999500 637948.100000
114.994700 35739.000000
115.054200 29165.500000
128.062000 31520.900000
129.010000 156693.100000
129.069900 321057.700000
139.005700 4259481.700000
140.002400 34323.800000
141.010200 2222784.100000
149.015100 88691.900000
151.054200 73375.900000
152.062000 2552363.900000
153.069800 2005084.700000
162.023000 37134.700000
173.015100 73822.400000
174.022500 40102.900000
179.060200 101952.900000
180.056700 34402.000000
181.064800 1485116.900000
182.975900 101874.500000
187.030800 977094.700000
188.038700 6028494.200000
202.018000 454938.700000
208.991700 228055.700000
215.025800 930904.100000
216.033500 369081.800000
223.007500 2015746.500000
251.002800 6222380.200000
261.995300 32691.000000
264.981600 1391856.100000
273.031900 20459.800000

>ms2
50.014900 38572.500000
51.022900 121336.700000
53.002200 22191.400000
70.040000 50878.200000
74.015000 30523.900000
75.022900 816994.600000
77.038500 71294.100000
79.018100 54104.800000
80.025700 44623.600000
84.055700 19898.600000
84.983700 31585.100000
86.999600 478306.400000
88.978500 34444.300000
89.038400 62476.800000
93.033400 36503.900000
98.999700 77790.300000
105.044700 31652.000000
110.999500 1436052.500000
114.994200 38979.700000
115.054100 39503.900000
117.069700 30511.600000
124.007500 45150.800000
125.015200 32147.000000
128.061900 112911.100000
129.010100 301501.800000
129.069800 205689.400000
137.986400 22380.600000
139.005700 7325633.900000
140.003100 59245.100000
141.010100 3265357.300000
149.015300 206299.800000
151.053900 169423.100000
152.062000 3105759.200000
153.069800 3235468.300000
154.989300 133354.100000
162.023000 139940.900000
163.030600 18628.300000
169.065700 23672.000000
173.015100 254427.300000
174.022700 128836.000000
179.060100 140756.200000
180.056800 32876.700000
181.064700 1511745.900000
182.976000 171340.900000
186.023000 47158.700000
187.030600 509942.300000
188.038600 4180087.400000
202.017800 890091.500000
208.991800 386069.700000
215.025700 692462.500000
216.033500 116246.800000
223.007400 639501.700000
228.033400 24943.700000
251.001800 727297.700000
264.981700 414410.000000
337.036800 25321.000000
408.074400 17533.600000

>ms2
337.038800 878953.500000
406.071200 24544115.500000

>ms2
70.040000 43657.800000
139.030900 58775.600000
163.031100 34844.900000
164.038600 110760.100000
210.044200 33452.400000
251.002300 23028586.300000
263.002000 40558.300000
264.981000 54005.100000
273.031100 43091.700000
279.033500 88115.200000
291.033400 1267106.100000
294.990900 24359.500000
309.008000 66436.400000
309.044200 49521.300000
323.023100 516684.300000
337.039100 5463002.900000
348.030000 30141.700000
406.071800 4465919.200000

>ms2
126.994300 45533.800000
129.069800 83395.500000
139.030800 35153.500000
141.010300 30999.100000
152.061800 37221.700000
164.038600 305333.200000
181.064500 46281.100000
187.030800 131036.100000
188.038600 278276.300000
215.025300 57338.400000
223.007300 254069.800000
251.002200 28318454.700000
256.064400 58618.700000
261.994200 62740.600000
263.002000 55905.000000
264.981500 974995.800000
273.030500 38525.000000
279.033300 39506.300000
291.033300 430090.200000
295.999500 39286.400000
323.023200 366893.900000

>ms2
70.039900 23044.600000
86.999500 30405.800000
98.999700 20336.700000
110.999300 86147.900000
115.053800 17594.800000
126.994400 33634.700000
128.062300 18100.500000
129.010000 16241.800000
129.069800 216604.800000
139.005600 579737.400000
141.010100 421543.300000
149.015500 21820.700000
151.053800 16217.100000
152.061900 877395.300000
153.069800 458632.800000
163.030800 26569.500000
164.038500 87728.500000
179.060200 53270.000000
180.057000 16063.400000
181.064700 499013.500000
182.976200 33492.300000
187.030800 860025.500000
188.038700 2899888.500000
202.017600 44338.900000
208.991700 24104.000000
215.025700 378633.400000
215.037200 34063.500000
216.033500 269847.200000
223.007500 1826859.900000
251.002300 15669887.300000
256.065000 20660.600000
261.994100 43959.900000
263.002500 31167.100000
264.981600 1612391.800000
273.030900 33334.600000
291.033200 60678.300000
323.023100 15981.300000
337.026900 16126.700000

>ms2
50.015100 11559.400000
51.022900 46937.500000
70.040000 29168.100000
75.022900 67445.900000
77.038500 20371.300000
79.017800 18168.500000
80.025700 13283.000000
86.999600 174412.000000
88.978900 23800.700000
89.038600 12331.500000
93.033500 24618.200000
98.999500 50926.300000
103.054100 10986.100000
105.033100 12069.500000
110.999600 424998.200000
114.994500 21243.800000
115.054100 15887.100000
116.061500 11508.500000
117.069700 25724.100000
124.007500 17143.600000
125.015300 24733.800000
126.994500 27180.800000
128.062100 34744.300000
129.010100 107444.600000
129.069800 231642.700000
139.005800 3125233.700000
140.002900 27577.400000
141.010200 1605974.100000
149.015100 64506.300000
151.054200 76390.500000
152.062000 1883528.200000
153.069800 1397666.900000
154.989400 37381.600000
162.022700 15349.700000
163.030700 21605.500000
173.015100 58529.800000
174.023100 29882.300000
179.060200 76985.900000
180.057200 25719.000000
181.064800 1170055.400000
182.976100 75824.800000
186.023000 22648.300000
187.030900 796644.500000
188.038800 4306547.400000
202.017900 368784.000000
208.991800 198841.700000
215.025700 654598.300000
215.037500 40611.100000
216.033600 297142.900000
223.007500 1658123.600000
228.033900 18076.100000
232.991400 19072.800000
236.986800 37340.800000
251.002500 4177257.400000
261.993900 32017.100000
264.981700 1147280.400000
273.030200 10311.200000
337.027700 6726.500000
337.045900 33630.100000
339.033800 8053.400000

>ms2
50.015000 17450.300000
51.022900 83105.000000
53.002100 17694.800000
70.039900 28443.400000
74.014900 18604.100000
75.022900 506022.800000
77.038600 48204.600000
79.017900 30847.700000
80.025600 25414.100000
84.055700 10347.300000
84.983900 23984.000000
86.999600 290170.900000
88.978900 26202.800000
89.038500 26083.300000
93.033400 27783.300000
98.999600 56656.900000
103.054200 11973.000000
105.044600 18590.000000
110.999600 940771.400000
114.994500 33669.800000
115.054100 33630.900000
116.062100 16353.000000
117.069800 21579.600000
124.007400 26597.100000
125.015400 17594.500000
126.994400 13164.200000
128.062000 54422.700000
129.010100 180621.600000
129.069800 136234.900000
137.986500 24259.300000
139.005700 4610831.700000
140.002700 32005.400000
141.010200 2155374.500000
149.015200 132655.700000
151.054100 125598.900000
152.062000 2123007.600000
153.069900 2169501.100000
154.989300 75884.400000
162.022900 87321.200000
169.064800 12248.500000
173.015200 201594.300000
174.023000 93872.400000
179.060200 86096.400000
180.057000 27075.500000
181.064700 946810.000000
182.976200 116645.400000
186.023200 21645.600000
187.030800 330560.900000
188.038700 2837407.600000
195.958100 11384.500000
202.017900 598746.200000
208.991800 271596.800000
215.025700 465981.900000
216.033500 92837.200000
223.007400 419939.500000
228.033800 19865.600000
236.986700 25918.900000
251.002200 484265.400000
261.995100 16159.000000
264.981600 284021.700000
408.073700 10443.900000

