>compound EA87768279
>parentmass 342.17
>ionization [M+H]+
>formula C20H23NO4
>rt 186.000000
>profile orbitrap
#smiles_iso C1CC1CN2CC[C@]34[C@@H]5C(=O)CC[C@]3([C@H]2CC6=C4C(=C(C=C6)O)O5)O
#smiles_can C1CC1CN2CCC34C5C(=O)CCC3(C2CC6=C4C(=C(C=C6)O)O5)O
#inchikey DQCKKXVULJGBQN-XFWGSAIBSA-N
#pubchem_id 5360515
#mb_accession EA283002,EA283003,EA283004,EA283005,EA283006,EA283007,EA283008,EA283009,EA283010,EA283011,EA283012,EA283013

>ms2peaks
342.169900 3224023.400000

>ms2peaks
267.126200 20756.700000
324.159000 1013072.800000
342.169700 2256757.100000

>ms2peaks
55.054100 30004.900000
161.059200 9599.800000
173.059700 11445.300000
199.075700 10029.800000
201.115400 10774.000000
211.076300 9927.000000
215.069700 7039.500000
225.092100 6565.300000
226.086000 11065.500000
227.069600 25797.400000
227.105900 12462.400000
228.102200 45829.200000
241.085400 6448.500000
252.103100 10890.200000
254.117500 9877.200000
267.125200 263733.200000
270.112400 287031.600000
282.112400 52116.000000
282.148800 159110.000000
296.165000 7598.700000
306.149300 11939.400000
324.159300 1504644.600000
342.169200 277202.300000

>ms2peaks
55.054200 64986.300000
147.067400 12842.300000
148.075600 11295.100000
160.076300 8485.600000
161.059700 29841.100000
173.059600 26420.300000
174.054700 6807.500000
181.064700 20737.100000
185.059200 16959.600000
187.075300 9315.400000
195.081300 9092.800000
199.075500 25716.200000
200.106900 16506.800000
201.114100 8660.700000
207.079500 5798.600000
209.096300 9340.700000
210.091500 19535.500000
211.074900 31263.200000
212.070800 60956.500000
225.092100 5978.800000
226.086400 30646.100000
227.070000 27796.600000
227.095000 8747.000000
228.101700 115810.200000
240.102000 25805.600000
241.086300 8176.900000
241.110100 8665.500000
242.117100 14479.000000
252.101600 16564.400000
253.121300 6427.700000
254.117300 18381.500000
264.101500 6728.600000
267.125300 296101.100000
270.112300 212968.800000
282.113300 14696.400000
282.148800 152053.000000
324.159000 244816.700000

>ms2peaks
55.054200 77672.600000
118.064800 5284.400000
128.062100 4654.100000
129.069300 5268.900000
146.060100 8491.600000
147.067600 8594.700000
148.075400 9493.100000
153.069500 13203.300000
155.086200 5330.400000
160.075000 8596.400000
161.059800 48073.900000
165.069700 9549.500000
167.086100 8364.200000
169.065200 7027.200000
171.080100 6160.200000
173.059700 19620.800000
179.084900 7807.500000
181.065000 22002.800000
182.096900 8400.500000
183.081000 7033.500000
185.059800 19999.500000
195.080600 9534.700000
197.059200 6609.000000
198.066700 8008.500000
199.075500 22466.100000
200.070900 8734.000000
200.107300 13222.600000
210.091000 13872.200000
212.070600 195204.300000
213.079300 34873.400000
214.085600 6262.900000
225.091100 4351.200000
226.086300 53058.100000
227.070100 11559.200000
227.094400 5567.500000
228.101900 75433.000000
238.122100 5530.100000
241.110700 5242.500000
242.117300 9000.400000
252.101600 18120.600000
267.125300 112093.300000
270.112800 44840.900000
282.150000 17546.100000

>ms2peaks
53.038400 6149.900000
55.054200 56322.300000
80.049200 4329.900000
115.054100 9844.500000
118.064700 6253.700000
128.062300 5586.800000
129.069800 4870.900000
141.070000 8730.900000
145.064500 9833.100000
146.059900 6533.600000
147.044400 8116.300000
152.061900 10156.400000
153.069900 22828.700000
155.085500 9787.600000
156.081400 5889.400000
157.065100 11441.500000
160.076400 4467.000000
161.059400 35604.500000
165.069800 16354.100000
167.072900 5542.000000
168.080300 6581.100000
169.064700 7163.100000
171.043600 4610.900000
171.081200 5498.800000
173.060200 12810.700000
179.085600 6249.500000
180.081000 7882.600000
181.064400 12879.100000
184.052200 9159.900000
184.075500 32694.700000
185.060000 25676.300000
185.083500 5420.400000
194.096400 6001.900000
195.080700 5019.200000
196.074800 6826.400000
198.091400 8503.600000
200.071000 7210.700000
200.106900 7977.100000
210.092000 11584.900000
211.063600 26510.500000
212.070500 206561.800000
213.078400 25723.500000
226.085900 30736.900000
228.102700 15475.500000
238.123100 4634.000000
240.101900 8360.300000
252.101200 8249.700000
267.124800 13454.700000
270.111800 3899.000000

>ms2peaks
324.159600 6381.400000
342.170100 2023382.300000

>ms2peaks
267.125200 16706.600000
270.112500 15921.300000
282.111900 6352.400000
324.159200 649691.400000
342.169800 1484609.200000

>ms2peaks
55.054200 14934.500000
56.049400 2908.400000
148.075600 4511.700000
161.059500 5566.700000
173.060000 3761.600000
181.064900 3375.200000
185.059500 3016.000000
199.075900 6473.700000
201.115200 6651.200000
209.096300 2925.400000
210.090600 4129.400000
211.075200 5723.600000
213.079300 2702.300000
213.090800 4011.300000
215.070100 4520.100000
225.090600 4019.600000
226.086200 4724.900000
227.070500 24494.400000
227.106400 6702.700000
228.101800 21450.100000
240.101100 3185.600000
252.102000 5022.600000
253.122200 2824.000000
254.117500 6404.600000
264.101500 4099.100000
264.138100 3184.000000
267.125300 149844.000000
269.105100 4348.000000
270.112300 184284.600000
282.112700 29715.400000
282.148700 104698.300000
296.165400 8442.000000
306.147800 6899.200000
324.159400 951171.500000
342.169600 168166.300000

>ms2peaks
55.054200 39730.800000
56.049500 2370.500000
80.049500 2746.900000
82.065300 3729.000000
134.096200 5387.200000
137.059700 2227.200000
146.060100 4882.700000
147.044400 2967.200000
147.067800 6622.000000
148.075700 8283.100000
153.069600 3754.800000
157.064600 3222.500000
160.075700 5832.300000
161.059800 21712.400000
171.080500 2932.500000
173.059800 17171.600000
174.055100 3231.800000
181.064800 11381.400000
181.101500 2312.800000
185.059700 8461.900000
187.074900 3626.100000
195.080500 5566.800000
197.059800 3808.300000
199.075300 16071.300000
200.107100 7596.600000
201.091600 3600.900000
201.114700 4367.400000
207.080800 2439.300000
209.096500 2451.200000
210.091400 12609.900000
211.075300 16162.800000
212.070500 38072.200000
213.078600 10724.400000
213.091100 8896.200000
214.086400 5382.400000
215.070300 4998.500000
225.091300 6515.000000
226.086200 27836.000000
227.070300 11615.100000
227.105700 3361.100000
228.101900 71996.200000
238.123300 3000.400000
239.131100 4309.600000
240.102000 13737.900000
241.086100 6176.500000
241.109500 8193.800000
242.117500 6496.500000
252.101900 11422.600000
253.121100 2942.100000
254.117600 12348.600000
264.102700 2020.500000
264.138100 3017.200000
266.118200 4627.700000
267.125400 179336.300000
269.104500 4203.900000
270.112300 133433.200000
282.113100 11614.600000
282.148700 89802.600000
296.164100 6806.600000
324.159200 148701.300000

>ms2peaks
53.038500 4326.700000
55.054200 39488.500000
80.049500 4315.500000
82.065000 2025.300000
91.054200 2469.200000
118.065000 3155.700000
134.096800 2297.200000
137.059800 2431.600000
146.060100 4439.200000
147.043900 7943.300000
147.067800 7649.300000
148.075600 6761.600000
153.069800 7402.400000
155.085800 3108.500000
157.064700 7403.500000
160.075600 7151.900000
161.059800 24915.700000
165.069700 5511.300000
167.085200 6427.600000
169.064300 3346.700000
171.080200 4795.200000
173.059700 14323.200000
174.055000 2888.100000
179.085700 2891.400000
181.064800 10751.200000
181.101000 3372.100000
182.097000 6109.800000
183.080100 6200.200000
184.051700 2680.300000
184.075800 8534.100000
185.059500 11830.500000
187.075400 4910.700000
195.080300 7005.700000
196.075600 2693.100000
198.067600 4096.800000
198.091100 8286.100000
199.075500 14081.300000
200.070400 6882.600000
200.107100 9397.900000
201.091600 4546.400000
207.080000 3688.500000
210.091400 12208.500000
211.075300 13504.800000
212.070600 116392.100000
213.078400 15688.100000
213.091100 7284.300000
225.091300 2804.600000
226.086200 29539.900000
227.070600 8170.200000
227.093900 5064.500000
228.101900 45882.600000
238.122600 6078.700000
239.130700 3345.100000
240.101700 15149.000000
241.110500 2352.900000
242.117500 5546.100000
252.101900 10235.000000
254.117900 5493.500000
266.117100 3602.900000
267.125200 64129.000000
270.112300 20492.300000
282.148800 8745.300000
324.159400 4150.200000

>ms2peaks
53.038500 1983.800000
55.054200 27333.800000
80.049500 2152.600000
91.054200 2937.500000
115.054200 5395.500000
118.065100 6124.700000
128.062000 4218.600000
129.069800 6592.700000
141.069900 5393.700000
145.064700 4742.600000
146.060000 3145.500000
147.044100 3058.200000
147.067800 3215.000000
148.075600 1511.000000
152.062100 4224.100000
153.069800 9075.900000
155.085200 2924.000000
156.080700 1946.500000
157.064700 7462.800000
160.075700 3334.900000
161.059600 18689.700000
165.069800 7083.400000
167.072900 3190.100000
167.085400 5025.800000
168.080600 2460.700000
169.064800 3976.300000
171.044000 3753.200000
171.080600 3330.200000
173.059600 5602.700000
174.055100 1505.800000
179.085500 3160.600000
180.080700 1765.800000
181.064800 8563.600000
182.096500 5357.100000
183.080200 3011.500000
184.051900 2003.900000
184.075600 12977.600000
185.059600 11378.500000
185.083600 3319.800000
194.096700 1433.300000
195.080200 2416.600000
196.075500 5442.700000
197.059200 3160.700000
198.067300 2416.900000
198.091100 4651.600000
199.075300 7799.300000
200.070400 3935.600000
200.106900 2513.300000
210.091200 5880.800000
211.062800 11446.000000
211.075300 7836.400000
212.070500 109379.800000
213.078400 12738.400000
213.090600 1917.900000
214.086500 2075.100000
226.086300 18692.900000
227.070400 2177.800000
228.101900 7350.700000
238.122400 2511.700000
240.101700 3455.000000
252.101500 3446.900000
266.117200 2558.500000
267.125000 5858.000000

