>compound EA88080186
>parentmass 152.0706
>ionization [M+H]+
>formula C8H9NO2
>rt 132.000000
>profile orbitrap
#smiles_iso CC(=O)NC1=CC=C(C=C1)O
#smiles_can CC(=O)NC1=CC=C(C=C1)O
#inchikey RZVAJINKPMORJF-UHFFFAOYSA-N
#pubchem_id 1983
#mb_accession EA024302,EA024303,EA024304,EA024305,EA024306,EA024307,EA024308,EA024309,EA024310,EA024311,EA024312,EA024313

>ms2peaks
110.060000 40567.700000
152.070800 2906494.200000

>ms2peaks
110.060100 244175.600000
134.060300 5773.900000
152.070700 2674732.700000

>ms2peaks
65.038600 5631.300000
82.065100 3208.600000
92.049600 13174.600000
93.033500 15292.900000
110.060100 1078005.600000
111.044000 5848.800000
134.060200 34452.800000
152.070700 1774802.500000

>ms2peaks
65.038600 50622.000000
82.065100 15302.100000
92.049500 51781.600000
93.033500 49177.000000
110.060100 1653331.700000
111.044100 17334.800000
134.059900 45159.300000
152.070600 638387.200000

>ms2peaks
65.038600 179358.100000
82.065100 46130.900000
92.049400 105217.700000
93.033500 111872.800000
93.057200 7591.300000
109.052400 12177.300000
110.060100 1420655.600000
111.043900 36586.100000
121.039500 17127.000000
134.060100 26133.400000
152.070500 109454.800000

>ms2peaks
65.038600 354293.700000
67.054300 8451.900000
81.057200 5263.200000
82.065200 63068.900000
92.049500 149405.000000
93.033500 153943.300000
93.057300 14346.000000
109.052200 24493.900000
110.060100 864617.900000
111.044100 50957.000000
121.039600 37468.700000
134.060100 10995.600000

>ms2peaks
110.060000 30527.500000
152.070700 2358669.200000

>ms2peaks
65.038400 2378.200000
92.049700 2803.800000
93.033800 2580.500000
110.060100 214602.100000
134.060100 3523.400000
152.070600 2238597.900000

>ms2peaks
65.038500 6108.900000
82.065300 2884.400000
92.049400 11457.300000
93.033500 11871.900000
110.060100 907131.500000
111.044000 4798.300000
134.060000 28399.200000
152.070600 1458423.700000

>ms2peaks
65.038600 46762.300000
82.065100 12368.200000
92.049400 38074.400000
93.033500 39608.800000
109.052000 4205.900000
110.060100 1381177.200000
111.044000 13330.100000
121.039600 2461.000000
134.060000 33371.700000
152.070600 503238.300000

>ms2peaks
65.038600 137706.700000
67.054300 3563.100000
82.065100 31023.800000
92.049400 89593.400000
93.033500 91523.300000
93.057000 4754.300000
109.052200 8958.600000
110.060100 1119999.700000
111.044000 31603.000000
121.039600 14984.200000
134.059900 20442.800000
152.070500 88150.000000

>ms2peaks
65.038600 259595.300000
67.054200 5689.600000
81.057300 2336.800000
82.065100 47951.300000
92.049500 112282.700000
93.033500 108033.700000
93.057200 11016.800000
109.052200 21784.400000
110.060000 629105.000000
111.044000 40963.800000
121.039600 28468.200000
134.059900 7830.600000
152.070700 12656.100000

