>compound EA88936318
>parentmass 429.2397
>ionization [M+H]+
>formula C25H28N6O
>rt 552.000000
>profile orbitrap
#smiles_iso CCCCC1=NC2(CCCC2)C(=O)N1CC3=CC=C(C=C3)C4=CC=CC=C4C5=NNN=N5
#smiles_can CCCCC1=NC2(CCCC2)C(=O)N1CC3=CC=C(C=C3)C4=CC=CC=C4C5=NNN=N5
#inchikey YOSHYTLCDANDAN-UHFFFAOYSA-N
#pubchem_id 3749
#mb_accession EA277402,EA277403,EA277404,EA277405,EA277406,EA277407,EA277408,EA277409,EA277410,EA277411,EA277412,EA277413

>ms2
195.148200 24255.000000
207.090900 156741.800000
401.233300 86975.300000
429.239800 5007237.300000

>ms2
167.153900 23459.500000
180.080500 18642.400000
195.149100 1824089.700000
206.084800 21332.800000
207.091600 6256747.100000
235.097400 111487.600000
386.222300 364906.800000
401.232800 133396.500000
429.239400 736935.900000

>ms2
80.049700 14407.400000
84.080700 195520.800000
167.154100 141829.100000
178.064300 36545.000000
180.080500 343857.700000
190.064500 65862.300000
192.080200 370101.700000
195.149000 1052175.000000
205.076700 15150.200000
206.083800 272706.000000
207.091600 7189916.800000
386.222700 117854.300000

>ms2
77.038200 20614.800000
79.054200 50356.400000
80.049500 66338.700000
84.080800 478644.000000
112.075200 20671.400000
129.044800 28905.800000
140.049100 32245.400000
152.062000 50577.400000
153.069700 117589.800000
165.070200 66698.300000
166.065600 47964.200000
166.077200 37069.600000
167.073200 65027.600000
167.154300 103555.200000
178.064900 170787.500000
179.072700 94962.200000
180.080600 1342688.100000
182.060200 16286.300000
190.065000 260378.000000
191.073200 38544.200000
194.060700 55627.600000
195.149200 270671.200000
196.075600 87037.700000
205.075900 387715.700000
206.083700 1103950.700000
207.091600 4161844.000000
208.075700 63473.800000

>ms2
67.054100 39126.800000
77.038600 73481.700000
79.054200 62443.300000
80.049500 82969.500000
84.080700 550134.000000
104.049600 14244.000000
105.044900 18850.400000
129.044800 43459.200000
140.049600 46107.300000
151.054000 103170.500000
152.061800 248912.200000
153.069700 283771.700000
154.064900 31156.200000
163.054000 60556.900000
165.069700 297127.100000
166.064900 90279.800000
166.077200 54972.100000
167.072800 140763.900000
167.154000 19365.800000
169.065300 25082.100000
177.057400 45179.500000
178.065000 272732.600000
179.072600 299227.600000
180.080600 1555607.200000
181.075300 49021.000000
182.059700 17963.600000
190.064900 558918.000000
191.072000 74319.500000
194.060100 97437.600000
195.149000 24773.800000
196.075700 89778.000000
205.075900 1108736.100000
206.083600 922344.900000
207.091400 1072587.500000
208.075900 66221.700000

>ms2
67.054000 47337.900000
77.038500 77727.000000
79.054200 39060.700000
80.049400 68713.900000
84.080800 382997.800000
95.049300 21164.400000
105.044400 29802.800000
115.054200 27448.600000
128.049400 18497.400000
128.062300 13864.200000
129.044900 61786.500000
139.054000 43368.500000
140.049600 131953.900000
151.054300 218384.700000
152.061900 612789.800000
153.069800 268446.600000
154.065100 58083.700000
155.060500 79523.900000
155.085700 15645.100000
163.054200 155959.700000
164.049700 45959.500000
164.061500 16242.000000
165.069800 618927.000000
166.065000 98950.700000
166.077200 26599.300000
167.072800 133512.300000
168.068000 40582.700000
169.064700 54052.900000
177.057200 152683.400000
178.064900 271078.900000
179.072600 449451.500000
180.080700 864775.000000
183.068100 22416.600000
189.057300 32019.600000
190.065100 536067.600000
192.068900 528949.400000
194.060000 65051.100000
196.075900 43145.700000
205.075900 1406431.700000
206.083800 341254.700000
207.091000 131646.100000

>ms2
195.148900 44456.600000
206.083000 9804.300000
207.091300 137676.200000
401.233500 60881.700000
429.239700 4333529.000000

>ms2
84.080600 7952.400000
167.153700 15813.400000
192.081400 15668.100000
195.149200 1601312.300000
205.076300 9683.400000
206.083800 10252.800000
207.091700 5605850.900000
235.097800 121832.800000
386.222500 328367.200000
401.233000 106658.600000
429.239400 640095.900000

>ms2
79.054200 17665.600000
84.080800 161545.800000
112.075600 11675.600000
153.069600 10096.800000
167.154200 138319.000000
178.065200 36089.500000
180.080700 295252.500000
190.065300 32295.600000
192.068100 44655.200000
192.080700 311891.600000
195.149200 920503.000000
196.075700 28616.800000
205.076000 35165.800000
206.083900 265876.200000
207.091800 6493581.200000
235.097300 16179.000000
386.223000 94763.600000

>ms2
67.054200 10767.100000
77.038500 19316.300000
79.054200 36541.500000
80.049500 43315.500000
84.080800 416976.500000
112.075800 13235.000000
129.044500 34306.100000
140.049300 25667.900000
151.053800 8138.700000
152.062000 37386.400000
153.069800 95194.700000
163.054400 13865.500000
165.069800 59211.100000
166.065000 34819.200000
166.077700 33736.900000
167.073000 42189.900000
167.154200 79428.500000
178.065200 140461.700000
179.060300 11102.800000
179.072900 93094.600000
180.080700 1072588.800000
181.075600 18874.200000
182.059900 18411.300000
190.065100 221543.600000
191.072800 26707.100000
192.068200 252357.000000
192.080700 418578.300000
194.060100 42180.400000
195.149100 222953.400000
196.075500 101265.700000
205.076000 325106.500000
206.083900 863061.700000
207.091800 3380948.300000
208.075500 50217.700000
211.062900 12598.400000

>ms2
67.054100 9478.000000
77.038500 39407.200000
79.054200 45148.700000
80.049500 51423.100000
84.080800 404702.000000
95.049100 16011.800000
105.044700 12710.300000
129.044700 44041.800000
130.039400 9002.700000
139.053900 9483.800000
140.049500 47123.300000
151.054400 74332.600000
152.062000 185572.500000
153.069900 242769.700000
154.065100 23887.100000
155.060000 19463.900000
163.054200 38581.400000
164.049000 19054.800000
165.069800 242763.700000
166.065000 70512.600000
166.077600 39201.100000
167.072800 114589.200000
167.154400 10566.300000
169.064800 24001.700000
177.057200 38309.100000
178.065000 184544.100000
179.060600 47532.000000
179.072800 221704.700000
180.080700 1254130.300000
181.075500 23723.700000
182.060400 23948.200000
190.065000 415080.300000
191.060500 15910.500000
191.072900 52762.400000
192.068100 444774.600000
192.080600 284238.300000
194.060000 77143.900000
195.149000 28990.800000
196.075500 69236.700000
205.076000 871989.200000
206.083800 741247.800000
207.091600 861869.800000
208.075500 34383.900000
211.063400 13172.900000

>ms2
67.054200 28504.600000
77.038600 63535.300000
79.054200 18707.300000
80.049400 46631.700000
84.080700 281209.500000
95.049000 9968.300000
104.049400 12560.300000
105.044700 23605.000000
115.054200 12806.500000
128.049400 16685.000000
128.061800 6290.800000
129.044600 29994.200000
130.040100 13200.100000
139.054000 24376.500000
140.049400 101450.500000
151.054100 149898.700000
152.062000 436045.000000
153.069800 189818.700000
154.065000 48240.800000
155.060200 36409.700000
155.085300 16687.500000
163.054100 116944.300000
164.049300 48421.700000
164.061700 14905.800000
165.069800 426104.900000
166.065100 70440.300000
166.077600 17944.400000
167.072900 82090.400000
167.154300 5045.900000
168.068100 20335.400000
169.064600 37350.400000
177.057100 107325.500000
178.065000 196934.200000
179.060200 99272.200000
179.072800 311062.000000
180.080700 641309.500000
181.075900 29588.800000
182.060000 19876.600000
183.067600 15794.200000
189.057200 20840.800000
190.065000 391468.500000
191.060200 18491.200000
191.072800 62173.600000
192.068100 352978.800000
192.080600 141254.700000
194.059900 41450.000000
196.075600 27192.100000
205.076000 1051685.700000
206.083700 267998.800000
207.091600 118888.500000
208.075500 18241.800000
211.062700 24814.900000

