>compound EA88438078
>parentmass 242.1176
>ionization [M+H]+
>formula C15H15NO2
>rt 870.000000
>profile orbitrap
#smiles_iso CC1=C(C(=CC=C1)NC2=CC=CC=C2C(=O)O)C
#smiles_can CC1=C(C(=CC=C1)NC2=CC=CC=C2C(=O)O)C
#inchikey HYYBABOKPJLUIN-UHFFFAOYSA-N
#pubchem_id 4044
#mb_accession EA020802,EA020803,EA020804,EA020805,EA020806,EA020807,EA020808,EA020809,EA020810,EA020811,EA020812,EA020813

>ms2
224.107100 2148692.200000
241.109600 87674.200000
242.117700 3472926.500000

>ms2
223.100000 42432.100000
224.107100 4474820.900000
241.109700 33711.500000
242.117400 477161.600000

>ms2
180.081600 8089.000000
208.075100 18254.200000
209.083500 161533.000000
223.099900 53213.000000
224.107000 4859874.900000
241.109800 6635.600000

>ms2
180.080700 37849.600000
181.088100 23943.800000
194.096300 16862.000000
208.075700 61177.600000
209.083500 1327148.300000
222.091700 58315.900000
223.099700 54879.500000
224.107100 3654438.700000
242.118700 7417.900000

>ms2
167.072300 7479.900000
178.061000 5703.200000
179.073300 17693.800000
180.080700 351249.400000
181.088600 160020.500000
183.067800 28854.400000
191.073600 6408.000000
194.096600 40413.700000
195.099800 7642.000000
196.076100 24134.600000
196.111800 7131.100000
208.075700 372085.600000
209.083600 2468979.100000
222.091000 113464.400000
223.099300 77998.200000
224.106800 1354277.600000

>ms2
154.064700 8716.600000
155.072500 11006.000000
166.064800 13866.600000
167.073100 15610.200000
179.073000 48156.200000
180.080700 1161844.300000
181.088600 283832.900000
183.067800 59927.500000
192.080100 7678.900000
193.089200 14683.300000
194.059600 13616.000000
194.096500 66133.100000
195.068500 9624.200000
196.075300 22971.900000
204.080700 13648.900000
206.095500 7677.000000
207.068400 18764.000000
208.075700 890847.000000
209.083400 1695100.200000
211.062300 9413.100000
222.091300 102360.000000
223.099400 56603.100000
224.106600 260232.200000

>ms2
179.072600 2834.700000
191.072200 2929.000000
208.076600 5217.600000
222.091900 2576.900000
223.100000 7774.500000
224.107000 1600010.400000
241.109700 38768.800000
242.117600 2433613.900000

>ms2
180.081400 6138.300000
209.083600 4067.500000
223.099300 35327.200000
224.107100 3605030.100000
241.109700 27249.400000
242.117500 341870.800000

>ms2
180.080300 4726.700000
208.075000 9238.700000
209.083500 99722.800000
222.091600 6467.400000
223.099300 37993.200000
224.107100 3350993.800000

>ms2
179.072300 3694.700000
180.080800 23984.700000
181.088500 20762.400000
191.073400 2921.800000
194.096400 8132.900000
196.075800 3906.300000
196.111900 4656.200000
206.096600 3566.400000
207.067700 4218.500000
208.075600 44345.500000
209.083600 896071.700000
222.091500 35883.700000
223.099900 25489.800000
224.107100 2474006.400000

>ms2
179.072900 7064.800000
180.080700 226833.300000
181.088500 110898.300000
182.059900 4528.500000
183.067700 24047.400000
194.059600 3024.000000
194.096500 24793.500000
195.067800 6575.000000
196.075500 16405.000000
196.111400 5366.400000
204.080300 4169.500000
206.097100 3592.800000
207.068100 9754.300000
208.075600 249576.600000
209.083500 1658629.600000
222.091200 66071.500000
223.099400 45110.700000
224.107000 931846.400000

>ms2
154.065100 4842.800000
155.073100 5011.600000
166.065100 7030.500000
167.073000 8561.400000
179.073000 33797.500000
180.080900 704822.800000
181.088500 159972.000000
182.059900 10503.700000
183.067700 34919.600000
191.073000 4261.700000
192.080600 3242.300000
193.088700 7319.100000
194.059900 9235.600000
194.096400 41932.800000
195.067900 7670.800000
195.100500 1733.100000
196.075500 13222.100000
204.080700 5604.000000
207.067900 10704.100000
208.075800 563289.200000
209.083600 1046079.600000
211.062300 3700.900000
222.091300 57774.500000
223.098900 26273.900000
224.106900 161916.400000

