>compound EA88294248
>parentmass 233.0243
>ionization [M+H]+
>formula C9H10Cl2N2O
>rt 534.000000
>profile orbitrap
#smiles_iso CN(C)C(=O)NC1=CC(=C(C=C1)Cl)Cl
#smiles_can CN(C)C(=O)NC1=CC(=C(C=C1)Cl)Cl
#inchikey XMTQQYYKAHVGBJ-UHFFFAOYSA-N
#pubchem_id 3120
#mb_accession EA029202,EA029203,EA029204,EA029205,EA029206,EA029207,EA029208,EA029209,EA029210,EA029211,EA029212,EA029213

>ms2
72.044300 206793.300000
233.024500 4642019.500000

>ms2
72.044400 1059487.300000
159.972000 7601.700000
187.965900 17324.200000
233.024500 2424522.500000

>ms2
56.013300 4151.200000
72.044400 1561309.000000
159.971400 69925.300000
187.966500 61305.500000
233.023800 264057.900000

>ms2
72.044400 1491376.300000
152.997600 5342.900000
159.971500 171385.600000
187.966500 37610.000000

>ms2
56.013300 5164.700000
72.044400 1341937.600000
125.002500 6864.300000
132.960800 21812.300000
152.997400 8574.400000
159.971400 192003.000000
187.966900 7212.800000

>ms2
56.013100 9793.500000
72.044400 1269872.300000
108.983500 3799.500000
125.002800 25539.100000
132.960600 69732.700000
152.997700 9526.600000
159.971400 120280.700000
172.966800 20100.200000

>ms2
72.044300 155816.500000
233.024400 3338069.700000

>ms2
56.013200 2832.300000
72.044400 807916.000000
187.966400 13209.300000
233.024400 1835046.200000

>ms2
56.013000 3445.600000
72.044400 1136450.500000
159.971500 41376.900000
187.966500 43744.600000
233.024100 201350.000000

>ms2
72.044400 1036749.900000
152.997600 7132.100000
159.971500 107822.400000
187.966400 22858.000000

>ms2
56.013000 2602.100000
72.044400 965911.700000
123.994800 4666.700000
125.003000 4988.300000
132.960600 18200.400000
152.997500 5914.200000
159.971500 129359.400000
172.966700 7991.500000
173.013700 1868.000000
187.966200 6817.700000

>ms2
56.013000 3856.900000
72.044400 820751.700000
108.983900 3653.300000
123.994800 6808.000000
125.002600 17917.800000
132.960600 40256.700000
152.997400 5221.100000
159.971500 68248.100000
172.966800 13581.100000
173.012700 1307.600000

