>compound EA88278179
>parentmass 292.02660000000003
>ionization [M+H]+
>formula C8H10ClN5O3S
>rt 246.000000
>profile orbitrap
#smiles_iso CN\1COCN(/C1=N/[N+](=O)[O-])CC2=CN=C(S2)Cl
#smiles_can CN1COCN(C1=N[N+](=O)[O-])CC2=CN=C(S2)Cl
#inchikey NWWZPOKUUAIXIW-DHZHZOJOSA-N
#pubchem_id 5821911
#mb_accession EA294102,EA294103,EA294104,EA294105,EA294106,EA294107,EA294108,EA294109,EA294110,EA294111,EA294112,EA294113

>ms2
69.044800 18593.700000
122.071000 19115.700000
131.966900 711476.900000
138.011800 12190.400000
160.993800 11918.200000
172.980100 5703.300000
174.972600 27673.200000
179.039300 6018.800000
180.046300 122215.900000
181.054100 243372.500000
182.061500 7037.700000
186.996800 8258.600000
210.057000 1465823.400000
211.065000 5638829.800000
215.013800 7754.200000
216.023600 8861.200000
245.025700 86432.500000
246.033600 542111.000000
248.025400 160065.300000
262.015500 13880.400000
292.026400 1533577.700000

>ms2
69.044800 52151.600000
99.001100 19138.000000
100.063100 14798.000000
122.071300 211497.400000
124.086600 5733.000000
125.016700 17624.000000
131.967100 2084709.900000
138.012200 28270.900000
139.032400 18024.200000
144.064400 8192.900000
146.977900 6349.000000
147.066800 11340.100000
151.019700 39956.500000
152.027900 28456.700000
155.051300 7606.200000
160.993300 35138.400000
172.981100 19681.500000
174.972800 116366.700000
179.039000 19250.500000
180.046400 316394.700000
181.054300 800272.600000
185.061900 20902.900000
186.996600 25806.800000
210.057100 731819.300000
211.065100 5189293.800000
215.014900 22900.400000
216.022800 19365.700000
245.026000 41715.400000
246.033700 77995.900000
248.025400 40688.800000
292.025400 17843.400000

>ms2
57.044700 6572.300000
67.041500 5176.300000
69.044800 294382.600000
70.995100 5874.900000
81.044400 4695.500000
98.006100 6541.400000
99.001200 140299.000000
99.055400 9408.000000
100.063300 8354.600000
108.055700 49732.400000
112.021600 20811.300000
113.017000 10406.900000
122.071400 509865.500000
123.079300 9682.100000
125.016900 73020.000000
126.024600 9256.500000
131.967100 2316568.300000
138.012200 59306.900000
139.032500 50114.300000
140.027200 5248.300000
144.974900 12065.800000
145.970700 6048.100000
146.977900 10299.800000
147.066700 29152.500000
151.019900 130608.900000
152.027700 243150.200000
154.043200 20496.000000
155.051000 14202.400000
160.993500 29889.900000
165.022200 5314.100000
171.971800 4434.000000
172.981100 23438.600000
174.972900 96139.000000
179.038700 25416.900000
180.046500 268837.900000
181.054400 1931168.300000
185.060900 5367.600000
186.996600 21534.000000
199.064700 15828.500000
210.057100 107734.600000
211.065100 1710275.900000
215.015100 36886.900000
245.025200 5751.900000

>ms2
57.044700 9806.900000
67.041700 45069.100000
69.044800 323887.300000
70.995000 45950.300000
78.940500 3771.700000
79.029000 3120.500000
81.044800 12176.400000
81.057200 5059.400000
83.990000 3880.900000
87.994900 3817.300000
95.060700 9708.300000
96.055800 5128.900000
98.006000 37417.100000
99.001200 152535.500000
100.062800 6034.900000
108.055700 254550.200000
112.021600 33765.400000
113.016800 26142.600000
118.959300 5871.000000
122.071300 482709.100000
123.079100 53735.300000
124.008400 4500.300000
124.086400 3447.200000
125.016800 193928.600000
126.024600 13759.700000
127.032700 6241.600000
131.967000 2114891.300000
132.974800 13091.900000
138.012100 79730.200000
139.020500 4979.700000
139.032500 46388.200000
140.027100 7527.300000
144.975000 11846.000000
145.970300 12078.900000
146.978200 9057.400000
147.066500 30056.400000
151.019900 194885.600000
152.027700 772112.200000
154.043100 35204.700000
155.050700 9099.200000
160.993700 14697.000000
165.022900 25778.700000
165.077000 8248.500000
166.030400 7805.600000
171.972900 8232.600000
172.981000 16237.500000
174.972800 66750.300000
179.038500 25504.500000
180.046300 81381.500000
181.054200 1145344.900000
185.988600 8173.500000
186.996800 7525.000000
199.064400 6718.300000
211.064400 185994.800000
215.015200 28550.100000

>ms2
57.044600 9787.100000
61.979100 4273.900000
66.033900 3634.400000
67.041700 77391.300000
68.049500 6373.600000
69.044700 207819.000000
70.995000 141280.600000
71.990300 5227.300000
78.940400 10043.400000
79.029200 8327.800000
81.044800 36152.400000
81.057300 17865.600000
82.052500 5248.000000
82.982400 14326.800000
83.990000 10207.300000
86.005500 2991.300000
87.994900 20778.800000
93.044500 11602.500000
94.052700 15077.600000
95.060300 18949.000000
95.990200 3299.700000
96.055500 2724.900000
97.039700 6102.600000
98.005900 104169.400000
99.001200 79187.500000
99.055000 4201.300000
106.040000 3371.100000
107.047800 4881.800000
108.055700 610090.600000
110.071400 6436.800000
111.001200 12480.100000
112.021600 40490.400000
113.016800 40492.000000
118.958900 7181.200000
119.967400 3947.200000
120.055600 4399.400000
121.063600 5398.400000
122.071300 349688.600000
123.000600 5796.100000
123.079100 87243.600000
124.009000 23557.000000
125.016800 266732.600000
126.024400 13647.700000
127.033100 3070.800000
131.967000 1630971.800000
132.974700 29128.500000
137.081700 6025.000000
138.012000 89428.300000
138.025000 4974.600000
139.019600 5594.300000
139.032200 14522.400000
140.027500 9366.200000
144.975100 6327.600000
145.970400 12221.200000
146.978000 10274.300000
147.066400 20652.000000
148.073600 3369.600000
151.019800 169377.200000
152.027700 772578.800000
154.043100 28521.400000
165.022900 39718.100000
165.077100 9348.200000
166.030600 11771.100000
171.973000 11659.000000
172.979600 3510.500000
172.994000 5826.400000
174.972900 33497.300000
179.038100 22421.600000
180.045600 10498.600000
181.054100 275085.700000
185.988100 6525.700000
211.065800 19671.300000
215.015300 16581.100000
292.028000 3597.200000

>ms2
54.033700 6876.000000
57.044800 9440.900000
61.979300 4133.900000
66.033900 5419.300000
67.029000 14724.600000
67.041600 81304.100000
68.049400 7418.200000
69.044700 110410.200000
69.987000 3725.100000
70.995000 211024.300000
71.990200 9431.200000
78.940300 20677.800000
79.029100 18086.200000
80.049500 5505.500000
81.044700 62132.000000
81.057300 20088.600000
82.052600 11258.300000
82.982300 24880.600000
83.990200 51698.200000
86.005900 6206.900000
87.994900 32101.400000
92.036900 6264.000000
93.044700 21280.000000
94.040000 5538.100000
94.052400 29183.600000
95.060300 31810.700000
95.990000 7860.800000
96.055700 4178.800000
97.039500 11055.100000
98.005800 160979.500000
99.001100 34753.800000
99.013600 5235.300000
106.040000 6506.900000
107.048000 9455.400000
108.055600 708301.700000
110.071200 5146.600000
111.001100 46298.100000
112.008600 4668.900000
112.021400 22578.900000
113.016800 31399.300000
118.959300 6716.700000
119.966800 4615.200000
120.055300 4929.100000
122.071200 182258.500000
123.001100 11930.800000
123.079000 66726.300000
124.008900 60466.200000
125.016700 162699.500000
126.024500 6343.200000
131.966900 1015542.900000
132.974700 37730.500000
135.066200 2426.300000
138.012000 82754.500000
138.025000 9715.300000
139.019700 5116.600000
139.032800 3533.900000
140.027600 4271.300000
145.969900 4589.900000
147.066500 12613.600000
151.019800 80176.800000
152.027600 355954.000000
154.043300 15094.500000
165.023000 36930.900000
165.077600 4814.000000
166.030900 12319.500000
171.973200 6684.500000
174.972400 12816.200000
179.038800 9860.900000
180.046400 3782.600000
181.053500 37825.900000
185.989200 3435.900000
215.014000 4371.100000

>ms2
69.044700 10262.200000
100.063100 4986.500000
122.071200 9196.200000
131.966900 415493.700000
138.012100 10772.500000
151.020100 3505.400000
160.993200 6546.700000
172.980600 4838.600000
174.972700 18961.400000
179.038900 3222.200000
180.046400 68817.900000
181.054200 138797.400000
182.062500 4525.400000
185.061800 5065.400000
210.057100 805166.000000
211.064700 3177986.700000
215.014800 3950.000000
216.022600 6769.000000
227.059600 6972.800000
245.025800 51541.500000
246.033500 322004.200000
248.025400 89681.600000
262.016000 6791.200000
262.028000 4998.500000
292.026500 846870.300000

>ms2
69.044700 27816.300000
99.001200 11178.500000
99.055200 4104.300000
100.063100 8302.300000
108.056600 3477.400000
122.071200 113228.400000
125.016600 5798.600000
131.966900 1133244.700000
138.012000 16892.700000
139.032400 7884.100000
147.066600 4317.000000
151.019800 22035.100000
152.027600 16750.900000
155.051200 4937.700000
160.993400 17971.900000
172.980900 7379.700000
174.972700 62442.600000
179.038600 8542.100000
180.046400 168926.100000
181.054200 450846.300000
185.061800 8727.100000
186.996400 13843.600000
210.057000 399149.500000
211.064600 2716298.800000
215.015200 15960.600000
216.023600 9492.600000
245.025900 25192.500000
246.033700 45093.000000
248.025400 20064.700000
292.027100 11626.400000

>ms2
57.044600 4905.500000
67.041500 3584.900000
69.044700 153342.300000
70.052700 1697.700000
70.995000 3363.600000
81.044500 2299.700000
95.060300 1911.500000
96.055500 3007.900000
97.039300 1411.600000
98.005800 4324.400000
99.001100 82367.000000
100.063000 4367.800000
108.055500 25661.100000
110.071200 2452.900000
112.021500 12277.800000
113.016800 5357.900000
116.070500 2922.600000
118.959200 1641.400000
121.063600 1897.300000
122.071200 280550.900000
123.079000 5335.400000
124.086900 2742.100000
125.016700 47445.500000
126.024800 3291.900000
131.966800 1319153.500000
138.011900 34120.300000
139.019700 2643.400000
139.032300 30242.200000
140.027400 2896.600000
144.974700 9120.700000
145.970000 3987.500000
146.977700 4535.300000
147.066400 11770.300000
151.019800 68319.200000
152.027600 157521.900000
154.043200 10695.100000
155.051000 9098.200000
160.993400 17801.300000
165.023000 3904.900000
172.980700 10764.600000
174.972600 64257.800000
179.038500 16203.000000
180.046300 158841.100000
181.054200 1070212.500000
185.061400 5066.500000
185.989000 4201.500000
186.996300 13213.600000
199.064600 7906.000000
210.056900 55921.200000
211.064800 968485.500000
215.015100 21778.700000
245.025300 4710.300000
246.034600 2236.800000

>ms2
57.044800 4861.100000
67.041700 27769.800000
69.044700 204079.800000
70.995000 19386.600000
81.044700 7221.100000
81.057000 1753.400000
82.982200 1771.200000
87.994800 2854.500000
94.052500 1811.800000
95.060300 3929.000000
96.055500 1625.400000
98.005900 23281.200000
99.001100 88298.500000
100.063600 2787.800000
108.055600 145226.400000
110.071200 3813.800000
112.008900 2629.200000
112.021500 19826.300000
113.016800 17656.400000
116.070700 2152.400000
118.958800 1946.800000
121.063300 2104.000000
122.071200 301226.100000
123.079000 35708.500000
124.008900 2285.800000
124.087100 2023.800000
125.016700 120999.300000
126.024500 5585.600000
127.032100 1831.100000
131.966800 1243632.200000
132.974600 7028.100000
137.082200 3267.700000
138.012000 50018.800000
139.019900 2116.700000
139.032400 21139.300000
140.027400 4045.900000
144.974700 8043.000000
145.969900 7715.600000
146.977800 8439.000000
147.066500 14333.800000
148.074300 3425.700000
151.019800 121897.000000
152.027700 445291.800000
154.043300 21291.000000
155.051700 2326.100000
160.993500 9284.800000
165.023000 15266.500000
165.076900 6163.400000
166.030800 3293.200000
171.972900 6050.800000
172.980800 8468.900000
174.972700 38573.300000
179.038600 16296.300000
180.046400 45192.800000
181.054200 729985.000000
185.988500 4261.200000
186.996800 2528.100000
199.064700 5835.500000
210.057600 5841.700000
211.064700 117127.500000
215.015200 15904.000000

>ms2
57.044600 5831.800000
67.041600 46889.200000
68.049400 2087.000000
69.044700 134294.800000
70.995000 85925.500000
71.990300 3616.900000
78.940300 7572.200000
79.029000 3816.400000
81.044700 17862.900000
81.057300 8452.100000
82.052400 2795.100000
82.982400 8021.300000
83.990200 6353.500000
86.005900 3165.700000
87.994900 8970.300000
92.036700 1635.000000
93.044600 5575.600000
94.052400 8056.500000
95.060400 9034.900000
95.990000 2519.300000
96.055600 2211.200000
97.039600 4464.300000
98.005800 57703.900000
99.001100 47370.600000
99.013800 4721.500000
99.055400 4595.300000
107.047500 3064.000000
108.055600 364226.900000
110.071100 2538.100000
111.001000 8885.100000
112.008700 2743.400000
112.021500 24386.000000
113.016700 24555.400000
116.070300 1668.100000
118.959100 3695.100000
119.966800 2429.800000
120.055600 1700.200000
121.063300 2315.000000
122.071200 214449.200000
123.079000 53123.500000
124.008800 14768.500000
125.016700 166125.300000
126.024400 6599.600000
131.966800 1014190.500000
132.974600 16394.500000
135.066400 1953.300000
137.082200 3864.800000
138.011900 55123.900000
138.024100 2866.900000
139.019700 4604.600000
139.032300 10818.100000
140.027500 3286.600000
144.974600 4319.600000
145.970400 3892.900000
146.977800 5270.300000
147.066400 14574.300000
148.074500 4092.000000
151.019700 103177.100000
152.027600 482170.100000
154.043200 19743.200000
160.993000 3628.300000
165.022800 24717.900000
165.077200 5098.400000
166.030600 7942.400000
171.973200 5019.700000
172.980900 3096.300000
172.993600 2744.500000
174.972400 19142.800000
179.038500 9333.800000
180.046500 6249.000000
181.054000 178970.300000
185.988200 4084.300000
211.070800 5788.500000
215.015100 8081.200000

>ms2
54.033700 5715.300000
57.044600 7074.600000
61.979300 2819.200000
66.033800 2846.300000
67.029000 9026.800000
67.041600 49249.800000
68.049400 3720.700000
69.044700 66269.100000
69.987300 1667.000000
70.995000 137727.600000
71.990200 7459.000000
78.940300 9799.800000
79.029000 11044.600000
80.049500 3096.300000
81.044700 42426.200000
81.057200 13964.300000
82.052500 7067.100000
82.982300 16529.800000
83.990200 27674.700000
86.006100 3197.400000
87.994800 19808.400000
92.036700 3954.000000
93.044600 13824.600000
94.039900 2379.100000
94.052500 16720.300000
95.060300 18196.300000
95.990200 7592.600000
96.055300 2782.800000
97.039600 9490.600000
98.005800 108003.600000
99.001000 23898.100000
99.013400 2905.400000
106.039800 5874.800000
107.047600 7488.700000
108.055600 453466.800000
110.071300 3507.400000
111.001100 32446.800000
112.008800 3095.100000
112.021400 16809.700000
113.016800 17934.500000
116.070400 1790.300000
118.959000 4610.100000
120.055400 3460.400000
121.063200 2491.300000
122.071200 117349.300000
123.001000 6282.100000
123.079000 43387.300000
124.008800 33326.900000
125.016700 111576.100000
126.024600 4489.700000
131.966900 689840.600000
132.974600 23308.200000
138.011900 49254.600000
138.024200 6233.600000
139.019500 3131.800000
139.032500 2473.300000
140.027500 2423.300000
145.969800 2467.200000
147.066300 6715.400000
148.073700 2905.800000
151.019700 50814.100000
152.027500 239949.900000
154.043100 7157.400000
165.022800 18803.400000
166.030500 7691.400000
171.972300 3617.100000
174.972500 7364.600000
179.038300 6090.000000
181.054000 25353.200000
211.069500 5528.300000
215.014800 1976.200000

