>compound EA88292953
>parentmass 269.10509999999994
>ionization [M+H]+
>formula C13H17ClN2O2
>rt 270.000000
>profile orbitrap
#smiles_iso C1COCCN1CCNC(=O)C2=CC=C(C=C2)Cl
#smiles_can C1COCCN1CCNC(=O)C2=CC=C(C=C2)Cl
#inchikey YHXISWVBGDMDLQ-UHFFFAOYSA-N
#pubchem_id 4235
#mb_accession EA267502,EA267503,EA267504,EA267505,EA267506,EA267507,EA267508,EA267509,EA267510,EA267511,EA267512,EA267513

>ms2peaks
138.994500 24381.400000
182.036200 191488.240400
269.105500 5607383.700000

>ms2peaks
88.075800 27282.600000
110.999100 14789.600000
114.091300 37883.600000
138.994400 58750.800000
182.036900 3392274.900000
269.105100 2964805.800000

>ms2peaks
88.075700 27309.400000
114.091400 78582.100000
138.994500 316286.900000
182.036900 5153591.900000
269.105300 216884.900000

>ms2peaks
70.065200 6448.500000
88.075800 11588.400000
110.999600 7024.500000
114.091400 97050.100000
138.994700 1840839.100000
182.037000 3762797.800000

>ms2peaks
70.065300 13508.000000
86.999600 15625.800000
88.075700 9587.900000
110.999800 28264.300000
114.091600 62700.000000
129.010500 13108.400000
138.994700 3284316.000000
182.037100 1542619.100000

>ms2peaks
50.015000 9350.200000
70.065300 24973.200000
75.022900 12908.300000
79.017700 11955.300000
86.999700 76030.800000
88.076000 8079.700000
93.034100 10685.900000
110.999700 78804.300000
114.091500 24915.500000
129.010300 32420.700000
138.994800 3056119.700000
139.006300 730617.800000
182.037100 330607.800000

>ms2peaks
182.036600 150164.800000
269.105400 4006929.000000

>ms2peaks
88.075800 20988.400000
114.091400 24211.500000
138.994200 31671.400000
182.036900 2489255.200000
269.105500 2295828.700000

>ms2peaks
88.075700 19259.700000
114.091300 60865.900000
138.994500 216360.300000
182.036900 3891342.300000
269.105600 141214.900000

>ms2peaks
70.065100 3430.700000
88.075800 11099.800000
110.999300 6724.300000
114.091400 64017.400000
138.994700 1390060.200000
182.037000 2667631.700000

>ms2peaks
70.065200 15016.000000
84.081000 4138.000000
86.999700 13719.500000
88.075700 10242.000000
110.999500 17957.000000
114.091500 55974.300000
129.010400 8060.900000
138.994700 2420626.600000
139.005700 148666.600000
182.037000 1096617.000000

>ms2peaks
50.015100 3390.900000
70.065200 17712.700000
75.022900 2361.400000
79.017800 5839.600000
84.080800 4393.800000
86.999700 44524.700000
88.075700 4539.100000
93.033500 6827.000000
110.999600 48265.300000
114.091400 19476.100000
129.010200 28102.000000
138.994700 2289919.600000
139.005800 552394.100000
182.036800 263201.100000

