>compound EA89097620
>parentmass 188.0697
>ionization [M+H]+
>formula C6H10ClN5
>rt 336.000000
>profile orbitrap
#smiles_iso CC(C)NC1=NC(=NC(=N1)N)Cl
#smiles_can CC(C)NC1=NC(=NC(=N1)N)Cl
#inchikey DFWFIQKMSFGDCQ-UHFFFAOYSA-N
#pubchem_id 22563
#mb_accession EA030902,EA030903,EA030904,EA030905,EA030906,EA030907,EA030908,EA030909,EA030910,EA030911,EA030912,EA030913

>ms2
188.069800 37088235.200000

>ms2
104.001100 80144.400000
146.022600 4478625.300000
188.069900 39612335.000000

>ms2
68.024300 402898.700000
79.005700 518771.900000
104.000900 1005495.800000
110.046200 335422.100000
128.056700 108547.600000
146.022800 20176383.000000
188.069800 22218797.700000

>ms2
61.979000 121837.100000
68.024300 1545373.100000
79.005800 2714849.200000
104.001000 3475698.400000
110.046100 1097344.600000
128.056600 273728.600000
146.022800 23021759.700000
188.069500 5536003.800000

>ms2
61.979100 197498.500000
68.024300 2998111.000000
79.005800 4821327.400000
104.001000 6423517.900000
110.046100 1448909.600000
128.056800 280041.300000
146.022800 14166353.900000
188.070200 854855.700000

>ms2
61.979100 391468.700000
68.024300 3760316.000000
79.005800 5300133.600000
104.001000 7052039.200000
110.046100 1034025.100000
128.057000 117033.000000
146.022700 5416953.000000

>ms2
146.023200 419755.500000
188.069600 35653353.400000

>ms2
79.005200 36298.000000
104.000900 103355.000000
146.022800 3910383.100000
188.069600 31946176.300000

>ms2
68.024300 304639.300000
79.005700 478318.000000
104.000900 871721.300000
110.046000 261210.600000
128.056600 80290.100000
146.022800 16587717.500000
172.038700 22234.600000
188.069600 18528187.000000

>ms2
61.979000 52832.900000
68.024300 1237779.700000
79.005700 2241102.200000
104.000900 3036479.600000
110.046000 1060733.200000
128.056500 237383.800000
146.022800 19507065.600000
188.069700 5130597.300000

>ms2
61.979100 145700.200000
68.024300 2670968.600000
79.005700 4356899.200000
85.050800 53476.000000
104.000900 5937261.200000
110.046000 1221545.400000
128.057000 132021.500000
146.022700 13474360.900000
188.069500 846848.500000

>ms2
61.979200 272813.200000
68.024300 2720179.900000
79.005800 3650167.800000
85.050800 20622.900000
104.001000 4935464.300000
110.046000 702168.300000
128.056600 83672.500000
146.022700 3977985.500000
188.069100 30165.300000

