>compound EA89166517
>parentmass 408.12539999999996
>ionization [M+H]+
>formula C16H15F6N5O
>rt 312.000000
>profile orbitrap
#smiles_iso C1CN2C(=NN=C2C(F)(F)F)CN1C(=O)C[C@@H](CC3=CC(=C(C=C3F)F)F)N
#smiles_can C1CN2C(=NN=C2C(F)(F)F)CN1C(=O)CC(CC3=CC(=C(C=C3F)F)F)N
#inchikey MFFMDFFZMYYVKS-SECBINFHSA-N
#pubchem_id 4369359
#mb_accession EA290302,EA290303,EA290304,EA290305,EA290306,EA290307,EA290308,EA290309,EA290310,EA290311,EA290312,EA290313

>ms2
174.052400 61199.100000
193.069500 115090.800000
235.080200 341118.300000
408.125500 3143603.900000

>ms2
171.041200 14118.800000
174.052500 1714168.300000
193.069500 1464446.300000
235.080100 2712044.000000
391.099200 222746.100000
408.126000 370893.700000

>ms2
56.049400 40515.300000
127.035400 31337.700000
137.032700 14111.000000
138.027600 55287.300000
154.046400 128620.900000
171.041600 189283.500000
174.052700 3023605.000000
193.069600 2098950.300000
199.036900 25540.500000
235.080200 954549.800000
391.099100 50698.300000

>ms2
56.049400 144624.600000
127.035300 347667.400000
134.040200 26550.400000
137.031900 14115.400000
138.027200 197597.200000
145.026000 34652.500000
150.027100 27591.400000
154.046300 772482.700000
165.037700 23969.200000
168.038100 68255.700000
171.041500 245451.200000
174.052600 2556238.200000
176.043700 28842.000000
193.069500 1156244.900000
235.080200 93617.400000

>ms2
56.049400 146615.600000
81.045100 10802.200000
127.035400 1250639.900000
134.040000 94720.500000
137.032200 14028.900000
138.027300 179511.800000
145.025900 102249.900000
150.027200 63246.900000
151.035400 162162.400000
152.050900 25811.500000
153.038400 51063.300000
154.046300 1105903.500000
157.026000 46575.900000
165.038300 28333.600000
168.037900 156235.000000
171.041600 122249.100000
174.052500 1186523.800000
193.069500 264703.900000

>ms2
56.049500 115309.600000
81.044700 9239.600000
96.019200 29447.100000
101.020000 18258.000000
107.029400 31505.500000
127.035400 2015824.300000
134.040000 119996.800000
138.027300 114151.000000
145.025900 177623.600000
151.035400 181464.200000
152.050300 20040.200000
153.038400 110865.300000
154.046300 651981.400000
157.026100 75807.600000
165.025800 34206.400000
165.037600 11731.100000
168.037900 113671.100000
169.025900 16591.100000
171.041400 32339.100000
174.052500 282160.000000
176.042200 7777.600000
193.069600 38128.500000

>ms2
193.069200 101564.400000
235.079800 286043.500000
391.097800 8553.700000
408.125500 2779428.900000

>ms2
56.049300 6335.300000
154.046200 10425.000000
171.042200 9531.800000
174.052600 1460711.600000
193.069600 1238460.600000
219.048400 8114.700000
235.080200 2277428.300000
391.098900 206250.700000
408.125500 257855.100000

>ms2
56.049500 35520.700000
127.035400 18017.600000
138.027400 44712.600000
151.035700 5902.000000
154.046300 92477.100000
171.041600 156975.000000
174.052600 2261284.100000
176.043000 5744.700000
193.069600 1606957.700000
199.036700 15480.000000
219.048700 30891.500000
235.080000 658616.300000
391.099600 34487.500000

>ms2
56.049400 79031.000000
81.044300 4285.200000
127.035400 244005.300000
137.031700 8165.600000
138.027300 121209.400000
145.025900 21112.700000
150.027100 22091.000000
151.035300 49035.100000
152.050300 4219.700000
153.038500 9577.400000
154.046300 498159.600000
164.042600 4665.800000
165.038000 18163.800000
168.037900 44945.200000
171.041600 171765.800000
174.052500 1699737.900000
176.042800 10869.900000
193.069500 760733.500000
199.037100 9444.700000
235.079700 68478.000000

>ms2
55.028900 4829.200000
56.049500 88549.300000
81.044600 5699.000000
96.019200 5423.900000
107.029400 5819.500000
127.035500 800904.100000
134.040000 56807.400000
137.032100 5982.200000
138.027500 126568.000000
145.026100 69397.200000
150.027400 34265.900000
151.035500 103414.500000
152.051200 10153.800000
153.038700 30779.000000
154.046400 688207.200000
157.026200 35880.700000
165.038300 12418.900000
168.038100 80126.300000
169.026400 6008.400000
171.041700 85258.700000
174.052600 729360.400000
176.042900 8108.300000
193.069700 170326.482300

>ms2
55.029000 4238.400000
56.049400 48503.400000
96.019300 12652.600000
101.019700 10335.400000
107.029100 17355.300000
127.035400 1091650.300000
134.040000 68887.500000
137.032200 2014.900000
138.027300 64832.200000
145.025900 100587.400000
150.027400 22481.700000
151.035400 96058.700000
152.050500 8772.500000
153.038500 60205.000000
154.046300 373828.800000
157.025900 47580.800000
164.042600 2700.400000
165.025800 26444.300000
165.038200 9103.300000
168.037900 58277.400000
169.026000 9656.700000
171.041600 13284.700000
174.052500 147907.600000
193.069500 23414.000000

