>compound EA90258685
>parentmass 380.9814999999999
>ionization [M+H]+
>formula C14H6Cl2F4N2O2
>rt 966.000000
>profile orbitrap
#smiles_iso C1=CC(=C(C(=C1)F)C(=O)NC(=O)NC2=CC(=C(C(=C2F)Cl)F)Cl)F
#smiles_can C1=CC(=C(C(=C1)F)C(=O)NC(=O)NC2=CC(=C(C(=C2F)Cl)F)Cl)F
#inchikey CJDWRQLODFKPEL-UHFFFAOYSA-N
#pubchem_id 91734
#mb_accession EA293102,EA293103,EA293104,EA293105,EA293106,EA293107,EA293108,EA293109,EA293110,EA293111,EA293112,EA293113

>ms2
158.041100 17683.400000
380.981000 39633.600000

>ms2
141.014700 9185.300000
158.041000 79751.100000

>ms2
141.014600 39140.000000
158.040900 42220.400000
195.960800 3294.500000

>ms2
141.014400 68654.500000
158.040900 15010.900000

>ms2
141.014400 85025.900000
141.026300 5322.300000
195.961100 2602.200000

>ms2
141.014400 47627.700000
141.025900 18373.200000
195.960200 2662.100000

>ms2
141.014200 5121.800000
158.040900 40297.600000
197.967900 2782.900000
380.980900 25521.600000

>ms2
141.014500 9499.200000
158.041000 54158.700000
197.967500 2447.300000

>ms2
141.014500 23066.600000
158.041100 30534.200000
195.964000 2667.600000

>ms2
141.014500 46983.700000
158.041000 10847.800000
195.964600 2602.800000

>ms2
141.014500 32419.400000
195.964000 2021.900000

>ms2
141.014500 19403.000000
141.025500 6409.100000
195.960400 2156.700000

