>compound EA90779806
>parentmass 388.1309999999999
>ionization [M+H]+
>formula C21H22ClNO4
>rt 648.000000
>profile orbitrap
#smiles_iso COC1=C(C=C(C=C1)/C(=C/C(=O)N2CCOCC2)/C3=CC=C(C=C3)Cl)OC
#smiles_can COC1=C(C=C(C=C1)C(=CC(=O)N2CCOCC2)C3=CC=C(C=C3)Cl)OC
#inchikey QNBTYORWCCMPQP-NBVRZTHBSA-N
#pubchem_id 5889665
#mb_accession EA294402,EA294403,EA294404,EA294405,EA294406,EA294407,EA294408,EA294409,EA294410,EA294411,EA294412,EA294413

>ms2
301.061700 882444.000000
388.131200 22594599.400000

>ms2
70.028800 157456.500000
114.055000 629489.300000
138.994200 58870.100000
165.054500 419378.600000
208.051400 26311.900000
273.067600 71872.600000
301.062600 19913795.900000
302.055800 23356.600000
388.130200 6056442.500000

>ms2
70.028800 484123.100000
88.075700 21028.900000
114.055000 878638.100000
125.015300 104826.400000
138.994600 1744403.400000
165.054800 7398884.100000
208.052200 19654.300000
215.025800 24551.500000
223.075600 45260.300000
238.098800 191549.800000
240.032500 15757.800000
242.049400 254266.100000
243.021100 43111.000000
243.056200 31567.100000
257.035600 64443.700000
258.044200 467140.300000
261.067900 33312.800000
266.093600 143245.000000
270.044000 224128.200000
271.051000 23193.400000
273.067800 2554461.300000
286.039000 221274.400000
301.063000 13138166.100000

>ms2
70.028800 586460.200000
77.038400 24095.700000
79.054200 36494.800000
88.075500 17616.500000
107.049800 9020.400000
109.064700 37061.600000
110.999300 21705.500000
114.055100 343171.900000
118.041800 8234.700000
122.036200 81123.800000
125.015300 714550.100000
126.031000 12326.900000
131.049800 11043.400000
133.065700 11517.000000
137.015000 40824.300000
137.059700 205678.100000
138.994700 2257277.300000
146.036100 10421.600000
148.052000 16881.700000
149.015400 11755.000000
151.038100 12929.400000
152.061700 19795.800000
155.070500 18146.700000
162.994400 57061.400000
165.054800 7847970.300000
167.085300 90846.600000
177.069700 28698.400000
178.077500 61468.900000
179.085900 38394.700000
187.030200 21367.100000
193.064600 16291.000000
194.072400 25955.600000
195.080500 280406.500000
199.030800 53598.000000
201.047100 31274.300000
207.080800 26650.900000
208.052100 14290.100000
208.088800 20655.600000
212.038000 38761.700000
213.047100 41511.600000
215.025900 340225.000000
222.066500 13476.500000
223.075600 455156.500000
226.018400 24549.400000
227.025900 175197.300000
228.033500 89528.000000
229.041600 166443.000000
230.049000 89835.700000
235.075300 146379.400000
238.098900 861800.300000
239.025700 22209.300000
240.033700 59547.500000
241.041900 86588.700000
242.049400 1795023.800000
243.020900 599550.200000
243.057400 91798.500000
251.070300 73669.500000
256.028200 66635.300000
257.036500 333117.500000
258.044300 1781788.300000
266.093900 157119.600000
269.036400 46330.700000
270.044400 281970.100000
271.015400 24620.600000
273.067800 1812526.700000
285.031300 34221.700000
286.039100 187092.300000
301.062800 1125700.800000
303.043000 9565.100000

>ms2
53.038400 22341.800000
65.038400 9177.600000
66.046400 64969.500000
70.028800 599459.400000
77.038600 158924.400000
79.054300 153514.400000
81.070000 44084.400000
86.999600 24287.500000
88.075800 9904.000000
89.038500 18583.600000
91.054100 25153.100000
92.026100 19525.500000
94.041400 84102.000000
105.033400 36834.500000
105.044700 58386.700000
107.049300 34230.900000
109.028400 58216.400000
109.064800 188769.500000
110.999500 66356.500000
114.055000 115563.400000
121.028500 78306.200000
122.036300 389681.900000
125.015300 960652.900000
129.009800 16446.300000
131.048900 30696.800000
133.028000 13373.000000
133.065100 15298.300000
135.044100 18111.600000
137.014900 61649.700000
137.059800 493211.700000
138.994600 1538535.400000
139.005600 330491.300000
146.036500 23775.600000
148.051200 11580.700000
150.031100 37603.000000
152.062000 267837.400000
155.070500 39939.900000
162.994400 69027.900000
165.054800 3496387.700000
166.077900 108190.000000
167.085600 414023.800000
168.056900 8620.300000
176.062000 36401.100000
177.069900 188768.100000
178.077800 204528.000000
179.085600 91070.200000
180.056700 65696.200000
181.064300 32888.800000
187.030900 204872.200000
192.056800 23749.800000
193.065900 54194.500000
194.072600 131857.500000
195.080500 565409.800000
199.031000 313316.600000
200.038600 27157.000000
201.046600 117881.900000
202.054100 9703.500000
206.072200 31256.100000
207.080700 69335.800000
208.051600 27725.600000
208.087700 33530.100000
212.038700 159760.100000
213.047000 71476.800000
215.025900 926240.700000
220.051500 17321.800000
221.060200 20136.700000
222.067800 14043.900000
223.075400 690190.600000
226.017500 53813.500000
227.025900 1052530.700000
228.033500 207735.400000
229.041400 248610.700000
230.049700 75411.400000
235.075500 220634.500000
237.092100 21376.700000
238.098900 470098.700000
239.025600 56604.900000
240.034000 52323.300000
241.041700 194827.300000
242.049300 1793628.800000
243.020700 1008041.700000
251.069900 53956.700000
255.021600 29444.200000
257.036300 320350.400000
258.044100 805668.700000
269.036700 25347.300000
270.043700 64705.400000
273.067500 206311.300000
285.030600 41953.100000
286.039900 24985.400000
303.043100 14030.400000
390.135100 17311.100000

>ms2
53.038600 21515.800000
65.038700 31746.400000
66.046500 156889.400000
69.033500 8812.500000
70.028800 426531.900000
77.038600 292596.300000
79.054300 217076.000000
81.070000 57735.900000
86.999700 52070.500000
89.038800 51960.900000
90.046700 16425.000000
91.054300 21684.700000
92.025700 74597.600000
94.041300 134217.000000
95.049200 25699.500000
98.999700 24286.000000
102.046500 32948.800000
105.033400 41742.300000
105.044800 151534.100000
107.012800 45279.400000
107.049100 33602.500000
109.028400 67267.700000
109.064800 208930.700000
110.999600 112167.300000
114.055300 21982.200000
117.033300 12773.000000
118.041900 14521.300000
121.028400 158373.100000
122.036300 464270.700000
125.015300 759313.600000
129.010400 22451.800000
131.049400 36532.800000
133.027800 14797.900000
137.015100 49727.800000
137.059700 249874.800000
138.994600 745535.300000
139.005900 598309.100000
146.036500 14905.900000
150.031000 24501.000000
151.054100 58907.000000
152.062100 1150106.300000
153.069500 19876.700000
154.026600 12138.200000
155.069800 18657.500000
162.994500 69218.700000
163.054300 28622.500000
164.062000 52447.100000
165.054800 842787.300000
165.070600 673427.600000
166.077800 321622.300000
167.085600 510204.700000
176.062100 219804.600000
177.070000 341146.400000
178.077800 435797.000000
179.059800 31873.100000
179.085700 85580.200000
180.056900 223604.000000
181.064700 45856.700000
187.030900 346656.100000
192.056700 102369.000000
193.065500 89455.400000
194.072800 250003.400000
195.080500 426286.100000
198.022300 10449.000000
199.030900 1143250.700000
200.039100 16101.300000
201.046700 83742.000000
206.072700 24350.200000
207.080200 60855.700000
208.051600 45290.200000
208.088500 23110.400000
211.031300 21767.900000
212.038900 320852.300000
213.047000 48484.400000
215.025900 782700.200000
220.050900 17293.100000
221.060400 24136.100000
222.068300 27008.700000
223.075400 269124.200000
226.018200 31936.800000
227.025900 1296567.400000
228.033700 170020.000000
229.041400 110661.500000
230.050400 12188.800000
235.075700 68644.200000
238.098500 63193.000000
239.025800 48605.200000
240.033300 14574.000000
241.041600 166379.500000
242.049400 598749.300000
243.020700 549958.200000
255.020400 16379.400000
256.028300 13698.400000
257.036500 152269.500000
258.044400 89458.500000
269.037500 17058.000000
283.015500 15637.000000

>ms2
301.062500 761095.300000
388.130500 17592946.000000

>ms2
70.028800 90930.900000
114.055000 456086.800000
138.994400 56130.200000
165.054800 314856.200000
208.052500 24893.100000
261.067700 23141.200000
273.067600 47915.300000
301.062300 15050782.700000
388.131200 4777388.400000

>ms2
70.028800 322056.500000
86.060100 11241.700000
114.055000 632003.300000
125.015200 100626.500000
138.994600 1196818.700000
162.994700 16560.000000
165.054700 5172652.800000
195.080000 14104.400000
208.052600 12272.500000
210.103700 9204.600000
215.025900 9284.800000
223.075700 23217.900000
227.025900 10000.600000
229.040800 12163.100000
230.049700 12551.500000
235.076500 10764.400000
238.098900 136640.000000
242.049300 170867.600000
243.020800 31670.500000
243.056800 21412.100000
256.027800 18233.600000
257.036300 42602.200000
258.044200 379821.000000
261.068000 39645.600000
266.093800 125766.200000
269.035800 14259.100000
270.044100 146007.200000
271.051400 15984.600000
273.067700 1886475.100000
285.032000 10090.100000
286.039100 143537.600000
287.046700 10302.000000
301.062500 8836708.400000
388.132000 72724.400000
390.135200 11295.700000

>ms2
70.028800 424125.800000
77.038500 14188.900000
79.054200 15396.700000
86.060100 6001.100000
105.045000 6337.500000
109.064800 31580.600000
110.999500 11105.300000
114.055000 240329.000000
121.028400 12702.500000
122.036200 63087.500000
125.015300 483591.000000
131.049300 12201.300000
135.043500 6669.700000
137.015200 32170.700000
137.059700 139629.700000
138.994600 1510448.900000
150.030900 9579.500000
152.061400 10150.100000
155.070200 10623.600000
162.994600 32307.000000
165.054600 5385982.600000
166.078500 9125.700000
167.085500 61690.400000
177.070300 16814.900000
178.077800 40952.700000
179.085700 21213.300000
181.064600 6673.200000
187.030900 11421.400000
194.071900 12784.400000
195.080500 196051.200000
199.030700 41948.400000
200.038600 6282.400000
201.046500 23130.300000
205.064600 16018.900000
206.072300 15555.200000
207.080200 16353.100000
208.052400 10938.400000
208.088200 12452.400000
209.096300 13118.600000
210.103500 25023.200000
212.039000 22267.100000
213.046700 32890.700000
215.025900 227013.000000
223.075300 302661.900000
226.018000 24499.300000
227.025800 122261.200000
228.033500 59324.200000
229.041500 111136.400000
230.049200 58252.100000
235.075300 105635.600000
237.091800 7795.200000
238.098800 568149.500000
239.024800 16000.400000
240.033600 42409.900000
241.041500 64430.200000
242.049300 1242212.100000
243.020700 395370.500000
243.057000 66629.300000
251.070000 50615.900000
255.020300 9557.400000
256.028300 40884.000000
257.036400 226433.900000
258.044200 1158770.600000
261.067700 20119.300000
266.093600 108941.500000
269.036800 26487.100000
270.044100 194336.800000
271.015400 25055.600000
271.053200 12353.400000
273.067600 1223405.500000
285.031000 45207.200000
286.039000 99635.800000
287.046600 7840.200000
301.062600 832001.200000

>ms2
51.023000 4777.700000
53.038500 7932.000000
65.038500 5698.500000
66.046400 38363.800000
69.033400 4966.000000
70.028800 342035.100000
77.038600 84307.900000
79.054200 107971.400000
81.069900 30017.900000
86.999700 10085.900000
89.038500 9552.700000
91.054600 6309.900000
92.025500 7269.600000
94.041400 56107.300000
95.049000 5595.200000
102.046300 8214.900000
105.033600 25273.300000
105.044700 36238.100000
107.012600 5001.800000
107.049200 18642.900000
109.028400 25380.000000
109.064800 123873.200000
110.999500 44120.000000
114.054900 58437.800000
118.041400 9492.800000
121.028400 40326.100000
122.036200 227257.200000
125.015300 609468.100000
126.030900 13445.600000
129.010300 10814.800000
131.049200 18229.500000
133.028300 9013.800000
135.044300 10807.000000
137.015200 36804.700000
137.059700 294399.600000
138.994500 932985.300000
139.005700 208470.300000
146.036000 11728.800000
148.051800 7494.200000
149.015200 12562.400000
150.031200 25177.300000
151.053700 4961.600000
152.062000 136063.700000
153.070000 9820.000000
154.026400 7318.500000
155.070300 25685.200000
162.994600 31248.900000
165.054700 2269899.300000
166.077700 73632.600000
167.085500 292653.600000
176.061700 25288.600000
177.069900 102198.500000
178.077600 132030.300000
179.085400 46520.800000
180.056900 42953.500000
180.093800 6039.100000
181.064800 16478.000000
187.030900 126000.600000
192.056800 15901.300000
193.064600 41961.000000
193.076500 8581.600000
194.072700 72647.000000
195.080400 358606.200000
199.030900 186523.400000
200.038700 17191.200000
201.046500 65985.000000
202.055000 7381.400000
205.064800 39576.100000
205.075900 26280.700000
206.072600 13559.700000
207.080500 36753.500000
208.051700 23615.700000
208.088200 25554.200000
209.095900 7433.300000
212.038700 113065.400000
213.046600 42942.800000
215.025800 524074.700000
220.052800 9113.100000
221.059700 12973.200000
222.067600 15741.100000
223.075300 434769.500000
226.018200 33340.000000
227.025800 582747.500000
228.033600 123801.500000
229.041400 157150.400000
230.049200 45410.800000
235.075300 146557.000000
238.098800 306125.900000
239.025900 32399.800000
240.033700 28958.400000
241.041400 106085.900000
242.049300 1103091.400000
243.020700 664215.500000
251.069900 29149.300000
255.021000 15896.400000
256.028400 22253.400000
257.036300 181706.300000
258.044200 473661.100000
266.093500 15954.800000
269.036000 10789.600000
270.044600 41805.900000
271.015200 8749.500000
273.067500 113738.100000
285.030800 30206.900000
286.039300 9862.100000
301.063900 47391.900000

>ms2
51.022900 6203.600000
53.038500 15970.100000
65.038600 17642.900000
66.046400 92825.100000
69.033500 6469.300000
70.028700 218052.000000
77.038600 164883.500000
79.054200 113972.200000
81.069800 29288.400000
86.999600 21865.500000
89.038500 29288.000000
90.046400 4683.800000
91.054300 18203.400000
92.025600 34247.100000
94.041300 87051.600000
95.049100 14969.600000
98.999500 15554.900000
102.046400 14948.800000
105.033400 19560.000000
105.044700 84410.200000
107.012600 17759.100000
107.049200 21576.200000
109.028400 23427.200000
109.064700 112000.600000
110.999500 61418.700000
114.054800 11498.900000
117.033700 9742.500000
118.041300 10974.000000
121.028400 95156.300000
122.036200 276633.100000
125.015200 427353.500000
126.031200 4873.100000
129.010100 13033.300000
131.049200 14010.900000
133.028200 6101.200000
135.043900 10182.500000
137.015000 27272.300000
137.059600 152358.900000
138.994500 395913.500000
139.005700 334854.100000
146.036100 6570.300000
149.015200 16226.300000
150.031200 13058.300000
151.038100 6469.200000
151.054000 34673.800000
152.062000 694690.200000
153.069700 13330.300000
155.070200 11900.300000
162.994400 36533.800000
163.054000 17947.200000
164.061800 28477.700000
165.054600 491067.400000
165.069700 474729.000000
166.077600 186376.900000
167.085400 284604.300000
168.056600 15599.500000
176.061900 106381.600000
177.069700 193500.800000
178.077600 248378.300000
179.060200 18786.500000
179.085300 48168.200000
180.056800 110542.300000
181.064700 21836.700000
187.030800 207598.500000
192.056900 52537.500000
193.064500 37997.300000
193.076000 10230.300000
194.072500 143458.600000
195.080300 250391.200000
198.023600 8348.900000
199.030800 663247.300000
200.038700 15003.800000
201.046400 40147.700000
205.064700 46582.400000
205.075800 21370.800000
206.072500 11798.700000
207.080500 32444.700000
208.051900 26318.800000
208.088400 11742.600000
211.030800 22477.800000
212.038600 186035.500000
213.046400 26510.100000
215.025700 428921.800000
220.052800 9343.400000
221.059500 22002.700000
222.067800 13039.300000
223.075200 124525.300000
226.017800 28376.400000
227.025700 747017.200000
228.033500 96759.800000
229.041300 55564.200000
230.048900 8306.400000
235.075200 47875.400000
238.098800 27536.000000
239.025600 22018.600000
240.034200 5803.900000
241.041400 84352.100000
242.049100 339746.800000
243.020600 316613.400000
255.020500 8346.000000
257.036300 63985.400000
258.043900 58823.300000
283.016900 4760.300000
285.030900 5238.600000
388.131600 5857.100000

