>compound EA90019590
>parentmass 185.1033
>ionization [M+H]+
>formula C7H12N4O2
>rt 354.000000
>profile orbitrap
#smiles_iso CC(C)(C)C1=NNC(=O)N(C1=O)N
#smiles_can CC(C)(C)C1=NNC(=O)N(C1=O)N
#inchikey AHBXXEZLRFCZSF-UHFFFAOYSA-N
#pubchem_id 41909
#mb_accession EA009302,EA009303,EA009304,EA009305,EA009306,EA009307,EA009308,EA009309,EA009310,EA009311,EA009312,EA009313

>ms2peaks
185.103200 8513381.500000

>ms2peaks
69.069800 28872.900000
101.034400 71592.800000
112.014300 16572.500000
125.070900 25579.800000
141.065700 73891.400000
156.089500 41439.700000
157.108300 598761.000000
169.072400 36875.000000
185.103000 15534583.800000

>ms2peaks
57.069900 156225.100000
67.054300 39272.000000
68.049300 10954.400000
69.008500 20672.500000
69.069900 189964.400000
70.028800 9324.100000
82.065300 29014.900000
84.080800 66798.700000
96.044200 11700.800000
97.076100 17445.200000
99.091700 8080.900000
101.034600 160434.700000
110.060100 85801.100000
111.068000 93684.700000
112.014200 76891.800000
114.042200 10177.800000
125.071000 78114.700000
127.086700 12316.300000
140.081400 9941.900000
141.066000 189256.100000
141.090200 9615.400000
142.073500 8427.400000
143.081700 11860.800000
156.089400 172392.500000
157.108500 1961844.700000
168.076800 9959.800000
169.072100 144613.200000
185.103300 7204534.900000

>ms2peaks
57.069800 252373.300000
58.065100 5485.900000
59.023900 9415.700000
65.038600 11369.300000
67.054200 55186.500000
68.049300 22649.900000
69.008300 57450.000000
69.069800 207643.800000
70.028700 22556.900000
70.041200 7422.600000
70.065200 11567.200000
74.034700 6696.600000
82.065200 26066.500000
83.023900 16035.100000
83.060200 7714.300000
83.073000 20472.000000
84.080700 71861.100000
95.060600 6049.000000
96.044300 36627.300000
97.076000 29150.100000
100.050500 23278.800000
101.034500 77278.100000
101.045600 11414.300000
110.059900 144304.000000
111.067800 235083.000000
112.014000 63489.500000
114.042200 18400.200000
125.070800 46702.900000
127.086300 12678.100000
140.081700 9288.700000
141.065800 146693.500000
141.089400 21780.100000
142.074200 9366.000000
143.081100 13552.100000
156.089100 130908.100000
157.108200 1252849.200000
169.071800 102690.300000
185.103100 1635514.500000

>ms2peaks
57.069800 234904.300000
59.024100 10696.900000
65.038500 12556.000000
67.054200 51001.200000
68.049500 31433.400000
69.008400 52332.300000
69.069900 88221.900000
70.028700 15234.700000
70.041300 11234.400000
70.065300 5984.200000
78.033900 4992.300000
82.065100 29083.900000
83.023800 10569.000000
83.060500 9388.000000
83.073000 25402.300000
84.044600 7072.600000
84.080800 38276.800000
96.044400 87870.800000
97.076300 18360.000000
100.050700 7845.600000
101.034800 26049.300000
101.045600 19400.200000
110.060000 84798.300000
111.067800 156105.900000
112.014100 20343.600000
114.042300 26442.400000
124.050500 6732.900000
125.071500 13669.000000
126.065900 12398.700000
141.065800 122981.300000
143.081800 6336.700000
156.088900 32306.600000
157.108200 270176.000000
169.071600 20999.800000
185.103300 175643.400000

>ms2peaks
53.038500 8524.800000
57.069800 169129.000000
59.024100 9139.600000
65.038700 5140.200000
67.041700 5274.700000
67.054200 25691.500000
68.049400 37996.400000
69.008300 57138.500000
69.069700 18065.500000
70.028900 12314.600000
70.041500 7153.200000
70.065200 9205.100000
78.033600 7603.900000
82.065000 29056.000000
83.060200 7636.500000
83.072800 28594.400000
84.080500 11961.800000
96.044300 121757.600000
97.076000 8673.900000
101.045900 17390.000000
110.059700 29781.800000
111.067800 62611.100000
112.013700 6500.800000
114.042300 11766.400000
124.050200 6432.300000
126.065900 12598.100000
141.065800 80950.100000
169.072800 5470.600000

>ms2peaks
157.108400 8480.900000
185.103200 6318195.000000

>ms2peaks
57.069800 16452.500000
69.069900 22899.300000
101.034600 38765.100000
125.070900 15959.800000
141.065800 36173.400000
156.089300 22015.800000
157.108400 348527.600000
169.072000 19516.500000
185.103300 9638509.600000

>ms2peaks
57.069900 102548.500000
67.054300 18570.300000
68.049500 5990.000000
69.008400 12076.400000
69.069900 112326.200000
70.028900 6462.700000
82.065100 14975.800000
83.024000 5327.000000
84.080800 28552.100000
96.044500 6183.400000
97.076000 11004.200000
100.050500 4854.400000
101.034600 98101.000000
110.060000 50066.400000
111.067900 57232.900000
112.014200 43840.000000
125.070900 48745.300000
127.086800 6844.600000
140.081800 7156.700000
141.065800 111386.200000
141.089800 7157.500000
143.081400 6210.000000
156.089300 101581.200000
157.108500 1213711.100000
168.077400 4767.500000
169.072000 79826.100000
185.103200 4644245.800000

>ms2peaks
57.069800 134847.800000
58.065100 2061.100000
65.038600 4072.100000
67.054200 28206.400000
68.049500 11482.300000
69.008300 28719.400000
69.069900 112569.200000
70.028700 8156.900000
70.065100 5197.000000
74.034900 5424.200000
82.065100 21237.800000
83.024000 9770.900000
83.060100 2673.100000
83.072900 10343.500000
84.044500 2718.700000
84.080700 38037.700000
85.088500 2729.400000
95.060600 3594.400000
96.044300 25198.500000
97.076000 12510.600000
99.091600 4683.800000
100.050600 8921.400000
101.034500 44453.700000
101.045800 8781.600000
110.060000 76971.300000
111.067800 130932.400000
112.014100 36059.000000
114.042300 12399.400000
124.050500 2801.300000
125.070800 26090.300000
126.066100 4410.800000
127.086800 4338.200000
140.081800 4928.000000
141.065700 90991.100000
141.089500 10322.700000
142.073900 3863.700000
143.081400 5833.700000
154.060800 4686.100000
156.089200 63258.500000
157.108300 705965.100000
169.071900 49852.800000
185.103200 898607.300000

>ms2peaks
53.038500 2500.800000
57.069800 91507.500000
59.023900 2923.300000
65.038500 5987.300000
67.041500 2217.700000
67.054200 18481.500000
68.049500 8739.800000
69.008300 25317.800000
69.069900 36143.400000
70.028600 4445.400000
70.041200 3867.400000
70.065100 3774.900000
74.034800 3083.800000
82.065100 15499.500000
83.024000 5211.600000
83.060400 2449.200000
83.072900 12832.600000
84.044400 2908.000000
84.080700 16335.300000
86.034900 2058.300000
95.060500 4261.900000
96.044300 38501.000000
97.075700 4246.400000
100.050400 5168.700000
101.034600 10393.200000
101.045700 7493.400000
110.059900 32815.600000
111.067800 74575.100000
112.014100 10291.900000
114.042400 9653.900000
124.050400 2813.900000
125.070700 6113.600000
126.066200 5329.900000
141.065700 49632.700000
141.089500 2570.000000
154.061100 4137.500000
156.089100 15904.600000
157.108300 122425.400000
169.071800 10180.800000
185.103000 68599.000000

>ms2peaks
53.038400 2130.600000
57.069800 64018.500000
59.023900 1966.100000
65.038400 4352.000000
67.054100 8820.400000
68.049400 10305.300000
69.008300 19399.600000
69.069900 7862.700000
70.028600 2455.300000
78.033800 3666.900000
82.065000 9778.400000
83.023900 2458.100000
83.060400 3815.200000
83.072900 6404.900000
84.044300 2491.400000
84.080600 6978.600000
86.034500 2062.900000
96.044300 40327.700000
101.034500 2178.800000
101.045600 5400.700000
110.059800 7656.700000
111.067700 22560.400000
114.042100 4422.400000
126.065700 2559.400000
141.065700 23271.000000
157.107900 9329.400000
185.104200 7231.000000

