>compound EA91924430
>parentmass 298.0315
>ionization [M+H]+
>formula C11H11N3O3S2
>rt 246.000000
>profile orbitrap
#smiles_iso CC(=O)NC1=CC=C(C=C1)S(=O)(=O)NC2=NC=CS2
#smiles_can CC(=O)NC1=CC=C(C=C1)S(=O)(=O)NC2=NC=CS2
#inchikey KXNXWINFSDKMHD-UHFFFAOYSA-N
#pubchem_id 67183
#mb_accession EA024902,EA024903,EA024904,EA024905,EA024906,EA024907,EA024908,EA024909,EA024910,EA024911,EA024912,EA024913

>ms2peaks
298.031300 124947.500000

>ms2peaks
101.016300 3695.000000
108.044500 10324.000000
134.060100 12268.300000
162.066800 4669.100000
198.021600 31416.700000
298.031100 37531.400000

>ms2peaks
65.038700 4087.400000
100.009100 3767.400000
101.016800 5634.700000
108.044500 15382.500000
134.060100 37935.200000
162.066800 5695.000000
198.021700 15987.800000

>ms2peaks
65.038600 14740.000000
100.008900 4835.900000
101.017000 3629.500000
108.044300 13548.000000
134.060200 31712.800000

>ms2peaks
65.038600 21302.900000
100.009200 4222.400000
108.044400 8639.200000
134.059800 12207.900000

>ms2peaks
65.038600 18023.300000
92.049300 3577.700000
108.044400 8514.700000

>ms2peaks
298.031200 77698.200000

>ms2peaks
101.016800 3059.600000
108.044400 4755.400000
134.060000 6734.700000
162.065700 2368.200000
198.021700 27360.500000
298.031200 26962.000000

>ms2peaks
100.009100 2238.500000
101.016700 2928.100000
108.044300 10397.900000
134.060000 30603.700000
162.066500 3223.000000
198.022000 8128.400000

>ms2peaks
65.038500 8899.700000
100.009200 2388.100000
101.016800 3142.700000
108.044500 8229.900000
134.060000 21890.500000

>ms2peaks
65.038600 13381.800000
92.049600 3063.100000
100.008700 3622.000000
101.016700 1912.200000
108.044600 3712.700000
134.060000 6750.700000

>ms2peaks
65.038500 6950.500000
92.049400 2785.700000
100.009100 1430.200000
108.044300 6069.200000

