>compound EA91011196
>parentmass 284.1412
>ionization [M+H]+
>formula C15H22ClNO2
>rt 708.000000
>profile orbitrap
#smiles_iso CCC1=CC=CC(=C1N(C(C)COC)C(=O)CCl)C
#smiles_can CCC1=CC=CC(=C1N(C(C)COC)C(=O)CCl)C
#inchikey WVQBLGZPHOPPFO-UHFFFAOYSA-N
#pubchem_id 4169
#mb_accession EA026802,EA026803,EA026804,EA026805,EA026806,EA026807,EA026808,EA026809,EA026810,EA026811,EA026812,EA026813

>ms2
176.143400 3962.900000
252.115200 965137.700000
284.141500 1385637.900000

>ms2
73.064800 17423.000000
176.143300 40525.400000
212.083700 29109.400000
252.115000 2009805.100000
284.140500 84536.700000

>ms2
73.064800 33409.200000
119.085200 3886.900000
134.096600 8830.100000
146.096300 18739.000000
148.111900 2493.300000
158.096400 9394.300000
160.112300 14868.800000
174.127900 6416.400000
176.143500 442931.100000
184.052700 16208.600000
194.072900 17996.300000
212.083800 45338.400000
252.115000 1406425.600000

>ms2
73.064900 37503.400000
76.978800 8547.800000
91.054400 10273.300000
108.080700 6948.200000
109.065000 3866.300000
117.069500 7470.600000
118.065400 4138.100000
119.085700 18079.400000
120.080600 11356.200000
130.065100 7135.700000
131.072900 7655.600000
132.080900 9824.100000
133.088700 33480.100000
134.096500 111671.800000
135.081500 5527.100000
136.112300 4534.900000
144.081100 8349.300000
145.088900 13587.500000
146.096500 60734.600000
148.075600 5195.500000
148.112200 16105.500000
158.096400 40376.600000
159.104200 17596.700000
160.112100 64301.600000
162.091500 12749.500000
174.127900 10951.600000
176.143600 683500.600000
184.052500 53303.200000
194.073000 22335.200000
212.083800 38579.600000
252.114900 355084.900000

>ms2
73.064800 25190.000000
76.978900 8425.900000
91.054300 37390.100000
93.069800 3301.400000
103.054500 5444.300000
105.069500 4850.500000
107.085800 6013.700000
108.080700 22117.900000
109.064500 8437.700000
117.069800 29198.200000
118.065300 8074.500000
119.073100 18709.300000
119.085500 31947.700000
120.080700 31666.700000
130.064800 14259.100000
131.072800 16620.600000
132.080700 22383.500000
133.088600 82771.200000
134.096400 164664.100000
135.080500 5612.500000
136.112500 4793.900000
143.072700 15192.100000
144.080700 25930.700000
145.088500 25368.300000
146.096500 68163.600000
147.067400 3692.700000
147.104400 8784.300000
148.075500 5690.900000
148.112000 21051.200000
158.096600 41729.400000
159.104200 23114.000000
160.112000 63239.900000
161.120300 5253.200000
162.091300 12404.900000
166.041700 4769.000000
174.128000 8073.600000
176.143400 256643.800000
184.052300 39265.700000
188.107800 4599.500000
194.072800 8924.600000
202.121700 3423.400000
212.083200 9219.800000
252.115700 36019.500000

>ms2
73.064700 10685.700000
76.979100 4912.800000
79.054500 7583.000000
91.054300 70359.800000
93.057300 5201.400000
93.070000 10837.000000
103.054100 8376.100000
104.062400 4683.200000
105.069900 8783.800000
106.065400 4568.100000
107.073200 6595.800000
107.086000 4322.300000
108.080800 37950.700000
109.064900 10377.100000
115.054200 15659.400000
117.070000 37896.600000
118.065300 16415.600000
119.073000 33158.800000
119.085600 23638.900000
120.080900 32411.400000
130.065200 13984.500000
131.073000 29566.500000
132.080800 42184.200000
133.088700 92217.400000
134.096500 97331.100000
136.111900 4450.900000
143.073000 23761.400000
144.080900 33867.700000
145.088700 29240.800000
146.096500 65651.300000
147.104200 5059.900000
148.111900 12642.000000
158.096400 23476.400000
159.104200 15619.300000
160.112200 43713.200000
162.091700 7983.500000
176.143500 47066.100000
184.052600 12973.700000

>ms2
252.115000 604471.300000
284.141200 798548.900000

>ms2
73.064800 10760.800000
176.143500 25738.100000
212.083600 22100.200000
252.115100 1279365.300000
284.141300 52944.700000

>ms2
73.064800 19435.700000
91.054400 1703.100000
134.096300 5592.500000
146.096300 7542.100000
158.096300 6445.900000
160.111900 8903.200000
162.091000 2164.300000
176.143400 258097.700000
184.052600 10088.400000
194.073100 10994.000000
212.083700 19848.700000
252.115000 856100.200000

>ms2
73.064800 17588.100000
76.979000 4837.100000
91.054100 4046.000000
108.080900 3899.400000
117.069900 4921.800000
119.085400 9220.200000
120.080700 5619.700000
131.072600 4377.000000
132.080600 4633.700000
133.088700 18908.700000
134.096400 52200.600000
135.080500 2842.500000
143.072700 2907.100000
144.080400 4697.300000
145.088700 7339.100000
146.096400 35974.800000
147.104200 4705.300000
148.112000 9965.200000
158.096400 17789.600000
159.104300 9892.400000
160.112000 27671.600000
162.091500 6878.500000
174.127600 5206.300000
176.143400 389925.000000
184.052300 27599.300000
188.107800 2314.500000
194.073200 12510.900000
212.083800 18113.100000
252.114800 193201.200000

>ms2
73.064800 13590.100000
76.978900 3294.400000
91.054300 17610.700000
93.069600 4072.000000
105.070100 3199.000000
107.085700 2339.400000
108.080700 13998.000000
109.064800 4406.200000
117.069900 14201.100000
118.065100 5010.800000
119.073000 10977.300000
119.085500 14100.200000
120.080800 14051.300000
130.065000 5533.500000
131.073000 8384.500000
132.080700 13506.000000
133.088600 44359.400000
134.096400 85887.900000
136.112500 2337.300000
143.073000 6635.700000
144.080900 14214.100000
145.088800 11562.500000
146.059500 2514.900000
146.096400 41349.200000
147.104300 7414.600000
148.112100 9675.900000
158.096400 19441.700000
159.104300 12951.100000
160.112100 37160.400000
162.091300 8417.200000
174.127600 2705.000000
176.143400 140167.500000
184.052400 26226.500000
194.073700 4050.200000
202.123600 2400.800000
212.083400 2601.000000
252.115100 22059.400000

>ms2
73.064800 4108.700000
76.978900 2660.800000
79.054200 3779.100000
91.054200 39572.500000
93.057300 2306.400000
93.069900 6059.000000
103.054200 5371.500000
104.062100 4784.700000
105.069800 3175.200000
106.065000 2836.000000
107.073100 3153.300000
107.085600 1863.900000
108.080700 17636.800000
109.064900 3981.600000
115.054300 3716.200000
117.069900 17607.500000
118.065100 7762.800000
119.072900 17940.000000
119.085500 10827.100000
120.080800 16447.400000
130.065000 5991.700000
131.073000 14454.900000
132.080800 20606.700000
133.088600 39144.500000
134.096400 49415.600000
136.112200 1581.400000
143.072900 7048.700000
144.080800 17152.900000
145.088600 12056.800000
146.060200 2441.900000
146.096400 33476.800000
147.068000 2452.100000
147.104100 2751.100000
148.112100 4459.500000
158.096500 10114.000000
159.104300 7965.000000
160.112100 23354.300000
161.119700 1994.800000
162.091200 3257.700000
166.042500 1250.400000
176.143400 21191.400000
184.052200 7788.800000

