>compound EA91242978
>parentmass 258.0713999999999
>ionization [M+H]+
>formula C12H16ClNOS
>rt 798.000000
>profile orbitrap
#smiles_iso CCN(CC)C(=O)SCC1=CC=CC=C1Cl
#smiles_can CCN(CC)C(=O)SCC1=CC=CC=C1Cl
#inchikey LLLFASISUZUJEQ-UHFFFAOYSA-N
#pubchem_id 36867
#mb_accession EA006902,EA006903,EA006904,EA006905,EA006906,EA006907,EA006908,EA006909,EA006910,EA006911,EA006912,EA006913

>ms2
72.044400 147175.700000
100.075700 344891.500000
125.015100 313213.200000
198.105100 9304.700000
258.071700 3854014.900000

>ms2
72.044500 494503.500000
89.038600 9798.300000
100.075800 581132.500000
125.015300 2350414.500000
198.103600 15084.400000
258.071900 888733.400000

>ms2
72.044500 236438.500000
98.999800 5776.600000
100.075800 239193.300000
125.015400 3140917.600000

>ms2
72.044500 100208.400000
89.038600 16238.900000
100.075700 63866.600000
125.015400 3192538.000000
222.095700 3839.600000

>ms2
72.044400 38647.600000
89.038600 91037.100000
90.046200 15385.000000
98.999600 34044.600000
100.075900 15810.500000
125.015300 2857380.600000

>ms2
63.022800 13785.400000
65.038600 9723.400000
72.044500 15283.100000
89.038600 297215.100000
90.046400 95095.300000
98.999600 157977.600000
100.076200 3916.400000
125.015300 2454588.500000

>ms2
72.044400 109880.900000
100.075800 257785.800000
125.015200 218697.500000
198.104800 6087.000000
258.071700 2805924.100000

>ms2
72.044400 323554.600000
89.038900 3606.700000
100.075700 395549.900000
125.015300 1592332.800000
198.104100 7588.600000
258.071600 583201.500000

>ms2
72.044400 143754.300000
89.038500 4617.300000
100.075700 148259.900000
125.015300 2102578.300000
258.071600 13642.100000

>ms2
72.044400 62772.300000
89.038600 7403.600000
98.999800 2734.500000
100.075700 39902.500000
125.015300 2029609.300000

>ms2
72.044400 26398.700000
89.038600 59781.900000
90.046400 8113.800000
98.999600 20514.300000
100.075800 8503.300000
125.015300 1852027.700000

>ms2
63.022900 4532.400000
65.038600 4458.100000
72.044400 10166.600000
89.038600 178638.400000
90.046400 48796.200000
98.999600 94881.300000
100.075800 1853.600000
125.015300 1499052.200000
258.072600 1846.900000

