>compound EA92138807
>parentmass 264.1958
>ionization [M+H]+
>formula C16H25NO2
>rt 288.000000
>profile orbitrap
#smiles_iso CN(C)CC(C1=CC=C(C=C1)O)C2(CCCCC2)O
#smiles_can CN(C)CC(C1=CC=C(C=C1)O)C2(CCCCC2)O
#inchikey KYYIDSXMWOZKMP-UHFFFAOYSA-N
#pubchem_id 125017
#mb_accession EA105302,EA105303,EA105304,EA105305,EA105306,EA105307,EA105308,EA105309,EA105310,EA105311,EA105312,EA105313

>ms2
58.065000 473416.400000
246.185900 1991343.600000
264.196200 13112952.300000

>ms2
58.065200 3430664.900000
107.049000 191783.100000
133.064900 110148.300000
159.080300 26291.100000
201.127500 428672.300000
246.185200 3501864.000000
264.195700 3113651.200000

>ms2
58.065200 3865431.500000
81.069900 47032.100000
107.049200 721903.200000
121.064900 36533.900000
133.064900 548953.000000
145.065100 134346.000000
159.080400 173564.700000
164.107300 34858.400000
173.095900 23578.200000
201.127500 551642.100000
246.184900 382635.600000

>ms2
58.065100 3035338.100000
67.054500 13900.500000
79.054300 53009.300000
81.069800 130950.700000
107.049200 1119197.000000
121.064600 65929.300000
133.064800 721451.900000
145.064900 155665.800000
159.080400 274671.300000
163.099000 30443.400000
164.107000 38266.900000
173.095700 16387.300000
201.127200 94726.300000

>ms2
58.065200 2599746.200000
79.054200 84198.600000
81.069900 168858.700000
91.054300 25899.300000
105.070000 109993.800000
107.049300 1372295.400000
121.065100 37822.200000
131.085300 39788.500000
133.064900 589193.900000
141.070100 15744.800000
145.064800 152652.200000
147.080100 20020.000000
149.084100 32152.100000
159.080700 129929.100000
163.099300 40679.200000
164.106400 16826.100000
169.076500 19047.700000

>ms2
58.065100 2155667.900000
77.038600 28952.000000
79.054200 159338.400000
81.069900 178385.700000
91.054200 43778.200000
103.054300 25237.000000
105.069900 239256.900000
107.049200 1412165.600000
115.054300 26299.200000
117.070000 19034.700000
121.064900 50195.600000
131.049000 28928.600000
131.085200 24399.000000
133.064800 313356.300000
141.069600 32009.700000
144.056800 50202.800000
145.065000 82152.200000
149.083200 28521.300000
155.060000 25134.200000
159.080300 67637.100000

>ms2
58.065100 340649.900000
107.048200 33475.100000
246.185200 1261862.300000
264.196000 9330127.600000

>ms2
58.065100 2483378.900000
107.049100 127105.200000
133.064800 78940.900000
145.064700 15762.400000
159.079900 17305.500000
201.127300 344912.200000
246.185300 2688859.500000
264.196000 2522912.700000

>ms2
58.065200 2574447.700000
79.054300 14758.100000
81.069900 38180.400000
107.049200 477963.000000
119.048800 9702.800000
121.064800 25490.200000
133.064800 342776.200000
145.064700 73536.200000
159.080500 137123.200000
163.099600 11416.700000
164.106900 19830.000000
173.095900 11584.300000
201.127400 338538.400000
246.185200 244951.500000

>ms2
58.065200 2062098.100000
67.054200 10600.900000
69.069700 11298.400000
79.054300 29573.300000
81.070000 55086.000000
99.080400 13084.700000
105.069900 14204.700000
107.049200 765666.500000
119.049000 13861.000000
121.064800 37109.600000
133.064900 459860.800000
145.064800 119396.000000
147.080600 15242.100000
159.080400 174320.700000
163.099200 19229.300000
164.106700 19216.900000
201.127400 51911.700000
246.185900 19129.100000

>ms2
58.065200 1589024.300000
67.054200 10590.200000
77.038300 8524.300000
79.054200 60507.900000
81.069900 108773.900000
91.054300 17401.900000
99.080500 10732.700000
105.069900 70469.200000
107.049200 879499.700000
121.064900 38077.100000
131.049000 9901.500000
131.085900 12824.200000
133.064800 375954.500000
144.056900 18881.100000
145.064800 76752.300000
147.080700 9514.900000
149.083500 17770.300000
159.080500 107245.900000
163.099400 15963.300000

>ms2
58.065100 1361144.300000
67.054300 5823.800000
69.069900 6032.700000
77.038600 28573.600000
79.054200 76147.800000
81.069900 78280.600000
91.054300 29799.300000
103.054200 12467.900000
105.069900 137532.100000
107.049200 822108.300000
115.054200 12918.100000
117.069900 13066.700000
121.064800 20268.000000
131.049100 13901.100000
131.085500 16486.700000
133.064800 197586.100000
141.069900 15004.500000
144.056900 24406.100000
145.064800 39594.200000
149.083400 12172.000000
155.060400 12154.000000
159.080500 36340.700000
169.076000 12028.800000

