>compound EA93897878
>parentmass 276.08199999999994
>ionization [M+H]+
>formula C12H18ClNO2S
>rt 600.000000
>profile orbitrap
#smiles_iso CC1=CSC(=C1N(C(C)COC)C(=O)CCl)C
#smiles_can CC1=CSC(=C1N(C(C)COC)C(=O)CCl)C
#inchikey JLYFCTQDENRSOL-UHFFFAOYSA-N
#pubchem_id 91744
#mb_accession EA025402,EA025403,EA025404,EA025405,EA025406,EA025407,EA025408,EA025409,EA025410,EA025411,EA025412,EA025413

>ms2
152.016400 10593.000000
168.083500 14899.600000
244.055800 5780599.100000
276.081900 5545254.200000

>ms2
73.064800 58815.600000
111.026200 24907.900000
152.016800 14624.600000
168.084100 322527.100000
204.024100 45559.600000
244.055900 10450932.900000
276.081800 349201.400000

>ms2
73.064800 138406.500000
76.979000 17452.600000
111.026300 198107.200000
116.026100 11361.600000
117.069900 9653.000000
125.042000 27955.600000
126.037300 54542.600000
128.052900 36894.600000
138.037200 54858.200000
150.036800 15762.100000
151.057500 109155.300000
152.052400 49700.200000
153.024600 40737.100000
154.069000 13074.200000
166.032600 24037.300000
166.068600 46025.900000
167.076300 199306.800000
168.084200 2935781.900000
186.014000 156823.500000
202.009400 62362.400000
203.016400 96622.900000
204.024300 88819.100000
244.055900 7637662.000000

>ms2
58.995000 21272.500000
73.064800 152587.200000
76.978800 70845.800000
91.054200 12932.400000
93.069900 31786.400000
94.064900 18112.500000
95.073000 41050.400000
97.010400 11124.300000
99.026200 24883.400000
108.080400 28970.800000
111.026300 832550.800000
112.033800 11870.300000
113.041900 55453.000000
120.081100 16802.500000
123.026600 12401.100000
124.034200 46871.000000
125.042000 102499.000000
126.037200 291284.500000
127.045100 45307.700000
127.057500 40244.700000
128.053000 187727.200000
129.036900 60193.800000
134.096200 40147.800000
135.104300 124649.300000
137.029100 63256.000000
138.037300 154099.600000
139.057300 21827.300000
140.052800 59629.300000
149.041600 13456.400000
150.037300 126731.700000
151.044300 22067.600000
151.057700 240966.000000
152.016400 68534.700000
152.053000 277612.600000
153.024300 195961.200000
153.060800 55943.400000
154.032300 48933.000000
154.069100 22040.900000
166.032200 96774.100000
166.068400 114262.900000
167.076400 310930.000000
168.084300 3594092.100000
174.014200 13690.700000
186.014100 251413.200000
202.008800 58220.300000
203.016500 159695.000000
204.024100 75590.200000
244.055700 1872314.200000

>ms2
58.994900 35127.400000
65.038700 17929.500000
67.054200 36461.400000
73.064900 117384.200000
76.979000 57582.200000
77.038800 33149.400000
79.054500 24707.000000
85.010700 15898.200000
91.054200 23597.500000
93.069900 56573.600000
94.065200 61609.000000
95.073000 114759.500000
97.010600 29023.300000
99.026400 48512.200000
101.042200 20856.900000
104.049700 12361.400000
105.044300 9969.800000
105.057300 20982.600000
108.080800 55354.800000
111.026400 1110478.100000
112.034100 74327.600000
113.029700 24857.700000
113.042000 91007.100000
117.057600 16156.800000
117.070000 35345.900000
118.065300 22956.600000
118.077400 10068.400000
119.073000 12004.900000
120.080800 87338.400000
122.096500 25190.500000
123.026600 19689.600000
124.021000 18858.900000
124.034200 63411.900000
125.029400 35086.300000
125.042100 129513.100000
126.037300 837084.300000
127.021100 32717.200000
127.045200 90393.800000
127.057600 56412.900000
128.053000 279326.800000
129.036900 33955.100000
134.096500 93357.400000
135.104300 185189.800000
136.021300 16327.900000
136.034600 13058.200000
137.029500 140767.800000
138.037300 390911.400000
140.053000 56741.100000
149.041300 20376.300000
150.037200 194189.600000
151.044800 42995.100000
151.057800 169897.800000
152.016700 148623.900000
152.053000 508984.500000
153.024400 295529.000000
153.060700 147922.200000
154.032300 60468.400000
154.068600 35496.100000
159.003700 18196.900000
166.032300 76469.300000
166.068700 78119.100000
167.076400 143177.600000
168.084300 1469279.000000
171.998300 16579.800000
186.013900 151351.500000
202.009600 14639.700000
203.016800 67309.500000
204.024300 16805.100000
244.056400 198792.000000
276.083100 20412.700000

>ms2
58.995000 35869.500000
65.038700 30720.000000
67.054200 71973.300000
70.994900 23120.800000
73.064800 78830.700000
76.978800 39453.400000
77.038500 69714.700000
78.046300 25043.200000
79.054300 45044.200000
82.065100 12865.900000
85.010700 21297.200000
91.054200 33396.700000
93.057500 38193.700000
93.069900 48094.100000
94.065100 149910.800000
95.072900 244908.500000
97.010700 55296.000000
99.026300 72191.400000
101.042200 22709.800000
104.049400 28607.500000
105.044800 15701.200000
105.057300 64899.200000
106.064900 25356.200000
107.085100 10192.700000
108.080700 47994.100000
109.010900 13474.700000
110.018600 20645.700000
111.026300 1011302.000000
112.021600 12471.500000
112.034000 108404.600000
113.029200 19908.100000
113.041900 63787.500000
117.057300 29390.200000
117.069900 26183.800000
118.065300 38995.700000
118.077600 12013.500000
119.072700 44383.200000
120.080700 139688.700000
122.096500 26026.000000
123.026500 26812.300000
124.021700 56537.800000
124.034000 60641.900000
125.029100 49852.800000
125.041900 105202.300000
126.037100 937654.800000
127.021300 22515.600000
127.045000 60342.500000
128.052800 191438.600000
129.037100 22634.900000
134.096400 97396.600000
135.026300 28465.500000
135.104100 129533.900000
136.021400 55845.500000
136.034700 14394.400000
137.029200 119333.000000
138.037100 472870.300000
139.044600 11977.800000
140.052800 40685.500000
150.037100 166669.300000
151.044800 49734.500000
151.057300 61799.900000
152.016400 318536.900000
152.052800 463037.800000
153.024100 201044.600000
153.060600 103892.200000
154.031800 46160.300000
154.068600 33820.400000
166.031800 58699.000000
166.068400 41521.900000
167.076400 27316.500000
168.084100 309216.800000
186.014500 23926.600000

>ms2
244.055700 5784010.000000
276.081900 5530656.700000

>ms2
73.064800 47831.600000
111.026200 19672.200000
168.084100 304999.800000
204.024500 47195.800000
244.055700 10010673.600000
276.082500 379904.100000

>ms2
73.064800 142076.400000
76.978800 9806.100000
93.069800 8965.100000
111.026200 181097.400000
113.042000 10252.900000
116.026000 7589.900000
125.041800 19454.000000
126.037100 43467.200000
127.021300 12507.500000
128.052800 33362.700000
129.036700 19285.800000
134.096200 13269.800000
135.104500 17381.500000
138.037100 26407.500000
140.053000 15125.700000
150.037300 29344.900000
151.057600 94782.200000
152.016200 23091.800000
152.052900 34332.100000
153.024100 34760.500000
154.068000 11990.300000
166.032200 28721.100000
166.068500 50608.600000
167.076300 165357.600000
168.084200 2749157.700000
186.013800 140721.500000
202.008900 33865.800000
203.016400 115163.800000
204.024300 86253.600000
244.055800 7012804.700000

>ms2
58.994900 11487.400000
73.064800 135680.000000
76.978900 63255.800000
77.038600 8755.400000
93.069900 25416.900000
94.065200 18483.100000
95.073000 32130.700000
99.026400 22162.800000
107.085600 9482.800000
108.080800 35841.800000
110.018200 8609.600000
111.026300 693126.400000
112.034100 20686.700000
113.041900 44035.200000
116.026200 13224.100000
117.070000 19445.500000
120.081000 23071.900000
122.096400 15473.500000
123.026200 7485.400000
124.034100 42735.700000
125.029100 10387.400000
125.042000 89257.200000
126.037200 316384.800000
127.021100 39044.100000
127.045100 54960.500000
127.057400 38394.400000
128.052800 147522.300000
129.036800 48533.500000
133.088700 9892.800000
134.096500 49440.200000
135.026400 10454.400000
135.104300 113896.200000
137.029400 56883.300000
138.037200 147209.500000
140.052900 38295.100000
149.042300 14302.900000
150.037200 120118.300000
151.045400 21130.700000
151.057600 197668.300000
152.016300 59092.100000
152.052900 283681.700000
153.024300 201006.900000
153.060700 53280.000000
154.032200 40715.400000
154.068500 28415.900000
158.036800 9842.500000
159.003700 11317.000000
166.032000 68883.900000
166.068600 99418.600000
167.076400 286734.400000
168.084200 3364533.800000
174.013700 19441.200000
186.013900 228060.800000
202.008700 52829.800000
203.016500 143432.400000
204.024500 81949.800000
244.055800 1792874.700000

>ms2
58.994900 33219.500000
65.038400 6254.800000
67.054100 20275.800000
73.064800 98932.300000
76.978800 66679.100000
77.038600 20004.700000
78.046500 10445.900000
79.054200 23392.400000
85.010700 10634.800000
91.054200 25289.400000
93.069800 29933.000000
94.065000 58050.900000
95.072900 92043.800000
97.010600 26716.400000
99.026300 54010.100000
101.041800 21225.900000
104.049200 11834.100000
105.057300 21086.000000
106.065300 8714.200000
107.085100 9153.400000
108.080700 45436.200000
110.018500 13749.300000
111.026300 1017253.900000
112.021800 10855.700000
112.034100 67276.900000
113.029400 19170.500000
113.041900 83312.800000
117.057200 19364.400000
117.069800 32676.700000
118.065300 13008.800000
119.072800 17515.400000
120.080800 79466.200000
122.096400 19522.500000
123.026200 27163.400000
124.021700 12872.200000
124.034000 55324.700000
125.029400 29049.300000
125.041900 133374.500000
126.037200 683364.400000
127.021200 34909.100000
127.045000 81276.600000
127.057500 50016.600000
128.052800 222616.700000
129.036700 45252.800000
134.096400 79381.500000
135.104200 153931.900000
136.021700 14688.600000
136.034100 13900.100000
137.029300 106655.200000
138.037100 336502.600000
139.044900 9538.300000
139.057700 19859.900000
140.052700 48248.200000
144.987400 7263.600000
149.042100 12575.600000
150.037100 165910.500000
151.045000 42532.400000
151.057500 141611.100000
152.016300 121759.600000
152.052800 435407.400000
153.024200 263175.600000
153.060600 123318.300000
154.032100 60534.700000
154.068300 33433.300000
158.036500 19297.500000
159.003100 10302.800000
166.032100 78111.600000
166.068400 73281.700000
167.076200 113177.400000
168.084100 1292455.200000
171.998600 14109.300000
174.014000 12289.700000
186.013900 110046.700000
202.008800 23110.300000
203.016600 45501.100000
204.023900 25332.700000
244.055600 159841.300000

>ms2
58.994900 24746.200000
65.038600 21773.200000
67.054200 55190.100000
70.995000 10133.800000
73.064800 49668.700000
76.978800 30322.200000
77.038600 48397.500000
78.046400 24547.000000
79.054200 27871.800000
82.065100 11957.900000
85.010600 15946.300000
91.054200 24696.800000
93.057200 23636.200000
93.069900 27460.200000
94.065100 102653.800000
95.072900 161145.700000
97.010600 44147.300000
99.026300 54713.400000
101.041900 16352.300000
104.049300 20095.900000
105.044800 12064.100000
105.057300 44409.400000
106.065100 22058.300000
107.085500 8675.200000
108.080700 42571.600000
109.010700 5462.800000
110.018400 14339.100000
111.026300 799390.200000
112.021500 12957.500000
112.034100 71390.100000
113.029300 23071.900000
113.041900 68910.000000
117.057200 19270.600000
117.069800 20893.500000
118.065200 32458.500000
119.072900 23751.400000
120.080700 108977.700000
122.096600 5433.400000
123.026300 19228.000000
124.021400 41933.300000
124.034100 32484.600000
125.029300 42929.400000
125.041900 76844.400000
126.037200 741004.200000
127.021200 16485.400000
127.045000 52975.500000
127.057500 19661.300000
128.052800 144254.000000
129.036800 22169.500000
133.088600 7594.100000
134.096400 77266.900000
135.026200 10509.100000
135.104200 79003.400000
136.021500 38362.900000
136.033900 8187.100000
137.029300 106831.900000
138.037200 394411.100000
139.045000 9610.200000
139.057600 10398.600000
140.052700 30155.700000
144.987400 5401.200000
149.041900 5785.500000
150.037200 120326.900000
151.044900 30068.000000
151.057600 39257.500000
152.016400 211586.700000
152.052800 343299.100000
153.024200 131874.700000
153.060600 71561.400000
154.032000 33587.500000
154.068500 24037.000000
158.036700 7654.400000
166.031900 37527.800000
166.068500 27336.700000
167.076200 14154.300000
168.084100 220481.900000
171.998200 5602.800000
186.013700 31836.500000
244.055600 9338.300000

