>compound EA93139717
>parentmass 291.20670000000007
>ionization [M+H]+
>formula C17H26N2O2
>rt 378.000000
>profile orbitrap
#smiles_iso CC(C)C(CCCNC)(C#N)C1=CC(=C(C=C1)OC)OC
#smiles_can CC(C)C(CCCNC)(C#N)C1=CC(=C(C=C1)OC)OC
#inchikey WLOBUUJURNEQCL-UHFFFAOYSA-N
#pubchem_id 93168
#mb_accession EA263702,EA263703,EA263704,EA263705,EA263706,EA263707,EA263708,EA263709,EA263710,EA263711,EA263712,EA263713

>ms2peaks
291.207300 16477284.100000

>ms2peaks
70.065100 48014.000000
122.096300 92485.700000
136.051300 47357.000000
139.074700 59741.400000
151.075300 285554.000000
153.138500 60104.200000
165.091000 105397.900000
177.090900 234645.500000
217.110500 43315.700000
218.117400 118467.100000
233.153800 108759.100000
243.138400 107751.000000
245.141600 58101.600000
248.152200 736432.300000
260.164600 2120566.900000
264.196200 99419.900000
291.207100 12615843.500000

>ms2peaks
70.065200 259520.200000
72.080700 34633.300000
80.049700 23273.500000
81.057200 19362.000000
84.080600 27400.500000
94.065300 56606.300000
95.085600 103553.400000
96.080800 209105.100000
105.069700 58923.000000
108.080800 31730.200000
110.096700 84855.100000
122.096500 411885.600000
124.052000 78064.300000
126.127800 43801.000000
131.049200 21872.800000
136.052000 212241.600000
137.059700 160547.400000
138.067700 222768.800000
139.075500 180853.000000
146.072800 26636.000000
150.067700 73438.400000
151.075400 1592631.700000
153.138800 142925.900000
162.067600 20598.900000
163.075300 60544.400000
164.083100 55745.200000
165.091100 844954.700000
175.075600 26540.200000
176.071300 36073.300000
176.083800 14975.300000
177.091100 1326864.800000
179.107200 78973.500000
186.091500 34213.800000
187.099400 77424.400000
189.090100 18515.600000
190.086900 37377.000000
191.106500 123828.100000
193.122700 57061.800000
197.095300 26917.100000
202.086300 98591.400000
203.094500 87432.800000
204.102500 40198.300000
212.120000 45978.200000
214.123100 48576.500000
217.110100 254749.000000
218.117800 532635.700000
228.115200 57416.200000
229.146500 41119.700000
233.128800 263594.000000
233.153400 267896.700000
243.137900 233038.600000
244.132000 23874.000000
245.141400 205809.200000
247.144300 95298.100000
248.152100 1160821.400000
249.158600 24055.600000
260.164700 1706810.300000
264.195500 147365.700000
291.206800 1668502.500000

>ms2peaks
67.054200 29996.500000
70.065200 262567.000000
72.080500 21836.700000
79.054000 37374.500000
80.049400 33725.800000
91.054600 26993.700000
93.069500 24609.500000
94.065100 80422.900000
95.085500 153202.100000
96.080800 166379.400000
105.070000 116308.400000
106.041000 20081.200000
107.049100 26603.500000
107.073400 30607.800000
108.080700 24420.700000
110.096300 33902.300000
117.069400 31234.100000
121.064600 103097.700000
122.096500 195399.500000
123.044000 31665.400000
124.052100 95289.100000
126.128000 28023.700000
131.049300 36752.500000
133.064300 41198.000000
134.073100 23162.500000
136.052000 309114.200000
137.059800 232628.000000
138.067600 464932.700000
139.075300 121074.700000
145.064400 33436.200000
146.072700 225315.800000
147.080700 38702.600000
149.059800 20782.500000
149.096500 20650.100000
150.067500 202296.300000
151.075400 1859871.300000
153.138200 25748.600000
159.080600 49345.700000
160.075200 26405.800000
160.088200 70252.900000
162.067800 57534.600000
163.075700 30675.600000
164.083000 100531.000000
165.091100 1028283.500000
174.091200 62564.500000
176.070500 50673.600000
176.083800 39727.200000
177.091100 918435.900000
179.106600 55918.600000
186.090900 74973.400000
187.099300 156525.400000
188.070600 56095.200000
190.087100 67760.200000
191.106400 179979.500000
192.114500 122765.600000
201.091000 41479.000000
202.086300 366625.300000
203.094200 159083.700000
212.119100 42664.700000
214.123100 47387.800000
216.102800 33255.900000
217.109500 141228.500000
218.117600 232250.200000
220.132500 40198.500000
230.116500 62131.100000
233.128500 418147.000000
233.154700 29823.700000
244.133800 57284.000000
245.141300 51592.900000
247.144000 121448.400000
248.151700 133353.400000

>ms2peaks
67.054400 48499.100000
70.065200 205672.600000
77.038600 45543.900000
78.046200 24074.300000
79.054400 49713.200000
80.049500 59187.300000
81.057500 23356.300000
91.054200 131020.700000
93.070100 21321.300000
94.065400 88964.100000
95.049400 81871.300000
95.085800 74512.800000
96.080900 66798.800000
105.070000 181401.500000
107.049000 94841.700000
107.073200 40844.600000
108.057200 52522.500000
117.069900 68911.100000
121.065100 164996.900000
122.096600 49398.500000
123.044200 94993.200000
124.052000 109384.300000
126.127800 19008.300000
131.048900 41975.600000
132.057300 26562.000000
133.064800 88246.300000
134.072700 61532.400000
135.044200 79430.900000
136.052100 231676.400000
137.059900 250465.200000
138.067800 348881.700000
139.075200 64037.300000
145.065300 45198.800000
146.060400 109873.200000
146.072800 322954.300000
147.080600 66828.100000
149.060100 31759.500000
149.095800 25460.000000
150.067600 265026.900000
151.075500 1389524.400000
156.080200 26564.900000
159.080300 65692.000000
160.075900 79339.200000
160.088600 110034.800000
161.096300 47329.100000
162.068000 42781.100000
163.074700 25449.100000
164.083500 63563.200000
165.091200 518215.000000
172.075800 110208.100000
173.084400 31944.300000
174.091500 178033.300000
175.074800 30621.900000
177.091200 290685.900000
179.106900 34258.900000
186.091700 56888.900000
187.099600 84861.900000
188.071000 74083.700000
190.086600 56721.200000
191.106700 61878.200000
192.114800 75082.700000
197.096300 23139.900000
201.091700 21974.000000
202.086300 246067.100000
203.094800 78951.600000
214.122400 93506.800000
230.118000 34910.900000
233.128600 194709.800000
247.143700 59521.500000
248.150900 19044.300000

>ms2peaks
65.038700 22018.300000
67.054400 80577.400000
70.065200 121039.100000
77.038800 64325.200000
78.046400 34690.100000
79.054300 100722.800000
80.049500 26685.300000
81.057200 18287.400000
91.054200 218160.000000
93.069800 35857.000000
94.041500 19632.000000
94.065300 27241.400000
95.049100 145655.400000
96.081000 15859.100000
103.054300 103072.100000
105.033600 16027.300000
105.070000 127558.100000
106.064700 23712.300000
107.049200 321776.800000
108.056900 112141.500000
109.028500 20736.800000
109.064400 14679.600000
115.054300 63328.700000
116.061500 23272.400000
117.069900 89545.600000
118.041300 31156.900000
119.049000 79774.500000
120.057000 21563.000000
121.064900 170947.900000
122.036200 21684.900000
123.044200 97973.900000
124.051900 83184.100000
128.049600 23140.600000
129.069700 43134.200000
131.049200 127048.000000
132.056600 22382.400000
133.065000 110060.000000
134.072600 111546.200000
135.044000 182440.900000
135.080500 18219.800000
136.052000 166449.100000
137.059700 145573.500000
138.067500 160901.900000
139.075700 21432.800000
144.057500 49104.600000
144.080700 40309.500000
145.064900 85235.200000
146.060200 204817.600000
146.072600 267486.300000
146.096900 28834.800000
147.080500 49998.900000
149.059900 67543.300000
149.096800 23501.600000
150.067500 169735.100000
151.075400 660723.400000
155.060500 23007.900000
156.080700 19701.400000
159.067800 41626.100000
159.080300 57417.400000
160.075900 121743.000000
161.059700 25285.500000
161.095600 34569.000000
164.082700 35893.700000
165.091200 145145.400000
172.075700 126633.200000
174.091500 122804.900000
175.075300 20707.400000
176.070500 37888.100000
176.083800 27736.600000
177.091000 95723.500000
186.091900 29204.600000
187.099200 31689.500000
188.070400 47191.600000
190.085800 18156.400000
202.086500 79440.400000
203.093400 29480.600000
214.122100 41556.600000

>ms2peaks
248.152900 21420.300000
260.165000 43790.300000
291.207000 11699855.000000

>ms2peaks
70.065100 58282.600000
72.080900 10964.900000
96.080900 20662.200000
122.096500 70309.300000
124.052300 11662.100000
136.052000 27548.600000
138.067500 22203.900000
139.075300 26028.900000
151.075400 195381.100000
153.138800 41744.300000
165.090900 73091.000000
176.071000 13656.600000
177.091000 145699.500000
203.106400 9771.500000
217.109500 24880.500000
218.117900 66660.600000
233.153600 85641.200000
243.138000 71083.500000
245.141400 42352.400000
248.151900 469760.900000
260.164600 1576624.900000
264.195500 71532.900000
291.207000 9034712.000000

>ms2peaks
57.057400 17273.700000
70.065200 188619.600000
72.080800 17574.500000
79.054200 14113.400000
80.049600 17048.900000
81.070100 16811.900000
84.080700 16276.100000
94.065100 30860.400000
95.085600 74279.900000
96.080800 172926.200000
105.069900 46082.100000
108.080700 16193.300000
110.096500 57558.500000
121.064600 23354.800000
122.096500 308848.300000
124.051900 59848.700000
126.127700 27636.600000
136.051900 170200.200000
137.059600 95272.400000
138.067500 165708.100000
139.075400 120383.400000
146.072600 25200.600000
150.067700 74643.500000
151.075400 1032469.600000
153.138700 80706.400000
159.080500 23944.900000
162.067400 14724.500000
163.075300 36497.500000
164.083100 43723.100000
165.091000 610978.700000
176.071100 20403.100000
176.083800 12450.700000
177.091000 840075.900000
178.099700 14339.500000
179.106600 69272.800000
186.091600 25432.300000
187.099100 75816.700000
190.086200 36732.700000
191.106700 87544.800000
192.114500 25938.800000
193.122300 45659.600000
201.090600 20915.400000
202.086500 79253.400000
203.094300 74072.500000
203.106600 22440.000000
204.102800 27445.000000
212.119600 39961.400000
214.123300 22741.200000
215.107700 12617.200000
216.102100 19171.800000
217.109700 164290.600000
217.123300 19526.500000
218.117600 315321.500000
220.133100 26112.000000
228.114700 32593.100000
229.146400 20491.400000
230.117000 15915.700000
232.133400 19022.400000
233.128700 167604.600000
233.153600 156743.000000
243.138000 167515.200000
244.132600 14340.300000
245.141200 142106.600000
247.144200 57911.700000
248.151900 801353.300000
249.159200 28728.900000
260.164400 1175493.500000
264.196000 117324.000000
291.206800 1240235.300000

>ms2peaks
67.054200 19983.000000
70.065200 169783.400000
72.080800 20699.600000
79.054200 19528.200000
80.049500 26537.600000
81.057400 8726.200000
81.069800 13592.800000
91.054300 18081.200000
93.069800 12223.200000
94.065100 52610.700000
95.049200 15383.400000
95.085600 75206.600000
96.080800 120093.200000
103.054200 19892.700000
105.069900 79718.600000
106.041600 13242.600000
107.049100 14300.800000
107.073000 22806.900000
108.080700 17919.600000
110.096500 29872.500000
117.070100 19632.400000
121.064900 58312.600000
122.096500 125582.900000
123.044100 27913.500000
124.051900 58772.200000
126.127700 19994.500000
131.048900 15807.300000
133.064700 20834.200000
134.072500 10464.100000
135.043900 11342.700000
135.080500 18980.600000
136.051900 146140.100000
137.059800 143514.400000
138.067500 268243.700000
139.075400 91228.400000
144.056600 9493.900000
145.064900 15808.900000
146.072600 107884.600000
147.080200 23725.000000
150.067600 119433.000000
151.075500 1078158.400000
153.138600 18394.100000
159.080500 25098.400000
160.076300 21178.500000
160.088200 43030.600000
161.059900 9549.500000
161.096300 10890.500000
162.067700 27404.400000
163.075200 31942.200000
164.083300 61744.600000
165.091100 620822.600000
172.075700 21642.200000
173.096500 13514.600000
174.091400 49825.000000
175.075000 10943.500000
176.070700 35540.600000
176.083200 36113.900000
177.091000 590029.100000
178.099100 14099.900000
179.106500 41810.000000
186.091400 46886.600000
187.099300 100824.200000
188.070800 29037.700000
189.078500 13873.600000
189.090900 14563.700000
190.086400 48608.900000
191.106700 96662.300000
192.114400 58180.100000
197.095800 20530.500000
201.091400 13093.400000
202.086300 218582.100000
203.094100 107022.100000
204.101700 20012.300000
212.119400 20500.800000
214.122400 62017.800000
216.103000 19839.400000
217.109800 94937.900000
218.117600 122082.100000
220.133000 18929.100000
228.113900 11636.100000
230.117600 43533.600000
233.128500 229258.100000
233.154700 19807.000000
243.138700 22403.900000
244.133700 45278.700000
245.140700 18804.000000
247.144100 92554.400000
248.151700 106026.400000
260.164900 80945.000000

>ms2peaks
67.054300 29463.500000
69.069900 11377.900000
70.065200 124902.600000
72.080700 8835.000000
77.038600 17725.200000
78.046500 12364.800000
79.054300 49178.300000
80.049500 24203.200000
81.057200 9376.700000
84.080800 10016.300000
91.054300 72023.700000
93.070000 17131.300000
94.065100 37255.900000
95.049200 49077.700000
95.085700 50975.300000
96.080800 36408.800000
103.054400 35679.000000
105.069900 77240.400000
106.041300 7908.000000
106.065600 7240.200000
107.049200 64655.400000
107.073000 22457.200000
108.057000 27606.100000
108.080700 11078.400000
115.054500 14176.000000
116.062100 8060.300000
117.070000 42967.700000
118.041200 8806.700000
119.049100 24008.300000
121.064900 82259.300000
122.096400 20118.900000
123.044200 39783.200000
124.052000 65156.100000
126.127800 9296.900000
129.070200 14210.900000
131.049200 36369.800000
132.056800 9855.800000
133.065000 48461.000000
134.072700 40387.200000
135.044300 34355.800000
135.080600 25576.400000
136.052000 149191.900000
137.059700 130447.100000
138.067600 195415.800000
139.075300 42978.900000
144.056600 20862.500000
145.065000 36630.000000
146.060000 59323.400000
146.072700 192618.800000
147.080500 38268.700000
149.060000 23463.900000
149.096000 13831.200000
150.067600 165592.200000
151.075500 807978.700000
158.073200 9611.300000
158.096400 7219.200000
159.080400 38779.200000
160.075900 42160.000000
160.088200 73214.900000
161.059900 15093.400000
161.096200 22774.900000
162.067500 32654.400000
163.075500 23119.800000
164.083400 43797.300000
165.091100 325673.300000
172.075900 66254.500000
173.096500 7879.500000
174.054900 9749.600000
174.091500 95889.500000
175.062000 10623.100000
175.075600 15105.300000
176.070900 33914.100000
176.083600 23247.500000
177.091000 174703.600000
186.091400 30065.200000
187.099200 61308.700000
188.070500 51007.400000
189.078300 18875.700000
189.090700 11715.500000
190.086300 35788.900000
191.106500 44915.900000
192.114400 45257.800000
197.096100 11603.200000
199.098600 7673.400000
202.086400 158972.600000
203.094300 51037.800000
204.102400 15784.600000
214.122600 38844.300000
216.101900 12773.500000
218.117400 15506.300000
230.116900 19784.500000
233.128500 131136.900000
244.133400 26304.100000
247.144700 34834.600000

>ms2peaks
57.057300 6224.100000
65.038600 13501.600000
67.054300 35782.700000
69.069900 6638.500000
70.065200 94010.400000
72.080900 5727.300000
77.038600 37797.300000
78.046500 17073.300000
79.054300 59054.800000
80.049500 15663.000000
81.057300 9729.200000
91.054300 92290.800000
93.069900 15778.000000
94.041500 7114.500000
94.065200 21919.000000
95.049200 88021.900000
95.085600 19084.700000
96.080900 9319.000000
103.054300 64799.200000
105.033600 6021.000000
105.069900 66379.600000
106.065100 8651.100000
107.049200 162262.800000
107.072900 20646.000000
108.057000 67349.100000
109.028400 10911.500000
109.064900 7681.900000
115.054300 29103.800000
116.062100 12042.000000
117.069900 42649.100000
118.041200 17622.800000
119.049200 33497.800000
120.056700 7977.000000
121.064800 101169.100000
122.036000 8531.600000
123.044000 36867.100000
124.052000 55210.900000
128.049500 10345.900000
129.070000 21151.600000
131.049200 62506.500000
132.057200 9790.200000
133.064800 49455.500000
134.072700 55463.300000
135.044100 110134.800000
135.080600 10007.300000
136.051900 77935.600000
137.059700 80580.800000
138.067500 72662.300000
139.075400 14553.100000
144.057000 25230.800000
144.080800 31667.600000
145.064800 43673.500000
146.060100 87755.800000
146.072700 127664.600000
146.096600 11690.600000
147.080600 29999.500000
149.059600 25300.500000
149.096100 8145.500000
150.067600 78954.400000
151.075400 378374.000000
155.060400 7779.500000
156.080900 10166.900000
158.072400 6838.400000
158.096700 5913.700000
159.068000 25091.200000
159.080500 31427.400000
160.075800 49317.900000
160.088300 45297.600000
161.059800 25973.500000
161.096000 17920.600000
162.067700 15335.400000
163.075600 13041.600000
164.083200 11563.600000
165.091000 70887.800000
172.075700 86461.600000
173.083700 11305.100000
173.095700 5979.100000
174.054900 8395.700000
174.091400 74961.900000
175.062500 10392.400000
175.075500 8350.900000
176.070500 7480.500000
176.082900 6553.400000
177.091000 49849.100000
186.091300 18770.200000
187.099100 12897.800000
188.070800 30117.100000
190.086500 12390.700000
199.099400 10436.400000
202.086300 46289.100000
203.094000 22429.500000
204.101900 17425.900000
214.122600 23499.600000
216.102500 6183.200000
233.128600 26268.400000
244.132800 5500.400000
247.144100 6389.000000

