>compound EA94688088
>parentmass 237.10219999999995
>ionization [M+H]+
>formula C15H12N2O
>rt 468.000000
>profile orbitrap
#smiles_iso C1=CC=C2C(=C1)C=CC3=CC=CC=C3N2C(=O)N
#smiles_can C1=CC=C2C(=C1)C=CC3=CC=CC=C3N2C(=O)N
#inchikey FFGPTBGBLSHEPO-UHFFFAOYSA-N
#pubchem_id 2554
#mb_accession EA019402,EA019403,EA019404,EA019405,EA019406,EA019407,EA019408,EA019409,EA019410,EA019411,EA019412,EA019413

>ms2
179.073200 5241.500000
192.080800 8593.900000
193.087600 6025.000000
194.096100 72663.000000
237.102200 3477201.200000

>ms2
191.073300 5700.700000
192.080700 149410.800000
194.096400 1080424.600000
220.075100 35626.300000
237.102200 2199220.500000

>ms2
192.080700 497117.100000
193.088500 35587.200000
194.096400 2317134.500000
220.075200 14912.500000
237.102100 419406.300000

>ms2
165.069900 9652.300000
167.085000 24458.500000
177.070100 7141.000000
179.073000 33635.100000
192.080600 595482.900000
193.088300 128947.700000
194.096300 2178668.400000
237.102100 25953.300000

>ms2
91.054100 8002.500000
116.049500 14477.900000
117.057500 6025.600000
152.061400 19995.500000
165.069800 73657.100000
166.077500 6218.200000
167.072600 21045.500000
167.085400 45833.000000
176.062500 4577.500000
177.069500 24197.400000
178.077700 9992.400000
179.072700 168957.500000
190.065100 14454.500000
191.073100 36650.600000
192.080700 461339.200000
193.088300 378619.300000
194.096200 1345124.500000

>ms2
91.054100 17538.300000
116.049300 19191.500000
117.057300 16692.000000
151.054400 5097.500000
152.061900 59028.000000
165.069700 167969.600000
166.064900 13287.800000
166.077600 14977.200000
167.072900 62148.500000
176.061500 12137.500000
177.058000 14683.000000
178.065500 25545.900000
179.072800 356704.200000
190.065300 31415.400000
191.072700 118600.300000
192.080600 316710.800000
193.088400 661738.700000
194.096200 594662.600000

>ms2
192.080700 4342.700000
194.096100 51319.300000
220.075100 2698.600000
237.102100 2036905.800000

>ms2
191.072000 2177.200000
192.080600 89389.200000
193.088400 10858.000000
194.096300 645319.600000
220.075600 18492.300000
237.102200 1391281.900000

>ms2
192.080600 291283.400000
193.088200 23135.100000
194.096300 1337899.500000
220.075700 8400.200000
237.101900 232154.000000

>ms2
167.085400 11640.100000
177.069800 9264.700000
179.072800 17277.700000
192.080700 332063.000000
193.088500 69916.600000
194.096400 1268107.100000
237.101200 9262.900000

>ms2
91.054100 2897.500000
116.049200 6277.500000
152.061800 9042.600000
165.069600 40032.900000
166.064900 2479.100000
166.077000 4676.400000
167.072900 11438.800000
167.085400 20563.600000
177.069700 15875.100000
178.064800 4529.300000
178.077900 5556.600000
179.072800 104851.500000
190.065100 5553.800000
191.072700 21418.600000
192.080600 261232.700000
193.088400 212620.600000
194.096300 793165.000000

>ms2
91.054100 9931.100000
116.049400 11061.500000
117.057200 8383.600000
151.054000 3027.300000
152.061800 26531.500000
165.069600 91064.400000
166.064800 7764.500000
166.077300 6860.100000
167.072700 27950.800000
167.085300 19216.800000
176.061800 8110.200000
177.056700 6373.300000
177.069600 9928.000000
178.064800 12167.600000
178.077400 8101.900000
179.072700 176862.200000
190.064900 12797.300000
191.072700 67330.800000
192.080500 165794.300000
193.088400 355283.800000
194.096200 312434.400000

