>compound EA94043565
>parentmass 446.0352
>ionization [M+H]+
>formula C13H9F6N5O4S
>rt 648.000000
>profile orbitrap
#smiles_iso COC1=NC(=NC(=N1)NC(=O)NS(=O)(=O)C2=CC=CC=C2C(F)(F)F)C(F)(F)F
#smiles_can COC1=NC(=NC(=N1)NC(=O)NS(=O)(=O)C2=CC=CC=C2C(F)(F)F)C(F)(F)F
#inchikey KVEQCVKVIFQSGC-UHFFFAOYSA-N
#pubchem_id 11657899
#mb_accession EA274002,EA274003,EA274004,EA274005,EA274006,EA274007,EA274008,EA274009,EA274010,EA274011,EA274012,EA274013

>ms2peaks
195.049000 3092372.000000
208.988000 228067.800000
220.045300 22885.700000
221.028200 1727915.400000
403.029900 55945.100000
446.035400 7344280.800000

>ms2peaks
83.024000 18595.300000
110.021200 46012.900000
127.047800 87125.500000
145.026100 1385709.700000
173.032200 18455.300000
186.002400 140699.000000
195.049000 8740900.000000
206.008300 102358.300000
208.988100 2134106.100000
220.044500 89090.900000
221.028200 3579749.200000
231.987600 237860.500000
363.016900 61051.400000
403.030300 73380.300000
446.035100 78428.800000

>ms2peaks
58.028700 16594.700000
69.008400 40073.800000
83.024000 110866.000000
110.021200 879923.200000
120.020600 16383.200000
125.045600 20510.100000
127.047800 875946.100000
130.040200 76558.900000
138.027300 26654.400000
142.022400 21662.500000
145.026000 3730728.500000
148.031700 30335.400000
165.994800 31491.300000
168.025500 176796.300000
173.046900 48665.000000
175.042900 79183.300000
186.002100 186198.900000
186.985500 11121.900000
193.053200 92972.000000
195.048900 5113363.400000
201.021800 31290.000000
206.007600 31730.200000
208.988000 394371.100000
219.031700 27568.300000
220.044100 48674.900000
221.028200 2079860.700000
231.987400 237900.500000

>ms2peaks
58.028800 18972.800000
68.994700 25489.100000
69.008300 115736.200000
75.999100 15246.400000
83.024000 192620.500000
91.994100 45323.300000
110.021200 2215964.700000
114.027800 13411.200000
120.020700 16927.500000
125.045900 14529.300000
127.047800 1006282.200000
130.040000 204538.600000
133.021000 12179.600000
137.026000 8833.600000
138.027400 57644.200000
142.022100 18028.600000
144.000500 61928.600000
145.026000 4184108.000000
148.019200 14608.700000
148.031500 47534.400000
153.027700 10074.700000
153.040300 14866.500000
165.995700 24260.400000
168.025500 303901.000000
173.046900 39559.200000
175.042700 66242.500000
184.006200 37370.000000
186.002300 32653.600000
193.052900 65606.100000
195.048800 1400069.900000
196.074800 8192.500000
200.017300 19631.700000
201.021900 25285.900000
219.032000 46108.900000
221.028200 611412.200000
231.987500 34286.900000

>ms2peaks
68.994600 74306.700000
69.008400 133805.700000
75.999300 15229.100000
83.024000 153272.300000
91.010200 42672.400000
91.994200 88686.800000
95.029300 23623.600000
110.021200 2539746.800000
123.035200 134820.200000
125.019700 60018.500000
127.047800 439582.400000
130.040000 294597.000000
133.021000 31613.600000
138.027500 41848.200000
140.030800 45370.800000
144.000400 69388.200000
145.025900 3704912.300000
148.019100 28069.600000
148.031200 43246.600000
168.025500 173467.600000
175.041600 12771.900000
193.052900 18624.500000
195.049000 175777.800000
196.075400 9386.300000
221.028200 85701.600000

>ms2peaks
68.994700 166401.400000
69.008300 99611.400000
75.999200 21333.500000
83.024100 94865.700000
91.010200 46710.400000
91.994300 83447.700000
95.029200 65581.200000
102.033900 38896.900000
110.021300 1851975.800000
114.027600 58200.500000
119.010700 16904.100000
123.035400 445216.500000
125.019800 185499.200000
127.047800 114665.800000
130.040000 237646.800000
133.021300 18444.000000
137.027200 12666.500000
138.026900 20655.200000
140.030700 41903.700000
141.025400 10315.200000
144.000600 38944.300000
145.026000 2941724.200000
148.019100 13353.000000
148.031100 36343.800000
168.025600 48264.600000
195.048200 24608.200000
325.966500 10919.500000

>ms2peaks
127.047900 9217.200000
145.026100 8719.900000
195.048900 2383355.200000
208.987900 150746.900000
220.043900 18924.500000
221.028100 1347650.300000
403.029800 44985.200000
426.027600 7278.700000
446.035100 5606002.600000

>ms2peaks
83.024000 9992.500000
110.021300 27003.400000
127.047800 68727.900000
145.026000 1049524.400000
175.042700 7675.100000
186.002000 105167.600000
195.048800 6677182.900000
206.008200 68410.600000
208.988000 1602916.900000
220.044200 69147.600000
221.028100 2717979.700000
231.987500 161439.600000
363.017100 60078.300000
403.029300 59359.600000
446.034800 57605.100000

>ms2peaks
58.028600 5898.900000
68.994600 6476.800000
69.008400 20326.600000
83.024000 76576.600000
110.021200 627606.000000
120.020900 17218.200000
125.046300 12082.500000
127.047800 695296.300000
130.040000 52526.700000
138.027400 21316.200000
142.022700 10941.800000
144.000600 8256.600000
145.026000 2825360.800000
148.031600 22608.500000
153.040900 11196.300000
165.022000 10343.000000
165.996000 14405.500000
168.025500 120894.600000
173.046900 30610.000000
175.042600 54296.700000
184.006400 32061.600000
186.002000 105178.000000
186.985500 6144.100000
193.053400 67710.100000
195.048800 3701805.300000
199.026300 12742.900000
200.017400 24904.300000
201.021800 17002.600000
206.008300 16251.700000
208.988000 273749.900000
219.032100 22996.500000
220.044200 25854.500000
221.028100 1527568.300000
231.987400 141402.800000
325.964000 9788.500000
363.017300 23764.700000

>ms2peaks
58.028800 15762.600000
68.994700 19042.000000
69.008300 87570.400000
75.999500 8244.100000
83.024100 128194.100000
91.010400 6637.300000
91.994300 27829.400000
110.021300 1646240.400000
114.027800 7185.100000
120.020900 8781.000000
123.035600 13689.300000
125.020000 6950.400000
125.045800 14034.300000
127.047900 759965.500000
130.040100 158949.100000
133.021000 12582.500000
138.027500 32340.400000
139.011800 4604.000000
140.030800 11400.700000
142.022600 13246.900000
144.000400 39999.000000
145.026000 2933415.200000
148.019400 6569.500000
148.031500 28037.300000
152.043600 5099.200000
153.027400 3978.000000
153.040000 6304.400000
165.022400 14595.200000
165.995400 11042.800000
168.025700 208501.300000
173.047300 21685.200000
175.042700 41116.000000
184.006500 19202.900000
186.001900 29352.700000
193.053300 53056.700000
195.048900 1035889.600000
199.026300 13228.800000
200.017100 8966.100000
208.988100 20232.000000
221.028200 421856.800000
231.987400 26462.400000

>ms2peaks
68.994700 36005.700000
69.008300 73865.700000
75.999400 8889.800000
83.024000 89505.900000
91.010300 16597.300000
91.994200 46926.700000
95.029300 9123.800000
102.034000 6291.400000
110.021200 1829119.600000
113.039800 5814.900000
114.027600 25832.100000
123.035400 101709.200000
125.019700 36059.200000
125.045700 8982.400000
127.047800 314912.200000
130.040000 184789.600000
133.020900 22775.200000
137.026900 8025.300000
138.027500 27721.400000
139.010700 6551.000000
140.030800 23767.900000
142.022100 5319.400000
144.000600 47003.100000
145.026000 2652401.400000
148.019700 15648.000000
148.030700 16757.600000
152.043600 4106.800000
153.027200 4285.400000
165.022000 6368.100000
168.025600 102691.900000
173.046200 7322.900000
175.041800 6462.800000
193.052800 13654.800000
195.048800 140557.300000
219.031900 7445.100000
221.028000 52377.400000
325.966300 5917.000000

>ms2peaks
68.994700 91380.800000
69.008300 58256.300000
75.999300 15930.000000
83.023900 51222.400000
91.010200 31801.200000
91.994200 54779.700000
95.029200 40497.100000
102.033900 22982.300000
110.021200 1315167.300000
113.039700 14434.900000
114.027600 26996.500000
119.010300 8154.100000
123.035300 291689.900000
125.019800 129070.400000
127.047700 79647.400000
130.040000 150764.700000
133.020500 7760.700000
137.027200 7530.700000
138.027300 14382.800000
141.026500 8253.100000
144.000300 25371.100000
145.026000 1936539.000000
148.019000 7156.700000
148.030600 19293.200000
168.025600 25504.800000
195.048800 8521.200000

