>compound EA94652539
>parentmass 226.1662000000001
>ionization [M+H]+
>formula C10H19N5O
>rt 402.000000
>profile orbitrap
#smiles_iso CCC(C)NC1=NC(=NC(=N1)NCC)OC
#smiles_can CCC(C)NC1=NC(=NC(=N1)NCC)OC
#inchikey ZJMZZNVGNSWOOM-UHFFFAOYSA-N
#pubchem_id 33443
#mb_accession EA066902,EA066903,EA066904,EA066905,EA066906,EA066907,EA066908,EA066909,EA066910,EA066911,EA066912,EA066913

>ms2
226.166400 45704426.300000

>ms2
96.055900 78930.300000
170.103800 4482266.200000
226.166600 49142567.800000

>ms2
57.044600 86814.800000
68.024300 384066.700000
69.008300 81299.400000
75.055400 230329.100000
85.075900 116731.000000
86.035100 75044.800000
96.055600 707592.000000
97.039600 75045.300000
100.050500 830510.900000
114.066300 639973.500000
128.082000 368447.800000
142.072400 841316.000000
152.118100 63263.600000
170.103800 24701350.200000
198.135200 75082.900000
226.166200 25038520.500000

>ms2
57.044800 723685.300000
68.024400 1565615.000000
69.008300 1118348.700000
71.060300 497498.900000
75.055300 1646052.500000
85.076100 796869.800000
86.034900 1035154.900000
96.055700 1720370.900000
97.039400 553262.100000
100.050600 3737593.200000
114.066200 2455748.900000
128.081900 2246289.100000
138.077600 361031.000000
142.072400 3256419.100000
170.103700 28179183.500000
226.166500 5427538.400000

>ms2
57.044700 1536962.300000
57.069700 138160.300000
58.028700 200590.300000
68.024400 2154589.500000
69.008400 2795084.600000
71.060500 978629.900000
75.055400 2812856.400000
82.039900 208881.800000
83.024400 204368.000000
85.076100 1041996.500000
86.034900 1708938.600000
96.055700 1840861.700000
97.039700 875205.900000
99.066400 192527.500000
100.050600 5809150.500000
114.066300 2589508.600000
128.081900 2195795.900000
138.077900 416499.600000
142.072400 3362988.200000
170.103800 9380073.100000

>ms2
57.044700 1725477.500000
58.028700 421662.100000
68.024300 3117674.300000
69.008400 3094471.800000
71.060400 827000.400000
75.055300 2365793.400000
82.039900 270656.600000
83.024000 369648.800000
85.076100 656280.100000
86.034900 1672512.200000
96.055600 1394558.100000
97.039600 512076.500000
99.066100 322141.700000
100.050500 5631642.700000
114.066200 1205085.200000
128.081900 1222829.100000
138.078100 200422.900000
142.072300 1594542.500000
168.088000 109155.900000
170.103700 1717476.400000
196.119800 156371.800000

>ms2
173.114300 135328.700000
226.166500 61657249.100000

>ms2
100.050500 87870.700000
170.103700 5629435.300000
226.166400 63710825.800000

>ms2
57.044800 87033.700000
68.024400 330945.600000
69.008300 104499.300000
71.060400 68383.500000
75.055400 187991.500000
85.076000 104738.400000
86.035000 108185.500000
96.055700 662419.400000
97.039700 54933.000000
100.050600 837516.700000
114.066200 649326.100000
128.081900 411287.100000
138.077500 88005.800000
142.072500 722105.300000
152.118500 80498.400000
170.103900 24724894.000000
198.135300 105921.500000
226.166500 25708525.200000

>ms2
57.044700 504500.300000
57.069900 180076.300000
58.028800 76964.300000
68.024400 1189371.300000
69.008400 898575.200000
71.060400 439513.600000
75.055300 1310336.200000
82.039900 85722.800000
83.024100 189534.500000
85.076100 604303.000000
86.034900 735994.600000
96.055700 1329733.500000
97.039700 591364.500000
99.066400 51423.400000
100.050600 3087881.800000
113.082200 88398.900000
114.066200 2279898.800000
128.081900 1675667.400000
138.077500 321640.500000
142.072400 3070583.800000
168.088100 145821.000000
170.103800 22734084.800000
196.119400 57240.200000
198.135600 49864.100000
226.166500 4280771.700000

>ms2
57.044700 1474611.900000
57.069900 147886.500000
58.028700 161623.300000
68.024300 1895208.800000
69.008300 2752278.200000
71.060300 804782.800000
75.055300 2382958.300000
83.024100 360472.000000
85.076000 988487.600000
86.034900 1602545.400000
96.055600 1774597.400000
97.039600 1053450.800000
99.066400 135952.200000
100.050500 5579849.900000
113.082000 85411.300000
114.066200 2189990.600000
128.081800 2218672.100000
138.077500 403260.900000
142.072300 3617590.900000
168.088600 170836.600000
170.103400 7984825.200000

>ms2
57.044700 1514006.200000
57.069800 115056.000000
58.028700 257860.200000
68.024300 3099372.500000
69.008400 2595991.100000
71.060400 877806.200000
75.055300 2007610.200000
82.040000 148336.200000
83.024000 409674.900000
85.076000 589498.300000
86.034900 1478212.200000
96.055600 1156647.200000
97.039600 334499.500000
99.066500 130982.400000
100.050500 4898809.800000
114.066200 870284.300000
128.081900 1055899.900000
138.077300 220634.900000
142.072400 1426539.900000
168.087900 88327.900000
170.103700 1546442.200000

