>compound EA95103328
>parentmass 321.1333
>ionization [M+H]+
>formula C17H20O6
>rt 594.000000
>profile orbitrap
#smiles_iso CC1=C2COC(=O)C2=C(C(=C1OC)C/C=C(\C)/CCC(=O)O)O
#smiles_can CC1=C2COC(=O)C2=C(C(=C1OC)CC=C(C)CCC(=O)O)O
#inchikey HPNSFSBZBAHARI-RUDMXATFSA-N
#pubchem_id 446541
#mb_accession EA280802,EA280803,EA280804,EA280805,EA280806,EA280807,EA280808,EA280809,EA280810,EA280811,EA280812,EA280813

>ms2
207.064900 299441.200000
275.127500 205882.800000
285.111700 33965.400000
303.122700 4615547.800000
321.133200 2066557.500000

>ms2
81.070100 8268.100000
109.065200 7599.400000
159.044100 18822.700000
195.065200 158309.900000
207.065200 3305758.700000
219.064900 9114.100000
223.060100 40422.100000
259.095900 8612.100000
261.111500 25779.000000
275.127800 1199542.400000
285.112200 187815.400000
303.122800 1816465.800000
321.133500 232629.100000

>ms2
79.054000 6703.300000
81.069900 39285.400000
91.054100 16743.400000
97.064400 6063.600000
103.054000 6341.800000
109.064800 22036.200000
131.048800 6052.800000
135.080800 16641.600000
159.043900 323683.600000
175.075200 18358.200000
177.054600 65461.200000
179.070400 9394.100000
195.065200 209946.400000
207.065100 5431716.200000
215.106700 23544.000000
219.065000 27252.800000
221.081500 16369.000000
223.060300 40845.700000
233.080500 7922.400000
239.106100 15499.900000
241.123400 6130.700000
247.097100 15382.700000
259.096100 27034.500000
261.112000 46504.000000
275.127700 190161.600000
285.112200 145366.200000
303.123100 62765.200000

>ms2
77.038500 6606.800000
79.054300 8064.000000
81.069900 47610.600000
91.054200 154531.400000
95.049300 6321.200000
103.054200 101137.100000
109.064600 9682.600000
131.049100 58300.300000
135.080500 50207.500000
139.075100 7619.100000
149.059800 25669.400000
159.043900 2085057.100000
161.059100 14985.700000
175.075000 32674.900000
177.054500 360238.700000
179.070300 63895.600000
193.049900 8988.300000
195.065200 118585.700000
207.065200 2958911.300000
215.106200 37551.300000
219.065600 16400.100000
221.081800 15076.100000
223.060600 18550.900000
239.105900 17367.900000
257.116600 8915.300000
261.111800 13133.100000
270.089200 21217.700000
275.128300 8862.200000
285.112600 18493.000000

>ms2
67.054000 4475.300000
77.038600 84786.300000
79.054200 14506.700000
81.069900 30773.300000
91.054200 440304.600000
93.069900 7576.700000
95.049300 8623.400000
97.064600 3801.200000
102.046400 5853.900000
103.054300 376667.500000
105.033400 6875.600000
105.044700 22268.100000
105.069700 8444.600000
107.049600 3477.300000
109.064800 4965.700000
117.033300 17373.500000
121.064800 8543.800000
131.049100 163708.700000
133.065400 7469.200000
135.080400 38449.500000
136.051800 8167.000000
139.075500 9480.800000
145.064700 12974.800000
147.044300 4188.100000
149.059600 38510.500000
159.043900 2427912.200000
161.059500 9338.100000
163.038700 3979.800000
165.054800 3518.300000
175.075300 23153.400000
177.054500 359014.200000
179.070200 79758.200000
185.096300 4893.100000
189.091500 5828.500000
191.070200 7447.600000
192.041900 4011.800000
193.049400 9657.000000
195.065100 37178.800000
207.065200 537916.700000
215.106200 10362.300000
221.080000 5427.600000

>ms2
53.038400 4464.300000
65.038500 13462.200000
67.054200 4471.900000
77.038600 279268.400000
79.054300 17945.900000
81.069900 16930.900000
89.038900 5478.800000
91.054200 694423.000000
93.069800 10490.500000
95.049200 31234.400000
102.046400 25464.400000
103.054300 792037.400000
105.033300 7103.900000
105.044800 83924.200000
105.069900 17107.900000
107.049100 5622.800000
108.057000 4910.300000
115.054000 6913.300000
117.033600 46491.500000
117.070400 4767.800000
121.064800 19103.400000
128.061800 5164.200000
131.049200 190350.700000
133.064700 5874.900000
135.080600 24053.000000
136.051900 12592.500000
139.075500 3051.400000
142.078300 3602.000000
145.064900 18496.000000
149.059700 35354.100000
159.044000 1293041.900000
161.060000 10176.600000
163.039400 9292.500000
165.054900 7973.700000
171.080000 3599.100000
175.075900 8497.300000
177.054600 165117.800000
179.070300 50859.600000
195.064900 8871.600000
207.065200 49049.700000

>ms2
195.065300 11407.900000
207.065200 204498.300000
275.127800 152336.700000
285.112100 17785.400000
303.122700 3542372.100000
321.133300 1584385.400000

>ms2
81.069900 7352.500000
109.064500 2667.800000
159.044300 9863.400000
177.054900 4223.300000
195.065200 108377.300000
207.065300 2337163.500000
219.065400 4741.200000
223.060300 24255.100000
259.096600 10157.100000
261.112000 16004.300000
275.127900 862504.400000
285.112200 121894.200000
303.122800 1293386.300000
321.133400 169874.600000

>ms2
81.069900 20451.800000
91.054300 8365.700000
103.054200 3829.800000
109.064800 10939.700000
135.080500 10309.600000
159.044100 208783.000000
175.075500 10092.500000
177.054600 43555.100000
179.070300 7509.900000
193.049600 5617.400000
195.065200 145505.200000
207.065200 3621005.500000
215.106600 15441.100000
219.065100 16639.700000
221.080500 11618.200000
223.060000 26370.100000
233.081200 4421.500000
239.106500 7323.100000
241.122600 4850.900000
247.096300 9835.500000
257.117900 6330.900000
259.096400 16175.900000
261.112100 27119.400000
275.127900 124314.500000
285.112100 89933.100000
303.122700 44572.800000

>ms2
67.054300 2350.500000
77.038700 3832.700000
79.054200 5514.400000
81.069900 20765.400000
91.054200 97938.700000
93.070200 3285.200000
95.049300 4532.000000
103.054300 61076.900000
109.064700 6219.000000
131.049200 41655.600000
135.080600 33457.400000
139.075200 3066.200000
144.101400 2291.100000
145.064900 3005.000000
149.059700 9550.900000
159.044100 1322576.500000
161.059500 8134.300000
175.075400 19490.600000
177.054800 228507.200000
179.070200 39767.500000
189.091200 3435.500000
191.069900 4880.900000
192.040800 2506.900000
193.049600 9958.200000
195.065400 89748.500000
207.065300 1899657.700000
215.106600 17051.000000
219.065300 7831.400000
221.080900 13922.200000
223.059900 11634.100000
233.080800 3987.100000
239.106800 11105.600000
241.123100 4206.400000
247.097200 4529.700000
255.064300 1959.800000
257.117000 4876.700000
259.096800 2038.000000
261.112100 6791.900000
267.101200 2713.000000
270.088800 11631.200000
275.128400 3922.900000
285.112800 13434.900000

>ms2
65.038500 3345.200000
67.054100 2359.400000
77.038600 51370.100000
79.054200 6547.700000
81.069900 17488.000000
91.054200 296897.900000
93.069800 2930.700000
95.049100 4693.400000
102.046600 5240.700000
103.054300 253625.800000
105.033600 4492.300000
105.044800 14200.700000
105.069900 6082.900000
109.064700 4157.800000
117.033500 12754.200000
119.085600 4263.200000
121.064800 7239.400000
131.049200 97581.400000
135.080500 25688.200000
136.051900 4138.800000
139.075400 4734.600000
145.064900 9281.500000
147.044000 4380.000000
149.059600 23640.600000
159.044100 1610292.800000
161.059400 6154.700000
173.059400 3246.000000
175.075400 13634.900000
177.054600 233120.000000
179.070200 49807.000000
185.095900 2041.200000
189.090700 3294.700000
191.069900 2814.100000
192.042500 2487.100000
193.049300 6407.900000
195.065200 24097.900000
207.065300 353710.100000
215.107300 4100.200000
221.080300 2767.400000
239.105500 2836.600000
241.086500 3328.300000
255.064600 2681.000000
270.089200 2815.100000

>ms2
53.038600 4202.700000
65.038600 5478.800000
67.054200 3353.900000
77.038600 185181.800000
79.054300 13509.700000
81.069900 10974.100000
89.038600 1998.400000
91.054200 476521.100000
93.069900 7169.000000
95.049100 15453.600000
102.046500 12582.600000
103.054300 536693.700000
105.033400 4656.100000
105.044700 59705.500000
105.069800 8716.800000
107.049200 3594.900000
108.057100 2655.500000
115.054400 4187.800000
117.033500 29974.200000
117.070000 2384.600000
119.085700 2877.000000
121.064700 10125.800000
128.062000 2590.700000
131.049100 122270.500000
133.064700 4014.700000
135.080500 12297.700000
136.052000 8350.500000
139.075200 2470.700000
142.077700 2797.300000
145.064800 12336.200000
147.043900 2762.500000
149.059700 19058.500000
159.044000 889445.000000
161.059700 4956.300000
163.039200 5320.800000
171.080900 1698.500000
173.060500 2510.300000
175.075300 4293.700000
177.054600 91474.400000
179.070200 30517.000000
195.064600 3738.700000
207.065100 30513.000000
215.105900 1743.300000
241.085700 4285.700000

