>compound EA95355632
>parentmass 287.0582
>ionization [M+H]+
>formula C15H11ClN2O2
>rt 540.000000
>profile orbitrap
#smiles_iso C1=CC=C(C=C1)C2=NC(C(=O)NC3=C2C=C(C=C3)Cl)O
#smiles_can C1=CC=C(C=C1)C2=NC(C(=O)NC3=C2C=C(C=C3)Cl)O
#inchikey ADIMAYPTOBDMTL-UHFFFAOYSA-N
#pubchem_id 4616
#mb_accession EA274302,EA274303,EA274304,EA274305,EA274306,EA274307,EA274308,EA274309,EA274310,EA274311,EA274312,EA274313

>ms2
104.050000 6817.500000
269.047800 236949.800000
287.058300 2731889.000000

>ms2
104.049100 7335.900000
156.020700 9636.900000
166.005600 17435.000000
216.056700 6808.000000
231.068000 92577.300000
241.052600 520738.400000
242.037100 10237.000000
269.047600 1284361.300000
287.057900 1266935.900000

>ms2
93.057000 4267.300000
104.049400 93734.200000
128.026100 65904.600000
153.021500 24702.800000
156.021100 20084.900000
166.005500 45879.800000
207.068000 7697.500000
216.057000 10531.900000
231.068300 490155.200000
241.052800 1430928.300000
242.035700 23247.500000
257.046700 16063.100000
269.047400 564808.000000
287.058200 102068.100000

>ms2
93.057300 42059.100000
104.049600 395145.400000
118.052500 6336.300000
128.026300 159414.500000
138.010500 16157.700000
153.021500 136230.600000
156.021200 8984.000000
163.005900 90798.000000
166.005500 39366.100000
181.016700 5631.500000
195.091700 19240.800000
207.067800 16691.800000
214.042300 14013.700000
216.056800 5444.300000
229.052700 16498.400000
231.068500 285096.900000
241.053000 1166035.800000
242.035900 8315.600000
257.047800 28725.300000
269.047800 68616.900000

>ms2
77.038500 10677.200000
79.054400 6983.200000
93.057300 94426.800000
104.049500 523665.000000
105.044800 4012.100000
118.052700 28979.400000
126.010300 15844.400000
128.026200 107526.200000
129.044400 3850.400000
138.010400 38388.800000
139.005700 15953.000000
145.050900 7524.800000
153.021300 156385.200000
156.021800 3702.500000
163.005700 220735.900000
164.000700 16100.400000
166.005200 19919.800000
178.065200 10583.200000
179.073000 6051.400000
181.016800 4872.700000
195.091800 31814.100000
205.075700 22538.600000
206.083500 9561.000000
207.067700 14196.300000
214.041700 24738.100000
229.052300 48885.500000
231.068400 54659.500000
239.037300 5998.600000
241.052700 683224.400000
257.047600 40092.000000

>ms2
77.038600 43597.900000
79.054100 5922.300000
86.999700 5061.300000
90.033600 11557.200000
93.057300 114796.200000
95.049100 5857.500000
98.999500 7512.000000
100.018200 3797.300000
104.049500 458182.300000
105.044700 14148.200000
117.044800 8315.700000
118.052600 60049.900000
126.010500 24468.300000
128.026200 32174.600000
138.010500 49099.300000
139.005800 54455.900000
145.050800 7786.300000
151.054700 8180.300000
152.013700 5788.500000
152.062400 18206.700000
153.021400 79258.000000
163.005800 219358.300000
164.001100 63909.400000
166.005300 8044.600000
178.064600 16942.900000
179.000800 7168.100000
179.072800 13874.500000
180.080700 3122.400000
194.083700 13357.500000
195.091700 43591.700000
205.076100 39543.800000
206.084200 10300.300000
207.067900 6392.500000
214.042300 21616.500000
229.052700 53788.300000
231.068200 4373.000000
239.037000 10854.600000
241.052800 219790.100000
257.047400 17675.000000

>ms2
104.049600 4347.100000
241.053200 13392.400000
269.047600 128133.000000
287.058500 1512156.100000

>ms2
104.050000 3169.400000
156.021200 3709.000000
166.005400 6057.200000
231.068400 47891.100000
241.052700 276944.500000
242.037200 5362.000000
269.047800 687893.000000
287.058300 708492.400000

>ms2
104.049500 56182.900000
128.026100 40338.100000
153.021400 17073.000000
156.021000 11995.200000
163.005900 3797.500000
166.005400 24897.900000
216.057300 5538.500000
229.052600 2629.700000
231.068400 267443.400000
240.044200 3031.300000
241.052900 792842.400000
242.036600 13866.700000
257.047800 5770.900000
269.047600 324789.500000
287.057800 45543.700000

>ms2
93.057300 22887.400000
104.049500 205883.900000
128.026200 90913.300000
138.010500 8768.000000
153.021400 66427.900000
163.005800 46952.000000
166.005400 20057.400000
172.976800 2396.000000
195.091500 6689.100000
207.067900 12900.600000
214.041800 7604.100000
216.057900 4257.800000
229.052600 9056.600000
231.068400 158523.100000
241.052900 639570.400000
242.037400 4533.200000
257.047700 16211.200000
269.047400 33979.000000

>ms2
77.038600 6075.800000
93.057300 44946.000000
104.049500 258146.700000
105.044800 3151.800000
118.052500 14672.300000
126.010500 8104.000000
128.026200 59383.100000
138.010500 25876.100000
139.005600 8680.900000
145.050900 3304.400000
152.013600 2082.300000
153.021400 63840.500000
163.005800 100743.000000
164.000900 4694.300000
166.005600 7869.900000
178.065200 3269.100000
179.073000 3880.600000
195.091600 15910.600000
205.075900 8523.300000
206.083400 4279.300000
207.067900 7581.600000
214.041800 12796.300000
229.052800 23501.500000
231.068300 29339.700000
241.052700 314229.200000
257.047600 14179.400000

>ms2
77.038600 16346.200000
79.054300 2663.300000
86.999600 2275.400000
90.033900 5089.500000
93.057300 53164.600000
95.049200 1946.000000
98.999600 6464.700000
100.018200 2505.100000
104.049500 233447.200000
105.044800 8094.000000
117.045100 1715.000000
118.052600 29671.800000
126.010600 10166.600000
128.026200 20619.100000
129.044700 1670.100000
138.010500 21942.400000
139.005800 19328.000000
145.050800 4649.900000
151.054200 4602.500000
152.013500 3314.500000
152.062100 5830.700000
153.021400 37177.300000
163.005800 108019.200000
164.001100 26845.100000
166.005500 3389.400000
172.977400 1374.000000
178.065100 6784.300000
179.000700 2335.300000
179.072900 6930.300000
180.080900 2356.000000
194.083800 6452.100000
195.091700 20712.100000
205.076100 19346.500000
206.084000 5664.700000
207.067900 2720.300000
214.041900 11520.600000
229.052800 24449.800000
231.067800 2567.400000
239.036100 3446.900000
240.045200 2441.300000
241.052600 111301.700000
245.080700 1596.700000
257.047600 5910.900000

