>compound EA95174469
>parentmass 432.06419999999986
>ionization [M+H]+
>formula C14H17N5O7S2
>rt 474.000000
>profile orbitrap
#smiles_iso CCS(=O)(=O)C1=C(N=CC=C1)S(=O)(=O)NC(=O)NC2=NC(=CC(=N2)OC)OC
#smiles_can CCS(=O)(=O)C1=C(N=CC=C1)S(=O)(=O)NC(=O)NC2=NC(=CC(=N2)OC)OC
#inchikey MEFOUWRMVYJCQC-UHFFFAOYSA-N
#pubchem_id 91779
#mb_accession EA013002,EA013003,EA013004,EA013005,EA013006,EA013007,EA013008,EA013009,EA013010,EA013011,EA013012,EA013013

>ms2
182.055900 102451.500000
251.015300 10556.100000
325.096500 103276.600000
432.064200 129180.500000

>ms2
106.065100 39393.200000
156.077000 19314.800000
181.072500 4403.200000
182.055900 317518.700000
251.015200 22103.800000
325.096300 69895.400000

>ms2
83.023800 9113.500000
106.065100 54672.600000
141.995700 10310.500000
156.076600 24839.400000
157.060800 7888.200000
181.072900 3289.500000
182.055900 286781.900000
231.087400 6910.300000
325.097600 14067.200000

>ms2
78.033500 4552.700000
83.024000 38056.200000
98.006200 5630.400000
106.065000 42421.500000
139.050200 30065.100000
141.995900 6610.800000
156.076600 13375.600000
157.060700 36448.000000
182.055900 151330.500000
217.072000 4470.100000

>ms2
78.033800 3297.900000
83.024000 68624.700000
96.044300 5917.300000
98.005600 6772.100000
100.039200 6634.600000
106.065100 20063.100000
139.050100 37858.300000
156.076100 4813.300000
157.060800 34295.000000
182.055800 35582.700000
231.085400 5629.100000

>ms2
71.060400 5088.500000
78.033600 7110.800000
83.024000 61482.400000
93.008300 4570.800000
96.044200 6434.300000
106.065000 14934.900000
139.050100 29291.600000
157.060500 13493.200000
182.055400 7224.900000

>ms2
182.055800 55495.500000
251.015200 6751.600000
325.096100 57314.000000
432.063700 68638.100000

>ms2
106.065000 21316.900000
156.076500 7555.000000
181.071300 3535.700000
182.055800 175970.900000
251.015400 11841.400000
325.096000 43981.700000

>ms2
83.023900 5483.200000
106.065000 28598.200000
139.050100 3645.000000
141.995400 5844.100000
156.076700 11620.300000
157.060400 4772.900000
181.072100 3226.800000
182.055800 162390.600000
217.071600 3755.100000
231.087100 3919.800000
325.096800 6065.500000

>ms2
83.023900 19108.100000
98.006100 3549.400000
106.065100 20876.700000
139.050300 11038.300000
141.995600 3290.200000
156.076600 9896.200000
157.060600 18673.900000
182.055800 79134.900000
231.087400 5824.200000

>ms2
71.060300 3880.300000
83.024000 33268.600000
96.044500 2509.700000
98.005800 4041.100000
100.039200 4351.800000
106.065100 14374.600000
139.050100 26636.800000
156.076300 2179.200000
157.060700 14194.400000
182.055900 22105.500000
217.070800 2201.700000
231.086100 2685.600000

>ms2
71.060400 2709.200000
78.033800 2383.500000
83.024000 34226.400000
93.008300 2140.800000
96.044300 3524.700000
100.039400 1941.500000
106.065000 3705.800000
139.050100 12478.600000
157.060600 8340.800000
182.055900 2699.300000

