>compound EA95936675
>parentmass 163.12300000000002
>ionization [M+H]+
>formula C10H14N2
>rt 270.000000
>profile orbitrap
#smiles_iso CC1=CC(=C(C=C1)NC=NC)C
#smiles_can CC1=CC(=C(C=C1)NC=NC)C
#inchikey JIIOLEGNERQDIP-UHFFFAOYSA-N
#pubchem_id 36326
#mb_accession EA033102,EA033103,EA033104,EA033105,EA033106,EA033107,EA033108,EA033109,EA033110,EA033111,EA033112,EA033113

>ms2peaks
122.096000 79918.700000
163.123000 51764839.200000

>ms2peaks
122.096500 1601258.900000
132.080900 828795.200000
163.123000 111853012.100000

>ms2peaks
105.069800 381870.000000
107.073000 709618.900000
117.057300 706828.400000
120.080800 656397.400000
122.096400 15118833.300000
132.080800 8218056.400000
136.112400 111196.700000
163.122900 84516157.300000

>ms2peaks
79.054000 81860.500000
103.054300 51364.900000
105.069900 3244228.600000
107.073000 6293141.200000
115.054100 116547.100000
117.057300 4862280.200000
120.080800 1326889.200000
121.088600 151245.700000
122.096400 27881513.300000
123.081000 92094.400000
131.072500 165064.800000
132.080700 15453530.900000
133.076000 569299.200000
136.112200 237302.600000
148.100200 56095.200000
163.122900 29468538.800000

>ms2peaks
77.038800 169006.100000
79.054300 690009.400000
103.054200 612327.500000
105.069900 10615511.600000
106.065200 422155.600000
107.072900 17424904.000000
115.054200 221426.900000
117.057300 9982834.800000
120.080800 1316149.400000
121.088500 252897.900000
122.096400 19602240.500000
123.080200 111640.600000
130.065100 89135.800000
131.073000 231398.500000
132.080800 11072220.900000
133.076100 823687.500000
163.123000 5828065.400000

>ms2peaks
77.038700 876751.500000
79.054200 2568076.400000
91.054200 100829.100000
95.048800 77476.700000
103.054200 1899633.700000
105.069900 14723293.100000
106.065100 1483271.900000
107.072900 23949319.700000
115.053800 155679.700000
117.057300 11437417.400000
120.080900 987111.700000
121.089000 277000.900000
122.096500 7753734.500000
130.065000 174419.600000
131.073000 400673.600000
132.080800 4427115.300000
133.076000 674724.500000
147.091200 91168.700000
163.123400 883952.800000

>ms2peaks
163.122900 63390297.600000

>ms2peaks
122.096500 1363750.100000
132.080800 635583.100000
163.123000 117780187.700000

>ms2peaks
105.069900 310504.000000
107.073000 570472.800000
117.057400 716664.500000
120.080700 628422.000000
122.096400 15735865.100000
132.080700 8372059.200000
163.123000 88320571.400000

>ms2peaks
77.038400 37444.200000
79.054100 94862.000000
105.069800 3125090.000000
106.064800 94625.700000
107.072900 6306286.900000
115.054100 136333.900000
117.057300 4888313.600000
120.080700 1097884.600000
121.088600 109269.200000
122.096400 29243357.200000
131.073000 122131.300000
132.080700 16790273.800000
133.075900 523285.900000
136.111900 193113.600000
148.099500 66162.400000
163.122900 31828269.800000

>ms2peaks
77.038600 189320.500000
79.054200 577799.300000
95.085300 65962.400000
103.054200 481039.500000
105.069900 10560889.500000
106.065000 361421.900000
107.073000 18200091.100000
115.054200 199581.300000
117.057300 10355147.600000
120.080800 1354983.800000
121.088500 248783.600000
122.096400 20569472.000000
123.080500 136942.200000
130.065500 94125.400000
131.072900 363095.800000
132.080800 11327417.100000
133.076000 882451.600000
136.112500 59744.500000
148.099600 66636.200000
163.123000 6517717.700000

>ms2peaks
77.038600 929666.100000
79.054200 2326272.700000
91.054200 90227.600000
95.049000 124345.100000
95.085600 99169.100000
103.054200 1875445.600000
105.069900 15107972.600000
106.065100 1172848.200000
107.073000 24700563.700000
115.054200 179669.600000
117.057300 12369040.400000
120.080800 1016132.300000
121.088700 346143.300000
122.096400 8040597.600000
123.080500 63277.400000
130.065200 214096.300000
131.072900 367383.500000
132.080800 4551981.500000
133.076000 710549.300000
136.111900 31229.900000
147.091600 132034.700000
148.099300 39695.600000
163.123000 745406.900000

