>compound EA96275003
>parentmass 279.09099999999995
>ionization [M+H]+
>formula C12H14N4O2S
>rt 234.000000
>profile orbitrap
#smiles_iso CC1=CC(=NC(=N1)NS(=O)(=O)C2=CC=C(C=C2)N)C
#smiles_can CC1=CC(=NC(=N1)NS(=O)(=O)C2=CC=C(C=C2)N)C
#inchikey ASWVTGNCAZCNNR-UHFFFAOYSA-N
#pubchem_id 5327
#mb_accession EA018102,EA018103,EA018104,EA018105,EA018106,EA018107,EA018108,EA018109,EA018110,EA018111,EA018112,EA018113

>ms2peaks
124.086900 5627.400000
149.023800 14529.900000
156.011000 10850.400000
186.034200 23895.200000
279.091100 1744008.600000

>ms2peaks
92.049500 33003.900000
108.044400 54655.900000
124.087000 145606.800000
149.023200 13947.800000
156.011400 126821.200000
186.033200 362081.900000
204.043800 152038.400000
213.113600 29634.900000
279.091000 823749.800000

>ms2peaks
65.038700 13116.200000
68.049500 18097.500000
92.049500 103551.400000
93.057400 5847.000000
95.060200 6955.100000
108.044300 216062.600000
122.071400 11235.600000
123.078900 7888.900000
124.086900 328701.300000
149.023400 13378.000000
156.011300 228145.000000
186.033000 271026.700000
204.043600 114114.600000
213.113700 53399.800000
279.091000 54783.900000

>ms2peaks
65.038600 38115.000000
68.049500 29471.900000
78.033500 2901.000000
81.044700 6628.400000
92.049500 172422.400000
93.057400 10754.200000
95.060300 28828.300000
96.044600 4295.700000
108.044400 263917.000000
110.060200 10372.800000
122.071300 21214.700000
123.079200 14317.500000
124.086900 324526.700000
149.023300 10040.600000
156.011300 75792.200000
186.033300 91303.300000
204.043700 32794.100000
213.113300 39179.100000

>ms2peaks
65.038600 71796.700000
68.049500 21758.500000
78.033700 3169.200000
80.049500 10832.300000
81.044700 10221.200000
92.049500 188161.900000
93.057300 10573.100000
95.060400 32087.900000
96.068000 6445.700000
107.060100 5999.700000
108.044400 210120.100000
110.060200 16618.300000
122.071000 11871.700000
123.078700 6783.300000
124.086900 248974.900000
125.070900 13318.800000
149.023900 6396.500000
156.011100 7990.700000
186.033600 17085.400000
213.113300 14487.900000
279.092400 6500.100000

>ms2peaks
65.038600 101123.600000
68.049600 13977.000000
80.049400 28930.300000
81.044600 3571.700000
82.065200 9372.800000
92.049400 141237.800000
93.057300 10311.000000
95.060300 18505.100000
96.068000 6961.800000
107.060300 18372.600000
108.044300 142013.300000
110.060200 13307.500000
123.078800 4980.200000
124.086900 153833.800000
125.070900 20836.800000
186.035100 6132.700000
213.113800 2954.700000

>ms2peaks
124.086400 4149.400000
149.023300 11443.700000
186.033800 12744.700000
204.044000 3997.600000
279.091100 971040.100000

>ms2peaks
92.049400 17432.100000
108.044400 28154.400000
123.079300 1964.200000
124.086900 87684.900000
149.023300 14475.500000
156.011300 75077.400000
186.033100 190552.200000
204.043700 77294.400000
213.113400 15479.800000
279.091000 472198.100000

>ms2peaks
65.038500 7666.100000
68.049400 6151.200000
92.049500 53786.600000
93.057400 2004.200000
108.044400 119210.700000
122.071200 7912.900000
123.079300 4441.500000
124.087000 182367.000000
149.023400 10960.600000
156.011400 118712.800000
186.033200 145442.400000
204.043800 60218.800000
213.113500 28763.200000
279.091300 31568.200000

>ms2peaks
65.038600 20842.800000
68.049500 14313.600000
80.049400 2016.000000
81.044800 5092.800000
92.049500 86063.900000
93.057400 3205.200000
95.060400 15935.500000
96.044600 2839.000000
108.044400 134248.700000
110.060100 6953.800000
122.071300 11643.700000
123.079100 6924.800000
124.086900 160918.500000
149.023200 8288.900000
156.011400 34813.400000
186.033200 49468.600000
204.043800 20775.400000
213.113400 20278.500000

>ms2peaks
65.038600 42536.400000
68.049400 13200.700000
80.049500 4701.000000
81.044700 4398.500000
92.049500 98204.100000
93.057500 3875.200000
95.060400 16275.900000
96.068300 4173.800000
107.060300 3839.400000
108.044400 110294.600000
110.060000 6480.700000
122.071200 4363.400000
123.079400 4437.500000
124.086900 132447.200000
125.070800 4893.700000
149.023500 5225.100000
156.011000 3234.800000
186.033700 5526.100000
204.042800 2051.500000
213.113200 7277.800000

>ms2peaks
65.038600 47966.700000
68.049500 5421.700000
80.049500 10807.700000
81.044700 1768.000000
82.065100 3573.300000
92.049500 77839.600000
93.057200 4009.800000
95.060300 8508.800000
96.068200 3146.000000
107.060400 9285.100000
108.044400 71829.100000
110.060000 5922.500000
123.079300 2192.000000
124.086900 86438.600000
125.070900 9797.500000
149.023400 2578.800000
213.113600 1820.600000

