>compound EA96793215
>parentmass 330.08039999999994
>ionization [M+H]+
>formula C17H13ClFN3O
>rt 702.000000
>profile orbitrap
#smiles_iso C1=CC=C(C(=C1)[C@@H]2[C@@](O2)(CN3C=NC=N3)C4=CC=C(C=C4)F)Cl
#smiles_can C1=CC=C(C(=C1)C2C(O2)(CN3C=NC=N3)C4=CC=C(C=C4)F)Cl
#inchikey ZMYFCFLJBGAQRS-IAGOWNOFSA-N
#pubchem_id 107901
#mb_accession EA009502,EA009503,EA009504,EA009505,EA009506,EA009507,EA009508,EA009509,EA009510,EA009511,EA009512,EA009513

>ms2
70.039800 35036.800000
121.044600 495885.400000
123.024000 256263.600000
129.044900 15382.600000
141.010100 110271.000000
261.048800 17783.100000
330.080500 8502057.900000

>ms2
70.040000 442665.300000
101.038000 16065.100000
109.045300 12159.800000
113.015200 54100.900000
121.044900 5430753.200000
123.024200 1533927.500000
129.044800 120996.500000
138.994700 73579.400000
141.010300 802766.800000
231.038200 20282.500000
233.052400 18547.200000
330.080500 1225175.700000

>ms2
70.040000 432958.900000
77.038400 18347.200000
101.038400 17406.400000
113.015400 46835.700000
121.044900 6463543.800000
123.024100 1503159.800000
129.044700 176746.300000
138.994500 102538.100000
141.010200 512123.500000
231.036200 20595.800000

>ms2
70.040000 484741.200000
75.022800 18583.300000
77.038700 59294.200000
95.029400 31468.100000
101.038400 57131.400000
113.015300 107207.700000
121.044900 6031212.000000
123.024100 1408249.800000
123.035500 138113.500000
129.044700 639641.200000
138.994700 103834.200000
141.010100 302960.600000

>ms2
70.040000 469383.600000
71.029200 15984.300000
75.023100 46080.700000
77.038500 142732.200000
91.054300 53107.700000
95.029000 31750.600000
101.038600 159589.000000
105.044800 22856.400000
109.044400 31665.000000
113.015300 87412.600000
113.040000 42362.600000
119.049200 43920.700000
121.044900 4610804.000000
123.024100 877928.900000
123.035300 499137.000000
129.044800 1901464.200000
138.994400 59187.900000
139.005700 38532.100000
141.010400 85887.000000
183.060300 17375.600000
196.068700 25630.800000

>ms2
70.040000 450156.200000
71.029300 37018.900000
75.022900 237111.200000
77.038600 258471.700000
79.018000 10351.700000
91.054300 64086.200000
95.029200 95832.700000
95.049400 16561.500000
101.038600 348083.000000
105.033600 15667.200000
105.045100 40120.900000
109.044400 19504.600000
113.015300 46047.600000
113.039800 61600.100000
119.049300 137277.000000
121.044900 2435838.100000
123.024100 415113.800000
123.035300 831107.900000
129.044800 2901848.500000
130.041700 18501.900000
138.994600 19746.400000
139.005800 47768.500000
183.060300 21813.000000
196.067600 37922.300000

>ms2
70.039900 32983.800000
121.044700 461713.600000
123.024000 271616.000000
138.995100 11719.700000
141.010200 86684.100000
330.080600 7825633.200000

>ms2
70.040000 340239.800000
75.022600 7401.400000
77.038400 10360.300000
109.044900 11038.900000
113.015200 37363.900000
121.044800 4787245.600000
123.024100 1314892.900000
129.044700 99426.900000
138.994600 77132.000000
141.010200 673471.100000
190.077200 25239.100000
231.037300 7586.500000
261.047600 32116.100000
274.041700 9007.600000
330.080700 1115836.100000

>ms2
70.040000 396372.800000
75.022800 10405.200000
101.037900 11192.400000
109.044900 18111.100000
113.015200 60264.700000
121.044900 5369720.100000
123.024100 1346069.400000
129.044700 135852.400000
138.994500 77657.100000
141.010200 447334.000000
190.077600 9545.400000
198.084300 15079.600000
231.036800 18957.800000

>ms2
70.040000 369227.400000
71.028900 7922.100000
75.022900 22964.700000
77.038600 45265.000000
95.029200 9017.900000
101.038300 45448.200000
109.044600 17923.300000
113.015200 95409.200000
121.044900 4893016.100000
123.024100 1120342.500000
123.035300 131936.100000
129.044700 507259.100000
138.994600 86548.400000
141.010200 246174.600000
196.068600 16509.400000
197.075300 12003.800000
198.084000 10807.300000

>ms2
70.040000 341337.400000
71.029300 10952.500000
75.022900 46267.500000
77.038600 123322.400000
91.054300 41884.500000
95.029200 34082.800000
101.038700 119403.900000
105.044800 23293.600000
109.044800 21689.500000
113.015200 87956.800000
113.039700 17122.100000
119.049100 51305.800000
121.044900 3460684.300000
123.024100 666997.900000
123.035300 356468.500000
129.044800 1445897.100000
130.041800 8034.200000
138.994500 53904.900000
139.005800 28811.500000
141.010100 58821.800000
183.060600 9131.200000
196.068400 24161.700000
197.076600 11795.200000

>ms2
70.040000 343877.400000
71.029200 16908.900000
75.022900 160949.400000
77.038600 174181.300000
79.017800 10138.900000
91.054200 56310.500000
95.029200 58773.300000
95.049000 6950.200000
101.038600 263669.700000
105.033500 9824.400000
105.044700 26592.500000
109.044800 16793.800000
113.015200 32131.400000
113.039700 46304.400000
119.049100 114522.200000
121.044800 1772788.500000
123.024100 296442.300000
123.035300 599786.500000
129.044700 2183892.200000
130.041800 9166.300000
138.994400 13307.300000
139.005700 36214.800000
141.010200 12865.900000
183.060600 13155.900000
196.068300 34701.200000
197.076400 6455.600000

