>compound EA96040925
>parentmass 219.0086000000001
>ionization [M+H]+
>formula C8H8Cl2N2O
>rt 510.000000
>profile orbitrap
#smiles_iso CNC(=O)NC1=CC(=C(C=C1)Cl)Cl
#smiles_can CNC(=O)NC1=CC(=C(C=C1)Cl)Cl
#inchikey IDQHRQQSSQDLTR-UHFFFAOYSA-N
#pubchem_id 19113
#mb_accession EA029402,EA029403,EA029404,EA029405,EA029406,EA029407,EA029408,EA029409,EA029410,EA029411,EA029412,EA029413

>ms2peaks
161.987100 214851.300000
219.008800 3494612.100000

>ms2peaks
58.028700 47981.700000
127.018600 133761.000000
159.970800 9410.300000
161.987400 1471878.800000
187.966400 11597.900000
219.008900 1963232.600000

>ms2peaks
58.028700 67036.000000
127.018500 830121.000000
159.971600 34262.600000
161.987300 1697931.100000
187.966600 25029.800000
219.008300 236627.200000

>ms2peaks
58.028800 71339.800000
126.010400 6497.500000
127.018400 1581588.400000
159.971400 83973.000000
161.987200 756179.900000
187.966500 9072.500000

>ms2peaks
58.028700 76467.400000
98.999500 3971.600000
125.002300 8011.500000
126.010600 7961.400000
127.018400 1820794.100000
132.960500 13782.800000
159.971600 72402.700000
161.987100 206868.300000
172.966800 15757.700000

>ms2peaks
58.028800 75451.600000
91.041600 5398.100000
92.049600 13702.000000
98.999700 7696.900000
100.007400 12017.300000
108.983900 3990.800000
125.002700 12298.000000
127.018500 1644446.500000
132.960800 24881.100000
159.971500 45028.000000
161.987300 44051.300000
172.966700 22137.400000

>ms2peaks
127.017900 6905.400000
161.987200 135593.300000
219.008800 2076343.400000

>ms2peaks
58.028700 17206.700000
127.018300 66785.700000
159.971800 2746.900000
161.987300 820778.000000
187.966400 6462.600000
219.008900 1099420.000000

>ms2peaks
58.028700 35623.200000
77.038700 2721.800000
127.018400 466869.100000
159.971700 16851.000000
161.987300 997331.000000
187.966500 17836.500000
219.008600 133327.300000

>ms2peaks
58.028700 42635.700000
77.038600 3035.900000
126.010300 2793.300000
127.018400 944566.600000
159.971600 43402.600000
161.987300 443932.000000
187.966300 7256.400000
219.009000 7000.000000

>ms2peaks
58.028800 36603.600000
126.010600 4441.000000
127.018500 1088409.600000
132.960400 4928.500000
159.971700 39673.200000
161.987200 117938.400000
172.966800 7305.700000

>ms2peaks
58.028700 30185.100000
91.041800 1441.500000
92.049600 5616.300000
98.999700 2739.300000
100.007500 8597.200000
108.984000 2746.500000
125.002700 5543.300000
126.010700 3552.400000
127.018400 948052.800000
132.960700 14828.900000
144.960500 1928.000000
159.971600 19834.300000
161.987300 20110.100000
172.966800 14681.700000

