>compound EA97788604
>parentmass 297.1849000000001
>ionization [M+H]+
>formula C20H24O2
>rt 606.000000
>profile orbitrap
#smiles_iso C[C@]12CC[C@H]3[C@H]([C@@H]1CCC2=O)CC(=C)C4=CC(=O)C=C[C@]34C
#smiles_can CC12CCC3C(C1CCC2=O)CC(=C)C4=CC(=O)C=CC34C
#inchikey BFYIZQONLCFLEV-DAELLWKTSA-N
#pubchem_id 60198
#mb_accession EA066102,EA066103,EA066104,EA066105,EA066106,EA066107,EA066108,EA066109,EA066110,EA066111,EA066112,EA066113

>ms2
91.054500 2913.000000
93.069700 4758.200000
107.085300 3992.700000
121.064900 5471.700000
121.101200 15011.300000
131.085700 3438.600000
133.101300 3358.900000
135.081100 5283.200000
145.101100 10492.200000
149.096300 44539.900000
171.116500 4710.100000
185.095900 5205.200000
189.127300 5725.500000
201.127400 3763.800000
279.174600 117993.400000
297.185400 1428530.600000

>ms2
67.054400 2574.900000
79.054300 20541.500000
81.070000 5287.800000
91.053800 7210.600000
93.069900 69657.600000
95.085100 3019.200000
97.064700 10973.300000
105.069900 29482.400000
107.085500 16950.200000
119.085200 5489.800000
121.064900 48402.500000
121.101200 119392.000000
129.070500 3183.000000
131.085500 28176.600000
133.064600 3894.500000
133.100800 10667.000000
135.080500 46953.700000
135.117300 6450.600000
137.095900 3659.700000
145.101100 51333.200000
147.080400 32261.100000
147.117000 15940.200000
149.096100 222288.300000
159.080500 9334.300000
161.095900 15683.000000
163.111700 24516.400000
171.080700 3891.200000
171.116600 25990.000000
173.095900 13215.100000
175.074600 5076.900000
177.126900 4497.400000
185.096000 30577.600000
187.111200 12775.400000
189.127600 25896.600000
199.111600 7725.600000
201.127900 11322.500000
209.096100 3602.200000
237.126900 12639.500000
239.143100 25478.800000
253.158300 22988.400000
255.174300 7350.100000
279.174300 165380.600000
297.184800 368230.200000

>ms2
67.054200 6395.600000
77.038700 3725.600000
79.054200 49060.200000
81.069900 10320.000000
91.054400 14777.300000
93.069900 118745.200000
95.085500 9679.700000
97.064800 20535.100000
105.070000 58462.500000
107.049000 3506.100000
107.085600 49291.600000
109.065100 4802.100000
109.100700 2404.200000
119.085600 14833.100000
121.064900 105849.500000
121.101200 154756.000000
123.080800 5474.100000
129.069800 8622.300000
131.085600 31628.100000
133.064700 11073.000000
133.101300 13119.900000
135.080400 49206.700000
135.116800 9329.900000
137.095400 2722.100000
143.085000 9453.400000
145.064600 13053.300000
145.101300 44034.400000
147.080500 56824.300000
147.117000 16024.600000
149.096100 130721.300000
159.080200 19296.200000
161.096100 24550.500000
163.111700 15964.300000
171.080300 7552.000000
171.116800 20627.300000
173.096000 19385.700000
175.111300 3431.300000
185.096000 36036.700000
187.111400 12287.600000
189.127600 7797.500000
197.096500 5789.300000
199.111500 9483.700000
201.128300 5340.700000
209.096800 3616.400000
211.111100 7923.900000
223.111300 12959.800000
225.128400 3587.100000
237.127500 10533.500000
239.142700 14038.800000
251.142500 7253.600000
253.159100 10782.400000
255.175500 3142.000000
264.150300 3503.700000
279.174100 35872.700000

>ms2
67.054300 5876.500000
77.038900 5255.700000
79.054300 59972.100000
81.070000 8927.400000
91.054300 38552.300000
93.069900 130738.000000
95.048700 2693.200000
95.085400 14093.800000
97.064800 17453.400000
105.070000 73106.600000
107.049500 4499.100000
107.085600 63716.500000
109.065100 5594.000000
117.069900 12619.500000
119.085500 30339.300000
121.064900 120880.200000
121.101200 95346.100000
123.080700 3828.800000
129.070100 11042.300000
130.078300 4503.000000
131.085600 29454.100000
132.056500 4059.500000
133.065100 6626.100000
133.101300 10489.300000
135.080500 46096.100000
135.117300 4371.600000
143.085800 8823.000000
145.064800 11445.800000
145.101300 31202.600000
147.080500 52461.900000
147.117400 7497.600000
149.096200 54788.200000
157.101400 4413.700000
159.080300 17386.000000
161.096000 17110.800000
163.112500 4038.900000
171.080900 8923.100000
171.117700 5134.000000
173.096300 13455.200000
185.096400 23309.000000
187.111600 5609.300000
199.111600 6300.600000
211.110800 4737.700000
223.112200 6869.300000

>ms2
67.054200 9201.600000
77.038600 12697.300000
79.054200 77482.600000
81.069800 12721.800000
91.054200 66715.100000
93.069800 124729.700000
95.085500 8105.200000
97.064700 11184.300000
105.069800 82945.100000
107.049500 4692.000000
107.085500 54696.700000
109.064500 3594.100000
109.101500 3233.000000
115.054200 6567.300000
117.069800 13250.200000
119.085500 26913.500000
121.064700 92827.000000
121.101100 35123.200000
129.069600 10859.700000
130.077800 5290.700000
131.085400 15193.300000
132.057000 11518.700000
133.064600 3883.700000
133.101200 3761.300000
135.080400 24966.000000
143.085200 6804.700000
145.064500 9032.100000
145.101100 13565.500000
147.080500 21416.100000
149.096100 17576.400000
159.080300 11723.200000
161.095500 7886.400000
165.069900 3230.000000
171.080000 7143.300000
173.095800 4460.400000
185.096300 13223.900000
209.096500 4002.000000

>ms2
53.038600 3749.800000
67.054200 11196.900000
77.038500 23190.200000
79.054200 76218.100000
81.069900 8194.400000
91.054200 98251.300000
93.069900 73640.300000
95.085500 5184.000000
97.064700 4728.100000
103.054100 11530.500000
105.069900 79118.100000
107.085500 24609.000000
115.054200 15735.400000
116.062100 4561.900000
117.070100 13328.000000
119.060000 3563.500000
119.085500 18496.100000
121.064700 64902.500000
121.101600 7493.800000
128.061900 10164.900000
129.069900 13275.600000
130.077700 6257.900000
131.085700 10436.900000
132.057100 12605.000000
135.080500 10405.500000
141.069500 6164.100000
142.077400 6731.000000
143.085600 5354.300000
145.064500 8641.200000
145.101000 4883.900000
146.072700 5429.700000
147.080200 7218.600000
158.072700 8430.500000
159.080600 4658.400000
165.070300 4403.500000

>ms2
93.069800 3270.100000
105.069900 2080.300000
121.064600 4785.500000
121.101000 10159.400000
131.085500 4223.200000
135.080200 4910.700000
145.100900 4581.500000
149.095900 27257.900000
163.111600 5100.400000
185.095500 2177.000000
189.127200 2695.400000
239.142200 2156.700000
279.174000 63633.300000
297.185000 883002.600000

>ms2
79.054300 13100.800000
81.070000 3934.600000
91.054400 4509.100000
93.069900 40851.000000
97.064900 8721.700000
105.069900 14117.700000
107.085400 12282.700000
119.085500 4904.700000
121.064800 35169.400000
121.101100 70214.300000
123.080400 3230.100000
131.085600 12800.800000
133.064900 1975.800000
133.101100 8902.000000
135.080400 25570.200000
135.116800 2620.300000
137.096400 2452.300000
145.064400 4430.300000
145.101100 27103.300000
147.080300 21040.400000
147.116700 7159.500000
149.096100 127975.500000
159.080600 3581.600000
161.096100 10081.700000
161.132400 2650.000000
163.111600 12983.200000
171.116800 14972.300000
173.096200 7271.300000
175.111600 2021.500000
177.127500 3858.900000
185.095900 18770.100000
187.111800 6357.200000
189.127400 12011.000000
197.095600 2404.200000
199.110900 3295.400000
201.127000 5966.600000
209.096100 2140.700000
211.112000 2993.700000
223.112000 5032.900000
225.127700 2670.000000
227.143200 2244.700000
237.126700 5844.200000
239.143000 11697.300000
251.142900 2842.800000
253.158600 8737.900000
255.174100 6308.200000
279.174300 103262.200000
297.184800 224944.600000

>ms2
67.054200 2937.100000
77.038400 2341.400000
79.054200 25239.700000
81.070000 4966.600000
91.054200 9100.100000
93.069900 70498.000000
95.085500 4743.800000
97.064800 14253.500000
105.069900 34742.600000
107.085400 29012.400000
109.064900 3887.100000
119.085600 9895.700000
121.064800 59102.100000
121.101100 75060.200000
123.080700 2457.200000
129.069600 3727.500000
131.085500 19823.800000
133.064800 3558.800000
133.101200 6918.900000
135.080300 35296.800000
135.116600 5933.100000
143.085600 5380.100000
145.064700 5979.400000
145.101200 27228.300000
147.080400 32583.700000
147.116800 9934.000000
149.096000 80115.900000
157.101500 2885.800000
159.080300 13548.700000
161.096000 14987.500000
163.111600 10613.800000
171.080200 5122.500000
171.116900 12033.200000
173.096100 11920.500000
175.074900 3529.400000
185.095900 19993.200000
187.111400 10557.200000
189.127500 4482.700000
197.095900 3716.200000
199.111800 6334.300000
201.127700 2121.700000
209.095100 2880.200000
211.111400 4730.900000
223.111700 7166.900000
225.127200 2409.000000
237.127500 4110.700000
239.142700 6985.300000
251.142700 3023.200000
253.158700 8681.100000
264.151400 3267.600000
279.174200 21380.400000
297.184500 8980.600000

>ms2
67.054200 3765.700000
77.038600 2729.400000
79.054200 35052.600000
81.069900 6437.900000
91.054200 21900.400000
93.069900 76682.200000
95.085500 4445.900000
97.064900 11275.300000
105.069900 41164.900000
107.085500 38021.600000
109.064800 4505.800000
117.070100 6051.400000
119.085400 14221.600000
121.064800 66579.700000
121.101100 49509.600000
129.069900 6395.600000
130.077500 2769.800000
131.085600 20952.700000
132.056700 4158.600000
133.064800 4715.800000
133.101300 6169.400000
135.080400 25442.400000
135.116700 3414.400000
143.085500 5953.300000
145.064500 8174.600000
145.101200 20118.500000
147.080400 23194.600000
147.116800 3518.400000
149.096100 28859.400000
157.101700 3473.500000
159.080400 11548.300000
161.096000 9083.500000
171.080500 3829.500000
171.117300 3949.300000
173.095900 8550.500000
175.075200 3229.000000
175.111800 1792.800000
185.096100 9811.300000
197.096000 4902.200000
199.111800 3214.800000
209.096600 5668.400000
211.111500 4169.100000
223.112600 3373.400000
237.127200 4150.200000

>ms2
67.054200 4276.900000
77.038600 4072.000000
79.054200 42084.100000
81.069900 7583.600000
91.054200 33323.000000
93.069900 63282.000000
95.085500 5942.600000
97.064800 4511.800000
103.054300 2260.900000
105.044700 2216.800000
105.069900 42851.800000
107.049100 3040.200000
107.085500 34377.800000
109.064800 2687.400000
115.054100 2654.500000
117.070000 7283.000000
119.085500 14640.800000
121.064800 58503.700000
121.101100 18805.000000
128.061800 3344.000000
129.069900 8916.800000
130.077900 4974.600000
131.085500 13166.800000
132.056900 6720.800000
133.101100 3423.700000
135.080300 12100.500000
141.070200 2779.100000
143.085500 5467.400000
145.064900 4654.400000
145.101300 7106.700000
146.072800 3711.300000
147.080500 13453.300000
149.096000 6619.900000
159.080200 6345.500000
161.095700 2903.200000
171.081100 4294.700000
171.116600 2624.400000
173.096000 4966.400000
185.095800 5895.100000
197.095500 2400.300000
211.111500 2293.900000

>ms2
53.038500 1778.900000
67.054200 5991.300000
77.038600 11295.200000
79.054200 40554.200000
81.069900 6227.600000
91.054200 48783.500000
93.069900 40121.900000
95.049100 2536.400000
95.085500 2142.600000
97.064600 3687.000000
103.054300 4818.400000
105.044600 2492.000000
105.069900 34095.600000
107.049200 4116.800000
107.085500 13663.200000
109.064900 1474.300000
115.054200 8244.500000
116.062100 3132.600000
117.070000 7886.500000
119.060500 2575.000000
119.085500 10931.000000
121.064800 31301.600000
121.101200 5459.000000
128.062100 5381.000000
129.069800 5213.500000
130.077700 3918.100000
131.085600 4592.100000
132.057000 5105.800000
133.064700 1925.400000
135.080300 3393.800000
141.069900 2756.800000
142.077500 1846.600000
143.085300 3096.900000
145.064800 3179.600000
145.101200 1986.000000
146.072400 2763.000000
147.080400 1750.900000
149.096000 2040.200000
158.072600 3934.400000
159.080700 2060.900000
165.069800 1651.900000

