>compound EA97111848
>parentmass 388.038
>ionization [M+H]+
>formula C12H13N5O6S2
>rt 432.000000
>profile orbitrap
#smiles_iso CC1=NC(=NC(=N1)OC)NC(=O)NS(=O)(=O)C2=C(SC=C2)C(=O)OC
#smiles_can CC1=NC(=NC(=N1)OC)NC(=O)NS(=O)(=O)C2=C(SC=C2)C(=O)OC
#inchikey AHTPATJNIAFOLR-UHFFFAOYSA-N
#pubchem_id 73674
#mb_accession EA012402,EA012403,EA012404,EA012405,EA012406,EA012407,EA012408,EA012409,EA012410,EA012411,EA012412,EA012413

>ms2
141.077100 714176.000000
167.056400 11653746.900000
204.962200 224225.900000
221.989100 33057.900000
356.010600 48665.800000
388.038100 5909988.500000

>ms2
141.077200 2431260.300000
167.056400 14768237.600000
189.962900 64455.700000
204.962400 2617242.300000
215.942800 32815.200000
221.988800 18651.800000
222.973100 21252.300000
247.969200 28976.500000

>ms2
69.008000 33177.400000
78.984800 21889.100000
83.024000 143560.700000
85.039700 16915.700000
97.981800 13111.000000
100.050800 20954.700000
125.977100 145747.500000
141.000500 143733.900000
141.077200 2292875.200000
167.056500 9925965.700000
174.951700 150746.100000
189.962800 168419.300000
204.962500 3785911.900000
215.942200 105664.400000

>ms2
69.008400 131507.600000
69.987200 13129.800000
78.984900 121730.900000
83.024100 393679.500000
85.010900 41351.500000
85.039700 44347.700000
86.990100 23697.200000
97.982200 82074.900000
100.050700 79653.400000
107.989900 12846.200000
110.989500 16555.700000
125.977100 1031377.900000
126.985100 19538.200000
141.000600 501049.400000
141.077200 1278216.200000
143.987600 42981.400000
167.056400 4226158.300000
171.952300 17536.000000
174.951900 326900.000000
189.962900 134237.200000
204.962500 2099739.200000
215.942300 113825.700000
222.972700 34712.400000

>ms2
67.029300 13610.800000
69.008300 175262.700000
69.987100 69955.700000
73.010400 12503.100000
78.984800 179743.600000
82.994900 25615.600000
83.024000 408571.800000
85.010700 62411.600000
85.039800 33762.100000
86.989900 58291.100000
95.990300 13560.500000
97.982100 256885.800000
100.050500 67873.400000
107.990000 16913.500000
110.989900 39210.100000
111.001200 31354.600000
123.985100 27649.900000
125.977000 1904078.500000
126.984700 30451.700000
141.000600 396035.000000
141.077200 395947.500000
143.987600 99080.700000
151.980600 26295.600000
167.056300 1031742.600000
174.951800 161096.700000
189.963000 63122.100000
204.962400 497996.200000
215.941400 44725.900000

>ms2
67.028900 12096.200000
68.979300 20567.200000
69.008300 192189.600000
69.987100 187217.600000
70.995000 22089.700000
78.984800 116901.000000
82.994900 23935.200000
83.023900 313759.300000
85.010500 52377.700000
85.039800 21631.100000
86.989900 40415.000000
95.990200 18590.100000
97.982100 542155.900000
100.050800 32098.500000
107.990000 11123.600000
110.989900 62909.900000
111.001100 27787.200000
123.984700 38867.700000
125.977000 1693492.300000
126.984900 35879.300000
141.000500 130404.000000
141.077100 85121.600000
143.987700 90902.600000
151.980200 10126.400000
167.056300 172383.100000
174.951600 47875.500000
204.962500 62112.000000

>ms2
141.077100 497798.800000
167.056300 8335721.300000
204.962400 160587.000000
221.988800 17854.300000
247.968100 10356.000000
356.011200 30403.700000
388.037900 4120658.000000

>ms2
141.077100 1680920.900000
167.056300 9997946.000000
189.962600 54667.000000
204.962400 1854586.100000
215.941900 17165.800000
221.988700 10033.700000
222.973300 11944.000000
247.968500 20773.000000
388.037900 23533.700000

>ms2
69.008300 17808.600000
78.984900 13034.500000
83.024000 91202.300000
100.051000 14683.500000
125.977000 76419.800000
141.000600 80993.300000
141.077200 1557573.400000
167.056300 6693137.700000
174.951900 89763.300000
189.962700 92889.800000
204.962400 2550273.400000
215.941900 79398.200000
222.973000 27694.800000
325.976200 8584.600000

>ms2
69.008300 58792.000000
69.986900 8033.400000
73.010300 4067.700000
78.984800 77205.100000
83.023900 242323.000000
85.010700 18464.600000
85.039700 20476.800000
86.989800 10401.900000
97.982000 39826.500000
100.050500 45449.900000
113.005600 10640.100000
125.977000 636497.000000
126.984500 13123.100000
141.000500 328549.300000
141.077100 818060.100000
143.987500 24347.800000
151.979900 8254.600000
167.056300 2780541.000000
171.952000 9545.700000
174.951700 202942.700000
189.962700 81201.900000
204.962300 1360282.000000
215.941700 73782.300000
222.972800 12676.900000

>ms2
67.029200 4937.100000
69.008300 95455.600000
69.987100 35097.400000
70.994800 6300.700000
73.010400 4099.600000
78.984800 94037.100000
82.995100 13727.000000
83.024000 249896.600000
85.010600 27034.400000
85.039600 15243.000000
86.989900 23955.500000
97.982100 173200.000000
100.050600 35499.500000
107.990200 9026.800000
110.989900 21870.300000
111.001100 17181.900000
113.005300 5568.000000
114.984600 6940.600000
123.985200 20930.400000
125.977000 1243418.400000
126.984700 23453.500000
141.000500 263631.000000
141.077100 258126.000000
143.987500 47918.800000
151.980100 14279.700000
167.056300 662098.000000
171.951700 4560.000000
174.951800 105160.900000
189.962700 31313.300000
204.962300 303371.900000
215.941900 25889.100000
325.969700 5193.800000

>ms2
68.979300 5251.300000
69.008300 103314.400000
69.987200 107840.100000
70.995000 10940.000000
78.984800 66666.900000
82.994900 10916.100000
83.024000 151239.500000
85.010700 32662.400000
85.039700 9281.100000
86.989900 21266.900000
95.990100 9013.300000
97.982100 350038.900000
100.050500 19776.700000
107.990600 4699.700000
110.989900 23343.600000
111.001100 14072.200000
114.984700 4060.600000
123.985000 19338.300000
125.977000 1072779.100000
126.984800 9343.200000
141.000500 76407.400000
141.077100 52015.800000
143.987600 46174.600000
151.980000 5292.600000
167.056300 94286.100000
171.951800 5139.500000
174.951800 20147.900000
189.962700 4652.200000
204.962300 38329.600000

