>compound EA97896311
>parentmass 995.5560000000004
>ionization [M+H]+
>formula C49H74N10O12
>rt 612.000000
>profile orbitrap
#smiles_iso C[C@H]1[C@@H](NC(=O)[C@@H](NC(=O)[C@H]([C@@H](NC(=O)[C@@H](NC(=O)[C@H](NC(=O)C(=C)N(C(=O)CC[C@@H](NC1=O)C(=O)O)C)C)CC(C)C)C(=O)O)C)CCCN=C(N)N)/C=C/C(=C/[C@H](C)[C@H](CC2=CC=CC=C2)OC)/C
#smiles_can CC1C(NC(=O)C(NC(=O)C(C(NC(=O)C(NC(=O)C(NC(=O)C(=C)N(C(=O)CCC(NC1=O)C(=O)O)C)C)CC(C)C)C(=O)O)C)CCCN=C(N)N)C=CC(=CC(C)C(CC2=CC=CC=C2)OC)C
#inchikey ZYZCGGRZINLQBL-GWRQVWKTSA-N
#pubchem_id 445434
#mb_accession EA299202,EA299203,EA299204,EA299205,EA299206,EA299207,EA299208,EA299209,EA299210,EA299211,EA299212,EA299213

>ms2
995.556100 269904.000000

>ms2
70.065000 5465.000000
86.096400 8607.100000
107.085400 8148.800000
112.086800 7955.400000
127.086400 9258.000000
135.080200 36518.000000
135.116600 13006.700000
155.081100 8835.200000
156.124600 6670.800000
157.108400 10484.100000
163.111200 20574.000000
174.134900 21505.300000
195.076300 3277.200000
196.100400 3556.700000
213.086600 31723.900000
218.152200 2780.500000
237.162300 3239.100000
240.143700 3246.100000
241.129600 6201.700000
244.128300 6820.500000
246.148600 5537.800000
258.184700 10661.300000
265.156900 5258.700000
268.166600 7479.100000
269.124800 12683.000000
285.166800 19209.900000
286.150800 17437.900000
292.153100 3584.400000
347.195600 9233.900000
375.190900 41490.200000
446.227900 11757.900000
571.360400 4950.800000
910.502300 3966.600000
967.560100 9975.200000
995.555500 101271.200000

>ms2
70.065100 50174.800000
84.044300 18961.400000
86.096300 45538.300000
91.054100 6533.900000
93.069900 11350.600000
97.075700 2671.600000
98.060500 2974.200000
103.054100 8676.300000
105.069700 28113.300000
107.085400 81497.300000
112.086800 34246.900000
113.070900 7066.400000
114.103000 3916.600000
115.086500 20478.400000
117.069700 17493.900000
120.080800 2861.300000
127.086500 117702.100000
130.049500 7054.600000
130.097300 3461.700000
131.085500 3577.000000
135.080300 267801.300000
135.116600 101419.400000
138.054400 12013.100000
140.082000 11402.200000
141.066200 5613.600000
153.102000 2898.000000
155.081400 54160.900000
156.124600 8792.200000
157.108200 30718.000000
157.134200 4054.200000
163.111600 42840.900000
167.081300 12600.200000
174.134900 32692.900000
175.118900 5320.800000
182.102700 5819.200000
183.087500 7705.400000
195.076300 14465.400000
196.060800 2958.600000
198.123600 5125.000000
200.114300 42182.100000
201.097800 12140.400000
213.086700 91043.400000
213.134800 7445.300000
218.153100 5395.000000
223.118800 7007.900000
225.135200 6177.700000
226.118200 16223.100000
237.163100 5120.500000
239.065700 17984.700000
240.144200 4618.900000
241.129100 5867.200000
244.129000 11203.500000
246.149500 7091.800000
268.165300 2306.000000
269.125500 18137.800000
285.167000 14752.300000
286.151200 9028.600000
303.177400 9310.400000
347.198800 2877.200000

>ms2
70.065100 44989.400000
79.054200 3300.000000
82.065300 2393.300000
84.044300 17483.600000
86.096400 16296.500000
91.054100 9912.000000
93.069700 14112.700000
95.060400 3472.300000
97.076000 4561.300000
98.059800 5919.800000
99.091600 4169.000000
103.054100 40563.900000
105.069700 49365.800000
107.085400 66711.800000
112.086800 23692.200000
113.071400 3664.800000
114.102400 6950.300000
115.054200 6406.100000
115.086500 17464.700000
117.069800 26584.500000
127.086400 99830.100000
130.049600 3880.400000
130.097500 3642.800000
133.101100 3265.100000
135.080300 138460.700000
135.116600 46551.200000
138.054600 5577.900000
140.081500 9745.600000
141.065800 14580.300000
149.070900 3423.900000
153.102100 3483.800000
155.081000 16368.100000
157.107900 9889.700000
167.081600 13640.900000
174.134200 6181.500000
182.102800 5008.600000
195.076600 6863.900000
200.114000 9581.500000
201.098200 4358.200000
213.086700 23089.600000
239.066700 6358.200000

>ms2
70.065000 24325.400000
79.054100 4678.600000
82.065400 2735.100000
84.044500 9628.900000
86.096300 6115.700000
91.054300 11745.200000
93.069700 9357.200000
97.076000 3927.400000
99.091500 4074.800000
103.054100 72942.000000
105.069700 38680.400000
107.085400 37261.000000
112.086800 12915.200000
115.054100 5545.900000
115.086300 6873.200000
117.069700 18137.200000
127.086500 45329.600000
135.080200 34472.400000
135.116400 7496.200000
138.054500 2639.300000
141.065300 6419.100000
149.070900 3754.500000
167.081700 8614.000000

>ms2
70.065100 17714.600000
79.054000 4777.300000
82.065000 2161.200000
84.044100 5900.600000
86.096400 4017.000000
91.054200 19165.100000
93.069700 6203.300000
98.059600 3774.300000
103.054100 98047.200000
105.069700 30947.600000
107.085500 16130.000000
115.054300 6688.800000
117.069600 9744.000000
127.086500 16269.100000
167.080800 3232.800000

>ms2
995.555000 139561.700000

>ms2
70.065200 2301.900000
86.096200 3094.400000
107.085400 4453.200000
112.086600 3148.700000
127.086500 4981.000000
135.080200 19458.000000
135.116600 4895.700000
155.081400 3188.300000
156.124000 3742.000000
163.111600 10129.500000
174.134600 11982.300000
195.076000 2244.300000
200.114100 3470.100000
213.086700 15488.600000
241.129500 2854.600000
244.128300 2225.800000
246.148000 2029.400000
258.184700 6160.700000
265.157600 3047.900000
268.165200 2511.200000
285.166300 10504.500000
286.149900 6988.200000
292.152300 1748.000000
347.195400 4087.600000
375.190900 19242.300000
382.208300 4078.400000
397.210000 2739.400000
399.234900 2324.700000
446.227700 5496.800000
553.308200 8719.400000
570.336200 2544.400000
571.358600 1676.900000
599.354100 6458.500000
967.564700 3697.100000
995.555400 46575.900000

>ms2
70.065000 18977.900000
84.044300 7106.300000
86.096300 18836.400000
93.069700 3900.800000
103.054100 4903.300000
105.069700 11915.800000
107.085400 27293.300000
112.086800 13169.100000
113.071000 2184.900000
114.102400 2348.100000
115.054400 1812.900000
115.086500 10805.000000
117.069700 5477.400000
127.086400 50886.600000
130.049900 2575.900000
135.080200 114610.800000
135.116700 37805.000000
138.054900 2382.100000
140.081400 6838.500000
141.065500 3674.700000
155.081300 18676.700000
156.124200 3583.000000
157.108100 13434.100000
157.133600 1718.900000
163.111600 14771.700000
167.081400 6137.900000
174.134600 15246.900000
175.119500 2283.600000
182.103600 3206.200000
183.087200 3681.000000
195.076100 5499.900000
196.060300 2398.900000
196.099400 1653.900000
198.123300 1875.900000
200.113900 19678.000000
201.097800 4405.500000
213.086600 42051.300000
213.134100 5084.100000
218.153600 2185.700000
223.118700 4364.400000
225.133800 3570.800000
226.118200 7781.900000
237.163200 4504.300000
239.065600 8166.600000
241.129000 1579.300000
244.128900 4178.600000
246.147100 2453.500000
269.123500 5334.900000
285.166800 4798.800000
286.150400 3270.400000
303.178400 4142.100000
347.198200 2669.800000
375.190300 5278.800000

>ms2
70.065000 14026.700000
84.044300 5136.900000
86.096200 7059.900000
91.053800 3732.000000
93.069800 5775.100000
95.059900 1902.100000
103.054100 16413.200000
105.069700 19961.300000
107.085400 26104.800000
112.086800 11949.600000
114.102500 2247.400000
115.086600 5745.300000
117.069800 11052.200000
120.080400 1673.000000
127.086400 44355.500000
130.049300 2656.700000
131.085700 1939.700000
133.101000 1885.300000
135.080200 54910.900000
135.116600 15798.400000
138.054800 1886.500000
140.081700 2488.700000
141.065800 4209.700000
155.081400 6498.200000
157.108200 2999.800000
163.112100 2919.600000
167.081200 6570.700000
174.134100 3246.700000
195.075700 3378.400000
196.099600 2835.700000
200.113200 3595.600000
213.086700 7174.600000
223.119100 1748.000000
239.066400 2007.700000

>ms2
70.065000 6533.900000
82.065300 1790.400000
84.044300 3071.400000
86.096300 3653.000000
91.054000 5399.300000
93.069600 2049.500000
98.060000 1899.900000
103.054100 26755.800000
105.069700 11402.600000
107.085300 15233.400000
112.086800 4487.600000
115.053900 2284.700000
115.086200 2588.200000
117.069700 6664.100000
127.086400 14837.000000
135.080200 13979.400000
135.116700 2305.600000
182.102900 1478.500000

>ms2
70.065000 6065.600000
79.054200 2456.300000
84.044500 2436.500000
91.054200 4814.900000
93.069600 1638.500000
98.059900 2386.300000
103.054000 31303.500000
105.069700 9346.700000
107.085400 5105.300000
115.054100 2585.000000
117.069900 2604.500000
127.086500 7462.400000
135.080100 3282.900000

