>compound EA98368543
>parentmass 218.10359999999994
>ionization [M+H]+
>formula C10H11N5O
>rt 90.000000
>profile orbitrap
#smiles_iso CC1=NNC(=O)N(C1)/N=C/C2=CN=CC=C2
#smiles_can CC1=NNC(=O)N(C1)N=CC2=CN=CC=C2
#inchikey QHMTXANCGGJZRX-WUXMJOGZSA-N
#pubchem_id 9576037
#mb_accession EA294702,EA294703,EA294704,EA294705,EA294706,EA294707,EA294708,EA294709,EA294710,EA294711,EA294712,EA294713

>ms2peaks
105.044500 466535.000000
218.103400 24039205.900000

>ms2peaks
79.041300 56834.600000
80.049300 19147.600000
93.057200 16639.800000
105.044700 6919478.700000
106.052300 23686.900000
107.060400 268481.900000
114.066300 29349.500000
134.071300 52190.500000
148.050700 18373.700000
218.103500 15572003.500000

>ms2peaks
79.041700 283834.600000
80.049600 48040.200000
92.049300 44679.000000
93.057300 63251.800000
98.035100 31707.000000
105.044700 16628712.000000
106.052600 98029.600000
107.060400 523594.900000
111.031600 40292.200000
112.051000 25603.700000
114.066200 39571.300000
120.055600 45736.100000
134.071300 96064.900000
148.050500 32375.900000
218.103700 3400513.600000

>ms2peaks
78.033700 36065.200000
79.041700 527592.900000
80.049400 93160.700000
92.049400 48764.400000
93.057300 57395.000000
98.034900 52551.700000
105.044600 16389705.700000
106.052400 69243.400000
107.060300 304093.100000
111.031400 130602.700000
120.055700 34637.000000
134.071000 60691.200000
148.050500 29063.600000
218.103800 238352.300000

>ms2peaks
78.033900 168608.000000
79.041700 724845.800000
80.049500 125229.800000
92.049500 78946.200000
93.057200 49482.600000
96.044300 38542.700000
98.034900 47986.700000
105.044700 14157297.200000
106.052400 27988.600000
107.060300 119255.400000
111.031500 207395.900000
112.051000 15194.600000
120.055500 28183.700000
121.039400 15450.200000
134.071400 27830.700000

>ms2peaks
51.022800 23100.600000
78.033900 546351.000000
79.041700 859263.700000
80.049400 92499.800000
92.049500 80463.600000
93.057300 53936.400000
96.044400 98827.200000
98.034900 42623.700000
103.029000 44741.500000
105.044600 12082693.900000
107.060300 45591.300000
111.031400 291613.200000
121.039700 37574.000000

>ms2peaks
105.044700 282839.000000
218.103600 17044973.900000

>ms2peaks
79.041700 28104.600000
80.049500 15856.700000
105.044700 5005191.700000
106.052600 20441.500000
107.060400 181176.800000
114.066000 22028.000000
134.071200 34962.800000
218.103500 12108445.600000

>ms2peaks
79.041700 145459.700000
80.049500 31949.100000
92.049500 22347.100000
93.057300 24194.100000
98.035000 18512.300000
105.044800 10251406.800000
106.052600 57763.500000
107.060300 313191.800000
111.031400 22121.300000
112.050600 17676.900000
114.066100 21042.400000
120.055600 18914.100000
134.071300 57958.600000
148.050500 22694.500000
218.103800 2075134.500000

>ms2peaks
78.033800 18144.300000
79.041700 330397.900000
80.049500 64563.100000
92.049500 36283.300000
93.057300 26813.800000
98.034900 38727.900000
105.044700 11388724.900000
106.052500 44835.600000
107.060300 190379.300000
111.031400 97083.500000
112.050500 13421.400000
120.055600 20167.500000
134.071200 31965.100000
148.050500 13047.800000
218.103500 181729.400000

>ms2peaks
78.033800 123566.100000
79.041700 423066.200000
80.049500 75893.000000
92.049500 45015.500000
93.057300 30943.300000
96.044400 24752.600000
98.035000 24306.900000
105.044700 9716738.000000
106.052600 21493.300000
107.060300 81555.200000
111.031500 144844.200000
120.055600 12992.400000
134.071300 10052.300000

>ms2peaks
51.022900 12078.400000
78.033900 351495.700000
79.041700 511667.000000
80.049500 60056.400000
92.049500 51061.900000
93.057300 26157.400000
96.044400 56685.300000
98.034900 23282.300000
103.029100 28870.500000
105.044700 7929920.700000
106.052700 7958.900000
107.060400 33964.400000
111.031500 185885.400000
120.055600 12683.800000
121.039700 22385.600000

