>compound EA98660025
>parentmass 200.11819999999997
>ionization [M+H]+
>formula C12H13N3
>rt 456.000000
>profile orbitrap
#smiles_iso CC1=CC(=NC(=N1)NC2=CC=CC=C2)C
#smiles_can CC1=CC(=NC(=N1)NC2=CC=CC=C2)C
#inchikey ZLIBICFPKPWGIZ-UHFFFAOYSA-N
#pubchem_id 91650
#mb_accession EA271202,EA271203,EA271204,EA271205,EA271206,EA271207,EA271208,EA271209,EA271210,EA271211,EA271212,EA271213

>ms2peaks
200.118200 14802719.800000

>ms2peaks
200.118300 16458284.800000

>ms2peaks
82.065100 64731.300000
107.060300 76461.700000
125.070700 19823.700000
143.060600 18549.900000
183.091400 96935.800000
184.086500 23440.400000
200.118300 15648790.200000

>ms2peaks
65.038700 12005.400000
66.033900 30931.200000
80.049400 103772.800000
82.065100 472617.300000
83.060200 32881.100000
93.057600 14932.000000
107.060300 728124.600000
118.065100 77536.500000
119.060500 59632.900000
125.070900 283803.300000
142.065000 68488.800000
143.060400 171233.300000
156.081000 38405.300000
158.095800 15542.800000
159.091500 107973.000000
166.064400 23807.900000
168.068300 57989.400000
173.106900 20325.600000
182.084100 101195.700000
183.091600 891585.800000
184.086800 20498.100000
185.094000 42983.100000
200.118200 11469761.500000

>ms2peaks
53.038300 24835.300000
58.065000 23255.500000
65.038500 26057.800000
66.033800 104855.400000
67.029100 51780.200000
67.041600 51610.500000
77.038600 64184.000000
80.049400 316484.700000
82.065100 1067304.000000
83.060400 93672.900000
92.049500 106887.300000
93.057300 87729.600000
107.060300 1362434.900000
115.054400 41899.800000
117.057100 18955.900000
118.052700 28344.800000
118.065100 142064.700000
119.060400 219294.000000
125.070900 428213.700000
129.070300 31974.000000
131.059800 27187.000000
132.080300 15843.100000
140.049600 16405.000000
142.065100 205347.300000
143.060500 339471.500000
143.072600 55749.300000
156.068000 16554.600000
156.080900 93761.400000
158.096600 32807.300000
159.091500 193333.000000
166.065500 66029.500000
167.073100 68053.400000
168.068100 504603.800000
173.107800 40527.900000
181.075800 63295.900000
182.083800 562118.100000
183.091600 1492138.600000
184.086500 30456.000000
185.094700 62154.400000
198.103200 33931.600000
200.118200 5079737.100000

>ms2peaks
53.038500 35617.900000
58.065200 14627.600000
65.038500 92829.200000
66.033700 138126.200000
67.029100 133655.100000
67.041700 89739.100000
77.038600 195687.200000
80.049400 468491.800000
82.065100 1031257.600000
83.060300 113199.400000
91.053900 43755.300000
92.049400 195068.700000
93.057300 142603.200000
94.065400 12607.100000
95.049200 27307.700000
98.059800 18814.900000
105.044500 67187.000000
107.060300 984866.700000
115.054100 96018.500000
116.049400 27853.900000
117.057400 41086.100000
118.052500 49438.900000
118.065100 120797.200000
119.060300 267008.400000
125.070900 267651.300000
129.069800 43444.500000
131.060200 64955.000000
139.054500 23715.200000
140.049000 36624.500000
141.057100 54590.700000
142.065100 224029.300000
143.060300 325688.500000
146.060200 14091.400000
154.065100 15032.800000
155.060100 19620.000000
156.068200 57722.600000
156.080800 105256.600000
157.076500 12279.300000
158.083200 28433.400000
159.091600 116023.700000
166.065200 76008.800000
167.073000 92069.300000
168.068200 776700.600000
173.108100 36977.600000
181.075900 215787.500000
182.083800 883450.200000
183.091600 903970.500000
184.087400 20711.100000
185.094500 55288.000000
198.102400 53668.500000
200.117700 1099429.400000

>ms2peaks
200.118200 12036458.500000

>ms2peaks
200.118100 12054974.500000

>ms2peaks
82.065000 33520.100000
107.060300 59622.200000
125.070800 18314.100000
159.091700 14115.100000
183.091600 60126.800000
184.086200 15718.900000
200.118200 11690820.600000

>ms2peaks
66.033800 22478.600000
80.049400 70027.900000
82.065100 357523.200000
83.060400 29088.600000
92.049300 9543.000000
93.057100 20603.500000
94.065100 18570.800000
107.060400 608571.100000
118.064900 52200.800000
119.060300 45018.000000
125.070900 190123.700000
142.065200 61430.400000
143.060400 125077.300000
143.072900 17300.000000
156.080800 26347.800000
159.091700 78924.300000
166.065400 9995.400000
167.073600 11399.900000
168.068200 72863.100000
173.107000 9846.600000
182.083800 80576.000000
183.091700 654086.400000
184.087100 15475.000000
185.094700 24259.000000
198.101700 16030.700000
199.110100 12664.000000
200.118200 8842434.800000

>ms2peaks
53.038600 16409.000000
58.065000 12360.800000
65.038600 28562.700000
66.033800 72560.400000
67.029100 39111.500000
67.041600 33903.200000
77.038500 35215.400000
80.049500 232200.200000
82.065200 852243.400000
83.060400 75707.400000
91.054200 9990.800000
92.049500 78260.700000
93.057300 71492.500000
94.065300 20800.700000
95.060200 8995.500000
105.044800 12842.000000
107.060400 1030472.900000
115.054200 34746.300000
117.057600 14076.200000
118.052800 23401.800000
118.065100 110502.700000
119.060400 162664.400000
123.079400 12609.500000
125.070900 331740.900000
129.069800 16208.800000
131.060400 26155.800000
142.065100 129532.900000
143.060300 271212.100000
143.072900 44269.900000
155.060700 7015.300000
156.068000 11443.900000
156.080900 57592.700000
158.083500 11554.900000
158.096600 26562.700000
159.091700 148340.100000
166.065200 53856.600000
167.073000 48706.500000
168.068200 354708.600000
173.107400 28227.600000
181.076200 40792.200000
182.083900 392049.200000
183.091700 1070298.800000
184.086600 11060.100000
185.094900 44732.800000
198.102700 32444.800000
199.110400 8889.600000
200.118300 3736631.100000

>ms2peaks
53.038500 24439.800000
58.065000 10602.700000
65.038500 58678.300000
66.033800 88075.000000
67.029000 87955.300000
67.041600 52053.400000
77.038500 126839.100000
80.049500 296239.800000
82.065100 726489.000000
83.060300 86888.200000
91.054200 28581.100000
92.049400 133723.800000
93.057200 102664.700000
94.065100 11689.200000
95.049000 17870.100000
95.060300 7739.600000
98.060000 7522.200000
105.044700 36570.000000
107.060300 716169.400000
115.054200 66768.600000
116.049500 21945.300000
117.057200 21565.700000
118.052500 34740.000000
118.065100 82969.300000
119.060300 188278.600000
123.079000 9138.700000
125.070900 172939.300000
129.069800 34474.900000
131.060300 49444.600000
132.080700 7185.700000
139.054300 9615.100000
140.049500 24681.500000
141.057200 30287.100000
142.065000 141858.600000
143.060300 199386.100000
143.072900 33379.100000
146.060200 5104.800000
154.065100 11176.400000
155.060200 11564.800000
156.068100 37825.800000
156.080700 63614.500000
157.076100 13122.600000
158.083800 15234.300000
158.096200 14460.200000
159.091600 68365.500000
166.065100 57833.800000
167.072800 64111.000000
168.068200 615606.900000
173.107200 19783.000000
181.076000 142987.700000
182.083800 568723.600000
183.091600 626363.200000
184.086600 19837.700000
185.094600 35195.500000
198.102500 38119.700000
199.110800 9986.300000
200.118200 868250.900000

