>compound EA99254877
>parentmass 401.2435
>ionization [M+H]+
>formula C23H32N2O4
>rt 822.000000
>profile orbitrap
#smiles_iso CCC1=CC(=CC(=C1C2=C(N3CCOCCN3C2=O)OC(=O)C(C)(C)C)CC)C
#smiles_can CCC1=CC(=CC(=C1C2=C(N3CCOCCN3C2=O)OC(=O)C(C)(C)C)CC)C
#inchikey MGOHCFMYLBAPRN-UHFFFAOYSA-N
#pubchem_id 210326
#mb_accession EA070402,EA070403,EA070404,EA070405,EA070406,EA070407,EA070408,EA070409,EA070410,EA070411,EA070412,EA070413

>ms2
317.185800 225566.000000
401.243200 4892267.900000

>ms2
57.069900 184086.500000
317.186400 4549354.900000
401.243900 610077.700000

>ms2
57.069900 241680.800000
101.070800 14330.500000
174.128400 10315.300000
261.196800 17101.000000
273.159200 16582.200000
288.148000 15911.700000
289.154700 95532.100000
317.186000 3698000.400000

>ms2
57.069900 229552.400000
71.060500 31092.300000
101.071000 70455.700000
102.078900 12321.900000
105.070000 14959.100000
119.085400 23394.500000
131.085800 45647.600000
133.101400 44634.300000
145.088500 10587.500000
146.096500 14712.300000
147.116300 17926.700000
156.080900 11661.500000
158.072400 8121.700000
159.080400 14818.500000
159.116900 72301.400000
160.088700 23051.000000
160.111600 10490.200000
161.096100 17719.900000
161.132900 25482.200000
171.077200 8896.900000
173.132900 11717.900000
174.091300 97900.500000
174.127800 29935.800000
175.112200 19563.800000
183.077200 12287.500000
187.075100 15119.600000
187.111600 28350.400000
188.107400 33501.800000
188.155200 10975.100000
189.138700 32330.200000
200.143600 9212.600000
202.122400 56985.000000
215.106400 18667.900000
216.090300 24261.700000
217.132700 9390.200000
217.170100 23243.000000
229.097400 20492.900000
233.165200 37223.500000
244.120600 90873.800000
244.143300 8832.600000
261.196700 31042.700000
271.143300 39864.700000
288.146800 109100.900000
289.154600 449934.800000
317.185800 1144158.200000

>ms2
57.069900 209145.500000
71.060400 42251.500000
85.039600 6280.200000
91.054200 15268.800000
101.070900 56620.900000
102.078700 18821.700000
105.069800 52277.600000
117.070200 18738.100000
118.064600 5816.800000
119.085700 46208.600000
129.070100 25781.300000
130.077400 12654.600000
131.072800 13775.700000
131.085600 167884.300000
132.056800 10377.800000
133.101200 81606.300000
139.050000 6383.400000
143.085500 18323.400000
144.081300 11738.000000
145.065400 10623.600000
145.088800 24202.000000
145.101200 23892.900000
146.059700 30620.400000
146.096500 56295.700000
147.080200 10515.000000
147.117200 18368.900000
156.081000 25164.600000
157.088300 13754.800000
157.101200 19591.000000
158.059300 5597.100000
158.073000 23780.500000
158.096100 14175.300000
159.080500 38783.000000
159.116800 68623.700000
160.088200 58432.900000
160.125300 8339.400000
161.096000 12960.900000
161.132600 19522.700000
169.101600 11268.300000
170.095600 6634.000000
172.076400 10118.100000
172.112100 20778.900000
173.084100 15338.100000
174.091400 136817.700000
174.127900 40691.900000
175.111200 11957.200000
185.071600 9864.300000
186.067000 17330.500000
187.075300 34378.900000
187.111400 17561.900000
188.107200 28950.100000
189.138500 40525.300000
198.091000 15518.600000
202.085500 8833.600000
202.121600 35946.200000
215.105600 12846.000000
216.089600 27154.100000
229.097200 37339.100000
230.105000 8695.000000
233.164200 20622.900000
244.120800 35455.600000
260.115400 14139.200000
261.124600 11619.300000
261.195700 6636.000000
271.143700 67876.600000
273.122400 24915.500000
285.158400 8314.800000
287.138700 11888.000000
288.147400 38354.700000
289.154700 141408.900000
317.185300 74910.500000

>ms2
57.069900 116300.000000
71.060400 40474.100000
85.039500 17081.300000
91.054300 54507.800000
93.069800 21404.800000
101.071000 22172.500000
103.054200 7878.000000
105.070000 67450.500000
115.054300 19882.300000
116.062200 17485.400000
117.069900 59073.900000
118.065200 14812.700000
119.085600 60346.400000
128.062100 17946.000000
129.070100 61181.300000
130.065200 18092.800000
130.077800 33037.500000
131.073000 36335.000000
131.085600 237409.700000
132.056700 16941.500000
132.081300 8767.000000
133.101200 55885.800000
139.050700 5480.100000
141.069700 11471.000000
142.065700 11204.400000
142.078000 13221.000000
143.073000 14195.600000
143.085600 19443.900000
144.081000 28729.200000
144.093300 12459.100000
145.065000 40120.400000
145.088800 24055.000000
145.101500 30134.700000
146.059900 30537.000000
146.096700 75364.100000
147.080500 10135.500000
147.116800 8592.500000
155.086300 5344.300000
156.080600 27121.600000
157.088100 13437.300000
157.101300 9521.900000
158.073400 23192.900000
158.096200 19306.300000
159.067900 14603.700000
159.080600 58047.700000
159.104500 10592.900000
159.116900 35674.300000
160.075200 20362.700000
160.088500 46901.400000
160.111300 7376.700000
170.096000 18827.700000
172.062700 5843.300000
172.076500 10176.200000
172.111800 11124.100000
174.091400 61286.900000
185.070700 18106.600000
186.054800 8134.800000
187.075500 22248.700000
187.111100 6076.800000
188.107100 23798.800000
189.139400 6821.500000
198.091000 13562.900000
229.096900 12815.500000
271.144500 21093.500000

>ms2
317.185900 117485.700000
401.243600 2808726.800000

>ms2
57.069800 100670.900000
317.186100 2517236.800000
401.243100 323843.200000

>ms2
57.069900 122208.500000
161.133200 4606.800000
202.122600 4562.800000
244.121300 7688.200000
261.196100 11034.100000
273.159900 8589.500000
288.147100 8555.800000
289.154600 50638.100000
317.186200 1975145.900000

>ms2
57.069900 109018.100000
71.060300 15946.300000
101.070900 38361.900000
102.078800 9275.400000
105.069900 6610.600000
119.085500 6952.400000
130.064700 2745.400000
131.085600 23961.700000
133.101200 24006.100000
143.085300 2800.500000
145.088300 5073.400000
146.096700 7581.200000
147.081000 3438.400000
147.117000 11146.900000
156.081000 4080.500000
157.101200 3317.600000
158.072600 3875.600000
159.080500 11079.000000
159.116900 38722.100000
160.075700 3509.700000
160.088500 10836.400000
160.111800 2794.400000
160.124700 4151.300000
161.095700 3739.200000
161.132600 19868.100000
169.100900 5856.100000
171.076500 5523.900000
172.112400 8499.100000
173.083600 4239.200000
174.091400 49693.600000
174.127800 19881.900000
175.111400 6093.700000
183.076400 5403.700000
187.075400 5755.700000
187.112000 14895.900000
188.107200 12016.000000
189.138700 17665.900000
200.143100 6248.900000
202.122700 28237.200000
215.106200 9696.500000
216.089100 9157.500000
217.133600 5317.300000
217.169800 11695.900000
229.097100 12775.000000
230.105300 4551.400000
233.164900 17312.100000
244.120600 42641.700000
244.144500 5152.600000
261.123700 10563.500000
261.196300 12840.800000
271.144000 22702.200000
273.123000 5236.700000
273.160800 7658.800000
285.159300 6213.300000
288.146800 59167.400000
289.154500 224304.100000
317.185900 605276.100000

>ms2
57.069800 95648.800000
71.060300 19737.100000
85.039500 4753.700000
91.054100 7221.800000
93.069900 4487.100000
101.070900 26028.700000
102.078700 8584.200000
105.069800 22638.600000
117.069900 10472.000000
119.085500 23783.400000
128.061600 3061.900000
129.069900 11444.600000
130.065300 2624.700000
130.077500 6424.200000
131.072800 4617.600000
131.085500 83293.200000
132.057000 4223.500000
132.080500 3423.000000
132.093300 2388.200000
133.101200 41058.800000
139.050000 3052.000000
142.077800 3686.500000
143.073000 3210.100000
143.085600 5928.100000
144.080700 6922.300000
144.093500 2954.500000
145.064700 9289.400000
145.088500 16183.500000
145.101100 8345.700000
146.060000 14053.600000
146.096400 28494.000000
147.080100 5173.200000
147.116600 8183.100000
148.111500 2935.900000
156.080700 7213.400000
157.088600 7305.200000
157.101300 6823.100000
158.072600 7532.700000
158.096500 7396.100000
159.080300 22169.300000
159.104500 5163.900000
159.116900 35333.300000
160.075800 6868.900000
160.088200 38501.200000
160.112000 5147.500000
160.124700 3386.700000
161.096000 6876.200000
161.107000 3582.600000
161.132400 10964.200000
169.101600 3748.400000
170.096200 2662.900000
171.076200 2991.600000
171.103500 4177.100000
172.063500 4058.800000
172.076300 3748.600000
172.112300 8061.600000
173.083200 4474.700000
173.095900 3092.400000
173.132800 4560.000000
174.054800 4603.100000
174.091200 64584.200000
174.127600 20775.900000
175.111500 9893.600000
185.070500 3310.700000
186.067600 7498.800000
186.091700 3591.600000
187.075300 17911.200000
187.111400 10934.700000
188.106800 15803.400000
188.156000 4097.700000
189.138600 22234.000000
198.091600 5402.700000
200.143500 2676.600000
202.086100 5701.900000
202.122600 19124.200000
215.081700 2995.800000
215.106600 4246.000000
216.089100 11140.200000
217.132600 4161.000000
217.169300 5475.700000
229.097000 15386.400000
230.104300 5952.200000
233.165000 13331.600000
244.120400 13568.100000
260.115900 3355.800000
261.122900 11932.600000
261.195800 3001.800000
271.144000 27212.300000
273.122800 12654.800000
285.158900 6267.700000
287.138200 6883.500000
288.146400 15982.000000
289.154400 63603.500000
317.185900 43237.600000

>ms2
57.069800 58985.700000
71.060300 16639.600000
85.039600 5366.400000
91.054200 21273.800000
93.069900 9960.700000
101.070900 7003.700000
102.078600 2654.500000
103.054100 6469.100000
105.069800 29452.500000
115.054200 7609.000000
116.061900 6953.800000
117.069800 25962.100000
118.065100 5610.600000
119.085500 26186.600000
128.062000 7033.700000
129.069800 22336.900000
130.065000 9137.200000
130.077700 15327.000000
131.072900 14503.400000
131.085500 98990.200000
132.056800 8029.300000
132.080700 3045.700000
132.093300 4413.900000
133.101100 24417.100000
141.069700 4632.300000
142.065200 4259.700000
142.077600 5115.400000
143.072700 3541.200000
143.085400 8014.800000
144.080700 9991.800000
144.093300 5274.700000
145.064700 18141.100000
145.088600 11252.700000
145.101100 10210.100000
146.060000 16087.500000
146.096400 27001.500000
147.080300 6690.600000
147.116800 2812.000000
148.112000 2044.300000
155.085200 1963.000000
156.080700 10204.300000
157.088600 6984.700000
157.101200 3603.500000
158.059800 1869.500000
158.072600 5610.700000
158.096400 9721.300000
159.067900 6939.400000
159.080400 21677.100000
159.104300 4837.100000
159.116800 17112.900000
160.075500 9109.200000
160.088200 16338.800000
160.112000 4991.900000
161.107400 2124.200000
161.132300 2864.200000
170.096400 4224.000000
171.104000 3122.900000
172.063100 3289.700000
172.075600 3970.500000
172.112100 3794.900000
173.083600 4847.400000
173.096000 4192.800000
173.132500 2548.600000
174.055400 2174.800000
174.091300 24877.100000
174.127700 6325.100000
185.070800 9609.800000
186.054800 4213.200000
186.067500 3707.500000
186.091400 4191.600000
187.075100 8594.300000
187.111900 2576.800000
188.106800 7319.000000
189.138400 2805.600000
198.091100 6952.600000
202.122800 3748.900000
215.081200 2339.200000
216.089100 1690.200000
229.096900 7179.300000
244.120700 2151.100000
271.144000 11066.100000
289.154100 2628.600000

