>compound EA04066224
>parentmass 340.0485
>ionization [M+H]+
>formula C14H13NO7S
>rt 372.000000
>profile orbitrap
#smiles_iso CS(=O)(=O)C1=CC(=C(C=C1)C(=O)C2C(=O)CCCC2=O)[N+](=O)[O-]
#smiles_can CS(=O)(=O)C1=CC(=C(C=C1)C(=O)C2C(=O)CCCC2=O)[N+](=O)[O-]
#inchikey KPUREKXXPHOJQT-UHFFFAOYSA-N
#pubchem_id 175967
#mb_accession EA025801,EA025814

>ms2peaks
227.996200 1307567.700000
294.054500 19859.900000

>ms2peaks
227.996000 286043.000000
294.054200 3170.700000

