>compound EA13962141
>parentmass 252.123
>ionization [M+H]+
>formula C13H17NO4
>rt 396.000000
>profile orbitrap
#smiles_iso CC1=C(C(=CC=C1)C)N(CCOC)C(=O)C(=O)O
#smiles_can CC1=C(C(=CC=C1)C)N(CCOC)C(=O)C(=O)O
#inchikey MHGMSAFPNAKIRZ-UHFFFAOYSA-N
#pubchem_id 86290105
#mb_accession EA253601,EA253614

>ms2peaks
206.117700 1588124.100000
220.096800 52141159.000000

>ms2peaks
206.117700 802384.000000
220.096800 25927651.100000

