>compound EA24450506
>parentmass 199.0633
>ionization [M+H]+
>formula C9H11ClN2O
>rt 402.000000
>profile orbitrap
#smiles_iso CN(C)C(=O)NC1=CC=C(C=C1)Cl
#smiles_can CN(C)C(=O)NC1=CC=C(C=C1)Cl
#inchikey BMLIZLVNXIYGCK-UHFFFAOYSA-N
#pubchem_id 8800
#mb_accession EA016101,EA016114

>ms2peaks
72.044400 2064355.600000
199.063700 66695.200000

>ms2peaks
72.044400 694337.000000
199.062800 4132.500000

