>compound EA43258554
>parentmass 125.0379
>ionization [M+H]+
>formula C2H8N2O2S
>rt 66.000000
>profile orbitrap
#smiles_iso CN(C)S(=O)(=O)N
#smiles_can CN(C)S(=O)(=O)N
#inchikey QMHAHUAQAJVBIW-UHFFFAOYSA-N
#pubchem_id 134472
#mb_accession EA034101,EA034114

>ms2peaks
108.011400 1714608.400000
125.037900 1038378.800000

>ms2peaks
108.011400 1403260.300000
125.037900 248065.600000

