>compound EA44948246
>parentmass 388.131
>ionization [M+H]+
>formula C21H22ClNO4
>rt 648.000000
>profile orbitrap
#smiles_iso COC1=C(C=C(C=C1)/C(=C/C(=O)N2CCOCC2)/C3=CC=C(C=C3)Cl)OC
#smiles_can COC1=C(C=C(C=C1)C(=CC(=O)N2CCOCC2)C3=CC=C(C=C3)Cl)OC
#inchikey QNBTYORWCCMPQP-NBVRZTHBSA-N
#pubchem_id 5889665
#mb_accession EA294401,EA294414

>ms2
165.054600 324714.600000
301.062200 51951064.600000

>ms2
165.054700 110920.800000
301.062400 19422110.500000

