>compound EA73452831
>parentmass 201.091
>ionization [M+H]+
>formula C13H12O2
>rt 588.000000
>profile orbitrap
#smiles_iso C1=CC=C(C=C1)OC2=CC=CC(=C2)CO
#smiles_can C1=CC=C(C=C1)OC2=CC=CC(=C2)CO
#inchikey KGANAERDZBAECK-UHFFFAOYSA-N
#pubchem_id 26295
#mb_accession EA032501,EA032514

>ms2
171.080200 6747.600000
183.080100 31015.500000

>ms2
171.080000 3747.500000
183.080100 13533.000000

