>compound EA77785697
>parentmass 131.0251
>ionization [M+H]+
>formula C4H3FN2O2
>rt 60.000000
>profile orbitrap
#smiles_iso C1=C(C(=O)NC(=O)N1)F
#smiles_can C1=C(C(=O)NC(=O)N1)F
#inchikey GHASVSINZRGABV-UHFFFAOYSA-N
#pubchem_id 3385
#mb_accession EA256601,EA256614

>ms2
84.959700 376065.470300
88.019200 5472.000000
113.023000 3206.200000
113.998500 109498.100000

>ms2
84.959600 528594.962600
88.019500 1889.500000
113.023100 3589.200000
113.998500 41430.700000

