>compound EA80853925
>parentmass 182.0482
>ionization [M+H]+
>formula C5H11NO4S
>rt 60.000000
>profile orbitrap
#smiles_iso CC(=O)NCCCS(=O)(=O)O
#smiles_can CC(=O)NCCCS(=O)(=O)O
#inchikey AFCGFAGUEYAMAO-UHFFFAOYSA-N
#pubchem_id 71158
#mb_accession EA284801,EA284814

>ms2
123.011300 13818.100000
140.037500 4869598.400000

>ms2
123.011300 3887.000000
140.037500 1910878.000000

