>compound EA89340780
>parentmass 231.1104
>ionization [M+H]+
>formula C11H13F3N2
>rt 354.000000
>profile orbitrap
#smiles_iso C1CN(CCN1)C2=CC=CC(=C2)C(F)(F)F
#smiles_can C1CN(CCN1)C2=CC=CC(=C2)C(F)(F)F
#inchikey KKIMDKMETPPURN-UHFFFAOYSA-N
#pubchem_id 4296
#mb_accession EA281901,EA281914

>ms2peaks
70.065100 40006.700000
119.073000 34177.400000
170.078000 41637.300000
174.052600 255749.800000
186.052700 248718.800000
188.068400 13920026.300000
200.068400 686443.500000
201.063400 115349.300000
211.104300 954406.800000
212.068800 72937.200000
214.084000 412327.800000

>ms2peaks
70.065100 6420.200000
119.073100 11815.200000
166.046400 24736.400000
168.061600 9650.800000
170.077500 25469.500000
172.037200 11678.400000
173.045700 6902.000000
174.052600 83340.300000
186.052600 94830.700000
188.068300 5495449.500000
200.068200 245551.600000
201.063400 54300.900000
211.104200 352476.300000
212.068300 31593.800000
214.083800 168039.600000
231.109300 7023.100000

