>compound EA93339348
>parentmass 146.0116
>ionization [M+H]+
>formula C4H4ClN3O
>rt 78.000000
>profile orbitrap
#smiles_iso C1=NNC(=O)C(=C1N)Cl
#smiles_can C1=NNC(=O)C(=C1N)Cl
#inchikey FEWPCPCEGBPTAL-UHFFFAOYSA-N
#pubchem_id 95827
#mb_accession EA069801,EA069814

>ms2peaks
90.010500 3617.300000
146.011500 173175.300000

>ms2peaks
54.033700 2694.100000
116.997200 3159.300000

