>compound BML0221082
>parentmass 255.1016
>ionization [M+H]+
>formula C16H14O3
>rt 497.040000
>profile qtof
#smiles_iso COC1=CC=CC2=C1C(=O)CC(O2)C3=CC=CC=C3
#smiles_can COC1=CC=CC2=C1C(=O)CC(O2)C3=CC=CC=C3
#inchikey YLLFUILNISGLHO-UHFFFAOYSA-N
#pubchem_id 147795
#mb_accession BML01473,BML01488,BML01503

>ms2
108.024600 25.000000
131.048100 38.000000
136.014100 62.000000
151.038400 3819.000000
151.075400 102.000000
151.098000 23.000000
151.152600 43.000000
176.988300 548.000000
237.088700 23.000000
255.100800 1881.000000
255.144200 66.000000

>ms2
103.050900 38.000000
108.019300 107.000000
121.031900 47.000000
122.031000 20.000000
123.042500 29.000000
136.015000 250.000000
151.038700 5071.000000
151.062200 23.000000
151.073200 101.000000
151.100600 91.000000
151.122000 27.000000
151.153400 69.000000
176.991600 85.000000
255.091400 31.000000
255.108200 46.000000

>ms2
103.053800 112.000000
108.020400 1256.000000
108.051000 23.000000
121.028400 91.000000
123.041100 69.000000
136.015000 980.000000
136.039200 26.000000
136.050000 26.000000
151.038400 869.000000
151.067500 52.000000
165.067300 25.000000
239.061000 26.000000

