>compound BML0952725
>parentmass 282.17
>ionization [M+H]+
>formula C15H23NO4
>rt 341.340000
>profile qtof
#smiles_iso C[C@H]1C[C@@H](C(=O)[C@@H](C1)[C@@H](CC2CC(=O)NC(=O)C2)O)C
#smiles_can CC1CC(C(=O)C(C1)C(CC2CC(=O)NC(=O)C2)O)C
#inchikey YPHMISFOHDHNIV-FSZOTQKASA-N
#pubchem_id 6197
#mb_accession BML00700,BML00709,BML00718

>ms2peaks
107.048700 40.000000
107.085900 42.000000
109.097300 24.000000
121.024400 21.000000
135.112800 24.000000
143.082500 22.000000
145.098800 62.000000
153.088200 32.000000
157.099900 34.000000
159.110500 28.000000
159.127700 22.000000
173.133900 88.000000
177.128400 21.000000
185.089700 25.000000
187.106100 56.000000
205.127000 38.000000
218.149000 20.000000
219.141800 47.000000
228.124100 26.000000
229.121800 153.000000
236.153400 24.000000
246.147700 395.000000
247.132400 162.000000
264.154200 186.000000
264.196400 36.000000
265.142700 237.000000
282.158500 97.000000

>ms2peaks
107.045300 60.000000
107.086000 90.000000
112.039300 28.000000
121.026400 97.000000
121.066900 29.000000
121.090900 35.000000
123.076800 28.000000
125.098300 52.000000
129.063100 33.000000
131.084900 61.000000
133.056400 24.000000
133.102600 43.000000
135.077400 33.000000
135.117500 45.000000
136.075400 34.000000
137.091500 34.000000
138.051000 69.000000
138.089100 25.000000
143.081300 67.000000
145.102200 37.000000
147.080600 55.000000
149.062900 44.000000
149.091800 34.000000
153.057500 34.000000
153.093800 47.000000
155.082800 58.000000
156.059400 26.000000
157.098300 80.000000
159.115500 161.000000
161.090400 32.000000
161.127800 33.000000
166.092400 21.000000
169.094300 22.000000
170.101000 39.000000
173.128800 122.000000
175.103100 37.000000
177.083400 36.000000
177.131300 75.000000
181.042700 32.000000
183.107300 33.000000
183.122100 30.000000
187.068700 27.000000
187.110500 151.000000
189.091300 51.000000
201.129300 100.000000
202.121500 36.000000
203.136200 37.000000
205.121300 68.000000
211.106500 80.000000
218.155100 49.000000
219.135000 67.000000
228.136100 23.000000
229.120100 112.000000
246.149200 89.000000
247.130500 202.000000
264.160600 42.000000

>ms2peaks
105.070000 74.000000
107.048300 33.000000
107.083900 28.000000
107.090900 30.000000
109.098500 28.000000
115.050700 33.000000
117.070500 76.000000
119.083100 90.000000
121.021200 26.000000
121.066500 25.000000
121.100800 24.000000
123.045500 60.000000
127.051900 39.000000
128.060200 23.000000
129.067800 27.000000
131.087500 60.000000
142.076100 40.000000
143.080800 26.000000
144.093200 40.000000
159.088100 35.000000
159.114800 32.000000
170.111700 20.000000

