>compound BML0019738
>parentmass 415.1388
>ionization [M+H]+
>formula C22H22O8
>rt 436.560000
>profile qtof
#smiles_iso COC1=CC(=CC(=C1OC)OC)C2C3C(COC3=O)C(C4=CC5=C(C=C24)OCO5)O
#smiles_can COC1=CC(=CC(=C1OC)OC)C2C3C(COC3=O)C(C4=CC5=C(C=C24)OCO5)O
#inchikey YJGVMLPVUAXIQN-UHFFFAOYSA-N
#pubchem_id 4865
#mb_accession BML00868

>ms2peaks
185.054700 28.000000
185.063700 23.000000
219.059500 60.000000
229.045400 131.000000
247.056300 252.000000
282.080900 41.000000
313.104500 94.000000
336.002500 44.000000
351.127000 24.000000
397.122000 235.000000
397.172900 25.000000
414.124800 55.000000
415.134800 29.000000

