>compound BML0964673
>parentmass 221.0809
>ionization [M+H]+
>formula C12H12O4
>rt 482.940000
>profile qtof
#smiles_iso CC1=CC(=O)OC2=C1C(=CC(=C2)OC)OC
#smiles_can CC1=CC(=O)OC2=C1C(=CC(=C2)OC)OC
#inchikey WFSKVHPOKPQJSU-UHFFFAOYSA-N
#pubchem_id 390799
#mb_accession BML01472,BML01487,BML01502

>ms2
105.071300 66.000000
109.066000 24.000000
121.061300 30.000000
133.068900 26.000000
135.077800 22.000000
137.056500 149.000000
149.050100 23.000000
149.062700 22.000000
150.066800 39.000000
151.077400 36.000000
160.048500 41.000000
161.060000 26.000000
162.070300 35.000000
163.039500 71.000000
165.089200 112.000000
177.052600 48.000000
177.093100 87.000000
178.057900 105.000000
179.072000 29.000000
179.242000 27.000000
192.079900 29.000000
193.083400 89.000000
205.051600 38.000000
206.059300 359.000000
221.080200 7525.000000
221.113400 115.000000
221.136500 201.000000
221.193100 23.000000
221.219400 97.000000
221.281700 32.000000
221.367000 41.000000
221.470300 25.000000
221.495500 29.000000
221.798300 30.000000
221.839200 22.000000
222.206500 21.000000
223.573400 23.000000

>ms2
103.054000 39.000000
105.068000 164.000000
105.084100 26.000000
107.048700 22.000000
107.082800 22.000000
109.063100 41.000000
115.053900 83.000000
116.062500 42.000000
117.066600 49.000000
119.050700 75.000000
120.055700 32.000000
121.023700 38.000000
121.063500 90.000000
123.079700 46.000000
125.053500 23.000000
127.015900 20.000000
130.018200 52.000000
131.049600 37.000000
132.061500 50.000000
133.062800 254.000000
133.079600 26.000000
134.072400 45.000000
135.045600 95.000000
135.083800 58.000000
137.059400 401.000000
137.093700 68.000000
145.067500 79.000000
146.072500 190.000000
147.039700 86.000000
147.051600 27.000000
148.051100 52.000000
149.058800 67.000000
149.092400 50.000000
150.066400 92.000000
151.073100 83.000000
153.055600 89.000000
159.047200 21.000000
161.055700 112.000000
162.065700 130.000000
162.082000 30.000000
163.037700 341.000000
163.072300 32.000000
164.052900 20.000000
165.058900 29.000000
165.090500 291.000000
175.080200 33.000000
176.046400 158.000000
177.054700 489.000000
177.089700 205.000000
178.062000 713.000000
178.090700 36.000000
178.115300 27.000000
178.346200 20.000000
179.069000 142.000000
193.083700 67.000000
205.046500 111.000000
206.055700 1843.000000
206.104200 53.000000
206.162500 22.000000
206.247100 26.000000
221.079800 2342.000000
221.118500 79.000000
221.141700 52.000000
221.216400 25.000000
221.608600 36.000000
959.898100 25.000000

>ms2
102.044300 25.000000
103.053700 196.000000
104.063300 35.000000
105.070500 71.000000
107.049600 135.000000
109.064300 45.000000
115.054600 63.000000
116.061100 46.000000
117.036200 41.000000
118.036100 24.000000
118.042600 24.000000
119.050400 30.000000
120.059100 23.000000
121.064800 103.000000
125.058100 29.000000
131.040400 33.000000
131.047500 61.000000
132.058800 28.000000
135.043200 234.000000
135.074100 22.000000
137.058400 28.000000
147.045600 112.000000
148.053300 64.000000
149.022200 20.000000
149.060400 141.000000
159.041000 32.000000
163.038000 559.000000
176.052300 27.000000
177.053800 119.000000
178.062900 107.000000
205.049200 83.000000
206.055800 39.000000

