>compound BML0305931
>parentmass 308.1354
>ionization [M+H]+
>formula C13H17N5O4
>rt 228.360000
>profile qtof
#smiles_iso C=CCNC1=C2C(=NC=N1)N(C=N2)C3C(C(C(O3)CO)O)O
#smiles_can C=CCNC1=C2C(=NC=N1)N(C=N2)C3C(C(C(O3)CO)O)O
#inchikey WTYYPLSFICPDGL-UHFFFAOYSA-N
#pubchem_id 264006
#mb_accession BML01426,BML01433,BML01440

>ms2peaks
176.092700 4266.000000
176.130700 152.000000
176.152800 38.000000
176.174500 26.000000
176.185600 23.000000
176.216000 46.000000
176.760200 21.000000
308.135300 1022.000000

>ms2peaks
135.050300 20.000000
149.081200 51.000000
159.064800 25.000000
176.092400 4777.000000
176.130000 174.000000
176.151400 35.000000
176.216100 44.000000
308.132700 21.000000

>ms2peaks
105.041100 27.000000
108.039100 77.000000
108.051600 33.000000
109.050500 41.000000
119.028900 23.000000
119.035400 47.000000
121.051000 27.000000
131.033700 27.000000
132.050300 68.000000
132.059000 55.000000
134.073000 20.000000
135.052200 301.000000
135.067700 40.000000
136.060900 225.000000
136.069800 22.000000
148.058900 107.000000
149.080700 97.000000
159.065600 200.000000
160.064300 24.000000
176.092600 1240.000000
176.127900 56.000000

