>compound BML0285139
>parentmass 455.0973000000001
>ionization [M+H]+
>formula C23H18O10
>rt 524.280000
>profile qtof
#smiles_iso CC(=O)OC1=C(C=C(C=C1)C2=CC(=O)C3=C(O2)C=C(C=C3OC(=O)C)OC(=O)C)OC(=O)C
#smiles_can CC(=O)OC1=C(C=C(C=C1)C2=CC(=O)C3=C(O2)C=C(C=C3OC(=O)C)OC(=O)C)OC(=O)C
#inchikey MABQMQKDSPCURQ-UHFFFAOYSA-N
#pubchem_id 135952
#mb_accession BML00106,BML00118,BML00130

>ms2peaks
287.052200 27.000000
329.063800 48.000000
371.075900 228.000000
413.085500 525.000000

>ms2peaks
287.059500 38.000000
329.063000 357.000000
329.125300 21.000000
371.073700 505.000000
371.126500 29.000000
413.076600 31.000000
413.099800 74.000000

>ms2peaks
287.056200 611.000000
287.100000 36.000000
329.066300 202.000000

