>compound BML0964269
>parentmass 301.1071
>ionization [M+H]+
>formula C17H16O5
>rt 450.780000
>profile qtof
#smiles_iso COC1=CC2=C(C(=O)CC(O2)C3=CC=C(C=C3)O)C(=C1)OC
#smiles_can COC1=CC2=C(C(=O)CC(O2)C3=CC=C(C=C3)O)C(=C1)OC
#inchikey REBBZOCNEVVAPX-UHFFFAOYSA-N
#pubchem_id 5271551
#mb_accession BML01806,BML01816,BML01826

>ms2
147.045100 105.000000
181.049400 982.000000
181.073100 30.000000
181.091600 23.000000
301.106000 1625.000000

>ms2
119.047400 30.000000
123.047000 31.000000
147.043500 231.000000
166.009100 23.000000
166.027500 52.000000
181.048500 2059.000000
181.082400 27.000000
181.103900 33.000000
301.104100 140.000000

>ms2
109.029800 22.000000
110.038700 65.000000
119.049200 141.000000
121.026800 36.000000
123.044700 37.000000
125.058900 32.000000
136.018400 55.000000
137.021500 33.000000
138.029500 195.000000
138.051600 20.000000
147.047100 47.000000
153.055400 23.000000
166.025300 185.000000
181.047500 474.000000

