>compound BML0050560
>parentmass 353.0867
>ionization [M+H]+
>formula C16H16O9
>rt 215.220000
>profile qtof
#smiles_iso CC1=CC(=O)OC2=C1C=CC(=C2)O[C@H]3[C@@H]([C@H]([C@@H]([C@H](O3)C(=O)O)O)O)O
#smiles_can CC1=CC(=O)OC2=C1C=CC(=C2)OC3C(C(C(C(O3)C(=O)O)O)O)O
#inchikey ARQXEQLMMNGFDU-JHZZJYKESA-N
#pubchem_id 91553
#mb_accession BML00957,BML00966,BML00975

>ms2peaks
177.053500 1354.000000
177.093600 64.000000
353.081100 115.000000

>ms2peaks
121.071300 30.000000
133.059500 28.000000
177.053800 1566.000000

>ms2peaks
103.051500 60.000000
105.068600 176.000000
121.066800 89.000000
131.048300 25.000000
133.064800 84.000000
149.063900 25.000000
177.054600 502.000000
177.092400 24.000000
186.952400 28.000000

