>compound BML0186508
>parentmass 458.19620000000003
>ionization [M+H]+
>formula C28H27NO5
>rt 632.220000
>profile qtof
#smiles_iso CN1CCC2=CC(=C(C3=C2C1=C(C4=CC(=C(C=C43)OC)OC)C(=O)C5=CC=CC=C5)OC)OC
#smiles_can CN1CCC2=CC(=C(C3=C2C1=C(C4=CC(=C(C=C43)OC)OC)C(=O)C5=CC=CC=C5)OC)OC
#inchikey MYSNZENUPZGNLK-UHFFFAOYSA-N
#pubchem_id 7566702
#mb_accession BML00820,BML00830,BML00840

>ms2
339.157900 24.000000
352.114200 25.000000
353.153600 33.000000
367.142100 193.000000
380.144800 28.000000
409.160500 74.000000
428.160800 25.000000
440.181500 136.000000
441.184200 107.000000
442.166100 48.000000
443.169900 176.000000
457.185300 659.000000
457.242100 53.000000
458.190600 2448.000000

>ms2
105.035500 38.000000
293.103900 22.000000
323.117100 20.000000
324.125000 27.000000
337.113700 20.000000
338.133800 60.000000
339.138500 96.000000
352.118400 73.000000
352.160900 60.000000
353.165100 158.000000
367.139500 684.000000
367.182600 27.000000
367.214500 37.000000
380.144000 87.000000
381.154800 31.000000
399.164200 26.000000
409.163000 59.000000
410.171800 87.000000
428.144000 130.000000
428.192200 22.000000
440.181600 266.000000
441.185000 252.000000
442.155500 128.000000
442.187600 41.000000
443.170100 571.000000
443.236600 46.000000
457.179200 109.000000
458.194000 871.000000

>ms2
105.032900 253.000000
252.096900 24.000000
263.086800 29.000000
264.099900 35.000000
265.091200 52.000000
265.112000 32.000000
266.072800 43.000000
266.128200 20.000000
279.088600 50.000000
279.121900 28.000000
280.093700 105.000000
281.096100 46.000000
291.086700 25.000000
292.094000 51.000000
293.102100 131.000000
293.143200 24.000000
294.106700 66.000000
295.119500 107.000000
296.115700 31.000000
306.112400 27.000000
307.109400 37.000000
307.131300 54.000000
308.088600 176.000000
309.100000 46.000000
320.104300 29.000000
321.097100 56.000000
322.105600 127.000000
323.108200 139.000000
324.116300 147.000000
334.113600 59.000000
336.117100 70.000000
337.094200 51.000000
338.136900 224.000000
338.190600 21.000000
339.141700 20.000000
349.130600 23.000000
350.100100 37.000000
351.106000 38.000000
352.115000 240.000000
352.153000 56.000000
353.149400 34.000000
354.137000 31.000000
356.125500 24.000000
364.135600 36.000000
365.139600 36.000000
366.101900 24.000000
366.143600 155.000000
366.170900 20.000000
367.142500 111.000000
368.118500 27.000000
368.146300 22.000000
370.098400 23.000000
378.100700 23.000000
380.138100 27.000000
382.105300 25.000000
382.137200 29.000000
383.130200 40.000000
384.128700 61.000000
385.129400 42.000000
394.143100 178.000000
395.139300 109.000000
396.116100 21.000000
396.147100 73.000000
397.163000 22.000000
398.137900 29.000000
399.141700 88.000000
400.144800 33.000000
409.166700 117.000000
410.140500 83.000000
410.160200 81.000000
410.188700 43.000000
411.134600 26.000000
411.159500 33.000000
412.117500 43.000000
413.110200 35.000000
414.167600 35.000000
425.151200 21.000000
426.129900 51.000000
426.158500 29.000000
427.129900 31.000000
428.145500 414.000000
428.215100 27.000000
442.164300 86.000000
443.170500 75.000000

