>compound BML0171758
>parentmass 348.1303
>ionization [M+H]+
>formula C15H17N5O5
>rt 284.580000
>profile qtof
#smiles_iso C1=COC(=C1)CNC2=C3C(=NC=N2)N(C=N3)[C@H]4[C@@H]([C@@H]([C@H](O4)CO)O)O
#smiles_can C1=COC(=C1)CNC2=C3C(=NC=N2)N(C=N3)C4C(C(C(O4)CO)O)O
#inchikey CAGLGYNQQSIUGX-SDBHATRESA-N
#pubchem_id 20345
#mb_accession BML00522,BML00531,BML00540

>ms2peaks
148.061200 1466.000000
148.093000 66.000000
216.086400 7432.000000
216.127700 270.000000
216.159900 92.000000
216.186700 62.000000
216.220400 126.000000
216.271800 41.000000
280.105700 72.000000
348.127200 3692.000000

>ms2peaks
148.121300 32.000000
148.149500 25.000000
148.173700 55.000000
173.064600 28.000000
188.091200 164.000000
198.071700 41.000000
216.086800 4777.000000
216.127900 189.000000
216.165400 59.000000
216.187700 42.000000
216.220600 77.000000
216.287600 29.000000
216.368100 32.000000
216.397300 27.000000
216.526400 32.000000
216.795600 26.000000
348.140100 76.000000

>ms2peaks
119.031600 143.000000
121.050700 60.000000
136.059300 192.000000
148.060800 2093.000000
148.086500 24.000000
148.095800 44.000000
148.121300 24.000000
148.171200 33.000000
171.065200 24.000000
173.068800 58.000000
188.091100 210.000000
216.087300 200.000000

