>compound BML0936782
>parentmass 579.1709
>ionization [M+H]+
>formula C27H30O14
>rt 309.660000
>profile qtof
#smiles_iso CC1C(C(C(C(O1)OC2C(C(C(OC2C3=C(C=C(C4=C3OC(=CC4=O)C5=CC=C(C=C5)O)O)O)CO)O)O)O)O)O
#smiles_can CC1C(C(C(C(O1)OC2C(C(C(OC2C3=C(C=C(C4=C3OC(=CC4=O)C5=CC=C(C=C5)O)O)O)CO)O)O)O)O)O
#inchikey LYGPBZVKGHHTIE-UHFFFAOYSA-N
#pubchem_id 5874704
#mb_accession BML01753,BML01764,BML01775

>ms2peaks
271.067500 23.000000
313.067000 67.000000
343.085000 26.000000
397.095900 77.000000
415.110300 66.000000
433.107700 637.000000
579.169300 1821.000000

>ms2peaks
271.067400 28.000000
283.060200 51.000000
295.057800 33.000000
313.072000 205.000000
337.071100 42.000000
367.083100 58.000000
379.073700 46.000000
397.088800 155.000000
397.125400 24.000000
415.103300 289.000000
433.112000 1014.000000
433.147200 35.000000
433.203900 21.000000
579.167500 244.000000

>ms2peaks
271.053200 21.000000
283.061200 317.000000
284.068500 51.000000
295.060700 62.000000
297.084200 21.000000
311.054300 36.000000
313.069700 498.000000
313.097500 43.000000
323.094500 96.000000
337.072200 167.000000
343.083600 49.000000
351.094600 46.000000
355.075300 26.000000
367.080600 119.000000
379.078100 107.000000
397.090400 205.000000
397.114900 44.000000
415.098600 93.000000
433.110100 34.000000

