>compound BML0095852
>parentmass 279.0419
>ionization [M+H]+
>formula C14H11ClO4
>rt 478.680000
>profile qtof
#smiles_iso C1=CC(=CC=C1CC(=O)C2=C(C=C(C=C2O)O)O)Cl
#smiles_can C1=CC(=CC=C1CC(=O)C2=C(C=C(C=C2O)O)O)Cl
#inchikey POUZLUJYBWGJJO-UHFFFAOYSA-N
#pubchem_id 592738
#mb_accession BML01471

>ms2
125.014100 44.000000
153.007400 21.000000
167.029300 33.000000
191.020000 43.000000
195.019200 99.000000
233.034800 72.000000
237.040900 26.000000
261.035500 34.000000
279.040000 195.000000

