>compound BML0359938
>parentmass 339.1591
>ionization [M+H]+
>formula C21H22O4
>rt 642.000000
>profile qtof
#smiles_iso CC(=CCCC(=CCOC1=C2C(=CC3=C1OC=C3)C=CC(=O)O2)C)C
#smiles_can CC(=CCCC(=CCOC1=C2C(=CC3=C1OC=C3)C=CC(=O)O2)C)C
#inchikey SOVNCTNQAWWYAQ-UHFFFAOYSA-N
#pubchem_id 155658
#mb_accession BML01477,BML01492

>ms2
137.130500 340.000000
203.032100 131.000000
229.053000 30.000000
243.066300 80.000000
283.085100 24.000000

>ms2
137.131000 162.000000
157.037900 26.000000
203.031900 288.000000
229.052700 29.000000
243.066500 25.000000

