>compound BML0424895
>parentmass 329.102
>ionization [M+H]+
>formula C18H16O6
>rt 556.800000
>profile qtof
#smiles_iso COC1=CC(=CC(=C1OC)OC)C2=C(C(=O)C3=CC=CC=C3O2)O
#smiles_can COC1=CC(=CC(=C1OC)OC)C2=C(C(=O)C3=CC=CC=C3O2)O
#inchikey MWFLTXAQDCOKEK-UHFFFAOYSA-N
#pubchem_id 688827
#mb_accession BML01811,BML01821,BML01831

>ms2
167.070900 23.000000
268.073200 33.000000
299.056600 22.000000
329.101600 1448.000000

>ms2
105.034200 22.000000
121.029400 57.000000
165.051200 24.000000
167.067800 128.000000
168.076100 77.000000
175.039500 32.000000
193.049500 33.000000
239.071900 38.000000
241.081700 23.000000
255.060200 26.000000
265.042600 68.000000
267.063800 60.000000
268.072300 183.000000
269.076500 51.000000
270.082900 22.000000
281.041900 57.000000
285.076700 33.000000
286.076700 23.000000
295.062500 25.000000
296.062400 48.000000
297.075600 66.000000
298.084000 52.000000
299.051300 170.000000
313.071800 33.000000
314.069500 40.000000
329.101000 542.000000

>ms2
105.034200 26.000000
115.053400 22.000000
118.040700 34.000000
121.027700 242.000000
133.028500 28.000000
134.032700 22.000000
141.071900 24.000000
150.031300 24.000000
165.068500 20.000000
169.063200 22.000000
181.059600 61.000000
185.064700 21.000000
197.059400 89.000000
200.047500 26.000000
201.050400 65.000000
209.061300 21.000000
211.034300 40.000000
211.074000 46.000000
225.051800 39.000000
228.040900 20.000000
229.049800 43.000000
237.054900 65.000000
239.068900 199.000000
242.058500 24.000000
243.063000 58.000000
252.039300 21.000000
253.048700 134.000000
255.064400 61.000000
267.066900 87.000000
268.071900 21.000000
270.049000 55.000000
281.045500 50.000000
285.077700 25.000000
295.058700 26.000000
299.053300 32.000000

