>compound BML0081077
>parentmass 408.2507
>ionization [M+H]+
>formula C22H29N7O
>rt 427.020000
>profile qtof
#smiles_iso C1CCN(C1)C2=NC(=NC(=N2)N3CC4CC(C3)C5=CC=CC(=O)N5C4)N6CCCC6
#smiles_can C1CCN(C1)C2=NC(=NC(=N2)N3CC4CC(C3)C5=CC=CC(=O)N5C4)N6CCCC6
#inchikey NZPAMSHQYRPUFB-UHFFFAOYSA-N
#pubchem_id 2900693
#mb_accession BML01381,BML01390,BML01399

>ms2peaks
261.182600 41.000000
408.250200 7936.000000

>ms2peaks
122.066700 21.000000
122.073300 20.000000
160.078100 41.000000
218.136700 20.000000
249.181700 116.000000
261.180400 165.000000
261.184400 110.000000
408.250900 8288.000000

>ms2peaks
117.056700 25.000000
122.070700 459.000000
142.064000 28.000000
149.080300 94.000000
153.112700 29.000000
160.075300 514.000000
165.113800 44.000000
192.120900 44.000000
207.135700 26.000000
218.139000 186.000000
219.138400 21.000000
235.167800 24.000000
247.165300 155.000000
249.181100 853.000000
249.229900 29.000000
259.163500 92.000000
261.181200 1840.000000
261.228600 78.000000
287.194300 26.000000
313.209000 25.000000
366.198000 29.000000
406.230200 65.000000
408.250400 1386.000000

