>compound BML0612937
>parentmass 221.0809
>ionization [M+H]+
>formula C12H12O4
>rt 395.100000
>profile qtof
#smiles_iso CC1=CC(=O)OC2=CC(=C(C=C12)OC)OC
#smiles_can CC1=CC(=O)OC2=CC(=C(C=C12)OC)OC
#inchikey GBYDSYPGGDKWGZ-UHFFFAOYSA-N
#pubchem_id 77966
#mb_accession BML01187,BML01193,BML01199

>ms2
105.069600 20.000000
150.065600 26.000000
160.056300 36.000000
162.069700 64.000000
165.089100 103.000000
177.053300 32.000000
177.090500 21.000000
193.083300 84.000000
205.046000 85.000000
205.054800 37.000000
206.057400 106.000000
220.998700 22.000000
221.079400 3278.000000

>ms2
105.070200 42.000000
115.053400 28.000000
121.063900 49.000000
131.049700 43.000000
132.055900 33.000000
133.065000 63.000000
135.079600 28.000000
146.073600 49.000000
146.078900 22.000000
147.041100 32.000000
150.066800 114.000000
160.052700 129.000000
161.059300 32.000000
162.067300 160.000000
165.090600 220.000000
176.042600 31.000000
177.054700 168.000000
177.085900 26.000000
178.063400 21.000000
193.084900 39.000000
205.047200 384.000000
205.066800 24.000000
206.055400 163.000000
221.080300 476.000000

>ms2
103.053900 322.000000
104.063000 37.000000
105.035500 21.000000
105.068300 129.000000
107.049500 77.000000
115.052300 149.000000
118.040900 28.000000
119.049500 34.000000
120.057000 36.000000
121.065900 135.000000
131.048900 163.000000
132.057200 25.000000
135.040700 45.000000
147.045000 75.000000
148.051300 64.000000
149.061000 44.000000
160.046000 41.000000
160.052900 36.000000
175.039600 24.000000
177.054000 49.000000
205.050400 107.000000

