>compound BML0284135
>parentmass 244.0928
>ionization [M+H]+
>formula C9H13N3O5
>rt 23.400000
>profile qtof
#smiles_iso C1=CN(C(=O)N=C1N)C2C(C(C(O2)CO)O)O
#smiles_can C1=CN(C(=O)N=C1N)C2C(C(C(O2)CO)O)O
#inchikey UHDGCWIWMRVCDJ-UHFFFAOYSA-N
#pubchem_id 596
#mb_accession BML01007,BML01015,BML01023

>ms2peaks
112.050200 26071.000000
112.081800 700.000000
112.100000 328.000000
112.120500 125.000000
112.147900 458.000000
112.178800 29.000000
112.197300 79.000000
112.216000 38.000000
112.249900 73.000000
112.279000 42.000000
112.301200 35.000000
112.311500 26.000000
112.323300 20.000000
112.331600 24.000000
112.351500 46.000000
112.388800 56.000000
112.436800 27.000000
112.444900 28.000000
112.487300 73.000000
112.507800 54.000000
112.523900 48.000000
112.568900 31.000000
112.618800 28.000000
112.654000 40.000000
112.710100 35.000000
112.820400 29.000000
112.871000 27.000000
112.887600 21.000000
112.937100 24.000000
113.419400 31.000000
115.028600 22.000000
115.039400 29.000000
133.052300 45.000000
244.084800 32.000000

>ms2peaks
112.050400 23947.000000
112.080600 740.000000
112.099000 425.000000
112.123600 201.000000
112.148300 392.000000
112.182400 37.000000
112.198600 42.000000
112.230100 32.000000
112.266300 30.000000
112.295900 21.000000
112.328900 60.000000
112.341200 39.000000
112.356000 20.000000
112.370600 28.000000
112.386100 40.000000
112.397500 26.000000
112.413700 65.000000
112.442700 56.000000
112.460700 43.000000
112.482200 29.000000
112.500000 34.000000
112.527400 31.000000
112.543100 21.000000
112.557600 29.000000
112.580500 35.000000
112.610800 21.000000
112.675300 31.000000
112.685100 37.000000
112.722500 30.000000
112.744300 22.000000
112.841200 33.000000
112.995400 21.000000
113.053400 42.000000
113.104300 30.000000
115.039300 36.000000

>ms2peaks
112.050100 5555.000000
112.080000 180.000000
112.098100 51.000000
112.105200 59.000000
112.148600 76.000000
112.173200 25.000000
112.242000 22.000000
112.277800 22.000000
112.597100 25.000000

