>compound BML1415953
>parentmass 395.1966
>ionization [M+H]+
>formula C23H26N2O4
>rt 238.080000
>profile qtof
#smiles_iso COC1=C(C=C2C(=C1)C34CCN5C3CC6C7C4N2C(=O)CC7OCC=C6C5)OC
#smiles_can COC1=C(C=C2C(=C1)C34CCN5C3CC6C7C4N2C(=O)CC7OCC=C6C5)OC
#inchikey RRKTZKIUPZVBMF-UHFFFAOYSA-N
#pubchem_id 220520
#mb_accession BML00398,BML00412,BML00426

>ms2peaks
324.128800 63.000000
367.178400 24.000000
395.197000 4549.000000

>ms2peaks
138.091300 37.000000
139.048300 28.000000
218.084100 26.000000
244.100100 101.000000
256.094000 20.000000
267.081600 21.000000
272.085100 29.000000
282.114900 32.000000
324.129800 92.000000
350.134200 48.000000
367.164100 148.000000
395.196300 3355.000000

>ms2peaks
108.080800 25.000000
124.073600 27.000000
158.062100 21.000000
198.049600 43.000000
213.076300 112.000000
216.100800 73.000000
228.095700 29.000000
229.073600 136.000000
244.096500 255.000000
251.089500 27.000000
254.115700 31.000000
256.095700 47.000000
263.092800 79.000000
263.114500 24.000000
267.086900 54.000000
280.092000 52.000000
282.112900 77.000000
294.111400 46.000000
301.106300 24.000000
306.106300 24.000000
308.118900 27.000000
317.102500 30.000000
322.132600 39.000000
324.121000 176.000000
324.139800 25.000000
350.137200 35.000000
351.162500 31.000000
352.139700 25.000000
367.160200 33.000000
367.175200 38.000000
379.167000 25.000000
395.187600 30.000000
395.200000 97.000000

