>compound BML1814513
>parentmass 269.0809
>ionization [M+H]+
>formula C16H12O4
>rt 516.180000
>profile qtof
#smiles_iso COC1=CC=CC(=C1)C2=CC(=O)C3=C(O2)C=C(C=C3)O
#smiles_can COC1=CC=CC(=C1)C2=CC(=O)C3=C(O2)C=C(C=C3)O
#inchikey PTXIWVJSAQPKEY-UHFFFAOYSA-N
#pubchem_id 5393153
#mb_accession BML01474,BML01489,BML01504

>ms2
104.994700 62.000000
116.027300 25.000000
137.022200 21.000000
226.060300 187.000000
254.055200 32.000000
254.063800 55.000000
269.079900 4336.000000
269.128700 162.000000
269.159400 47.000000
269.188500 38.000000
269.230600 43.000000
269.611800 27.000000

>ms2
104.991700 50.000000
116.021900 28.000000
131.048600 33.000000
137.021800 99.000000
159.039400 24.000000
197.064200 27.000000
226.062200 692.000000
226.098000 49.000000
241.080600 22.000000
254.055300 316.000000
254.071400 26.000000
269.080500 1911.000000
269.126000 45.000000
269.230500 22.000000

>ms2
108.021000 22.000000
109.030000 35.000000
115.054100 22.000000
116.024100 57.000000
137.023100 592.000000
158.073200 52.000000
159.039100 35.000000
169.063100 29.000000
170.071600 40.000000
187.039700 29.000000
197.058600 76.000000
225.053100 166.000000
225.070500 23.000000
226.062300 1258.000000
226.101700 65.000000
226.124500 24.000000
254.052800 22.000000

