>compound BML1363115
>parentmass 362.1347
>ionization [M+H]+
>formula C17H19N3O6
>rt 352.020000
>profile qtof
#smiles_iso COC1=CC=C(C=C1)C(=O)NC2=NC(=O)N(C=C2)C3C[C@H]([C@@H](O3)CO)O
#smiles_can COC1=CC=C(C=C1)C(=O)NC2=NC(=O)N(C=C2)C3CC(C(O3)CO)O
#inchikey ZASFNFUJGOZQBW-NEJHNUGDSA-N
#pubchem_id 3037652
#mb_accession BML01754,BML01765,BML01776

>ms2peaks
135.043000 1230.000000
135.082500 30.000000
246.087000 1529.000000
246.114400 34.000000
246.131800 72.000000
246.172100 23.000000

>ms2peaks
135.043700 2785.000000
135.076400 127.000000
135.151600 25.000000
228.071600 31.000000
246.078800 24.000000
246.088300 333.000000
246.126300 22.000000

>ms2peaks
107.048200 164.000000
135.043800 1823.000000
135.078000 59.000000
135.094600 30.000000
190.014800 25.000000

