>compound BML1714837
>parentmass 253.0859
>ionization [M+H]+
>formula C16H12O3
>rt 517.680000
>profile qtof
#smiles_iso COC1=CC2=C(C=C1)C(=O)C(=CO2)C3=CC=CC=C3
#smiles_can COC1=CC2=C(C=C1)C(=O)C(=CO2)C3=CC=CC=C3
#inchikey IECSQLKWZBEUGA-UHFFFAOYSA-N
#pubchem_id 638006
#mb_accession BML00817,BML00827,BML00837

>ms2peaks
151.034400 21.000000
173.962800 21.000000
192.957300 37.000000
193.955400 26.000000
210.069700 32.000000
253.084200 1104.000000

>ms2peaks
149.974200 26.000000
165.067900 26.000000
166.076000 45.000000
182.067000 34.000000
197.098500 81.000000
210.067000 73.000000
238.060200 47.000000
253.083800 993.000000

>ms2peaks
102.044600 60.000000
103.053500 76.000000
108.022200 126.000000
128.059800 26.000000
151.038800 31.000000
152.059600 66.000000
153.067400 182.000000
154.076800 108.000000
165.067900 145.000000
178.074400 21.000000
181.059500 95.000000
182.073100 27.000000
192.055500 22.000000
197.091700 21.000000
209.059200 41.000000
210.066200 309.000000

