>compound BML1228533
>parentmass 241.0859
>ionization [M+H]+
>formula C15H12O3
>rt 430.080000
>profile qtof
#smiles_iso C1C(OC2=CC=CC=C2C1=O)C3=CC=C(C=C3)O
#smiles_can C1C(OC2=CC=CC=C2C1=O)C3=CC=C(C=C3)O
#inchikey ZLHVIYHWWQYJID-UHFFFAOYSA-N
#pubchem_id 165506
#mb_accession BML01706,BML01715

>ms2
121.028600 506.000000
123.040800 23.000000
147.042400 199.000000
163.010400 32.000000
195.080200 80.000000
223.073200 59.000000
226.063300 83.000000
241.085600 678.000000

>ms2
119.050700 40.000000
121.028300 539.000000
121.061500 23.000000
147.042900 124.000000
195.077600 51.000000

