>compound BML1835657
>parentmass 285.0677
>ionization [M+H]+
>formula C17H13ClO2
>rt 596.820000
>profile qtof
#smiles_iso CC1=CC2=C(C=C1)OC(=O)C(=C2C)C3=CC=C(C=C3)Cl
#smiles_can CC1=CC2=C(C=C1)OC(=O)C(=C2C)C3=CC=C(C=C3)Cl
#inchikey RGNMXSPMIDBLKW-UHFFFAOYSA-N
#pubchem_id 688774
#mb_accession BML01542,BML01554,BML01566

>ms2
137.013700 42.000000
137.022900 20.000000
149.015300 34.000000
178.069700 47.000000
179.085300 30.000000
193.103000 24.000000
194.103700 40.000000
206.107400 28.000000
221.096100 58.000000
222.106200 136.000000
229.078800 74.000000
242.046700 29.000000
283.049500 39.000000
284.058200 29.000000
285.067200 5087.000000

>ms2
115.050600 22.000000
117.068200 55.000000
125.012800 26.000000
137.014700 168.000000
145.064000 32.000000
149.013900 60.000000
165.017700 20.000000
165.066300 31.000000
178.075900 70.000000
179.086200 82.000000
191.078700 28.000000
191.088700 62.000000
192.093600 21.000000
193.098600 143.000000
194.109300 188.000000
205.096600 38.000000
206.108700 107.000000
207.077300 21.000000
221.096900 108.000000
222.103700 517.000000
222.153400 23.000000
226.052200 65.000000
229.076500 228.000000
242.051800 69.000000
249.086800 48.000000
255.051600 21.000000
257.072700 87.000000
283.053500 20.000000
285.067000 1888.000000

>ms2
101.037600 91.000000
102.046500 180.000000
103.058100 23.000000
105.069300 33.000000
111.001000 69.000000
115.053400 110.000000
116.060500 67.000000
117.070500 116.000000
121.065000 33.000000
125.013400 125.000000
127.056400 29.000000
128.061500 29.000000
130.040600 86.000000
131.047100 20.000000
137.015400 199.000000
138.997900 43.000000
145.062900 161.000000
149.016800 81.000000
152.066400 43.000000
165.067900 67.000000
166.075800 21.000000
177.064900 34.000000
178.076000 386.000000
179.084700 526.000000
180.090300 20.000000
189.068600 96.000000
190.078100 96.000000
191.083800 231.000000
192.093800 37.000000
193.098700 98.000000
194.106200 45.000000
199.033400 23.000000
202.079400 22.000000
203.086700 90.000000
205.101500 50.000000
206.076000 22.000000
207.079300 344.000000
221.095300 359.000000
222.103200 137.000000
225.038000 30.000000
226.053100 34.000000
241.038800 139.000000
242.048700 120.000000
249.086500 36.000000

