>compound BML1007620
>parentmass 409.1493
>ionization [M+H]+
>formula C20H24O9
>rt 315.540000
>profile qtof
#smiles_iso CC1C(=O)OC2C1(C34C(=O)OC5C3(C2)C6(C(C5)C(C)(C)C)C(C(=O)OC6O4)O)O
#smiles_can CC1C(=O)OC2C1(C34C(=O)OC5C3(C2)C6(C(C5)C(C)(C)C)C(C(=O)OC6O4)O)O
#inchikey FPUXKXIZEIDQKW-UHFFFAOYSA-N
#pubchem_id 115221
#mb_accession BML00607,BML00615

>ms2peaks
199.114000 31.000000
241.084400 24.000000
263.104200 20.000000
299.116900 27.000000
301.121300 22.000000
345.128600 82.000000
347.155600 81.000000
363.134800 26.000000
373.127400 27.000000
409.147100 390.000000

>ms2peaks
253.121900 36.000000
255.132500 37.000000
287.086100 35.000000
299.135200 29.000000
317.142200 28.000000
327.116600 27.000000
327.135600 39.000000
345.127200 39.000000
409.158800 24.000000

