>compound BML1707163
>parentmass 683.1818
>ionization [M+H]+
>formula C30H34O18
>rt 431.400000
>profile qtof
#smiles_iso CC1C(C(C(C(O1)OC2C(C(C(OC2OC3=C(C4=C(C(=C3)O)C(=O)C(=C(O4)C5=CC(=C(C=C5)O)OC)O)O)COC(=O)C)O)O)O)O)O
#smiles_can CC1C(C(C(C(O1)OC2C(C(C(OC2OC3=C(C4=C(C(=C3)O)C(=O)C(=C(O4)C5=CC(=C(C=C5)O)OC)O)O)COC(=O)C)O)O)O)O)O
#inchikey LLPAOCBYQCXXKS-UHFFFAOYSA-N
#pubchem_id 20106108
#mb_accession BML01590,BML01599,BML01608

>ms2peaks
103.040100 33.000000
127.040500 26.000000
145.048800 20.000000
147.056100 23.000000
187.059000 28.000000
205.070600 47.000000
255.087200 21.000000
315.108000 24.000000
333.058300 372.000000
333.086300 33.000000
333.110900 27.000000
537.120100 130.000000
537.170200 21.000000
683.180400 804.000000

>ms2peaks
103.036300 28.000000
109.025200 29.000000
127.037600 40.000000
129.050100 78.000000
187.055400 21.000000
205.074100 32.000000
237.072100 24.000000
333.059700 898.000000
333.117800 34.000000
537.127700 81.000000
683.185500 80.000000

>ms2peaks
109.025800 21.000000
301.032200 24.000000
318.035600 45.000000
333.059000 743.000000

