>compound BML1691885
>parentmass 299.0914
>ionization [M+H]+
>formula C17H14O5
>rt 537.300000
>profile qtof
#smiles_iso COC1=C(C=C(C=C1)C2=C(C(=O)C3=CC=CC=C3O2)O)OC
#smiles_can COC1=C(C=C(C=C1)C2=C(C(=O)C3=CC=CC=C3O2)O)OC
#inchikey BXLAVJWSFYZDPF-UHFFFAOYSA-N
#pubchem_id 97143
#mb_accession BML01384,BML01393,BML01402

>ms2
121.026300 30.000000
137.058800 32.000000
238.061300 22.000000
255.066700 29.000000
266.056800 35.000000
283.047000 30.000000
283.061300 53.000000
284.072300 42.000000
299.091700 2562.000000

>ms2
105.032000 24.000000
107.048200 23.000000
121.030700 69.000000
137.060800 141.000000
138.064300 32.000000
162.032100 77.000000
181.064100 21.000000
210.066000 26.000000
237.057300 59.000000
238.061800 124.000000
239.067900 69.000000
240.077200 22.000000
243.093100 26.000000
254.060200 57.000000
255.061300 187.000000
256.070400 31.000000
265.049900 84.000000
266.058500 97.000000
267.066600 124.000000
268.062600 21.000000
283.059300 535.000000
284.068400 163.000000
299.090300 1607.000000

>ms2
105.033000 122.000000
107.049100 30.000000
121.027900 278.000000
133.026900 60.000000
152.060300 30.000000
153.069400 31.000000
162.028600 27.000000
163.038000 45.000000
165.064600 58.000000
181.063300 120.000000
196.050900 34.000000
197.059400 70.000000
199.077600 32.000000
209.060400 77.000000
210.072200 23.000000
211.038600 23.000000
213.052700 36.000000
225.054200 35.000000
226.066500 47.000000
227.071500 37.000000
237.052900 208.000000
238.068200 30.000000
239.070000 28.000000
254.066000 24.000000
255.066100 313.000000
255.110200 26.000000
265.048500 69.000000
267.068400 74.000000
283.059100 273.000000
283.084000 42.000000

