>compound BML1082424
>parentmass 355.20160000000004
>ionization [M+H]+
>formula C21H26N2O3
>rt 250.800000
>profile qtof
#smiles_iso COC(=O)[C@@H]1[C@H](CC[C@@H]2[C@@H]1C[C@H]3C4=C(CCN3C2)C5=CC=CC=C5N4)O
#smiles_can COC(=O)C1C(CCC2C1CC3C4=C(CCN3C2)C5=CC=CC=C5N4)O
#inchikey BLGXFZZNTVWLAY-DKJBZYCGSA-N
#pubchem_id 92766
#mb_accession BML00570,BML00576,BML00582

>ms2
117.070300 37.000000
144.079500 458.000000
212.126300 374.000000
224.124800 67.000000
355.198600 7090.000000

>ms2
105.069700 54.000000
115.051000 29.000000
117.070600 77.000000
129.067500 34.000000
132.080300 30.000000
136.115400 20.000000
144.079900 2212.000000
144.116200 92.000000
144.139000 20.000000
144.171000 24.000000
144.190400 27.000000
162.088900 66.000000
180.099900 98.000000
192.096700 37.000000
194.113700 29.000000
212.126100 1593.000000
212.169600 49.000000
212.188700 42.000000
224.125800 375.000000
246.120800 23.000000
278.155300 21.000000
308.153900 30.000000
312.158400 25.000000
324.152800 21.000000
326.156600 36.000000
326.174800 40.000000
338.176300 104.000000
355.199900 2784.000000

>ms2
105.073000 40.000000
106.063100 23.000000
107.085400 32.000000
110.094700 33.000000
115.052000 113.000000
115.065700 24.000000
117.068300 408.000000
117.098800 20.000000
118.064100 33.000000
119.078800 23.000000
127.054900 159.000000
128.049800 52.000000
130.064500 104.000000
132.080800 49.000000
134.097700 119.000000
136.108900 53.000000
136.117100 27.000000
143.072100 210.000000
144.079700 3453.000000
144.113100 81.000000
144.134800 50.000000
144.191300 53.000000
145.056800 25.000000
152.104800 86.000000
156.083700 33.000000
158.094200 33.000000
162.088900 131.000000
164.111400 22.000000
168.073600 38.000000
178.088800 21.000000
180.098400 112.000000
192.096300 38.000000
194.116500 55.000000
206.092900 34.000000
208.112300 34.000000
212.126800 181.000000
218.095800 42.000000
220.108000 41.000000
224.128900 55.000000
232.106400 25.000000
248.137700 21.000000
260.138100 23.000000

