>compound BML1740225
>parentmass 449.1079
>ionization [M+H]+
>formula C21H20O11
>rt 336.240000
>profile qtof
#smiles_iso C1=CC(=C(C=C1C2=CC(=O)C3=C(C=C(C=C3O2)OC4C(C(C(C(O4)CO)O)O)O)O)O)O
#smiles_can C1=CC(=C(C=C1C2=CC(=O)C3=C(C=C(C=C3O2)OC4C(C(C(C(O4)CO)O)O)O)O)O)O
#inchikey PEFNSGRTCBGNAN-UHFFFAOYSA-N
#pubchem_id 5291488
#mb_accession BML00102,BML00114,BML00126

>ms2
287.054100 429.000000
287.106000 22.000000
449.096500 44.000000
449.119700 44.000000

>ms2
287.054700 610.000000

>ms2
135.041600 31.000000
287.053400 605.000000

