>compound BML1092855
>parentmass 191.0703
>ionization [M+H]+
>formula C11H10O3
>rt 406.320000
>profile qtof
#smiles_iso CC1=CC(=O)OC2=C1C=CC(=C2)OC
#smiles_can CC1=CC(=O)OC2=C1C=CC(=C2)OC
#inchikey UDFPKNSWSYBIHO-UHFFFAOYSA-N
#pubchem_id 390807
#mb_accession BML01256,BML01262,BML01268

>ms2peaks
103.052600 95.000000
104.062600 38.000000
105.067700 126.000000
105.073700 53.000000
107.049200 116.000000
115.053500 203.000000
116.059500 48.000000
116.068500 20.000000
117.069600 170.000000
119.049200 22.000000
119.082200 28.000000
119.089200 26.000000
120.052500 34.000000
120.061700 20.000000
128.060300 25.000000
132.054700 159.000000
135.079900 409.000000
146.073200 21.000000
147.079500 260.000000
148.051900 55.000000
162.065100 45.000000
163.075200 62.000000
176.043800 61.000000
191.069400 10721.000000

>ms2peaks
103.053700 386.000000
104.062200 105.000000
105.069600 711.000000
105.098900 32.000000
107.048700 304.000000
115.053600 480.000000
116.061100 123.000000
117.069400 177.000000
120.057100 107.000000
121.063900 49.000000
123.043400 28.000000
127.052300 33.000000
128.060800 51.000000
131.048200 208.000000
132.057400 318.000000
135.080200 927.000000
135.118900 21.000000
147.045100 48.000000
147.079000 157.000000
148.051200 324.000000
163.073700 74.000000
176.046000 232.000000
191.069400 1360.000000

>ms2peaks
102.045900 107.000000
103.054400 659.000000
103.081700 21.000000
104.062200 63.000000
105.035000 152.000000
105.069600 190.000000
107.048100 72.000000
115.054000 222.000000
116.062300 39.000000
118.042400 22.000000
119.048800 124.000000
120.055500 189.000000
121.063000 21.000000
131.048700 194.000000
132.055600 33.000000
133.025900 37.000000
135.079400 22.000000
147.042200 78.000000
148.051100 388.000000

