>compound BML1272036
>parentmass 349.0626
>ionization [M+H]+
>formula C21H13ClO3
>rt 559.440000
>profile qtof
#smiles_iso C1=CC=C(C=C1)C2=C(C(=O)OC3=C2C=CC(=C3)O)C4=CC=CC=C4Cl
#smiles_can C1=CC=C(C=C1)C2=C(C(=O)OC3=C2C=CC(=C3)O)C4=CC=CC=C4Cl
#inchikey JBSCMIAEEWZQBR-UHFFFAOYSA-N
#pubchem_id 6312947
#mb_accession BML01708,BML01717,BML01726

>ms2
293.073600 20.000000
349.061300 1385.000000

>ms2
181.065500 66.000000
257.097900 40.000000
258.098500 42.000000
269.093800 46.000000
270.101600 54.000000
275.059400 21.000000
286.097100 187.000000
293.073100 176.000000
313.086700 48.000000
321.065000 21.000000
349.061400 1044.000000

>ms2
152.061700 52.000000
153.074000 34.000000
165.066600 22.000000
181.063600 259.000000
199.031100 92.000000
215.025700 79.000000
215.080900 70.000000
216.098700 23.000000
226.074800 41.000000
228.090300 41.000000
229.098000 33.000000
239.083800 195.000000
240.098600 42.000000
241.100300 96.000000
250.075500 61.000000
251.085800 48.000000
252.092100 63.000000
253.105000 25.000000
255.075700 26.000000
257.094700 246.000000
258.108700 25.000000
268.086300 116.000000
269.096000 82.000000
271.074000 112.000000
275.058900 32.000000
284.081900 81.000000
285.088800 91.000000
286.097200 161.000000
293.069200 27.000000
313.084500 66.000000

