>compound BML1466656
>parentmass 330.17
>ionization [M+H]+
>formula C19H23NO4
>rt 159.600000
>profile qtof
#smiles_iso CN1CC[C@@]23CC(=O)C(=C[C@@H]2[C@@H]1CC4=C3C(=C(C=C4)OC)O)OC
#smiles_can CN1CCC23CC(=O)C(=CC2C1CC4=C3C(=C(C=C4)OC)O)OC
#inchikey INYYVPJSBIVGPH-QHRIQVFBSA-N
#pubchem_id 5459308
#mb_accession BML00396,BML00410

>ms2
137.052900 25.000000
192.951700 23.000000
223.073300 24.000000
239.071100 33.000000
251.973100 27.000000
330.168400 1832.000000

>ms2
195.077100 43.000000
207.043100 48.000000
209.063800 59.000000
210.082700 24.000000
213.084700 97.000000
223.072400 102.000000
235.068400 68.000000
237.096100 29.000000
239.065800 78.000000
241.084200 56.000000
251.970800 21.000000
255.099600 60.000000
271.090100 32.000000
330.127600 35.000000
330.171100 831.000000

