>compound BML1631810
>parentmass 325.1911
>ionization [M+H]+
>formula C20H24N2O2
>rt 317.340000
>profile qtof
#smiles_iso COC1=CC2=C(C=CN=C2C=C1)C(C3CC4CCN3CC4C=C)O
#smiles_can COC1=CC2=C(C=CN=C2C=C1)C(C3CC4CCN3CC4C=C)O
#inchikey LOUPRKONTZGTKE-UHFFFAOYSA-N
#pubchem_id 1065
#mb_accession BML00351,BML00361,BML00371

>ms2peaks
110.096100 37.000000
160.070700 24.000000
172.077100 26.000000
184.069700 24.000000
186.089500 31.000000
227.119000 21.000000
253.133300 49.000000
264.142800 37.000000
297.192200 35.000000
307.178700 147.000000
325.189900 3904.000000

>ms2peaks
110.095100 94.000000
134.091400 23.000000
145.053100 20.000000
160.073200 103.000000
160.079800 48.000000
166.122800 53.000000
172.074400 60.000000
173.078500 30.000000
174.092600 32.000000
184.073900 163.000000
186.091800 53.000000
198.088000 28.000000
200.101600 21.000000
202.085100 30.000000
210.094000 25.000000
224.109900 25.000000
226.119900 39.000000
234.087200 21.000000
252.131500 25.000000
253.129600 148.000000
253.144000 48.000000
254.154700 22.000000
264.131500 72.000000
265.133400 26.000000
266.149000 24.000000
276.132300 27.000000
278.157000 52.000000
279.152100 92.000000
307.178200 302.000000
307.192500 27.000000
325.189000 1302.000000

>ms2peaks
105.068700 21.000000
106.063800 26.000000
108.083500 30.000000
110.091800 51.000000
117.054400 53.000000
122.090100 29.000000
134.094700 40.000000
136.107900 29.000000
143.077700 26.000000
144.082500 25.000000
154.063000 40.000000
158.056600 44.000000
160.074600 143.000000
168.084100 21.000000
170.055000 25.000000
171.065300 52.000000
172.075700 223.000000
173.078500 56.000000
174.089400 32.000000
182.062100 37.000000
183.067500 50.000000
184.074600 68.000000
186.088200 66.000000
196.072700 31.000000
197.071800 24.000000
202.086200 27.000000
205.083400 31.000000
210.089500 80.000000
211.089800 22.000000
234.089800 23.000000
236.104100 23.000000
237.105000 29.000000
250.111300 30.000000
253.130300 22.000000
264.130500 28.000000

