>compound BML1897030
>parentmass 267.0419
>ionization [M+H]+
>formula C13H11ClO4
>rt 483.540000
>profile qtof
#smiles_iso CCC(=O)OC1=C(C=C2C(=C1)C(=CC(=O)O2)C)Cl
#smiles_can CCC(=O)OC1=C(C=C2C(=C1)C(=CC(=O)O2)C)Cl
#inchikey GFMFCUGMHTWVTG-UHFFFAOYSA-N
#pubchem_id 673993
#mb_accession BML01382,BML01391,BML01400

>ms2peaks
120.056200 24.000000
132.058800 35.000000
211.015100 1604.000000
211.048400 45.000000
211.061900 27.000000
267.039800 137.000000

>ms2peaks
103.055200 40.000000
119.047600 32.000000
132.057400 64.000000
155.021500 78.000000
211.014800 823.000000
211.056900 38.000000

>ms2peaks
103.054100 87.000000
119.048500 74.000000
120.056700 118.000000
131.047100 66.000000
132.057600 85.000000
147.039400 83.000000
147.050100 37.000000
148.050400 80.000000
155.025400 136.000000
155.304300 20.000000

