>compound BML1816300
>parentmass 609.2807
>ionization [M+H]+
>formula C33H40N2O9
>rt 451.860000
>profile qtof
#smiles_iso COC1C(CC2CN3CCC4=C(C3CC2C1C(=O)OC)NC5=C4C=CC(=C5)OC)OC(=O)C6=CC(=C(C(=C6)OC)OC)OC
#smiles_can COC1C(CC2CN3CCC4=C(C3CC2C1C(=O)OC)NC5=C4C=CC(=C5)OC)OC(=O)C6=CC(=C(C(=C6)OC)OC)OC
#inchikey QEVHRUUCFGRFIF-UHFFFAOYSA-N
#pubchem_id 5052
#mb_accession BML00161,BML00175,BML00189

>ms2peaks
174.093800 39.000000
195.063200 225.000000
397.211600 174.000000
577.249600 53.000000
608.263000 32.000000
609.277000 4674.000000

>ms2peaks
174.089800 771.000000
188.103500 67.000000
192.098200 91.000000
195.065400 1730.000000
195.102200 49.000000
215.108200 50.000000
224.124400 69.000000
236.124800 158.000000
322.147800 43.000000
336.154700 94.000000
348.159100 69.000000
354.166900 43.000000
365.188300 149.000000
366.175100 43.000000
368.176600 54.000000
397.212200 1601.000000
397.271800 110.000000
398.209800 68.000000
413.202900 54.000000
436.206400 114.000000
448.193600 439.000000
577.252000 214.000000
591.275400 62.000000
609.278700 8497.000000

>ms2peaks
101.057200 33.000000
102.056700 47.000000
104.989700 28.000000
105.030700 25.000000
106.063100 38.000000
108.056100 30.000000
109.068800 36.000000
111.042500 163.000000
111.080800 46.000000
112.082100 56.000000
115.051900 30.000000
117.066200 41.000000
118.067600 69.000000
120.074700 47.000000
121.052200 25.000000
121.066800 20.000000
122.034100 55.000000
122.067800 33.000000
122.080000 24.000000
124.049800 36.000000
129.056500 21.000000
130.063700 76.000000
131.071800 59.000000
132.082000 47.000000
135.042700 28.000000
137.059400 35.000000
137.090100 26.000000
139.073600 149.000000
142.059500 33.000000
143.045500 47.000000
143.072000 93.000000
144.076600 28.000000
146.101100 22.000000
147.085900 25.000000
148.067600 69.000000
148.079500 107.000000
152.043600 72.000000
158.060500 21.000000
159.066600 194.000000
160.078700 85.000000
161.075200 23.000000
161.089000 36.000000
167.069700 93.000000
169.086400 23.000000
172.071100 70.000000
173.077600 25.000000
174.089000 3284.000000
174.126200 124.000000
174.153300 55.000000
174.209700 38.000000
174.361600 21.000000
174.413700 28.000000
174.541800 26.000000
174.606800 22.000000
174.799800 22.000000
175.076700 37.000000
176.111000 45.000000
178.084200 139.000000
179.063600 37.000000
185.079300 28.000000
186.085800 46.000000
188.105100 187.000000
189.078800 39.000000
189.096800 20.000000
190.088200 37.000000
192.102400 444.000000
192.147900 22.000000
195.063900 3826.000000
195.110100 68.000000
195.160400 21.000000
195.194500 44.000000
195.236000 31.000000
195.314100 31.000000
195.368400 46.000000
195.455200 23.000000
195.474800 21.000000
195.511200 23.000000
195.542600 36.000000
195.592900 30.000000
195.616600 20.000000
196.073300 48.000000
198.082900 39.000000
199.098700 44.000000
200.103900 172.000000
200.118000 23.000000
204.082700 20.000000
204.104200 93.000000
210.087400 58.000000
212.112100 72.000000
214.105500 27.000000
214.120100 37.000000
215.116600 89.000000
216.118000 37.000000
216.931900 22.000000
222.115900 33.000000
223.096700 22.000000
224.118000 63.000000
224.127000 176.000000
226.127100 47.000000
227.114000 40.000000
229.136800 54.000000
235.094900 20.000000
236.128600 312.000000
236.173400 28.000000
237.114600 62.000000
238.117700 25.000000
247.098900 42.000000
250.126600 21.000000
251.125100 79.000000
255.117600 29.000000
263.103100 21.000000
264.120200 66.000000
274.127200 50.000000
276.141900 60.000000
276.483800 23.000000
278.116800 22.000000
281.151200 27.000000
288.143000 91.000000
289.138600 33.000000
290.110500 52.000000
291.151700 24.000000
293.154800 31.000000
302.106100 28.000000
304.142100 29.000000
305.167200 75.000000
309.129800 31.000000
322.142100 48.000000
333.160800 47.000000
336.157600 156.000000
337.188800 31.000000
347.173900 30.000000
348.159600 45.000000
351.163400 22.000000
352.180900 25.000000
365.181300 373.000000
366.127200 37.000000
366.161000 37.000000
366.208000 24.000000
368.153300 69.000000
368.190300 75.000000
369.179300 48.000000
381.182800 41.000000
382.179600 45.000000
382.201300 38.000000
395.176000 34.000000
397.212300 559.000000
402.150200 25.000000
403.642100 23.000000
413.214500 33.000000
434.176000 70.000000
436.188900 26.000000
436.211500 33.000000
448.201700 366.000000
516.178800 22.000000
577.251400 90.000000
609.279700 118.000000

