>compound BML1594744
>parentmass 227.1027
>ionization [M+H]+
>formula C10H14N2O4
>rt 157.680000
>profile qtof
#smiles_iso CC1=CN(C(=O)NC1=O)C2CCC(O2)CO
#smiles_can CC1=CN(C(=O)NC1=O)C2CCC(O2)CO
#inchikey XKKCQTLDIPIRQD-UHFFFAOYSA-N
#pubchem_id 5280
#mb_accession BML01377,BML01386

>ms2peaks
110.022700 27.000000
127.049500 588.000000
127.086200 21.000000

>ms2peaks
110.024000 33.000000
127.049600 334.000000

