>compound BML1350813
>parentmass 142.0975
>ionization [M+H]+
>formula C6H11N3O
>rt 17.880000
>profile qtof
#smiles_iso C1=C(NC=N1)CC(CO)N
#smiles_can C1=C(NC=N1)CC(CO)N
#inchikey ZQISRDCJNBUVMM-UHFFFAOYSA-N
#pubchem_id 776
#mb_accession BML01532,BML01544

>ms2
107.059900 331.000000
124.086400 5407.000000
124.116900 92.000000
124.123600 31.000000
124.138700 94.000000
124.162300 42.000000
124.189400 70.000000
124.220000 20.000000
125.070900 926.000000
125.104600 31.000000
142.096900 1551.000000

>ms2
107.060700 196.000000
124.086900 429.000000
125.072000 195.000000

