>compound BML1506645
>parentmass 308.0642
>ionization [M+H]+
>formula C9H14N3O7P
>rt 24.000000
>profile qtof
#smiles_iso C1C(C(OC1N2C=CC(=NC2=O)N)COP(=O)(O)O)O
#smiles_can C1C(C(OC1N2C=CC(=NC2=O)N)COP(=O)(O)O)O
#inchikey NCMVOABPESMRCP-UHFFFAOYSA-N
#pubchem_id 624
#mb_accession BML01184,BML01190,BML01196

>ms2peaks
112.050300 1362.000000
112.083800 52.000000
170.913700 30.000000
229.924800 41.000000

>ms2peaks
112.050900 1524.000000
112.083800 36.000000
168.922200 21.000000
170.916200 87.000000

>ms2peaks
112.050400 697.000000
112.079800 26.000000
170.917300 22.000000

