>compound BML1089756
>parentmass 391.2479
>ionization [M+H]+
>formula C23H34O5
>rt 375.060000
>profile qtof
#smiles_iso C[C@]12CC[C@@H](C[C@H]1CC[C@@H]3[C@@H]2C[C@H]([C@]4([C@@]3(CC[C@@H]4C5=CC(=O)OC5)O)C)O)O
#smiles_can CC12CCC(CC1CCC3C2CC(C4(C3(CCC4C5=CC(=O)OC5)O)C)O)O
#inchikey SHIBSTMRCDJXLN-KCZCNTNESA-N
#pubchem_id 15478
#mb_accession BML00524

>ms2peaks
147.118000 26.000000
153.056100 55.000000
155.070500 51.000000
161.133200 46.000000
189.165700 23.000000
201.163900 48.000000
209.121900 28.000000
291.212400 25.000000
309.205500 32.000000
309.219400 29.000000
319.208400 21.000000
337.213800 268.000000
355.222900 498.000000
355.283100 41.000000
373.232900 184.000000

