>compound BML1910145
>parentmass 148.0605
>ionization [M+H]+
>formula C5H9NO4
>rt 22.320000
>profile qtof
#smiles_iso C(CC(=O)O)C(C(=O)O)N
#smiles_can C(CC(=O)O)C(C(=O)O)N
#inchikey WHUUTDBJXJRKMK-UHFFFAOYSA-N
#pubchem_id 611
#mb_accession BML01280,BML01286

>ms2
102.055100 2848.000000
102.083700 90.000000
102.149200 26.000000
102.266400 22.000000
102.623700 20.000000
103.038400 36.000000
130.049600 2174.000000
130.086200 72.000000
130.103300 24.000000
130.155000 25.000000
130.522000 21.000000
148.059700 446.000000

>ms2
102.056600 147.000000
130.049500 41.000000

