>compound BML1533616
>parentmass 258.1125
>ionization [M+H]+
>formula C15H15NO3
>rt 510.780000
>profile qtof
#smiles_iso CC1(C=CC2=C(O1)C3=C(C=CC(=C3)OC)NC2=O)C
#smiles_can CC1(C=CC2=C(O1)C3=C(C=CC(=C3)OC)NC2=O)C
#inchikey IXRKDGGGFFCRIR-UHFFFAOYSA-N
#pubchem_id 648601
#mb_accession BML00009,BML00022,BML00035

>ms2
179.964100 66.000000
204.060700 106.000000
216.065100 282.000000
240.101500 180.000000
258.111800 6205.000000
258.156700 217.000000
258.259300 98.000000

>ms2
101.947000 64.000000
109.064500 65.000000
122.059900 67.000000
123.067100 28.000000
135.043100 41.000000
150.056000 41.000000
160.073500 75.000000
160.085400 35.000000
162.056600 37.000000
173.045400 39.000000
174.062300 29.000000
174.087600 39.000000
176.032000 42.000000
176.071800 54.000000
178.050300 39.000000
180.073800 21.000000
186.055100 26.000000
186.089800 22.000000
188.070100 231.000000
188.102200 26.000000
192.065200 75.000000
197.081500 100.000000
198.056500 105.000000
198.091100 61.000000
200.069400 40.000000
201.035700 24.000000
201.046500 23.000000
202.083800 33.000000
202.122000 33.000000
204.065500 476.000000
212.098800 61.000000
212.113300 35.000000
214.048600 23.000000
215.092600 43.000000
216.064900 670.000000
216.071100 25.000000
216.098100 263.000000
222.091600 78.000000
225.077400 71.000000
228.067200 76.000000
229.072000 41.000000
230.074800 23.000000
230.083400 33.000000
230.119700 155.000000
240.102900 377.000000
240.137400 23.000000
242.084400 20.000000
243.090900 223.000000
258.112100 1917.000000
258.146500 23.000000
258.162400 70.000000
258.193900 29.000000

>ms2
101.945100 54.000000
104.043000 27.000000
105.058700 29.000000
107.047000 20.000000
117.057000 161.000000
120.045900 103.000000
122.059100 420.000000
127.046400 58.000000
130.063300 35.000000
132.043100 45.000000
133.050500 58.000000
141.055600 28.000000
144.076300 24.000000
145.057000 62.000000
152.064700 21.000000
153.055700 44.000000
154.066400 135.000000
155.028700 44.000000
155.071000 22.000000
157.051700 41.000000
158.057600 99.000000
160.036600 33.000000
160.075300 84.000000
161.045700 84.000000
168.080300 60.000000
169.047300 21.000000
169.087800 75.000000
170.059500 172.000000
171.068700 22.000000
172.033200 30.000000
172.080800 24.000000
173.041900 66.000000
173.049800 132.000000
173.085100 32.000000
179.073900 40.000000
180.056500 22.000000
182.057500 79.000000
185.046200 101.000000
186.052500 125.000000
187.063100 41.000000
188.069600 25.000000
196.071700 53.000000
197.082900 228.000000
198.055100 110.000000
199.059500 57.000000
200.067600 187.000000
200.101300 22.000000
201.040900 102.000000
204.065100 58.000000
207.059600 23.000000
213.045600 27.000000
214.051300 28.000000
214.078100 21.000000
215.091300 41.000000
216.064400 21.000000
224.064400 21.000000
227.062200 37.000000
228.065600 182.000000
242.078500 137.000000
243.081000 31.000000

