>compound BML1849186
>parentmass 233.1285
>ionization [M+H]+
>formula C13H16N2O2
>rt 196.380000
>profile qtof
#smiles_iso CC(=O)N1CC2CC(C1)C3=CC=CC(=O)N3C2
#smiles_can CC(=O)N1CC2CC(C1)C3=CC=CC(=O)N3C2
#inchikey WCRIKJOQMRFVPX-UHFFFAOYSA-N
#pubchem_id 3716901
#mb_accession BML00780,BML00791,BML00802

>ms2
148.073800 108.000000
160.072600 129.000000
191.116600 334.000000
233.126600 4567.000000

>ms2
117.055600 35.000000
142.059200 22.000000
148.074400 1176.000000
148.110700 32.000000
148.117900 25.000000
148.186600 25.000000
160.075600 304.000000
162.089000 82.000000
191.116200 1047.000000
191.152500 66.000000
191.167500 29.000000
233.126500 1367.000000

>ms2
103.054400 169.000000
104.050300 48.000000
105.072800 86.000000
106.071000 28.000000
115.054100 254.000000
116.055300 45.000000
117.058000 232.000000
117.089100 24.000000
120.078600 220.000000
120.099800 21.000000
122.062100 75.000000
122.086800 38.000000
130.067200 76.000000
130.096600 21.000000
131.049700 44.000000
131.063400 102.000000
132.041500 48.000000
132.079600 264.000000
133.054300 77.000000
133.450200 22.000000
134.054800 29.000000
134.095800 34.000000
134.109700 22.000000
140.043300 50.000000
142.064000 165.000000
142.077900 24.000000
143.072000 41.000000
145.044100 47.000000
145.057800 45.000000
146.059400 222.000000
146.106600 47.000000
147.056900 28.000000
148.072800 1276.000000
148.108400 62.000000
148.128100 40.000000
148.186800 20.000000
149.088900 28.000000
160.076800 156.000000
160.097800 22.000000
162.090400 218.000000
231.678100 20.000000

