>compound BML1383432
>parentmass 235.2169
>ionization [M+H]+
>formula C15H26N2
>rt 173.640000
>profile qtof
#smiles_iso C1CCN2CC3CC(C2C1)CN4C3CCCC4
#smiles_can C1CCN2CC3CC(C2C1)CN4C3CCCC4
#inchikey SLRCCWJSBJZJBV-UHFFFAOYSA-N
#pubchem_id 3966
#mb_accession BML00099,BML00111,BML00123

>ms2peaks
235.216700 1484.000000

>ms2peaks
233.208800 70.000000
235.216800 1249.000000

>ms2peaks
110.095100 38.000000
134.091000 29.000000
136.111400 27.000000
152.136100 31.000000
152.147100 20.000000
162.124300 29.000000
233.199300 87.000000
235.213700 289.000000

