>compound BML1453674
>parentmass 220.11929999999998
>ionization [M+H]+
>formula C10H13N5O
>rt 195.480000
>profile qtof
#smiles_iso C/C(=C\CNC1=NC=NC2=C1NC=N2)/CO
#smiles_can CC(=CCNC1=NC=NC2=C1NC=N2)CO
#inchikey UZKQTCBAMSWPJD-FARCUNLSSA-N
#pubchem_id 449093
#mb_accession BML00864,BML00873,BML00882

>ms2peaks
119.040500 30.000000
136.061100 2590.000000
136.095900 91.000000
136.119800 35.000000
136.169300 43.000000
148.059600 405.000000
159.063700 25.000000
175.095200 24.000000
185.080300 186.000000
202.106600 681.000000
202.122100 20.000000
202.142500 39.000000
220.117600 1492.000000

>ms2peaks
109.052600 28.000000
119.035000 225.000000
136.061200 2853.000000
136.094200 86.000000
136.116600 52.000000
136.143000 25.000000
136.168300 47.000000
148.061100 225.000000
159.066800 50.000000
175.095800 27.000000
185.080700 87.000000
202.103100 67.000000
202.115400 38.000000
220.119000 32.000000

>ms2peaks
109.049100 43.000000
119.034200 655.000000
119.045000 21.000000
119.069300 21.000000
121.050400 34.000000
136.060100 227.000000

