>compound BML2936227
>parentmass 351.2067
>ionization [M+H]+
>formula C22H26N2O2
>rt 393.420000
>profile qtof
#smiles_iso CCC12CCCN3C1C4=C(CC3)C5=CC=CC=C5N4C(=C2)C(=O)OCC
#smiles_can CCC12CCCN3C1C4=C(CC3)C5=CC=CC=C5N4C(=C2)C(=O)OCC
#inchikey DDNCQMVWWZOMLN-UHFFFAOYSA-N
#pubchem_id 5673
#mb_accession BML00911,BML00922

>ms2peaks
186.995400 45.000000
351.203300 314.000000

>ms2peaks
104.992700 34.000000
266.115400 40.000000
294.141200 34.000000
308.163900 29.000000
351.202600 207.000000

