>compound BML2498965
>parentmass 308.222
>ionization [M+H]+
>formula C18H29NO3
>rt 562.740000
>profile qtof
#smiles_iso CC(C)CCCCCCC(=O)NCC1=CC(=C(C=C1)O)OC
#smiles_can CC(C)CCCCCCC(=O)NCC1=CC(=C(C=C1)O)OC
#inchikey XJQPQKLURWNAAH-UHFFFAOYSA-N
#pubchem_id 107982
#mb_accession BML00748,BML00755,BML00762

>ms2peaks
122.033200 24.000000
137.059100 2344.000000
137.091500 104.000000
137.119600 39.000000
137.127500 23.000000
137.138800 24.000000
137.168000 28.000000
155.142700 27.000000
172.169300 36.000000
184.167400 174.000000

>ms2peaks
122.034900 119.000000
137.059000 3269.000000
137.083100 21.000000
137.095500 115.000000
137.115400 34.000000
137.135300 38.000000
137.166100 39.000000
172.164300 39.000000
184.164000 24.000000

>ms2peaks
107.051100 24.000000
122.035200 967.000000
122.065500 25.000000
122.086400 30.000000
137.058800 1683.000000
137.093200 45.000000
137.168000 22.000000

