>compound BML2130588
>parentmass 484.1231
>ionization [M+H]+
>formula C24H26BrN3O3
>rt 432.840000
>profile qtof
#smiles_iso CN1CC(CC2(C1CC3=CN(C4=CC=CC2=C34)C)OC)COC(=O)C5=CC(=CN=C5)Br
#smiles_can CN1CC(CC2(C1CC3=CN(C4=CC=CC2=C34)C)OC)COC(=O)C5=CC(=CN=C5)Br
#inchikey YSEXMKHXIOCEJA-UHFFFAOYSA-N
#pubchem_id 4475
#mb_accession BML00283,BML00292,BML00301

>ms2peaks
208.112800 24.000000
220.114700 27.000000
221.116700 20.000000
249.139900 23.000000
251.152100 99.000000
267.144800 28.000000
437.074800 36.000000
452.096100 3732.000000
452.162000 191.000000
452.218200 50.000000
452.243500 20.000000
452.289600 48.000000
452.379900 36.000000
452.471500 34.000000
452.566200 29.000000
452.730100 39.000000
452.788900 26.000000
452.866000 41.000000
452.938900 41.000000
453.010100 22.000000
453.107800 22.000000
453.225700 21.000000
484.116100 65.000000

>ms2peaks
167.069300 33.000000
182.095900 103.000000
208.106800 54.000000
210.118800 29.000000
211.124100 119.000000
220.112700 41.000000
221.106700 84.000000
222.112100 39.000000
222.127200 22.000000
223.125800 22.000000
234.122600 55.000000
235.119700 54.000000
236.126300 126.000000
249.138700 113.000000
251.153400 410.000000
267.145200 34.000000
268.162300 29.000000
421.061700 21.000000
437.072800 147.000000
452.094300 3659.000000
452.163300 126.000000
452.203600 54.000000
452.235200 50.000000
452.279100 53.000000
452.354600 25.000000
452.397300 36.000000
452.526600 47.000000
452.570400 32.000000
452.693000 45.000000
452.768200 22.000000
452.814700 23.000000
452.856400 44.000000
452.893100 32.000000
452.973800 33.000000
453.104700 27.000000
453.253400 24.000000
453.451700 24.000000
453.608500 20.000000
484.121300 57.000000

>ms2peaks
144.077500 40.000000
152.063000 25.000000
153.067400 34.000000
168.082200 55.000000
170.094700 90.000000
171.974400 21.000000
181.091800 27.000000
182.095000 196.000000
183.937800 22.000000
193.087100 29.000000
194.094100 73.000000
195.083400 33.000000
195.100400 29.000000
196.095400 107.000000
201.949400 27.000000
205.089800 74.000000
206.090400 61.000000
207.096800 162.000000
208.109900 165.000000
209.111900 44.000000
209.579600 23.000000
210.105500 22.000000
210.122600 75.000000
211.121800 297.000000
219.089600 25.000000
219.101900 42.000000
220.108300 263.000000
221.105800 285.000000
221.139700 25.000000
222.115000 137.000000
223.123400 118.000000
234.108800 60.000000
235.120200 372.000000
236.130500 250.000000
236.170400 21.000000
249.136600 109.000000
249.148800 40.000000
250.144500 39.000000
251.153800 377.000000
253.133900 42.000000
267.146000 76.000000
268.157100 131.000000
436.037900 32.000000
436.064700 32.000000
437.076700 109.000000
452.098400 241.000000

