>compound BML2389852
>parentmass 585.2906
>ionization [M+H]+
>formula C29H44O12
>rt 271.920000
>profile qtof
#smiles_iso C[C@H]1[C@@H]([C@H]([C@H]([C@@H](O1)O[C@H]2C[C@H]([C@@]3([C@@H]4[C@@H](CC[C@@]3(C2)O)[C@]5(CC[C@@H]([C@]5(C[C@H]4O)C)C6=CC(=O)OC6)O)CO)O)O)O)O
#smiles_can CC1C(C(C(C(O1)OC2CC(C3(C4C(CCC3(C2)O)C5(CCC(C5(CC4O)C)C6=CC(=O)OC6)O)CO)O)O)O)O
#inchikey LPMXVESGRSUGHW-HBYQJFLCSA-N
#pubchem_id 439501
#mb_accession BML01804,BML01814

>ms2peaks
129.054000 35.000000
319.167500 46.000000
337.180500 132.000000
349.176400 36.000000
355.192700 82.000000
367.186800 109.000000
373.194400 92.000000
373.204500 35.000000
385.198900 204.000000
403.211700 198.000000
421.219400 69.000000
439.227600 152.000000
531.257000 22.000000
585.293300 67.000000

>ms2peaks
129.053700 39.000000
157.099300 66.000000
157.105800 25.000000
319.169300 105.000000
321.184800 33.000000
331.166300 36.000000
337.175900 119.000000
339.195300 49.000000
349.175600 74.000000
351.193000 22.000000
355.190800 147.000000
367.186000 166.000000
373.198900 88.000000
385.198100 143.000000
403.205000 117.000000
421.219000 22.000000

