>compound BML2100433
>parentmass 255.0652
>ionization [M+H]+
>formula C15H10O4
>rt 517.380000
>profile qtof
#smiles_iso C1=CC=C(C=C1)C2=CC(=O)C3=C(C=C(C=C3O2)O)O
#smiles_can C1=CC=C(C=C1)C2=CC(=O)C3=C(C=C(C=C3O2)O)O
#inchikey RTIXKCRFFJGDFG-UHFFFAOYSA-N
#pubchem_id 5281607
#mb_accession BML01054,BML01057,BML01060

>ms2
153.014900 21.000000
176.987700 579.000000
177.022400 22.000000
255.063600 1985.000000

>ms2
103.052900 39.000000
105.030200 25.000000
129.032300 29.000000
147.042400 32.000000
153.018600 119.000000
176.987800 70.000000
255.062800 1692.000000

>ms2
103.053800 176.000000
105.032500 77.000000
125.021800 41.000000
129.031400 64.000000
139.052700 28.000000
152.059600 105.000000
153.018100 217.000000
153.067100 29.000000
181.062700 25.000000
255.065900 66.000000

