>compound BML2374934
>parentmass 743.1818
>ionization [M+H]+
>formula C35H34O18
>rt 573.480000
>profile qtof
#smiles_iso CC(=O)OCC1C(C(C(C(O1)OC2=CC3=C(C(=C2)OC(=O)C)C(=O)C(=CO3)C4=CC(=C(C=C4)OC(=O)C)OC(=O)C)OC(=O)C)OC(=O)C)OC(=O)C
#smiles_can CC(=O)OCC1C(C(C(C(O1)OC2=CC3=C(C(=C2)OC(=O)C)C(=O)C(=CO3)C4=CC(=C(C=C4)OC(=O)C)OC(=O)C)OC(=O)C)OC(=O)C)OC(=O)C
#inchikey WSMQBJMPWPNLTJ-UHFFFAOYSA-N
#pubchem_id 3349822
#mb_accession BML01596,BML01605,BML01614

>ms2peaks
109.027200 283.000000
139.038000 25.000000
169.048500 509.000000
211.062600 92.000000
271.083200 134.000000
329.067600 244.000000
331.101200 230.000000
371.074900 475.000000
371.134800 30.000000
413.080400 128.000000
413.092900 25.000000
701.172100 794.000000
743.177800 59.000000

>ms2peaks
109.027400 628.000000
127.036200 44.000000
139.041500 44.000000
169.048300 466.000000
211.061900 47.000000
329.065500 882.000000
329.120800 35.000000
331.099100 59.000000
371.077000 382.000000
371.112000 36.000000
371.152000 26.000000
701.182800 28.000000

>ms2peaks
109.028600 503.000000
127.036400 184.000000
139.038000 39.000000
169.049400 83.000000
287.053900 240.000000
329.063600 1282.000000
329.118900 34.000000
329.148100 21.000000

