>compound BML2382285
>parentmass 155.1179
>ionization [M+H]+
>formula C8H14N2O
>rt 21.660000
>profile qtof
#smiles_iso CN[C@H]1[C@H]2CN3[C@@H]1C(O2)CC3
#smiles_can CNC1C2CN3C1C(O2)CC3
#inchikey OPMNROCQHKJDAQ-KTUCCBJNSA-N
#pubchem_id 107913
#mb_accession BML00097,BML00109,BML00121

>ms2peaks
108.080800 53.000000
110.093600 42.000000
112.075300 1713.000000
112.103500 65.000000
124.075700 746.000000
126.090500 200.000000
155.117500 7584.000000

>ms2peaks
106.064100 70.000000
108.082100 142.000000
109.086800 27.000000
110.094500 70.000000
111.091500 109.000000
112.075200 2545.000000
112.093900 30.000000
112.101400 44.000000
112.125100 41.000000
112.146800 24.000000
112.172500 44.000000
124.074300 699.000000
126.089500 235.000000
138.092900 42.000000
155.117500 1635.000000

>ms2peaks
106.066200 49.000000
112.075200 156.000000
124.069800 41.000000

