>compound BML2301539
>parentmass 411.1439
>ionization [M+H]+
>formula C23H22O7
>rt 480.900000
>profile qtof
#smiles_iso COC1=C(C=C2C(=C1)[C@H]3[C@@H](CO2)OC4=C(C3=O)C=CC5=C4C[C@@H](O5)C(=C)CO)OC
#smiles_can COC1=C(C=C2C(=C1)C3C(CO2)OC4=C(C3=O)C=CC5=C4CC(O5)C(=C)CO)OC
#inchikey ZJMLELXRQUXRIU-HBGVWJBISA-N
#pubchem_id 92207
#mb_accession BML00164,BML00178,BML00192

>ms2peaks
165.095700 21.000000
179.073100 94.000000
187.068200 38.000000
187.080200 28.000000
191.066500 25.000000
192.078400 124.000000
201.082600 23.000000
205.082300 41.000000
219.065000 31.000000
229.082800 96.000000
257.080000 70.000000
313.111200 32.000000
383.134500 27.000000
411.142800 1046.000000

>ms2peaks
124.054600 48.000000
135.042200 65.000000
151.082500 22.000000
152.042000 34.000000
159.028800 20.000000
159.074600 42.000000
161.056700 26.000000
167.068300 76.000000
179.069600 192.000000
187.071700 174.000000
187.094100 51.000000
191.070100 67.000000
192.076800 232.000000
193.082200 72.000000
201.054000 138.000000
201.083800 86.000000
205.083000 55.000000
211.079700 46.000000
213.081400 24.000000
215.069200 29.000000
219.065000 126.000000
219.088400 20.000000
229.090100 132.000000
257.068400 38.000000
257.089100 22.000000
313.087000 23.000000
365.118700 20.000000
375.153900 24.000000
411.136600 156.000000

>ms2peaks
107.049500 62.000000
108.051300 27.000000
108.059100 21.000000
117.064800 48.000000
121.071800 21.000000
124.049300 64.000000
127.057300 28.000000
131.081500 23.000000
133.063200 78.000000
135.042500 41.000000
136.058600 26.000000
137.057100 27.000000
139.071200 49.000000
141.067400 30.000000
144.059100 24.000000
145.065300 45.000000
147.040100 45.000000
148.053700 37.000000
149.022900 40.000000
151.079400 50.000000
153.069300 32.000000
155.080700 30.000000
159.042500 91.000000
159.075400 21.000000
165.092700 32.000000
167.072400 33.000000
168.055200 44.000000
169.063400 25.000000
170.071900 26.000000
171.044300 21.000000
173.093300 21.000000
177.052800 101.000000
179.060700 21.000000
179.074400 22.000000
183.073200 32.000000
191.071200 260.000000
192.078200 111.000000
193.089100 23.000000
198.069100 34.000000
211.075700 104.000000
229.086000 75.000000

