>compound BML2173597
>parentmass 239.0703
>ionization [M+H]+
>formula C15H10O3
>rt 555.000000
>profile qtof
#smiles_iso C1=CC=C(C=C1)C2=CC(=O)C3=C(C=CC=C3O2)O
#smiles_can C1=CC=C(C=C1)C2=CC(=O)C3=C(C=CC=C3O2)O
#inchikey IYBLVRRCNVHZQJ-UHFFFAOYSA-N
#pubchem_id 68112
#mb_accession BML01014,BML01022,BML01030

>ms2peaks
137.024200 61.000000
161.008700 61.000000
239.069500 2635.000000

>ms2peaks
103.053100 62.000000
137.023700 156.000000
239.068700 1770.000000

>ms2peaks
103.054700 131.000000
115.060600 32.000000
129.026500 23.000000
129.033300 59.000000
137.020600 92.000000
139.052500 105.000000
164.056800 45.000000
165.069100 95.000000
239.071600 36.000000

