>compound BML2944956
>parentmass 358.2013
>ionization [M+H]+
>formula C21H27NO4
>rt 274.020000
>profile qtof
#smiles_iso CN1CCC2=CC(=C(C=C2C1CC3=CC(=C(C=C3)OC)OC)OC)OC
#smiles_can CN1CCC2=CC(=C(C=C2C1CC3=CC(=C(C=C3)OC)OC)OC)OC
#inchikey KGPAYJZAMGEDIQ-UHFFFAOYSA-N
#pubchem_id 15548
#mb_accession BML00100,BML00112,BML00124

>ms2peaks
151.072600 135.000000
158.073300 29.000000
162.089500 25.000000
165.088200 99.000000
174.068600 42.000000
189.090700 173.000000
206.117100 3160.000000
206.153400 119.000000
206.168400 49.000000
206.188800 39.000000
206.223300 36.000000
206.248600 60.000000
206.609900 23.000000
296.135400 36.000000
315.154500 32.000000
327.157200 325.000000
327.200400 36.000000
358.144700 23.000000
358.200200 3076.000000

>ms2peaks
121.060900 36.000000
136.052100 30.000000
150.065100 32.000000
151.074700 445.000000
158.072600 87.000000
159.080500 59.000000
165.088400 177.000000
174.068400 92.000000
177.090200 38.000000
189.091300 684.000000
189.131400 21.000000
190.086300 27.000000
191.092300 32.000000
206.117400 2433.000000
206.153200 70.000000
206.172500 40.000000
206.191600 37.000000
206.248900 43.000000
264.117500 23.000000
280.107100 21.000000
284.143800 41.000000
295.136100 37.000000
296.138500 92.000000
312.147100 44.000000
327.158700 231.000000
358.201000 184.000000

>ms2peaks
105.070900 42.000000
107.046800 98.000000
107.055700 23.000000
108.058000 38.000000
115.054600 28.000000
121.064600 56.000000
124.047600 22.000000
127.051500 28.000000
129.067600 29.000000
131.053500 54.000000
133.066200 41.000000
135.044500 57.000000
136.047700 27.000000
143.050100 46.000000
144.056900 48.000000
145.059400 29.000000
145.086000 92.000000
145.096700 48.000000
146.074700 46.000000
150.070700 100.000000
151.074400 587.000000
151.094000 23.000000
151.109200 31.000000
158.072100 291.000000
159.043400 79.000000
159.079500 53.000000
162.091100 96.000000
163.080700 23.000000
165.090300 59.000000
173.086000 38.000000
174.066100 174.000000
174.092800 46.000000
188.093900 20.000000
189.086900 86.000000
190.084600 306.000000
190.094900 23.000000
191.091900 171.000000
192.093100 23.000000
206.116000 465.000000
206.122400 55.000000
206.155400 21.000000
226.092500 24.000000
238.092300 34.000000
251.102300 26.000000
266.094500 22.000000
269.107500 23.000000
281.113800 50.000000
284.133700 34.000000
296.140900 29.000000

