>compound BML2589938
>parentmass 324.1667
>ionization [M+H]+
>formula C14H21N5O4
>rt 312.480000
>profile qtof
#smiles_iso CCN(CC)C1=NC=NC2=C1N=CN2C3C(C(C(O3)CO)O)O
#smiles_can CCN(CC)C1=NC=NC2=C1N=CN2C3C(C(C(O3)CO)O)O
#inchikey AVNJCDRLZOVEDM-UHFFFAOYSA-N
#pubchem_id 3300105
#mb_accession BML01427,BML01434,BML01441

>ms2
136.062100 65.000000
164.092700 71.000000
164.101800 29.000000
192.123900 6581.000000
192.161000 204.000000
192.183900 79.000000
192.207400 58.000000
192.252400 62.000000
192.518200 26.000000
192.573600 22.000000
192.620500 22.000000
192.759800 20.000000
207.054800 36.000000
208.059100 23.000000
314.234300 22.000000
323.103600 85.000000
324.100000 100.000000
324.165800 4070.000000

>ms2
136.060000 130.000000
164.093300 316.000000
192.123700 7578.000000
192.162100 109.000000
192.188600 54.000000
192.209400 59.000000
192.250700 72.000000
324.165700 207.000000

>ms2
109.050700 122.000000
119.035200 161.000000
120.044300 29.000000
120.053100 40.000000
120.059600 28.000000
121.051900 29.000000
122.072200 38.000000
135.053100 52.000000
136.061400 1398.000000
136.082700 21.000000
136.093900 26.000000
136.111200 21.000000
137.078600 22.000000
137.084400 24.000000
147.066300 29.000000
148.061100 67.000000
149.068600 34.000000
162.076200 86.000000
164.092700 2430.000000
164.128700 78.000000
164.209600 22.000000
176.097100 21.000000
177.098500 23.000000
190.106300 38.000000
192.123400 2478.000000
192.157600 31.000000
192.169900 71.000000
192.188000 22.000000
192.213100 26.000000
192.250800 26.000000

