>compound BML2823523
>parentmass 258.1085
>ionization [M+H]+
>formula C10H15N3O5
>rt 23.340000
>profile qtof
#smiles_iso COC1C(C(OC1N2C=CC(=NC2=O)N)CO)O
#smiles_can COC1C(C(OC1N2C=CC(=NC2=O)N)CO)O
#inchikey RFCQJGFZUQFYRF-UHFFFAOYSA-N
#pubchem_id 301382
#mb_accession BML01421,BML01428,BML01435

>ms2peaks
101.058300 172.000000
112.050700 17872.000000
112.082700 466.000000
112.099000 62.000000
112.116700 38.000000
112.127700 32.000000
112.148800 223.000000
112.154900 30.000000
112.187700 54.000000
112.225000 32.000000
112.243000 34.000000
112.259100 20.000000
112.272500 35.000000
112.315200 33.000000
112.342900 23.000000
112.350400 31.000000
112.405200 30.000000
112.494600 48.000000
112.543500 23.000000
112.621700 26.000000
112.712400 25.000000
112.726600 28.000000
112.877000 25.000000
112.916300 22.000000
112.962500 20.000000
115.037400 25.000000
129.052000 41.000000
147.066600 61.000000

>ms2peaks
101.060300 273.000000
111.045900 21.000000
112.050500 24410.000000
112.081400 644.000000
112.099000 255.000000
112.119600 22.000000
112.126600 42.000000
112.148300 366.000000
112.187800 74.000000
112.227200 31.000000
112.256800 26.000000
112.282600 21.000000
112.333900 28.000000
112.339100 28.000000
112.401100 57.000000
112.414400 23.000000
112.439100 22.000000
112.481700 22.000000
112.532200 35.000000
112.574000 28.000000
112.621800 24.000000
112.704700 23.000000
112.726700 22.000000
112.774700 30.000000
113.002700 22.000000
113.055900 40.000000
113.084000 23.000000
115.036200 39.000000
129.053700 21.000000

>ms2peaks
112.050500 6389.000000
112.079800 224.000000
112.096900 32.000000
112.127300 27.000000
112.147900 56.000000
112.212500 20.000000
112.460200 25.000000

