>compound BML2499046
>parentmass 223.0878
>ionization [M+H]+
>formula C11H11FN2O2
>rt 98.460000
>profile qtof
#smiles_iso C1=CC2=C(C=C1F)NC=C2CC(C(=O)O)N
#smiles_can C1=CC2=C(C=C1F)NC=C2CC(C(=O)O)N
#inchikey YMEXGEAJNZRQEH-UHFFFAOYSA-N
#pubchem_id 94937
#mb_accession BML01533,BML01545,BML01557

>ms2
109.045200 65.000000
133.049700 37.000000
135.048000 21.000000
136.055800 327.000000
145.006800 30.000000
148.053900 29.000000
150.069700 146.000000
160.054000 47.000000
162.070500 304.000000
164.050100 2380.000000
164.080800 42.000000
164.087900 29.000000
164.117100 32.000000
164.167300 29.000000
177.080900 303.000000
178.063700 33.000000
188.050800 108.000000
206.060400 2676.000000
206.101300 66.000000
206.122800 22.000000
206.193700 22.000000
207.062600 23.000000
223.014700 27.000000

>ms2
108.041600 31.000000
109.043000 189.000000
115.053200 165.000000
123.062800 20.000000
130.064400 24.000000
133.043600 162.000000
135.047200 46.000000
135.056400 58.000000
136.055000 2154.000000
136.090500 69.000000
142.066700 81.000000
145.005300 21.000000
148.054700 122.000000
150.070900 362.000000
160.055900 243.000000
161.062800 179.000000
162.037500 36.000000
162.070200 519.000000
164.050100 2800.000000
164.082200 115.000000
164.102000 54.000000
164.140000 24.000000
164.168500 27.000000
177.081500 205.000000
178.068700 32.000000
188.049300 202.000000
206.061300 119.000000

>ms2
101.038300 85.000000
103.053600 70.000000
107.030400 81.000000
108.037200 109.000000
109.044700 1590.000000
109.073600 50.000000
111.049600 22.000000
115.054300 272.000000
116.049800 112.000000
123.059700 24.000000
126.028900 28.000000
128.053200 23.000000
130.061700 60.000000
133.043900 678.000000
133.076600 31.000000
134.037600 62.000000
134.044400 75.000000
135.048300 597.000000
135.082300 31.000000
136.054900 644.000000
140.050200 70.000000
146.043100 34.000000
148.054800 129.000000
150.069800 74.000000
158.042500 41.000000
160.057500 181.000000
161.062600 209.000000

