>compound BML2615504
>parentmass 299.0914
>ionization [M+H]+
>formula C17H14O5
>rt 572.520000
>profile qtof
#smiles_iso COC1=CC2=C(C=C1)C(=O)C(=C(O2)C3=CC(=CC=C3)OC)O
#smiles_can COC1=CC2=C(C=C1)C(=O)C(=C(O2)C3=CC(=CC=C3)OC)O
#inchikey PFMGWOVPHHEHAL-UHFFFAOYSA-N
#pubchem_id 688836
#mb_accession BML01650,BML01661,BML01672

>ms2
228.076000 67.000000
284.069900 37.000000
299.090000 2434.000000

>ms2
118.045100 23.000000
135.044800 31.000000
137.062800 32.000000
151.036200 47.000000
213.057900 32.000000
228.074800 41.000000
256.070400 141.000000
267.063100 20.000000
284.065100 114.000000
284.084800 20.000000
299.089500 992.000000

>ms2
107.047900 44.000000
108.020300 86.000000
122.036200 21.000000
128.051800 22.000000
129.069400 56.000000
135.041600 96.000000
137.056800 35.000000
139.048900 21.000000
150.035300 27.000000
151.039000 242.000000
152.063200 25.000000
154.079600 21.000000
157.066800 39.000000
163.038600 21.000000
168.055400 34.000000
169.063600 49.000000
182.075200 25.000000
184.053300 26.000000
185.057500 53.000000
197.063100 31.000000
199.075800 67.000000
210.070400 49.000000
211.072600 41.000000
213.053800 203.000000
225.052500 29.000000
227.069200 205.000000
228.081700 114.000000
241.054200 31.000000
255.069700 53.000000
256.070500 200.000000
267.064200 48.000000
284.070800 21.000000
299.089900 32.000000

