>compound BML2334016
>parentmass 332.1857
>ionization [M+H]+
>formula C19H25NO4
>rt 497.400000
>profile qtof
#smiles_iso C/C(=C\COC1=CC(=O)NC2=CC=CC=C21)/CCC(C(C)(C)O)O
#smiles_can CC(=CCOC1=CC(=O)NC2=CC=CC=C21)CCC(C(C)(C)O)O
#inchikey PBWIOAMUZKICDN-JLHYYAGUSA-N
#pubchem_id 5338262
#mb_accession BML00008,BML00021,BML00034

>ms2peaks
144.038600 24.000000
153.126300 56.000000
162.052900 744.000000
162.088400 23.000000
192.958900 31.000000
332.139000 37.000000

>ms2peaks
109.099600 20.000000
135.114500 27.000000
153.123600 21.000000
162.055500 482.000000
162.091300 23.000000

>ms2peaks
116.047700 42.000000
120.047900 32.000000
144.044200 253.000000
162.055400 409.000000
213.315000 29.000000

