>compound BML2369523
>parentmass 743.1818
>ionization [M+H]+
>formula C35H34O18
>rt 588.600000
>profile qtof
#smiles_iso CC(=O)OCC1C(C(C(C(O1)OC2=CC3=C(C(=C2)OC(=O)C)C(=O)C=C(O3)C4=CC(=C(C=C4)OC(=O)C)OC(=O)C)OC(=O)C)OC(=O)C)OC(=O)C
#smiles_can CC(=O)OCC1C(C(C(C(O1)OC2=CC3=C(C(=C2)OC(=O)C)C(=O)C=C(O3)C4=CC(=C(C=C4)OC(=O)C)OC(=O)C)OC(=O)C)OC(=O)C)OC(=O)C
#inchikey JDAPIOVVXOAJOM-UHFFFAOYSA-N
#pubchem_id 3710744
#mb_accession BML00107,BML00119,BML00131

>ms2peaks
109.031400 54.000000
169.048800 101.000000
271.071800 22.000000
287.050000 21.000000
329.072700 24.000000
331.097900 24.000000
371.074600 209.000000
413.086300 330.000000
413.122000 28.000000
701.163100 289.000000
701.215600 82.000000
743.180700 149.000000

>ms2peaks
109.029400 124.000000
169.045500 66.000000
329.063900 71.000000
371.075000 655.000000
371.134500 41.000000
413.081300 73.000000
413.108400 26.000000
701.161500 25.000000

>ms2peaks
109.028500 173.000000
127.033700 48.000000
169.046400 45.000000
287.058400 79.000000
329.063700 628.000000
329.120300 45.000000
371.073200 468.000000

