>compound BML2536378
>parentmass 165.0659
>ionization [M+H]+
>formula C8H8N2O2
>rt 163.500000
>profile qtof
#smiles_iso CN1C=CC(=C(C1=O)C#N)OC
#smiles_can CN1C=CC(=C(C1=O)C#N)OC
#inchikey PETSAYFQSGAEQY-UHFFFAOYSA-N
#pubchem_id 10666
#mb_accession BML00155,BML00169

>ms2peaks
108.045500 41.000000
110.059600 52.000000
138.053900 230.000000
150.040600 32.000000
165.065200 1590.000000

>ms2peaks
108.041800 50.000000
110.062200 90.000000
122.049000 26.000000
138.054600 156.000000
150.040700 40.000000
165.065600 177.000000

