>compound BML2066916
>parentmass 359.14889999999997
>ionization [M+H]+
>formula C20H22O6
>rt 516.060000
>profile qtof
#smiles_iso COC1=C(C=C(C=C1)/C=C/C(=O)C2=C(C=C(C=C2OC)OC)OC)OC
#smiles_can COC1=C(C=C(C=C1)C=CC(=O)C2=C(C=C(C=C2OC)OC)OC)OC
#inchikey TVKGYMYAOVADOP-SOFGYWHQSA-N
#pubchem_id 5352007
#mb_accession BML01756,BML01767,BML01778

>ms2
152.042300 30.000000
180.041100 35.000000
191.069300 593.000000
191.104800 29.000000
195.064000 1449.000000
195.103200 59.000000
195.139200 25.000000
317.138200 37.000000
341.136900 98.000000
359.147800 2637.000000

>ms2
137.028400 22.000000
152.046500 35.000000
163.074600 55.000000
180.033900 36.000000
180.043200 25.000000
191.070000 553.000000
195.064100 2242.000000
195.104700 60.000000
195.191600 24.000000
341.139200 21.000000
359.151000 118.000000

>ms2
103.050400 30.000000
105.029400 35.000000
105.070800 38.000000
107.012000 24.000000
107.048000 128.000000
109.073600 20.000000
111.044700 20.000000
113.056200 28.000000
118.039500 24.000000
119.048400 72.000000
120.058600 35.000000
122.034400 48.000000
132.055300 74.000000
133.028700 42.000000
133.065300 30.000000
135.041900 68.000000
135.082400 23.000000
137.021700 384.000000
137.055900 84.000000
139.073000 21.000000
147.045700 40.000000
148.046500 32.000000
148.052000 59.000000
150.028600 38.000000
151.037300 116.000000
151.075000 45.000000
152.046500 591.000000
152.066900 27.000000
160.052100 71.000000
163.038200 23.000000
163.074900 232.000000
165.054000 64.000000
180.040800 696.000000
191.071600 157.000000
195.064100 1208.000000
195.093900 29.000000
195.126000 26.000000

