>compound BML2745933
>parentmass 290.1751
>ionization [M+H]+
>formula C17H23NO3
>rt 184.080000
>profile qtof
#smiles_iso CN1C2CCC1CC(C2)OC(=O)C(CO)C3=CC=CC=C3
#smiles_can CN1C2CCC1CC(C2)OC(=O)C(CO)C3=CC=CC=C3
#inchikey RKUNBYITZUJHSG-UHFFFAOYSA-N
#pubchem_id 3661
#mb_accession BML00603,BML00611,BML00619

>ms2peaks
124.111800 985.000000
290.173500 8600.000000

>ms2peaks
103.051700 47.000000
124.111400 3193.000000
124.145000 123.000000
124.164100 37.000000
124.185500 22.000000
124.215700 59.000000
125.116000 42.000000
142.120500 94.000000
214.155900 24.000000
260.163100 55.000000
290.172100 2304.000000

>ms2peaks
103.051600 292.000000
108.081000 21.000000
124.110800 951.000000
124.132100 23.000000
124.140700 23.000000
124.161400 24.000000
140.103900 30.000000
142.122200 165.000000
142.145700 22.000000

