>compound BML2659280
>parentmass 252.1091
>ionization [M+H]+
>formula C10H13N5O3
>rt 115.140000
>profile qtof
#smiles_iso C1C(C(OC1N2C=NC3=C(N=CN=C32)N)CO)O
#smiles_can C1C(C(OC1N2C=NC3=C(N=CN=C32)N)CO)O
#inchikey OLXZPDWKRNYJJZ-UHFFFAOYSA-N
#pubchem_id 636
#mb_accession BML01219,BML01225,BML01231

>ms2peaks
117.049500 42.000000
136.061000 1283.000000
136.094700 51.000000
173.963800 107.000000
192.960500 210.000000
251.975400 26.000000
252.105100 33.000000

>ms2peaks
114.945700 174.000000
117.053800 29.000000
119.036600 69.000000
136.061000 2608.000000
136.093800 63.000000
136.120500 33.000000
136.170000 33.000000
148.968900 149.000000
192.962800 49.000000

>ms2peaks
114.944600 71.000000
119.035500 392.000000
136.061800 796.000000

