>compound BML2883603
>parentmass 383.1867
>ionization [M+H]+
>formula C24H22N4O
>rt 402.660000
>profile qtof
#smiles_iso COC1=CC=CC=C1CC(CC2=NC3=CC=CC=C3N2)C4=NC5=CC=CC=C5N4
#smiles_can COC1=CC=CC=C1CC(CC2=NC3=CC=CC=C3N2)C4=NC5=CC=CC=C5N4
#inchikey FQFJIJMMCVBRBL-UHFFFAOYSA-N
#pubchem_id 2907920
#mb_accession BML00003,BML00016,BML00029

>ms2
261.113400 161.000000
262.117000 198.000000
265.133600 356.000000
383.186300 13459.000000
383.258400 154.000000
383.316200 164.000000
383.361400 220.000000

>ms2
119.059500 176.000000
121.062300 83.000000
132.067100 88.000000
157.077200 105.000000
219.089500 102.000000
233.105900 148.000000
251.121200 121.000000
261.112300 620.000000
262.121400 937.000000
265.132400 1567.000000
383.185800 7181.000000
383.271500 167.000000
383.320900 86.000000
383.365400 125.000000

>ms2
107.054900 28.000000
107.060700 23.000000
118.048300 33.000000
119.059100 445.000000
121.062800 241.000000
131.059900 160.000000
132.067300 818.000000
132.102500 45.000000
133.073600 114.000000
143.059600 104.000000
144.066800 381.000000
145.075800 235.000000
157.074900 366.000000
159.093700 21.000000
219.089800 273.000000
221.107000 280.000000
221.139500 31.000000
222.113900 22.000000
223.120200 65.000000
232.101000 26.000000
233.107100 625.000000
233.144100 34.000000
234.091100 30.000000
235.088700 171.000000
236.106200 35.000000
237.094000 75.000000
247.090200 34.000000
249.092300 42.000000
249.106000 57.000000
250.117000 24.000000
251.118600 104.000000
261.113000 2770.000000
261.155400 97.000000
261.180700 43.000000
261.197300 22.000000
261.260000 39.000000
261.483700 20.000000
262.120400 464.000000
262.133900 22.000000
262.161900 22.000000
265.132400 791.000000
265.176400 29.000000
265.190000 29.000000
383.195500 24.000000

