>compound BML2844308
>parentmass 305.1748
>ionization [M+H]+
>formula C18H24O4
>rt 617.100000
>profile qtof
#smiles_iso CC1(C2CCC1(C(C2)OC(=O)C3=CC(=C(C=C3)O)OC)C)C
#smiles_can CC1(C2CCC1(C(C2)OC(=O)C3=CC(=C(C=C3)O)OC)C)C
#inchikey KTOAGBIQQPGNIR-UHFFFAOYSA-N
#pubchem_id 2946267
#mb_accession BML01354

>ms2peaks
226.082400 48.000000
727.536200 32.000000
777.309000 24.000000

