>compound BML2424945
>parentmass 289.0859
>ionization [M+H]+
>formula C19H12O3
>rt 579.900000
>profile qtof
#smiles_iso C1=CC=C2C(=C1)C=CC3=C2OC(=CC3=O)C4=CC=CC=C4O
#smiles_can C1=CC=C2C(=C1)C=CC3=C2OC(=CC3=O)C4=CC=CC=C4O
#inchikey ZKMLQDNHMSFULN-UHFFFAOYSA-N
#pubchem_id 676302
#mb_accession BML00321,BML00326,BML00331

>ms2
115.057000 22.000000
171.042000 80.000000
289.083500 1603.000000

>ms2
115.057500 30.000000
119.046700 51.000000
143.050600 55.000000
171.040600 458.000000
289.085300 1311.000000

>ms2
101.032600 38.000000
101.040500 60.000000
115.053600 773.000000
115.078500 23.000000
119.049700 36.000000
127.054100 101.000000
143.046000 496.000000
145.023100 42.000000
171.042700 430.000000
171.077000 24.000000
190.071700 20.000000
214.077000 29.000000
215.082000 156.000000
232.089700 29.000000
261.095200 25.000000

