>compound BML2741662
>parentmass 349.1182999999999
>ionization [M+H]+
>formula C20H16N2O4
>rt 454.380000
>profile qtof
#smiles_iso CCC1(C2=C(COC1=O)C(=O)N3CC4=CC5=CC=CC=C5N=C4C3=C2)O
#smiles_can CCC1(C2=C(COC1=O)C(=O)N3CC4=CC5=CC=CC=C5N=C4C3=C2)O
#inchikey VSJKWCGYPAHWDS-UHFFFAOYSA-N
#pubchem_id 2538
#mb_accession BML00403,BML00417,BML00431

>ms2
249.097300 22.000000
305.127900 229.000000
320.075900 24.000000
321.123300 22.000000
349.117600 2253.000000

>ms2
195.087100 21.000000
205.070000 29.000000
219.093200 29.000000
220.100400 71.000000
221.105800 42.000000
247.083300 25.000000
248.094600 97.000000
249.099300 88.000000
276.095000 30.000000
277.128700 54.000000
303.110600 38.000000
305.126900 806.000000
305.191200 47.000000
320.082000 54.000000
349.115700 537.000000

>ms2
121.045500 62.000000
123.042000 21.000000
141.057400 34.000000
153.056800 33.000000
168.064800 202.000000
180.074800 29.000000
181.075600 88.000000
191.073000 47.000000
193.088100 73.000000
194.100400 30.000000
199.028100 37.000000
205.075000 123.000000
206.088800 149.000000
209.073200 21.000000
217.084900 46.000000
218.088200 69.000000
219.092400 400.000000
219.139200 24.000000
220.098600 266.000000
220.901800 22.000000
221.090100 29.000000
221.106800 77.000000
232.078000 42.000000
233.114100 26.000000
235.085000 23.000000
235.117200 24.000000
245.095400 45.000000
246.070600 66.000000
246.119000 32.000000
247.121200 52.000000
248.088600 83.000000
249.073700 29.000000
249.099800 139.000000
258.111500 28.000000
278.095200 34.000000
287.113100 30.000000
291.068700 26.000000
291.122400 29.000000
305.128000 89.000000
475.606800 21.000000

