>compound BML2525761
>parentmass 255.0652
>ionization [M+H]+
>formula C15H10O4
>rt 446.880000
>profile qtof
#smiles_iso C1=CC=C(C(=C1)C2=CC(=O)C3=C(O2)C=CC(=C3)O)O
#smiles_can C1=CC=C(C(=C1)C2=CC(=O)C3=C(O2)C=CC(=C3)O)O
#inchikey YCGXYGWBHFKQHY-UHFFFAOYSA-N
#pubchem_id 688661
#mb_accession BML01470,BML01485,BML01500

>ms2peaks
109.031900 23.000000
137.022800 159.000000
176.989300 472.000000
255.064200 5279.000000
255.105700 95.000000
255.119600 74.000000
255.140400 24.000000
255.168200 59.000000
255.212400 58.000000
255.446500 22.000000
255.650000 21.000000
255.753600 23.000000
256.074700 31.000000

>ms2peaks
101.040900 23.000000
109.027500 58.000000
115.054500 31.000000
119.047800 105.000000
121.028300 74.000000
128.066600 20.000000
129.066700 22.000000
137.022700 1401.000000
137.058300 60.000000
153.067700 102.000000
165.069500 75.000000
176.988300 105.000000
181.063100 96.000000
199.078600 25.000000
211.070800 23.000000
227.072200 55.000000
255.064600 3665.000000
255.109900 177.000000
255.144300 58.000000
255.211600 38.000000

>ms2peaks
101.037400 119.000000
109.028100 391.000000
115.054000 25.000000
121.025700 47.000000
127.051900 41.000000
128.058700 50.000000
128.065500 26.000000
137.022200 549.000000
145.029400 45.000000
152.061000 101.000000
153.071000 63.000000
164.060600 24.000000
165.070100 79.000000
181.063000 106.000000
227.070800 43.000000

