>compound BML2662847
>parentmass 370.1649
>ionization [M+H]+
>formula C21H23NO5
>rt 269.220000
>profile qtof
#smiles_iso CN1CCC2=CC(=C(C=C2C(=O)CC3=C(C1)C4=C(C=C3)OCO4)OC)OC
#smiles_can CN1CCC2=CC(=C(C=C2C(=O)CC3=C(C1)C4=C(C=C3)OCO4)OC)OC
#inchikey XPOJSWHIKCNLEQ-UHFFFAOYSA-N
#pubchem_id 72616
#mb_accession BML00782,BML00793,BML00804

>ms2peaks
165.087300 37.000000
194.115900 26.000000
204.100400 68.000000
205.110300 38.000000
370.161800 1171.000000

>ms2peaks
149.068000 23.000000
150.063100 24.000000
165.088600 98.000000
190.087100 39.000000
194.114600 38.000000
204.101100 216.000000
205.108700 166.000000
222.122000 22.000000
263.100100 45.000000
291.103100 24.000000
339.109300 24.000000
352.158000 24.000000
370.158600 299.000000

>ms2peaks
105.064400 23.000000
107.047900 23.000000
135.045100 32.000000
147.045600 23.000000
150.064100 23.000000
161.085600 21.000000
165.087900 26.000000
190.083000 140.000000
204.099300 206.000000
205.067200 27.000000
223.077500 21.000000
225.086400 26.000000
252.082300 21.000000
263.107500 24.000000
265.085500 45.000000
277.086400 20.000000
306.104100 28.000000

