>compound BML2176026
>parentmass 433.1129
>ionization [M+H]+
>formula C21H20O10
>rt 341.820000
>profile qtof
#smiles_iso C1=CC(=CC=C1C2=COC3=CC(=CC(=C3C2=O)O)O)OC4C(C(C(C(O4)CO)O)O)O
#smiles_can C1=CC(=CC=C1C2=COC3=CC(=CC(=C3C2=O)O)O)OC4C(C(C(C(O4)CO)O)O)O
#inchikey ISQRJFLLIDGZEP-UHFFFAOYSA-N
#pubchem_id 6078194
#mb_accession BML01283,BML01289,BML01295

>ms2peaks
115.040100 22.000000
127.037000 27.000000
271.058400 876.000000
271.097800 26.000000

>ms2peaks
109.030100 29.000000
127.036900 31.000000
271.059300 838.000000
271.096900 20.000000
271.112500 21.000000
295.062700 36.000000
313.064900 28.000000

>ms2peaks
153.016000 61.000000
215.072800 46.000000
243.066000 76.000000
253.051000 39.000000
271.058800 476.000000
271.102800 26.000000

