>compound BML2373270
>parentmass 255.1016
>ionization [M+H]+
>formula C16H14O3
>rt 471.000000
>profile qtof
#smiles_iso CC(C1=CC(=CC=C1)C(=O)C2=CC=CC=C2)C(=O)O
#smiles_can CC(C1=CC(=CC=C1)C(=O)C2=CC=CC=C2)C(=O)O
#inchikey DKYWVDODHFEZIM-UHFFFAOYSA-N
#pubchem_id 3825
#mb_accession BML00816,BML00826,BML00836

>ms2
105.033200 607.000000
176.987800 601.000000
177.021300 36.000000
177.052600 121.000000
194.071400 35.000000
209.094100 1595.000000
209.134300 74.000000
209.153300 30.000000
209.173900 27.000000
255.098600 289.000000

>ms2
103.053800 48.000000
105.033300 1765.000000
105.053700 41.000000
105.128400 27.000000
131.048600 113.000000
149.060900 25.000000
176.984400 76.000000
177.053600 220.000000
181.101200 20.000000
194.070500 169.000000
209.093800 487.000000
209.131900 21.000000

>ms2
103.054100 201.000000
105.034000 359.000000
105.067400 29.000000
165.069800 53.000000
194.067900 36.000000

