>compound BML2173629
>parentmass 236.1142
>ionization [M+H]+
>formula C10H13N5O2
>rt 166.980000
>profile qtof
#smiles_iso C1CC(OC1CO)N2C=NC3=C(N=CN=C32)N
#smiles_can C1CC(OC1CO)N2C=NC3=C(N=CN=C32)N
#inchikey WVXRAFOPTSTNLL-UHFFFAOYSA-N
#pubchem_id 263976
#mb_accession BML01465,BML01480,BML01495

>ms2peaks
101.056700 50.000000
119.044200 22.000000
136.061400 3579.000000
136.095000 90.000000
136.118900 32.000000
136.138500 25.000000
136.168400 44.000000

>ms2peaks
119.034400 112.000000
136.061300 3394.000000
136.097400 98.000000
136.117900 22.000000
136.128700 26.000000
136.169000 41.000000

>ms2peaks
109.050300 47.000000
119.034900 792.000000
119.062200 33.000000
136.062000 916.000000
136.097400 26.000000

