>compound BML2953368
>parentmass 237.091
>ionization [M+H]+
>formula C16H12O2
>rt 572.460000
>profile qtof
#smiles_iso CC1=CC2=C(C=C1)OC(=CC2=O)C3=CC=CC=C3
#smiles_can CC1=CC2=C(C=C1)OC(=CC2=O)C3=CC=CC=C3
#inchikey NOQJBXPAMJLUSS-UHFFFAOYSA-N
#pubchem_id 689013
#mb_accession BML01258,BML01264,BML01270

>ms2
107.047500 34.000000
129.026900 21.000000
135.043100 77.000000
166.080100 33.000000
176.988500 195.000000
178.074000 31.000000
209.090700 22.000000
237.089800 9403.000000

>ms2
102.044900 21.000000
103.053300 165.000000
105.032400 63.000000
107.046700 29.000000
129.034600 162.000000
135.044000 449.000000
165.072900 29.000000
166.073500 58.000000
178.074400 106.000000
181.100800 35.000000
191.084000 21.000000
194.073900 36.000000
237.090400 5327.000000

>ms2
101.043000 36.000000
103.054700 356.000000
105.032100 88.000000
107.048700 226.000000
129.033400 437.000000
135.042200 236.000000
165.066600 153.000000
166.078500 112.000000
178.080200 64.000000
189.066400 34.000000
194.074700 34.000000
237.089900 104.000000

