>compound BML2217592
>parentmass 589.1916
>ionization [M+H]+
>formula C29H32O13
>rt 428.100000
>profile qtof
#smiles_iso CC1OCC2C(O1)C(C(C(O2)OC3C4COC(=O)C4C(C5=CC6=C(C=C35)OCO6)C7=CC(=C(C(=C7)OC)O)OC)O)O
#smiles_can CC1OCC2C(O1)C(C(C(O2)OC3C4COC(=O)C4C(C5=CC6=C(C=C35)OCO6)C7=CC(=C(C(=C7)OC)O)OC)O)O
#inchikey VJJPUSNTGOMMGY-UHFFFAOYSA-N
#pubchem_id 3310
#mb_accession BML00525,BML00534,BML00543

>ms2
127.035900 21.000000
145.042300 23.000000
171.063900 23.000000
185.056700 324.000000
189.074100 25.000000
217.041400 21.000000
229.047300 1577.000000
229.090600 53.000000
229.109400 20.000000
229.150800 25.000000
247.056600 135.000000
383.123400 30.000000
384.096700 21.000000
435.122700 26.000000
511.219700 24.000000
588.177600 27.000000
589.189600 27.000000

>ms2
115.060000 72.000000
127.042600 52.000000
143.040800 35.000000
154.057100 39.000000
173.058300 31.000000
185.058700 904.000000
185.098000 24.000000
199.037300 34.000000
229.046400 1433.000000
229.085000 92.000000
229.123200 24.000000
247.060000 131.000000
248.057200 46.000000
299.099600 50.000000
305.077400 24.000000

>ms2
144.051700 22.000000
173.058000 63.000000
183.075900 23.000000
185.057900 887.000000
186.698000 23.000000
199.039100 75.000000
217.046000 28.000000
229.047200 717.000000
229.076000 38.000000
229.095400 43.000000
229.137200 48.000000
239.061300 21.000000
247.059600 25.000000
298.083100 59.000000
305.082600 24.000000
331.089200 31.000000

