>compound BML2334160
>parentmass 217.04959999999997
>ionization [M+H]+
>formula C12H8O4
>rt 400.380000
>profile qtof
#smiles_iso COC1=C2C(=CC3=C1OC=C3)C=CC(=O)O2
#smiles_can COC1=C2C(=CC3=C1OC=C3)C=CC(=O)O2
#inchikey QXKHYNVANLEOEG-UHFFFAOYSA-N
#pubchem_id 4114
#mb_accession BML00961,BML00970,BML00979

>ms2
115.054300 39.000000
117.070500 33.000000
118.039500 53.000000
131.050200 22.000000
146.037800 41.000000
161.059100 257.000000
173.057700 125.000000
174.031200 155.000000
185.023900 134.000000
189.053200 186.000000
201.017200 22.000000
202.025900 849.000000
202.055100 37.000000
202.075900 25.000000
216.037200 24.000000
217.050000 4393.000000

>ms2
105.070900 26.000000
115.053900 191.000000
117.067400 49.000000
118.039800 150.000000
118.044200 30.000000
129.032300 38.000000
130.042500 39.000000
131.047400 151.000000
132.019200 23.000000
143.050000 33.000000
145.027400 34.000000
145.031200 49.000000
145.062000 35.000000
146.037000 173.000000
157.027700 51.000000
158.038800 92.000000
161.058800 769.000000
161.096200 38.000000
173.022600 55.000000
173.057400 90.000000
174.030500 1074.000000
174.068400 52.000000
174.092400 22.000000
185.022700 130.000000
185.026900 96.000000
189.054600 115.000000
189.061300 28.000000
202.025200 2155.000000
202.062700 36.000000
202.076400 65.000000
202.157000 30.000000
217.048500 646.000000

>ms2
101.034000 25.000000
102.046600 47.000000
103.055000 49.000000
105.068900 32.000000
115.054700 68.000000
117.026300 35.000000
117.033700 90.000000
118.041100 652.000000
129.033300 61.000000
131.048900 82.000000
145.029100 330.000000
146.036400 139.000000
161.057500 67.000000
174.030200 790.000000
174.067200 40.000000
202.026700 38.000000

