>compound BML2074983
>parentmass 285.0758
>ionization [M+H]+
>formula C16H12O5
>rt 538.200000
>profile qtof
#smiles_iso COC1=CC=C(C=C1)C2=CC(=O)C3=C(C=C(C=C3O2)O)O
#smiles_can COC1=CC=C(C=C1)C2=CC(=O)C3=C(C=C(C=C3O2)O)O
#inchikey DANYIYRPLHHOCZ-UHFFFAOYSA-N
#pubchem_id 5280442
#mb_accession BML00818,BML00828,BML00838

>ms2peaks
242.053400 98.000000
270.051800 64.000000
285.073600 3741.000000

>ms2peaks
133.067200 74.000000
153.019100 90.000000
241.042500 24.000000
242.055300 597.000000
242.098100 24.000000
270.050500 739.000000
270.099300 30.000000
285.073800 3566.000000

>ms2peaks
115.056300 27.000000
133.064700 36.000000
152.012200 31.000000
153.016800 547.000000
185.046600 21.000000
203.027300 26.000000
213.057200 49.000000
241.045100 73.000000
242.055900 1251.000000
242.104100 63.000000
242.129000 29.000000
270.049400 70.000000

