>compound BML2347550
>parentmass 256.1292
>ionization [M+H]+
>formula C11H17N3O4
>rt 122.460000
>profile qtof
#smiles_iso CC(C)(C)OC(=O)NC(CC1=CN=CN1)C(=O)O
#smiles_can CC(C)(C)OC(=O)NC(CC1=CN=CN1)C(=O)O
#inchikey AYMLQYFMYHISQO-UHFFFAOYSA-N
#pubchem_id 333506
#mb_accession BML01464,BML01479,BML01494

>ms2peaks
110.070700 734.000000
110.097600 25.000000
156.075800 2103.000000
156.109300 39.000000
156.119600 35.000000
156.192300 29.000000
200.065500 396.000000

>ms2peaks
110.071100 1780.000000
110.096000 23.000000
110.101400 37.000000
110.117900 20.000000
156.076300 476.000000

>ms2peaks
110.070900 708.000000

