>compound BML3970119
>parentmass 301.0707
>ionization [M+H]+
>formula C16H12O6
>rt 483.000000
>profile qtof
#smiles_iso COC1=C(C=CC(=C1)C2=CC(=O)C3=C(C=C(C=C3O2)O)O)O
#smiles_can COC1=C(C=CC(=C1)C2=CC(=O)C3=C(C=C(C=C3O2)O)O)O
#inchikey SCZVLDHREVKTSH-UHFFFAOYSA-N
#pubchem_id 5280666
#mb_accession BML01593,BML01602,BML01611

>ms2peaks
258.048500 23.000000
286.051800 59.000000
301.069900 983.000000

>ms2peaks
258.052100 145.000000
286.046600 334.000000
301.069700 544.000000

>ms2peaks
153.017400 89.000000
229.047800 127.000000
257.039400 68.000000
258.052300 397.000000
286.042300 85.000000

