>compound BML3861928
>parentmass 647.2182
>ionization [M+H]+
>formula C28H38O17
>rt 254.700000
>profile qtof
#smiles_iso CC1C(C(C(C(O1)OCC2C(C(C(C(O2)OC3=C(C=C4C=CC(=O)OC4=C3)OC)OC5C(C(C(C(O5)C)O)O)O)O)O)O)O)O
#smiles_can CC1C(C(C(C(O1)OCC2C(C(C(C(O2)OC3=C(C=C4C=CC(=O)OC4=C3)OC)OC5C(C(C(C(O5)C)O)O)O)O)O)O)O)O
#inchikey LLQBCHODNVGKSF-UHFFFAOYSA-N
#pubchem_id 20105835
#mb_accession BML01535,BML01547,BML01559

>ms2
129.054400 62.000000
147.062500 27.000000
193.048900 848.000000
193.092700 24.000000
239.090600 22.000000
257.107800 20.000000
293.121900 41.000000
355.100500 115.000000
501.154900 65.000000
647.226100 20.000000

>ms2
129.054200 43.000000
193.049400 847.000000
193.085000 57.000000
355.100600 35.000000

>ms2
133.026600 23.000000
178.028700 41.000000
193.048500 944.000000
193.088400 39.000000

