>compound BML3057144
>parentmass 175.12299999999996
>ionization [M+H]+
>formula C11H14N2
>rt 144.600000
>profile qtof
#smiles_iso CC1=CC2=C(C=C1)NC=C2CCN
#smiles_can CC1=CC2=C(C=C1)NC=C2CCN
#inchikey PYOUAIQXJALPKW-UHFFFAOYSA-N
#pubchem_id 15760
#mb_accession BML01281,BML01287,BML01293

>ms2peaks
101.007900 33.000000
114.947600 129.000000
115.051300 33.000000
116.063600 24.000000
130.064000 31.000000
131.086900 34.000000
132.956700 41.000000
143.073000 301.000000
158.095500 4529.000000
158.131700 130.000000
158.149200 38.000000
158.157200 30.000000
158.174900 34.000000
158.210800 50.000000
159.095000 25.000000

>ms2peaks
114.948400 84.000000
115.054000 137.000000
116.061300 51.000000
117.055800 52.000000
117.066700 24.000000
129.070100 23.000000
130.063100 42.000000
131.084900 176.000000
141.069700 60.000000
142.060500 52.000000
142.066900 44.000000
143.072700 2053.000000
143.110300 42.000000
143.183000 21.000000
156.079400 42.000000
157.085700 94.000000
157.092300 65.000000
158.095800 1771.000000
158.128300 27.000000
158.139100 38.000000
158.159600 29.000000

>ms2peaks
101.041800 25.000000
103.054000 69.000000
103.058000 33.000000
105.065400 22.000000
114.043700 32.000000
115.053900 1124.000000
115.079100 21.000000
115.091300 25.000000
116.061200 383.000000
117.057800 443.000000
127.056000 27.000000
128.048800 110.000000
128.057000 24.000000
129.070700 26.000000
130.065700 205.000000
131.072700 35.000000
140.047700 36.000000
141.057200 37.000000
142.064600 542.000000
142.100100 22.000000
143.072200 973.000000
156.079800 159.000000
157.081100 21.000000
157.088900 41.000000
158.095000 27.000000

