>compound BML3026851
>parentmass 513.1028
>ionization [M+H]+
>formula C25H20O12
>rt 527.400000
>profile qtof
#smiles_iso CC(=O)OC1=C(C=C(C=C1)C2=C(C(=O)C3=C(O2)C=C(C=C3OC(=O)C)OC(=O)C)OC(=O)C)OC(=O)C
#smiles_can CC(=O)OC1=C(C=C(C=C1)C2=C(C(=O)C3=C(O2)C=C(C=C3OC(=O)C)OC(=O)C)OC(=O)C)OC(=O)C
#inchikey JQUHMSXLZZWRHU-UHFFFAOYSA-N
#pubchem_id 14005
#mb_accession BML01383,BML01392,BML01401

>ms2
303.043900 42.000000
345.053600 78.000000
345.070100 28.000000
387.072300 370.000000
387.118800 23.000000
429.082000 1344.000000
429.141700 29.000000
429.182400 47.000000
471.090400 594.000000
471.149700 34.000000

>ms2
264.548300 31.000000
303.049200 65.000000
345.058900 309.000000
387.070800 1074.000000
387.122300 32.000000
387.165600 24.000000
429.081600 430.000000
429.157300 23.000000
471.088000 25.000000

>ms2
285.033700 21.000000
303.049600 1332.000000
303.129200 25.000000
345.061300 1028.000000
387.063600 84.000000

