>compound BML3874456
>parentmass 206.1387
>ionization [M+H]+
>formula C9H19NO4
>rt 97.860000
>profile qtof
#smiles_iso CC(C)(CO)C(C(=O)NCCCO)O
#smiles_can CC(C)(CO)C(C(=O)NCCCO)O
#inchikey SNPLKNRPJHDVJA-UHFFFAOYSA-N
#pubchem_id 4678
#mb_accession BML01113

>ms2
102.055700 80.000000
114.944100 43.000000
114.949900 75.000000
170.115800 58.000000
173.957800 49.000000
188.126300 131.000000
206.138100 203.000000

