>compound BML3391796
>parentmass 352.118
>ionization [M+H]+
>formula C20H17NO5
>rt 549.120000
>profile qtof
#smiles_iso COC1=C(C2=C3C(=C1)C=CN=C3C(=O)C4=CC(=C(C=C42)OC)OC)OC
#smiles_can COC1=C(C2=C3C(=C1)C=CN=C3C(=O)C4=CC(=C(C=C42)OC)OC)OC
#inchikey ZYKCETVKVRJFGD-UHFFFAOYSA-N
#pubchem_id 97662
#mb_accession BML00788,BML00799,BML00810

>ms2
306.074400 148.000000
322.063800 30.000000
337.085200 50.000000
337.107100 28.000000
352.114300 2646.000000

>ms2
235.063800 46.000000
276.068700 21.000000
293.060100 55.000000
294.079100 47.000000
306.074400 1378.000000
306.125600 63.000000
306.153700 27.000000
308.081400 30.000000
308.103500 52.000000
322.067100 375.000000
336.079000 54.000000
337.091000 430.000000
337.113100 36.000000
337.931200 25.000000
352.114500 1805.000000

>ms2
178.064200 27.000000
206.058600 79.000000
207.066300 67.000000
219.063500 40.000000
223.060600 41.000000
231.064900 23.000000
234.051700 55.000000
235.060100 616.000000
235.088600 25.000000
235.105000 22.000000
236.066600 100.000000
246.051700 34.000000
247.057000 54.000000
247.069000 30.000000
248.066000 127.000000
250.091100 25.000000
251.053000 139.000000
259.048900 27.000000
260.066900 45.000000
262.041100 57.000000
262.053300 31.000000
262.091200 47.000000
263.053600 271.000000
264.064100 248.000000
265.072500 106.000000
266.079500 26.000000
274.040100 61.000000
275.055200 39.000000
276.064800 183.000000
277.076800 21.000000
278.079800 147.000000
279.049400 124.000000
291.049500 79.000000
291.081800 28.000000
292.059000 219.000000
292.098400 24.000000
293.065000 287.000000
293.114700 21.000000
294.071900 126.000000
294.090100 21.000000
304.059000 93.000000
306.072500 1400.000000
306.120100 69.000000
306.225200 24.000000
307.041400 36.000000
307.061600 26.000000
308.091200 165.000000
320.040300 23.000000
320.088900 22.000000
321.061100 73.000000
322.066000 167.000000
336.085300 99.000000

