>compound BML3141131
>parentmass 371.2329
>ionization [M+H]+
>formula C22H30N2O3
>rt 301.920000
>profile qtof
#smiles_iso CCC12CCCN3C1C4(CC3)C(CC2)N(C5=C4C=CC(=C5O)OC)C(=O)C
#smiles_can CCC12CCCN3C1C4(CC3)C(CC2)N(C5=C4C=CC(=C5O)OC)C(=O)C
#inchikey CITPXCNSMZMNIW-UHFFFAOYSA-N
#pubchem_id 632854
#mb_accession BML00068,BML00075,BML00082

>ms2
190.087200 33.000000
190.163100 23.000000
371.232700 4320.000000

>ms2
124.110400 44.000000
164.140100 22.000000
176.071000 22.000000
190.089600 35.000000
190.156000 28.000000
329.220600 32.000000
371.233700 2776.000000

>ms2
124.111200 240.000000
130.063900 26.000000
138.128100 28.000000
146.055700 31.000000
152.068900 51.000000
152.139900 29.000000
158.056200 25.000000
161.041700 24.000000
161.122200 32.000000
162.125600 24.000000
164.144300 54.000000
166.085700 26.000000
175.067000 38.000000
176.069100 130.000000
178.083800 24.000000
189.078000 27.000000
190.085900 175.000000
190.160100 70.000000
194.077100 27.000000
202.086800 22.000000
204.100300 32.000000
208.098700 22.000000
218.111700 32.000000
218.125000 21.000000
228.101500 25.000000
240.101700 21.000000
242.117900 36.000000
243.131800 23.000000
254.119600 21.000000
272.162100 24.000000
284.162800 55.000000
314.192700 27.000000
329.220600 59.000000
371.223600 42.000000
371.231000 171.000000

