>compound BML3358029
>parentmass 211.1329
>ionization [M+H]+
>formula C12H18O3
>rt 402.420000
>profile qtof
#smiles_iso CCC=CCC1C(CCC1=O)CC(=O)O
#smiles_can CCC=CCC1C(CCC1=O)CC(=O)O
#inchikey ZNJFBWYDHIGLCU-UHFFFAOYSA-N
#pubchem_id 557758
#mb_accession BML00646

>ms2peaks
107.086900 49.000000
109.065200 54.000000
113.057600 32.000000
123.045500 23.000000
133.099300 388.000000
135.079900 33.000000
137.057200 78.000000
147.113300 145.000000
149.095900 36.000000
151.110300 236.000000
155.068100 46.000000
156.410300 25.000000
165.123600 30.000000
193.119200 71.000000
211.127800 77.000000

