>compound BML3330634
>parentmass 327.2067
>ionization [M+H]+
>formula C20H26N2O2
>rt 250.680000
>profile qtof
#smiles_iso CCC1C2CC3C4C5(CC(C2C5O)N3C1O)C6=CC=CC=C6N4C
#smiles_can CCC1C2CC3C4C5(CC(C2C5O)N3C1O)C6=CC=CC=C6N4C
#inchikey CJDRUOGAGYHKKD-UHFFFAOYSA-N
#pubchem_id 2073
#mb_accession BML00521,BML00530,BML00539

>ms2peaks
158.094800 80.000000
194.095500 64.000000
327.205100 10879.000000

>ms2peaks
108.083400 59.000000
110.096300 170.000000
136.077000 66.000000
138.090500 154.000000
144.076500 144.000000
158.094200 238.000000
170.088500 63.000000
182.096400 136.000000
182.117600 53.000000
184.110300 154.000000
210.121800 146.000000
212.104400 140.000000
237.132200 78.000000
238.123900 160.000000
264.165900 60.000000
274.153300 62.000000
291.185800 79.000000
292.168800 61.000000
309.200700 89.000000
310.171300 94.000000
327.204900 10255.000000

>ms2peaks
106.065500 40.000000
107.074300 32.000000
108.079000 67.000000
108.084000 41.000000
109.061800 41.000000
110.060600 79.000000
110.093700 99.000000
110.098900 55.000000
111.078900 40.000000
115.056000 34.000000
116.057000 22.000000
117.060400 45.000000
118.062800 64.000000
119.088100 25.000000
120.078000 35.000000
124.071600 20.000000
129.066800 30.000000
130.061900 73.000000
131.071200 95.000000
132.080900 78.000000
134.095600 49.000000
136.067500 23.000000
136.075600 35.000000
136.113800 24.000000
138.092700 57.000000
141.070100 24.000000
143.072800 101.000000
144.079700 671.000000
144.116000 24.000000
145.084600 66.000000
145.097700 21.000000
146.094600 74.000000
157.086300 156.000000
158.095400 720.000000
158.128300 36.000000
159.095600 32.000000
160.076000 27.000000
167.069300 100.000000
167.075000 27.000000
168.078400 129.000000
169.088900 103.000000
169.101700 23.000000
170.094900 112.000000
170.109600 27.000000
171.099100 41.000000
172.073000 48.000000
172.109600 75.000000
174.088800 63.000000
180.079600 23.000000
181.086300 104.000000
182.095600 262.000000
183.096500 63.000000
183.107100 21.000000
184.111100 168.000000
186.086400 32.000000
193.085200 32.000000
194.095400 276.000000
195.105200 105.000000
195.119400 32.000000
196.073700 22.000000
196.113100 85.000000
197.075400 40.000000
197.101800 24.000000
205.095300 30.000000
207.100700 23.000000
208.108000 89.000000
209.117200 54.000000
210.126700 198.000000
211.093300 24.000000
211.104200 27.000000
211.121900 23.000000
212.107600 74.000000
219.109100 22.000000
220.111100 61.000000
221.113400 25.000000
222.120700 40.000000
222.133000 33.000000
223.123100 24.000000
224.134700 22.000000
225.147900 21.000000
226.117600 30.000000
233.117400 37.000000
235.124000 50.000000
237.136500 39.000000
238.147300 21.000000
239.151600 121.000000
255.150600 26.000000
262.153100 31.000000
263.151400 27.000000
264.129300 26.000000
292.165200 20.000000
327.202700 206.000000

