>compound BML3892972
>parentmass 226.0823
>ionization [M+H]+
>formula C9H11N3O4
>rt 21.060000
>profile qtof
#smiles_iso C1=CN2C3C(C(C(O3)CO)O)OC2=NC1=N
#smiles_can C1=CN2C3C(C(C(O3)CO)O)OC2=NC1=N
#inchikey BBDAGFIXKZCXAH-UHFFFAOYSA-N
#pubchem_id 279063
#mb_accession BML00395,BML00409,BML00423

>ms2
107.059300 191.000000
108.042400 69.000000
109.041100 80.000000
112.051100 111.000000
117.043800 116.000000
119.056800 100.000000
120.050700 73.000000
135.055900 340.000000
149.058900 70.000000
150.066900 203.000000
151.052800 71.000000
161.031700 71.000000
162.067600 191.000000
162.661500 48.000000
173.031200 82.000000
178.060900 9487.000000
178.104500 288.000000
178.161600 78.000000
178.183800 254.000000
178.295000 57.000000
178.402600 62.000000
178.440400 77.000000
178.491600 59.000000
208.071800 114.000000
226.081300 9194.000000

>ms2
105.042800 184.000000
107.060600 1583.000000
108.045000 355.000000
110.022700 427.000000
112.049700 1551.000000
117.043900 240.000000
119.059000 466.000000
122.070000 272.000000
123.057200 221.000000
132.055100 150.000000
133.038800 490.000000
133.059200 235.000000
135.054800 4396.000000
135.092800 132.000000
145.032200 124.000000
147.058100 328.000000
149.057000 976.000000
150.065500 2032.000000
151.049100 198.000000
160.049300 520.000000
161.030300 433.000000
161.054200 211.000000
162.065900 1994.000000
162.099700 157.000000
178.060600 22993.000000
178.099500 430.000000
178.124700 417.000000
178.145700 263.000000
178.183100 664.000000
178.232600 180.000000
178.331600 116.000000
190.056100 292.000000
208.061400 231.000000
226.082500 1239.000000

>ms2
104.035400 22.000000
105.045000 488.000000
106.029100 45.000000
106.051000 109.000000
107.019800 30.000000
107.026600 50.000000
107.059600 908.000000
107.090100 38.000000
108.043700 551.000000
108.066500 20.000000
109.038100 23.000000
110.026800 128.000000
111.056200 43.000000
112.049300 457.000000
117.043400 351.000000
117.056600 28.000000
118.023000 41.000000
118.057200 52.000000
119.041600 34.000000
119.058100 304.000000
119.076700 31.000000
120.043900 29.000000
120.051300 99.000000
121.032700 27.000000
121.061000 122.000000
122.034700 77.000000
122.070500 90.000000
123.051100 103.000000
133.032900 22.000000
133.044700 112.000000
133.065500 33.000000
135.016300 61.000000
135.054300 703.000000
135.084800 35.000000
136.053000 48.000000
148.048000 65.000000
149.053800 174.000000
150.064800 158.000000
151.051000 89.000000
159.043500 28.000000
160.049800 92.000000
161.035900 209.000000
162.066800 301.000000
178.058800 138.000000

