>compound BML3088750
>parentmass 352.1755
>ionization [M+H]+
>formula C18H25NO6
>rt 159.480000
>profile qtof
#smiles_iso CC=C1CC(C(C(=O)OCC2=CCN3C2C(CC3)OC1=O)(CO)O)C
#smiles_can CC=C1CC(C(C(=O)OCC2=CCN3C2C(CC3)OC1=O)(CO)O)C
#inchikey BCJMNZRQJAVDLD-UHFFFAOYSA-N
#pubchem_id 267891
#mb_accession BML00519,BML00528,BML00537

>ms2
120.078900 38.000000
138.093200 45.000000
324.177600 34.000000
352.172500 6002.000000

>ms2
103.052900 51.000000
120.080600 504.000000
122.095800 66.000000
122.106100 40.000000
123.079400 48.000000
138.091700 362.000000
140.105800 30.000000
220.137300 53.000000
276.150100 33.000000
276.163700 29.000000
322.155500 63.000000
322.173200 48.000000
324.179400 353.000000
352.174300 5539.000000

>ms2
103.052800 165.000000
105.071300 73.000000
106.061200 36.000000
108.081000 154.000000
108.094500 20.000000
109.061800 57.000000
109.090200 41.000000
110.092900 48.000000
118.065100 81.000000
119.068000 24.000000
120.080800 465.000000
121.064000 31.000000
121.090100 35.000000
122.093300 53.000000
122.100200 48.000000
123.081000 78.000000
136.075100 23.000000
138.091500 219.000000
144.079000 24.000000
145.098400 21.000000
148.074400 24.000000
151.077800 129.000000
169.087500 26.000000
220.130900 73.000000
324.173200 74.000000
352.162800 38.000000
352.183700 25.000000

