>compound BML3193866
>parentmass 753.2237
>ionization [M+H]+
>formula C34H40O19
>rt 546.360000
>profile qtof
#smiles_iso CC1C(C(C(C(O1)OCC2C(C(C(C(O2)OC3=C(C=C4C=CC(=O)OC4=C3)OC)OC(=O)C)OC(=O)C)OC(=O)C)OC(=O)C)OC(=O)C)OC(=O)C
#smiles_can CC1C(C(C(C(O1)OCC2C(C(C(C(O2)OC3=C(C=C4C=CC(=O)OC4=C3)OC)OC(=O)C)OC(=O)C)OC(=O)C)OC(=O)C)OC(=O)C)OC(=O)C
#inchikey SRRSXTUHQTVABO-UHFFFAOYSA-N
#pubchem_id 20106092
#mb_accession BML01648,BML01659,BML01670

>ms2peaks
111.044700 123.000000
153.053700 955.000000
153.081400 34.000000
153.094600 21.000000
171.060000 50.000000
193.051300 43.000000
213.076400 277.000000
273.056000 23.000000
273.096900 475.000000
273.144600 21.000000
399.131700 48.000000
591.167100 64.000000
753.227200 94.000000

>ms2peaks
111.042900 522.000000
153.054900 1031.000000
153.095000 41.000000
169.053800 25.000000
175.028900 21.000000
213.072500 60.000000
273.096200 115.000000

>ms2peaks
111.043100 769.000000
111.078200 26.000000
153.053100 347.000000

