>compound BML3498998
>parentmass 400.1755
>ionization [M+H]+
>formula C22H25NO6
>rt 433.020000
>profile qtof
#smiles_iso CC(=O)NC1CCC2=CC(=C(C(=C2C3=CC=C(C(=O)C=C13)OC)OC)OC)OC
#smiles_can CC(=O)NC1CCC2=CC(=C(C(=C2C3=CC=C(C(=O)C=C13)OC)OC)OC)OC
#inchikey IAKHMKGGTNLKSZ-UHFFFAOYSA-N
#pubchem_id 2833
#mb_accession BML00526,BML00535,BML00544

>ms2peaks
282.124600 87.000000
285.108500 74.000000
298.120700 40.000000
310.113500 83.000000
313.132500 46.000000
326.131800 71.000000
340.152700 54.000000
341.131700 132.000000
358.160700 236.000000
368.139900 44.000000
382.167400 144.000000
400.172600 8028.000000

>ms2peaks
138.048900 23.000000
160.050000 26.000000
181.058900 25.000000
190.080500 21.000000
203.096300 24.000000
206.074600 23.000000
219.093200 22.000000
219.112000 36.000000
222.104200 38.000000
226.097700 32.000000
234.106300 37.000000
235.071600 29.000000
239.099400 24.000000
242.088700 36.000000
247.122000 27.000000
250.095200 59.000000
251.073600 26.000000
251.109500 34.000000
262.050200 26.000000
263.115200 23.000000
265.093700 82.000000
266.094000 73.000000
266.114900 74.000000
267.090300 51.000000
267.103400 42.000000
268.106000 53.000000
270.082700 36.000000
271.098500 26.000000
273.119400 21.000000
277.115600 41.000000
278.095900 82.000000
279.062700 28.000000
279.100300 48.000000
280.082500 29.000000
281.115700 138.000000
282.123300 384.000000
282.162500 25.000000
283.092300 30.000000
283.113100 28.000000
283.131200 47.000000
284.106400 49.000000
284.126700 38.000000
285.111200 130.000000
285.139600 38.000000
286.111200 25.000000
287.080100 58.000000
292.096400 78.000000
292.120900 36.000000
294.087300 61.000000
294.105600 20.000000
295.079800 32.000000
295.104800 132.000000
295.129300 29.000000
296.092800 50.000000
297.123000 33.000000
298.137100 182.000000
299.123700 49.000000
300.068300 23.000000
300.100000 26.000000
300.118200 29.000000
302.110400 63.000000
302.139900 22.000000
308.114500 112.000000
308.162200 27.000000
309.109100 206.000000
310.117700 566.000000
310.164400 39.000000
310.175900 23.000000
311.099600 127.000000
311.124100 42.000000
312.139700 35.000000
313.103600 85.000000
313.124400 67.000000
313.138600 112.000000
315.126600 21.000000
315.138700 45.000000
316.145900 143.000000
323.151200 31.000000
324.106200 22.000000
325.131000 94.000000
326.119000 127.000000
326.136700 408.000000
326.168900 42.000000
327.129000 26.000000
328.114500 23.000000
329.134300 56.000000
330.135400 47.000000
330.156300 51.000000
339.143400 56.000000
340.149000 232.000000
341.138000 548.000000
341.190000 31.000000
342.135000 51.000000
343.138900 105.000000
350.127600 46.000000
350.155800 24.000000
352.114400 60.000000
354.177800 22.000000
357.146800 26.000000
358.163000 1035.000000
358.222300 51.000000
358.256600 32.000000
367.136400 96.000000
368.148600 111.000000
382.160800 410.000000
382.207000 29.000000
385.133100 26.000000
400.172400 2980.000000

>ms2peaks
150.068400 21.000000
152.066000 29.000000
161.056500 40.000000
165.070300 28.000000
167.083600 21.000000
175.056100 35.000000
176.066000 45.000000
176.083400 67.000000
179.086000 32.000000
180.047700 28.000000
181.059100 22.000000
181.081100 48.000000
181.090800 40.000000
188.075200 23.000000
192.074200 24.000000
192.254500 20.000000
194.065700 29.000000
195.084100 50.000000
197.084600 23.000000
203.086600 37.000000
206.075700 60.000000
207.088600 43.000000
208.054300 25.000000
208.083300 24.000000
209.050700 25.000000
209.098700 52.000000
211.081600 21.000000
211.104300 27.000000
212.080500 26.000000
212.091000 21.000000
214.065300 29.000000
218.079200 23.000000
219.070400 40.000000
219.084300 99.000000
220.085600 79.000000
221.094300 33.000000
222.061700 35.000000
223.078100 33.000000
224.079900 151.000000
225.082000 48.000000
225.098300 43.000000
225.110500 27.000000
227.064500 43.000000
227.104400 43.000000
230.117100 23.000000
233.046500 34.000000
234.066200 30.000000
234.109800 23.000000
235.072400 95.000000
236.079700 26.000000
236.095900 42.000000
237.087200 92.000000
238.100200 24.000000
239.104200 145.000000
240.076200 56.000000
240.105000 26.000000
241.078800 28.000000
241.091700 72.000000
242.074100 34.000000
243.069100 23.000000
243.108300 27.000000
247.070900 43.000000
247.092200 55.000000
248.076100 35.000000
249.087800 48.000000
249.109100 44.000000
250.054500 25.000000
250.091000 93.000000
250.134400 28.000000
251.067600 174.000000
251.096400 71.000000
251.109600 50.000000
252.079300 169.000000
252.103800 54.000000
252.120000 42.000000
253.100900 29.000000
253.120900 31.000000
254.093400 24.000000
254.114400 32.000000
255.030700 22.000000
255.062800 59.000000
255.101400 46.000000
255.115500 25.000000
256.067200 30.000000
256.088500 21.000000
256.103900 26.000000
256.135300 27.000000
257.117100 20.000000
262.060200 22.000000
262.091600 20.000000
263.069500 37.000000
263.083800 60.000000
264.080900 21.000000
264.104800 72.000000
265.085800 230.000000
266.091800 39.000000
266.127000 28.000000
267.098800 265.000000
267.125300 22.000000
268.086100 22.000000
268.102100 28.000000
269.077400 23.000000
269.111400 27.000000
270.082500 68.000000
270.095500 21.000000
270.111800 37.000000
271.090000 44.000000
277.081800 56.000000
278.082700 90.000000
279.067100 146.000000
279.093000 43.000000
280.090100 32.000000
280.104700 21.000000
280.122000 32.000000
281.108900 65.000000
282.079700 24.000000
282.117900 127.000000
283.046800 30.000000
283.099300 135.000000
283.140900 24.000000
284.107400 58.000000
285.070000 40.000000
285.103200 26.000000
286.104700 44.000000
287.091000 80.000000
292.094400 21.000000
293.101800 46.000000
294.080600 84.000000
294.103500 59.000000
295.093500 250.000000
295.123900 60.000000
296.069300 39.000000
296.093400 45.000000
296.125900 22.000000
297.107400 78.000000
298.082100 25.000000
298.110300 34.000000
298.129300 24.000000
299.118900 26.000000
300.118400 141.000000
302.079900 31.000000
307.102000 46.000000
308.099200 32.000000
308.117500 56.000000
309.100300 39.000000
309.120300 39.000000
310.098500 48.000000
310.116600 86.000000
311.089300 210.000000
314.105000 92.000000
314.141900 29.000000
323.111900 44.000000
324.129700 72.000000
325.103600 44.000000
326.105900 27.000000
326.132200 36.000000
328.116800 60.000000
339.136900 51.000000
340.151100 21.000000
342.132300 67.000000
343.135300 21.000000

