>compound BML3218812
>parentmass 247.13289999999998
>ionization [M+H]+
>formula C15H18O3
>rt 404.460000
>profile qtof
#smiles_iso CC1C2CCC3(C=CC(=O)C(=C3C2OC1=O)C)C
#smiles_can CC1C2CCC3(C=CC(=O)C(=C3C2OC1=O)C)C
#inchikey XJHDMGJURBVLLE-UHFFFAOYSA-N
#pubchem_id 5156
#mb_accession BML00473,BML00482,BML00491

>ms2
131.080500 36.000000
135.078700 155.000000
145.101100 171.000000
158.071600 52.000000
161.087500 27.000000
161.100800 23.000000
172.088200 22.000000
173.094700 1777.000000
173.126700 47.000000
173.135000 37.000000
173.217000 28.000000
174.101900 41.000000
186.099900 28.000000
191.107400 25.000000
201.123400 162.000000
201.140300 28.000000
229.117100 44.000000
247.143100 75.000000

>ms2
105.068600 30.000000
115.054200 25.000000
117.067600 38.000000
135.079200 292.000000
143.083700 27.000000
145.099300 263.000000
155.084800 92.000000
158.072200 143.000000
159.079000 25.000000
160.086400 23.000000
161.092900 49.000000
172.088300 31.000000
173.095500 850.000000
173.126800 53.000000
174.100700 40.000000
183.112100 28.000000
186.101300 65.000000
201.124800 144.000000

>ms2
103.052700 49.000000
105.070300 317.000000
107.050600 25.000000
107.083900 74.000000
115.053400 410.000000
115.084200 21.000000
116.062900 173.000000
117.068700 161.000000
117.076400 35.000000
119.086800 36.000000
121.065500 37.000000
127.052900 94.000000
128.061700 181.000000
129.070700 457.000000
129.105800 29.000000
130.077900 273.000000
131.045000 22.000000
131.052500 55.000000
131.087800 98.000000
133.055200 24.000000
135.079800 550.000000
135.113500 24.000000
140.054500 24.000000
140.065300 29.000000
141.068000 103.000000
143.086100 70.000000
144.056400 49.000000
145.060000 74.000000
145.068000 69.000000
145.096900 122.000000
145.104700 82.000000
146.076800 53.000000
152.062900 24.000000
153.068400 144.000000
154.078600 58.000000
155.085000 110.000000
157.064400 255.000000
157.098500 39.000000
158.072400 780.000000
158.106500 55.000000
159.078100 132.000000
160.087300 33.000000
161.093000 31.000000
171.080900 139.000000
172.087600 50.000000
173.095400 205.000000
185.099400 21.000000

