>compound BML3240127
>parentmass 282.1489
>ionization [M+H]+
>formula C18H19NO2
>rt 626.280000
>profile qtof
#smiles_iso C1CC2=C(C1)C(=O)OC3=C2C=C4CCCN5C4=C3CCC5
#smiles_can C1CC2=C(C1)C(=O)OC3=C2C=C4CCCN5C4=C3CCC5
#inchikey LLSRPENMALNOFW-UHFFFAOYSA-N
#pubchem_id 100336
#mb_accession BML01761,BML01772,BML01783

>ms2peaks
198.125100 20.000000
226.122300 55.000000
254.113100 111.000000
280.133500 38.000000
281.139800 828.000000
281.178200 26.000000
282.147800 3231.000000

>ms2peaks
210.116700 21.000000
226.120400 227.000000
226.141300 31.000000
253.109000 26.000000
253.144900 42.000000
254.116700 351.000000
254.166600 22.000000
280.130600 252.000000
281.139300 531.000000
281.185400 35.000000
282.147400 2240.000000

>ms2peaks
128.057600 23.000000
160.073900 99.000000
161.078900 34.000000
167.071900 40.000000
168.081600 33.000000
170.094800 58.000000
181.092300 22.000000
182.093700 55.000000
183.097200 26.000000
184.111700 72.000000
186.092000 54.000000
187.092400 28.000000
194.092500 38.000000
196.111600 29.000000
197.087400 22.000000
198.088800 68.000000
198.125700 116.000000
208.113400 21.000000
209.115600 21.000000
210.091600 66.000000
210.127300 59.000000
211.134700 21.000000
224.106100 87.000000
224.141700 49.000000
225.115200 29.000000
226.122300 815.000000
226.162200 83.000000
237.108700 21.000000
238.087000 24.000000
252.104000 30.000000
252.137800 79.000000
253.107700 29.000000
253.142800 35.000000
254.115200 126.000000
280.132200 146.000000
281.135700 75.000000
282.148300 102.000000

