>compound BML3808808
>parentmass 457.1122
>ionization [M+H]+
>formula C23H25BrN2O3
>rt 495.900000
>profile qtof
#smiles_iso CC1(CC2=C(C(NC3=CC=CC=C3N2)C4=C(C=CC(=C4Br)OC)OC)C(=O)C1)C
#smiles_can CC1(CC2=C(C(NC3=CC=CC=C3N2)C4=C(C=CC(=C4Br)OC)OC)C(=O)C1)C
#inchikey AHTIKTYAZWVOGR-UHFFFAOYSA-N
#pubchem_id 4570635
#mb_accession BML00870,BML00879,BML00888

>ms2peaks
185.072700 47.000000
241.131200 8345.000000
241.177800 303.000000
241.201600 120.000000
241.242300 60.000000
241.274500 118.000000
242.136400 68.000000
457.108300 1550.000000

>ms2peaks
157.075300 45.000000
185.070500 63.000000
215.117400 33.000000
241.131300 5566.000000
241.174500 197.000000
241.200300 100.000000
241.234500 40.000000
241.273700 68.000000
241.619000 29.000000
457.109400 35.000000

>ms2peaks
130.063600 53.000000
131.054900 20.000000
133.073700 44.000000
157.075200 325.000000
159.091500 35.000000
185.070200 512.000000
199.118100 38.000000
211.082100 32.000000
223.127000 22.000000
241.131400 2783.000000
241.176500 109.000000
241.216400 20.000000
241.237700 24.000000
241.273600 29.000000

