>compound BML3124634
>parentmass 315.189
>ionization [M+H]+
>formula C19H26N2S
>rt 323.820000
>profile qtof
#smiles_iso CCCN1C[C@@H](C[C@H]2[C@H]1CC3=CNC4=CC=CC2=C34)CSC
#smiles_can CCCN1CC(CC2C1CC3=CNC4=CC=CC2=C34)CSC
#inchikey YEHCICAEULNIGD-MZMPZRCHSA-N
#pubchem_id 47811
#mb_accession BML00744,BML00751,BML00758

>ms2
154.064500 111.000000
167.073700 97.000000
193.087000 112.000000
208.110800 572.000000
267.181800 114.000000
315.186900 14764.000000

>ms2
100.110600 60.000000
112.111700 155.000000
127.055900 49.000000
130.064900 227.000000
154.064400 628.000000
155.075100 117.000000
156.081900 76.000000
158.104500 38.000000
165.072800 61.000000
166.076100 49.000000
167.070600 676.000000
168.079700 229.000000
169.079300 107.000000
170.093900 184.000000
172.119100 69.000000
176.987800 45.000000
179.083000 240.000000
180.079800 412.000000
181.092300 150.000000
182.094300 209.000000
183.093200 47.000000
191.084100 74.000000
192.076800 117.000000
193.086400 391.000000
194.098700 86.000000
195.101200 54.000000
196.110800 574.000000
198.125700 267.000000
206.097300 60.000000
208.110700 4262.000000
208.147700 142.000000
208.175000 83.000000
208.243900 53.000000
210.124500 539.000000
211.120800 52.000000
212.127700 103.000000
225.132600 72.000000
239.150600 38.000000
244.113400 61.000000
246.128700 62.000000
256.115500 74.000000
258.128000 180.000000
267.181500 457.000000
313.165200 56.000000
315.187100 7554.000000

>ms2
100.111000 153.000000
112.111900 157.000000
115.054100 71.000000
117.055800 34.000000
124.111700 35.000000
127.055700 81.000000
128.061500 169.000000
129.068500 139.000000
129.073800 23.000000
130.063800 312.000000
131.070400 38.000000
139.056700 27.000000
140.059600 43.000000
141.068100 97.000000
142.077900 33.000000
143.081800 174.000000
144.081400 152.000000
145.086300 41.000000
152.058300 68.000000
152.068500 21.000000
153.068700 406.000000
154.064000 1692.000000
154.100100 63.000000
154.129600 21.000000
154.178900 21.000000
155.072200 557.000000
156.076500 199.000000
156.115400 23.000000
157.083000 25.000000
165.068900 512.000000
166.057900 36.000000
166.074400 312.000000
166.087200 42.000000
167.071800 1630.000000
167.095300 39.000000
167.103600 39.000000
167.111100 22.000000
167.134500 21.000000
167.882000 20.000000
168.078400 854.000000
168.114600 62.000000
168.139700 26.000000
169.084900 170.000000
170.095500 247.000000
177.073000 23.000000
178.061300 25.000000
178.074700 34.000000
179.083200 461.000000
179.121200 28.000000
180.078700 1202.000000
180.096000 23.000000
180.113700 40.000000
181.093700 388.000000
182.094000 411.000000
183.095200 290.000000
184.111700 75.000000
191.075100 209.000000
191.089600 63.000000
191.123200 26.000000
192.079400 965.000000
192.119200 45.000000
193.087500 1292.000000
193.130900 47.000000
193.160800 25.000000
193.327100 21.000000
194.094400 319.000000
195.100300 96.000000
196.108100 223.000000
197.105600 90.000000
198.126200 90.000000
204.080100 41.000000
206.096800 173.000000
207.103100 181.000000
208.109800 820.000000
208.150700 29.000000
209.105200 73.000000
210.121100 75.000000
210.130200 42.000000
211.118000 48.000000
212.123900 48.000000
212.143100 24.000000
223.125000 50.000000
224.126500 22.000000
225.135300 52.000000
226.142100 26.000000
239.151700 30.000000
267.180600 23.000000

