>compound BML3699385
>parentmass 386.19620000000003
>ionization [M+H]+
>formula C22H27NO5
>rt 298.260000
>profile qtof
#smiles_iso CN1CCC2=C(C(=C(C3=C2C1CC4=CC(=C(C=C43)OC)OC)OC)OC)CO
#smiles_can CN1CCC2=C(C(=C(C3=C2C1CC4=CC(=C(C=C43)OC)OC)OC)OC)CO
#inchikey FRSRMZNTUGSNRW-UHFFFAOYSA-N
#pubchem_id 3774499
#mb_accession BML00350,BML00360,BML00370

>ms2
291.100700 22.000000
294.123700 81.000000
308.136000 136.000000
308.151800 46.000000
310.118000 154.000000
324.132500 26.000000
325.141800 626.000000
325.175000 28.000000
325.195600 37.000000
325.227200 26.000000
336.167200 29.000000
337.142400 290.000000
338.128200 21.000000
339.165300 58.000000
351.147400 23.000000
368.184300 1826.000000
368.243600 99.000000
368.298900 38.000000
368.359600 32.000000
386.194000 1072.000000

>ms2
247.085600 40.000000
251.098200 22.000000
268.096400 22.000000
278.126500 28.000000
279.101400 61.000000
291.096900 42.000000
292.098700 20.000000
294.123900 258.000000
295.092300 54.000000
305.140900 96.000000
306.119700 205.000000
306.157500 31.000000
308.141000 178.000000
309.151400 26.000000
310.118400 202.000000
311.119400 27.000000
322.104400 31.000000
322.124900 96.000000
324.133300 77.000000
325.143200 770.000000
325.189200 64.000000
337.145000 183.000000
337.177900 56.000000
338.136400 50.000000
339.157700 57.000000
353.161700 41.000000
368.189400 364.000000
386.188500 25.000000

>ms2
150.955700 31.000000
181.092900 28.000000
190.077500 37.000000
208.092000 21.000000
218.077900 87.000000
219.077900 40.000000
220.082600 33.000000
221.096100 55.000000
224.080400 22.000000
224.990600 29.000000
225.089300 21.000000
227.375200 20.000000
231.080400 21.000000
235.106100 45.000000
236.085800 92.000000
237.092900 57.000000
238.103100 41.000000
246.087400 21.000000
247.068300 50.000000
248.084800 52.000000
249.085600 36.000000
250.102300 36.000000
251.109500 107.000000
252.069000 25.000000
252.095200 36.000000
253.132100 28.000000
261.086100 45.000000
262.058600 21.000000
262.114300 27.000000
263.113100 65.000000
264.124800 23.000000
265.075500 25.000000
265.121000 53.000000
266.097300 39.000000
267.099100 184.000000
275.110000 22.000000
276.077000 27.000000
279.088700 69.000000
279.102900 303.000000
279.130300 32.000000
282.122200 100.000000
289.120000 29.000000
291.090700 66.000000
294.119300 130.000000
294.161800 20.000000
295.099600 147.000000
306.081300 22.000000
307.099000 41.000000
309.111300 37.000000
309.128400 27.000000
310.118500 114.000000
320.114800 31.000000
322.116500 21.000000
325.147100 71.000000
336.117000 45.000000

