>compound BML3298518
>parentmass 430.2013
>ionization [M+H]+
>formula C27H27NO4
>rt 514.500000
>profile qtof
#smiles_iso COC1=C(C2=C(CC3C4=CC5=C(C=C4CCN3C2CC6=CC=CC=C6)OCO5)C=C1)OC
#smiles_can COC1=C(C2=C(CC3C4=CC5=C(C=C4CCN3C2CC6=CC=CC=C6)OCO5)C=C1)OC
#inchikey SKWMDAJIQZJZKL-UHFFFAOYSA-N
#pubchem_id 322372
#mb_accession BML00787,BML00798,BML00809

>ms2
174.057800 25.000000
176.068800 582.000000
176.096700 36.000000
250.096600 61.000000
338.138400 81.000000
430.198300 4646.000000

>ms2
149.055500 70.000000
161.057300 89.000000
174.054000 36.000000
176.068500 2303.000000
176.107500 80.000000
234.103000 27.000000
237.081900 26.000000
265.104000 24.000000
265.122800 103.000000
308.126300 47.000000
322.114000 132.000000
324.119300 31.000000
338.136000 308.000000
413.171100 27.000000
430.198400 2033.000000

>ms2
103.054500 95.000000
105.063500 29.000000
105.073600 32.000000
118.064100 100.000000
119.048600 102.000000
120.083200 32.000000
131.047400 88.000000
146.060400 56.000000
148.052400 41.000000
149.058300 181.000000
161.056300 62.000000
174.049300 25.000000
174.059100 59.000000
176.069100 4904.000000
176.103100 120.000000
176.114600 80.000000
176.127100 60.000000
176.144200 29.000000
176.189600 67.000000
176.236600 25.000000
177.092700 26.000000
188.066800 31.000000
189.072100 27.000000
189.086100 26.000000
207.080900 25.000000
233.095500 26.000000
234.103700 87.000000
235.071000 29.000000
247.065900 41.000000
248.077400 28.000000
250.092600 84.000000
261.086600 34.000000
265.107000 108.000000
275.074000 44.000000
279.087200 25.000000
289.078100 28.000000
293.106400 64.000000
294.110100 64.000000
304.104600 38.000000
307.096600 79.000000
308.121900 58.000000
308.143900 28.000000
310.143400 33.000000
322.106000 85.000000
324.121600 137.000000
338.135300 226.000000
400.155700 28.000000
430.192200 32.000000

