>compound BML3344639
>parentmass 384.18059999999997
>ionization [M+H]+
>formula C22H25NO5
>rt 339.900000
>profile qtof
#smiles_iso CN1CCC2=C(C(=C(C3=C2[C@@H]1CC4=CC(=C(C=C43)OC)OC)OC)OC)C=O
#smiles_can CN1CCC2=C(C(=C(C3=C2C1CC4=CC(=C(C=C43)OC)OC)OC)OC)C=O
#inchikey CLSKRRFGIZCINS-INIZCTEOSA-N
#pubchem_id 11908466
#mb_accession BML00783,BML00794,BML00805

>ms2
281.115000 62.000000
282.120800 80.000000
293.113200 367.000000
294.120800 322.000000
295.099200 71.000000
295.129000 61.000000
307.097500 128.000000
310.117100 261.000000
313.138600 139.000000
313.145700 194.000000
322.106800 51.000000
323.092800 111.000000
323.128400 53.000000
324.156900 179.000000
325.139000 543.000000
326.113100 121.000000
334.141700 79.000000
335.143700 94.000000
336.117500 160.000000
338.109800 127.000000
341.135000 614.000000
350.139500 83.000000
351.143600 123.000000
352.149400 119.000000
353.135200 3358.000000
353.202000 67.000000
354.126800 86.000000
356.182200 135.000000
366.166200 3009.000000
366.257000 57.000000
369.155100 257.000000
384.178000 10056.000000

>ms2
235.075400 22.000000
247.070700 25.000000
251.102200 33.000000
262.098900 46.000000
263.097200 23.000000
264.108800 24.000000
267.093300 22.000000
267.105500 55.000000
277.085700 35.000000
278.097700 62.000000
279.090000 49.000000
279.101700 99.000000
280.106200 35.000000
281.115200 61.000000
281.131500 21.000000
282.126000 280.000000
283.097500 64.000000
292.123600 22.000000
293.116800 183.000000
293.160700 24.000000
294.122300 832.000000
295.089600 154.000000
295.134400 91.000000
296.105400 30.000000
298.118000 137.000000
305.083500 31.000000
307.091800 320.000000
307.127000 32.000000
308.099200 69.000000
308.129700 39.000000
308.147700 40.000000
309.114600 44.000000
310.117900 501.000000
310.157500 23.000000
311.091500 97.000000
311.125400 37.000000
313.141200 503.000000
313.178400 29.000000
320.108000 80.000000
320.125100 78.000000
321.113200 53.000000
322.121400 146.000000
323.091500 331.000000
323.122300 59.000000
323.153300 23.000000
324.123100 30.000000
324.157700 58.000000
325.141200 488.000000
325.192900 31.000000
326.113500 143.000000
334.136400 182.000000
334.173500 27.000000
335.150600 146.000000
336.119500 454.000000
336.163100 36.000000
337.105100 20.000000
338.114800 267.000000
338.156900 29.000000
341.132600 391.000000
350.138000 178.000000
351.130700 40.000000
351.143700 137.000000
353.136900 1806.000000
353.194400 109.000000
353.231600 58.000000
353.309000 35.000000
353.820700 21.000000
354.132200 309.000000
366.098600 27.000000
366.165600 1159.000000
366.227200 52.000000
368.142100 27.000000
369.152800 480.000000
369.209900 33.000000
384.177400 635.000000

>ms2
153.067800 47.000000
165.067300 79.000000
166.075100 30.000000
167.079400 31.000000
169.059900 24.000000
176.060200 22.000000
177.069500 49.000000
178.069000 29.000000
178.081600 28.000000
179.085600 95.000000
181.061500 31.000000
181.099000 26.000000
189.069000 61.000000
190.081900 50.000000
191.080000 113.000000
193.100600 31.000000
194.071300 63.000000
195.077400 106.000000
195.083400 22.000000
196.076400 26.000000
196.089700 35.000000
197.102400 24.000000
203.079000 33.000000
203.093200 32.000000
204.089900 29.000000
205.064100 50.000000
206.073600 27.000000
207.080600 118.000000
208.084600 130.000000
209.060100 35.000000
209.096700 87.000000
210.077300 23.000000
211.076700 68.000000
211.110400 28.000000
212.073800 53.000000
215.086100 33.000000
217.062600 31.000000
218.067500 74.000000
219.078500 193.000000
220.051200 24.000000
220.089300 127.000000
221.091700 116.000000
222.059300 22.000000
223.078500 87.000000
223.105700 143.000000
224.079900 286.000000
225.091900 48.000000
226.096600 25.000000
227.103400 101.000000
231.064600 22.000000
231.086900 34.000000
232.086300 31.000000
233.052400 28.000000
233.098600 145.000000
234.063200 149.000000
234.089200 21.000000
235.071600 122.000000
235.101100 51.000000
236.080100 306.000000
236.108800 35.000000
237.053400 47.000000
237.085100 150.000000
238.067400 30.000000
239.071300 29.000000
239.102800 459.000000
240.074100 44.000000
241.080200 34.000000
246.065600 41.000000
247.074100 171.000000
248.075800 22.000000
248.094200 26.000000
249.089700 146.000000
249.115500 37.000000
250.058300 49.000000
250.093400 73.000000
251.071600 77.000000
251.102100 367.000000
252.074000 111.000000
252.114600 36.000000
253.102600 40.000000
253.123500 27.000000
254.091100 87.000000
255.099900 142.000000
261.083200 142.000000
261.095900 61.000000
261.111400 48.000000
262.062100 83.000000
262.090200 101.000000
262.112400 20.000000
263.062400 32.000000
263.079900 128.000000
263.111000 49.000000
264.069800 90.000000
264.083300 102.000000
264.123100 37.000000
264.145400 28.000000
265.043900 27.000000
265.080700 134.000000
265.100600 91.000000
265.126400 47.000000
266.052800 39.000000
266.091500 73.000000
267.099000 626.000000
267.131400 32.000000
267.145600 25.000000
268.071500 30.000000
269.081100 23.000000
269.117900 238.000000
270.091900 33.000000
274.081000 33.000000
275.066400 23.000000
275.085900 47.000000
276.076200 56.000000
276.099900 34.000000
277.087100 335.000000
278.086900 152.000000
278.121500 36.000000
279.045000 21.000000
279.100800 712.000000
280.062300 23.000000
280.077400 65.000000
280.101700 111.000000
280.134600 25.000000
281.066200 22.000000
281.087000 27.000000
281.112100 111.000000
281.124100 27.000000
282.078000 29.000000
282.120700 231.000000
283.092800 388.000000
285.106900 34.000000
287.085900 45.000000
288.091200 35.000000
289.085400 351.000000
289.126400 47.000000
290.076400 49.000000
290.115300 32.000000
291.073000 57.000000
291.099100 93.000000
291.127800 53.000000
292.086300 89.000000
292.106600 21.000000
292.138500 37.000000
293.071800 58.000000
293.103000 240.000000
293.139500 22.000000
294.079900 50.000000
294.120800 223.000000
295.093100 1184.000000
295.531500 20.000000
296.098100 28.000000
297.112800 37.000000
298.115300 131.000000
298.142300 31.000000
301.099700 21.000000
303.080700 30.000000
304.095300 102.000000
304.123400 25.000000
305.079400 201.000000
305.101200 82.000000
306.076600 33.000000
306.114200 65.000000
307.081600 36.000000
307.097500 298.000000
307.174400 30.000000
308.123400 468.000000
308.148600 22.000000
309.107700 86.000000
310.110200 90.000000
310.126600 81.000000
310.147800 21.000000
311.089000 138.000000
311.110500 69.000000
313.102500 21.000000
313.140300 258.000000
318.107300 84.000000
319.115800 68.000000
320.088800 66.000000
320.128400 117.000000
321.106100 90.000000
322.082700 23.000000
322.113700 111.000000
323.085400 365.000000
324.083200 141.000000
324.123600 33.000000
325.135500 93.000000
326.126600 75.000000
334.107400 136.000000
334.137000 121.000000
335.111600 222.000000
335.156300 25.000000
336.119100 407.000000
336.151700 22.000000
336.170000 20.000000
337.114600 26.000000
338.105900 111.000000
339.106100 118.000000
350.140500 114.000000
352.114300 39.000000
353.131600 32.000000
354.129300 480.000000
354.176800 53.000000

