>compound BML4655925
>parentmass 308.1493
>ionization [M+H]+
>formula C16H21NO5
>rt 436.560000
>profile qtof
#smiles_iso CC(C)(C(COC1=CC=CC2=C1N(C(=O)C=C2OC)C)O)O
#smiles_can CC(C)(C(COC1=CC=CC2=C1N(C(=O)C=C2OC)C)O)O
#inchikey IUPYLWAXGAJZQC-UHFFFAOYSA-N
#pubchem_id 2837663
#mb_accession BML00005,BML00018,BML00031

>ms2peaks
146.057400 34.000000
204.067500 72.000000
205.071200 204.000000
206.078700 209.000000
218.082900 88.000000
230.085700 34.000000
260.125500 33.000000
272.124700 81.000000
290.138200 1131.000000
290.191500 39.000000
308.148800 3181.000000
308.195500 151.000000
308.233900 35.000000
308.306700 55.000000

>ms2peaks
146.062600 32.000000
162.048000 25.000000
173.042000 73.000000
174.053700 139.000000
176.069300 23.000000
187.118600 26.000000
188.066600 169.000000
190.048900 59.000000
191.057900 79.000000
192.061500 34.000000
192.070900 27.000000
203.054700 47.000000
204.064200 228.000000
205.072500 968.000000
205.119400 35.000000
206.079100 843.000000
206.121200 33.000000
218.081500 323.000000
219.078900 27.000000
230.083700 119.000000
244.138800 29.000000
260.129400 36.000000
272.128300 57.000000
290.138000 1368.000000
290.187000 63.000000
290.221800 36.000000
291.145500 25.000000
308.149000 331.000000

>ms2peaks
104.054400 26.000000
105.065600 31.000000
106.064700 25.000000
108.040000 21.000000
116.049600 50.000000
117.033100 21.000000
117.058000 66.000000
118.064500 104.000000
119.052500 45.000000
120.040800 28.000000
121.051800 35.000000
130.066000 51.000000
134.059500 125.000000
144.044500 95.000000
144.064200 31.000000
145.025200 65.000000
145.039300 22.000000
146.058400 211.000000
147.044200 66.000000
147.063700 33.000000
148.038500 60.000000
158.061600 39.000000
159.028500 53.000000
160.071000 28.000000
161.045500 80.000000
162.056100 228.000000
163.060500 123.000000
172.039000 42.000000
173.026300 22.000000
173.045400 112.000000
174.053900 205.000000
175.062600 47.000000
176.037800 50.000000
176.069000 89.000000
177.068700 22.000000
178.086100 20.000000
188.064100 23.000000
188.077200 37.000000
190.049100 294.000000
191.058400 571.000000
191.099800 22.000000
192.064400 33.000000
204.065300 92.000000
205.073100 269.000000
206.081000 488.000000
206.117300 31.000000

