>compound BML4999276
>parentmass 339.1591
>ionization [M+H]+
>formula C21H22O4
>rt 680.220000
>profile qtof
#smiles_iso CC(=CCCC(=CCOC1=C2C=CC(=O)OC2=CC3=C1C=CO3)C)C
#smiles_can CC(=CCCC(=CCOC1=C2C=CC(=O)OC2=CC3=C1C=CO3)C)C
#inchikey DBMJZOMNXBSRED-UHFFFAOYSA-N
#pubchem_id 119057
#mb_accession BML00648,BML00659,BML00670

>ms2peaks
147.042900 36.000000
203.031700 1364.000000
203.066100 27.000000
203.080400 34.000000

>ms2peaks
147.039100 74.000000
159.042100 53.000000
203.032400 753.000000
203.073500 27.000000

>ms2peaks
103.057200 20.000000
119.052700 24.000000
131.050000 122.000000
147.043700 328.000000
159.045900 69.000000
203.032500 74.000000

