>compound BML4637260
>parentmass 253.0859
>ionization [M+H]+
>formula C16H12O3
>rt 574.920000
>profile qtof
#smiles_iso CC1=CC2=C(C=C1)OC(=C(C2=O)O)C3=CC=CC=C3
#smiles_can CC1=CC2=C(C=C1)OC(=C(C2=O)O)C3=CC=CC=C3
#inchikey KLGALCMPMFKGDQ-UHFFFAOYSA-N
#pubchem_id 227445
#mb_accession BML00285,BML00294,BML00303

>ms2peaks
253.084200 692.000000
253.126600 27.000000

>ms2peaks
105.029500 24.000000
105.035000 29.000000
119.049200 40.000000
135.043800 65.000000
148.971400 32.000000
178.078800 24.000000
253.084600 618.000000

>ms2peaks
105.030900 31.000000
135.046100 72.000000
178.072100 54.000000
178.084600 37.000000

