>compound BML4900365
>parentmass 384.1442
>ionization [M+H]+
>formula C21H21NO6
>rt 255.480000
>profile qtof
#smiles_iso CN1CCC2=CC3=C(C=C2C1C4C5=C(C(=C(C=C5)OC)OC)C(=O)O4)OCO3
#smiles_can CN1CCC2=CC3=C(C=C2C1C4C5=C(C(=C(C=C5)OC)OC)C(=O)O4)OCO3
#inchikey JZUTXVTYJDCMDU-UHFFFAOYSA-N
#pubchem_id 1309
#mb_accession BML00605,BML00613,BML00621

>ms2
149.058700 92.000000
190.085000 1183.000000
190.123600 48.000000
282.089600 40.000000
293.078400 127.000000
294.089300 64.000000
297.110600 84.000000
308.068400 52.000000
323.089100 1232.000000
323.139400 52.000000
323.174100 43.000000
335.088200 215.000000
341.111100 61.000000
353.102300 55.000000
366.124000 106.000000
384.142700 7710.000000

>ms2
149.059500 215.000000
160.056000 59.000000
176.070700 143.000000
188.068600 67.000000
189.081100 55.000000
190.085200 1787.000000
190.109300 42.000000
190.126900 102.000000
190.168300 24.000000
190.214000 25.000000
190.420300 21.000000
191.094600 52.000000
193.049600 64.000000
195.059200 28.000000
206.078400 50.000000
207.088200 32.000000
222.068800 29.000000
235.062300 21.000000
250.056200 35.000000
250.068600 22.000000
251.101000 35.000000
265.082000 123.000000
267.098500 41.000000
277.086400 83.000000
278.076200 30.000000
279.060600 28.000000
279.096200 34.000000
280.078300 48.000000
282.086500 71.000000
290.048300 23.000000
291.064800 58.000000
292.068500 97.000000
293.077700 684.000000
293.128100 62.000000
294.087100 137.000000
295.093200 213.000000
297.108100 78.000000
297.132800 24.000000
302.049500 31.000000
302.060900 39.000000
304.070400 47.000000
305.073900 75.000000
307.103000 22.000000
308.061900 80.000000
308.102900 27.000000
319.074500 25.000000
319.095700 39.000000
320.065200 154.000000
322.079600 125.000000
323.088900 3009.000000
323.139000 41.000000
323.174800 53.000000
323.204800 54.000000
323.249900 42.000000
323.303500 32.000000
323.426200 27.000000
323.497300 20.000000
323.584900 25.000000
323.646000 22.000000
323.674900 22.000000
323.856200 29.000000
324.058100 21.000000
324.099100 29.000000
324.508700 22.000000
325.099000 81.000000
333.074400 38.000000
335.089300 325.000000
335.105300 68.000000
335.128000 23.000000
337.107000 32.000000
338.127100 31.000000
341.093300 40.000000
348.120200 49.000000
351.107800 56.000000
353.095400 100.000000
366.132100 104.000000
384.143100 830.000000

>ms2
119.047100 24.000000
122.033800 25.000000
130.039000 39.000000
131.051400 27.000000
131.072000 35.000000
135.041000 23.000000
136.049800 23.000000
143.048500 22.000000
147.045800 29.000000
149.022200 21.000000
149.061900 62.000000
159.044100 38.000000
160.048300 20.000000
165.056600 30.000000
165.067700 64.000000
174.055400 49.000000
175.059500 41.000000
176.067600 302.000000
178.073900 71.000000
179.086600 54.000000
187.061500 28.000000
188.071700 67.000000
189.071700 67.000000
189.082800 36.000000
190.084400 901.000000
190.123400 34.000000
191.085900 23.000000
192.053800 22.000000
193.051500 96.000000
194.072600 137.000000
195.069400 36.000000
203.068200 23.000000
204.057500 67.000000
205.064100 84.000000
206.074200 72.000000
207.044500 21.000000
207.082700 48.000000
209.087800 35.000000
209.097000 60.000000
212.076300 37.000000
219.073400 28.000000
220.051100 47.000000
221.055200 183.000000
221.070600 23.000000
221.098000 42.000000
222.067100 203.000000
223.073100 56.000000
224.088900 28.000000
232.052700 153.000000
233.066900 37.000000
234.066600 137.000000
234.090700 27.000000
235.041200 25.000000
235.073200 152.000000
236.079000 50.000000
237.050800 49.000000
237.078500 47.000000
237.091700 112.000000
239.067800 39.000000
239.105700 47.000000
240.075500 22.000000
245.055600 43.000000
246.062600 31.000000
247.073000 49.000000
247.088500 23.000000
248.049600 30.000000
248.082200 26.000000
249.053500 343.000000
249.090700 51.000000
250.060000 469.000000
250.107700 32.000000
251.069700 216.000000
252.076900 86.000000
260.045000 120.000000
261.059300 48.000000
262.065300 80.000000
262.072600 27.000000
263.069800 97.000000
264.066700 22.000000
264.078900 45.000000
265.047100 98.000000
265.083400 435.000000
265.106200 39.000000
266.089300 57.000000
272.043800 36.000000
274.062300 86.000000
275.073700 37.000000
276.079100 38.000000
277.042600 138.000000
277.053300 96.000000
277.071300 52.000000
277.093400 38.000000
278.055100 236.000000
278.085700 63.000000
279.061700 177.000000
280.069100 186.000000
281.075400 44.000000
283.089500 20.000000
289.038500 28.000000
289.056000 77.000000
290.054500 22.000000
291.059400 110.000000
291.077700 45.000000
292.075000 167.000000
292.089400 28.000000
293.079600 525.000000
293.129300 23.000000
294.095300 22.000000
295.095200 150.000000
295.121100 34.000000
302.055500 110.000000
304.067800 84.000000
305.078600 21.000000
307.061500 77.000000
308.062500 133.000000
320.061400 49.000000
320.076000 24.000000
322.089000 35.000000
323.084800 112.000000
336.075900 25.000000

