>compound BML4097028
>parentmass 355.2016
>ionization [M+H]+
>formula C21H26N2O3
>rt 260.100000
>profile qtof
#smiles_iso CCC12CCCN3C1C4=C(CC3)C5=CC=CC=C5N4C(C2)(C(=O)OC)O
#smiles_can CCC12CCCN3C1C4=C(CC3)C5=CC=CC=C5N4C(C2)(C(=O)OC)O
#inchikey RXPRRQLKFXBCSJ-UHFFFAOYSA-N
#pubchem_id 5668
#mb_accession BML00348

>ms2
337.190300 105.000000
355.199000 422.000000

