>compound BML4929292
>parentmass 483.1906000000001
>ionization [M+H]+
>formula C24H27ClN6O3
>rt 518.100000
>profile qtof
#smiles_iso COC1=C(C=C(C=C1)CCNC2=NC(=NC(=N2)Cl)N3CC4CC(C3)C5=CC=CC(=O)N5C4)OC
#smiles_can COC1=C(C=C(C=C1)CCNC2=NC(=NC(=N2)Cl)N3CC4CC(C3)C5=CC=CC(=O)N5C4)OC
#inchikey DRVRFMGQMHIZLI-UHFFFAOYSA-N
#pubchem_id 3579737
#mb_accession BML01647,BML01658,BML01669

>ms2
165.089300 118.000000
447.227800 29.000000
483.190100 2258.000000

>ms2
105.073900 23.000000
150.063500 56.000000
165.089800 521.000000
165.128200 29.000000
447.212100 142.000000
483.190000 1516.000000

>ms2
105.071400 97.000000
133.065500 92.000000
134.066200 21.000000
134.077000 39.000000
135.044700 41.000000
135.079100 96.000000
149.061100 28.000000
150.065200 410.000000
160.073300 83.000000
165.089700 1452.000000
165.128800 55.000000
216.109200 43.000000
283.132100 27.000000
297.145800 20.000000
336.117100 20.000000
431.185800 25.000000
447.215600 84.000000
483.184500 54.000000
483.219300 21.000000

