>compound BML4625797
>parentmass 271.0601
>ionization [M+H]+
>formula C15H10O5
>rt 467.100000
>profile qtof
#smiles_iso C1=CC(=CC=C1C2=CC(=O)C3=C(C=C(C=C3O2)O)O)O
#smiles_can C1=CC(=CC=C1C2=CC(=O)C3=C(C=C(C=C3O2)O)O)O
#inchikey KZNIFHPLKGYRTM-UHFFFAOYSA-N
#pubchem_id 5280443
#mb_accession BML00404,BML00418

>ms2
192.962900 74.000000
271.059500 1007.000000

>ms2
119.050400 25.000000
153.019200 103.000000
163.033900 38.000000
163.044400 21.000000
225.056600 20.000000
271.057900 699.000000

