>compound BML4612066
>parentmass 411.1802
>ionization [M+H]+
>formula C24H26O6
>rt 669.600000
>profile qtof
#smiles_iso CC(=CCC1=C(C2=C(C=C1O)OC3=C(C2=O)C(=C(C(=C3)O)OC)CC=C(C)C)O)C
#smiles_can CC(=CCC1=C(C2=C(C=C1O)OC3=C(C2=O)C(=C(C(=C3)O)OC)CC=C(C)C)O)C
#inchikey GNRIZKKCNOBBMO-UHFFFAOYSA-N
#pubchem_id 5281650
#mb_accession BML00647

>ms2peaks
355.115500 237.000000
411.172500 45.000000

