>compound BML4445441
>parentmass 297.1122
>ionization [M+H]+
>formula C18H16O4
>rt 517.020000
>profile qtof
#smiles_iso CCOC1=CC2=C(C=C1)OC(=O)C(=C2C)C3=CC=C(C=C3)O
#smiles_can CCOC1=CC2=C(C=C1)OC(=O)C(=C2C)C3=CC=C(C=C3)O
#inchikey MOBDZHABRVPJCH-UHFFFAOYSA-N
#pubchem_id 688788
#mb_accession BML01707,BML01716,BML01725

>ms2
119.047100 25.000000
213.090400 27.000000
241.121800 23.000000
269.080600 34.000000
297.112000 1624.000000

>ms2
107.050100 26.000000
119.050100 93.000000
131.048800 45.000000
147.043100 142.000000
147.081400 36.000000
167.079800 25.000000
195.078800 55.000000
210.069400 33.000000
213.088800 119.000000
240.078400 48.000000
241.085800 39.000000
241.122300 60.000000
268.067700 21.000000
269.079600 311.000000
269.116400 40.000000
297.111400 998.000000

>ms2
103.051500 50.000000
107.048800 114.000000
119.048300 303.000000
131.047200 69.000000
141.067900 35.000000
147.042800 94.000000
147.076900 26.000000
148.049500 25.000000
152.060000 65.000000
153.070800 37.000000
165.068500 50.000000
167.085300 24.000000
169.064800 48.000000
170.071500 21.000000
177.069200 36.000000
179.086000 33.000000
181.063500 58.000000
182.072900 50.000000
184.087800 42.000000
195.077600 88.000000
197.059300 99.000000
198.068500 53.000000
210.064200 34.000000
212.085100 22.000000
213.090800 37.000000
226.060600 83.000000
269.078300 22.000000

