>compound BML4948362
>parentmass 455.2905
>ionization [M+H]+
>formula C27H38N2O4
>rt 398.940000
>profile qtof
#smiles_iso CC(C)C(CCCN(C)CCC1=CC(=C(C=C1)OC)OC)(C#N)C2=CC(=C(C=C2)OC)OC
#smiles_can CC(C)C(CCCN(C)CCC1=CC(=C(C=C1)OC)OC)(C#N)C2=CC(=C(C=C2)OC)OC
#inchikey SGTNSNPWRIOYBX-UHFFFAOYSA-N
#pubchem_id 2520
#mb_accession BML00815,BML00825,BML00835

>ms2peaks
150.066000 68.000000
165.089200 808.000000
303.203800 245.000000
455.288500 7215.000000

>ms2peaks
103.056900 29.000000
105.070500 42.000000
133.062900 51.000000
134.075300 21.000000
135.039700 21.000000
150.066800 260.000000
151.068500 22.000000
165.090000 3991.000000
165.126300 165.000000
165.151400 43.000000
165.175200 20.000000
165.208000 54.000000
166.096300 27.000000
218.118900 23.000000
260.160500 173.000000
260.168200 53.000000
261.160000 33.000000
303.204600 1040.000000
303.226000 24.000000
303.254000 37.000000
303.279000 29.000000
455.289100 3295.000000

>ms2peaks
103.053500 89.000000
104.060500 23.000000
105.069900 308.000000
107.052400 22.000000
118.040600 80.000000
119.050800 29.000000
120.056400 61.000000
121.063000 96.000000
122.073200 31.000000
122.099700 45.000000
131.049400 25.000000
133.063800 296.000000
134.071800 200.000000
135.043700 160.000000
135.079200 133.000000
136.054300 24.000000
137.056600 24.000000
138.069300 32.000000
149.057500 28.000000
150.066700 1350.000000
150.099000 35.000000
150.110100 32.000000
151.072300 173.000000
165.089800 2560.000000
165.129300 71.000000
165.149000 27.000000
165.207500 29.000000
177.089000 138.000000
191.105100 37.000000
202.087500 20.000000
217.113500 29.000000
218.114500 72.000000
243.138200 38.000000
245.142900 31.000000
260.160500 198.000000
261.157900 47.000000
303.206300 125.000000

