>compound BML4882310
>parentmass 228.1019
>ionization [M+H]+
>formula C14H13NO2
>rt 499.680000
>profile qtof
#smiles_iso CC1(C=CC2=C(O1)C3=CC=CC=C3NC2=O)C
#smiles_can CC1(C=CC2=C(O1)C3=CC=CC=C3NC2=O)C
#inchikey PXNMNABLQWUMCX-UHFFFAOYSA-N
#pubchem_id 68230
#mb_accession BML01221,BML01227,BML01233

>ms2
130.061700 25.000000
132.045500 27.000000
158.059600 61.000000
162.050700 21.000000
168.043000 30.000000
170.057200 38.000000
172.536100 40.000000
174.052900 308.000000
186.053700 647.000000
186.090100 188.000000
186.118600 28.000000
192.080400 23.000000
198.053600 21.000000
200.104200 128.000000
200.114200 27.000000
210.088900 243.000000
213.073300 49.000000
228.100700 9464.000000

>ms2
109.063500 137.000000
118.064000 46.000000
120.042400 111.000000
128.047900 110.000000
130.066200 231.000000
132.042500 163.000000
133.525000 39.000000
135.042200 28.000000
140.047500 46.000000
143.071900 35.000000
144.079800 49.000000
146.022600 106.000000
146.059600 208.000000
148.036800 105.000000
152.062000 26.000000
156.041800 87.000000
157.091600 31.000000
158.058100 780.000000
158.094800 139.000000
162.053700 96.000000
165.069400 122.000000
166.061000 39.000000
167.073200 118.000000
168.042900 447.000000
168.078700 118.000000
168.101200 20.000000
169.082400 25.000000
170.061100 133.000000
172.073800 100.000000
172.108800 125.000000
174.053500 2194.000000
174.088000 20.000000
174.108900 35.000000
174.174300 21.000000
181.087200 38.000000
182.060700 55.000000
182.094500 211.000000
183.081100 23.000000
184.108600 42.000000
185.078000 24.000000
186.053400 2465.000000
186.088700 894.000000
186.124600 40.000000
186.146300 28.000000
186.179400 31.000000
186.277000 20.000000
188.069800 38.000000
191.070400 21.000000
192.079200 368.000000
195.068200 69.000000
198.055000 101.000000
199.065400 47.000000
200.069200 138.000000
200.104800 390.000000
200.149900 24.000000
210.089800 1487.000000
210.128500 47.000000
210.163600 20.000000
212.067900 122.000000
213.077900 463.000000
226.083100 33.000000
228.100000 3540.000000

>ms2
101.038800 76.000000
102.032800 29.000000
103.055300 140.000000
104.049200 94.000000
106.065700 26.000000
113.036800 112.000000
115.053400 313.000000
116.047000 79.000000
116.056000 30.000000
117.053600 27.000000
117.059800 63.000000
118.064500 91.000000
120.043500 458.000000
127.054500 129.000000
128.049100 472.000000
129.057600 32.000000
129.071000 31.000000
130.027800 106.000000
130.064500 671.000000
130.094500 24.000000
132.045300 109.000000
139.051000 26.000000
140.048800 494.000000
140.087400 22.000000
141.052800 26.000000
142.065100 93.000000
143.074200 71.000000
144.041800 74.000000
144.078400 32.000000
146.022700 105.000000
146.058600 106.000000
148.045000 27.000000
152.064100 46.000000
153.066500 28.000000
154.064100 88.000000
156.043900 90.000000
156.079800 68.000000
156.091400 24.000000
157.081900 30.000000
158.061000 102.000000
165.068300 162.000000
166.064100 199.000000
167.071900 698.000000
168.043100 729.000000
168.065900 20.000000
168.080600 91.000000
170.060300 340.000000
172.076300 24.000000
174.052500 237.000000
177.054600 40.000000
178.065900 27.000000
179.070900 43.000000
180.080300 105.000000
182.057100 33.000000
182.098100 31.000000
184.074500 71.000000
186.056000 155.000000
190.065000 53.000000
191.070500 72.000000
192.081700 69.000000
194.055500 61.000000
195.068300 164.000000
198.054200 453.000000
208.078300 36.000000
210.088400 65.000000
210.103800 26.000000
212.068700 293.000000
213.071600 23.000000

