>compound BML4473742
>parentmass 147.0441
>ionization [M+H]+
>formula C9H6O2
>rt 289.140000
>profile qtof
#smiles_iso C1=CC=C2C(=C1)C=CC(=O)O2
#smiles_can C1=CC=C2C(=C1)C=CC(=O)O2
#inchikey ZYGHJZDHTFUPRJ-UHFFFAOYSA-N
#pubchem_id 323
#mb_accession BML01352,BML01359,BML01366

>ms2
103.054500 434.000000
147.043700 1208.000000

>ms2
102.049000 55.000000
103.054000 1011.000000
103.083900 41.000000
147.043800 254.000000

>ms2
423.598900 21.000000
782.259100 23.000000

