>compound BML4666198
>parentmass 345.0969
>ionization [M+H]+
>formula C18H16O7
>rt 520.740000
>profile qtof
#smiles_iso COC1=CC(=CC(=C1OC)OC)C2=C(C(=O)C3=C(O2)C=C(C=C3)O)O
#smiles_can COC1=CC(=CC(=C1OC)OC)C2=C(C(=O)C3=C(O2)C=C(C=C3)O)O
#inchikey NJNGYVOYOVPWBB-UHFFFAOYSA-N
#pubchem_id 6250403
#mb_accession BML01809,BML01819,BML01829

>ms2
167.072300 30.000000
262.976900 70.000000
345.095200 622.000000

>ms2
104.993500 29.000000
137.024000 40.000000
167.068000 42.000000
284.068600 69.000000
286.079100 23.000000
297.024500 24.000000
297.042300 24.000000
312.057200 29.000000
315.048700 26.000000
315.070100 26.000000
329.058400 23.000000
345.094200 255.000000

>ms2
137.022200 49.000000
147.041800 25.000000
189.056000 24.000000
227.062800 22.000000
241.049900 41.000000
245.041500 28.000000
254.044200 24.000000
255.062900 43.000000
259.055000 23.000000
269.047400 55.000000
283.057800 31.000000
299.056200 27.000000
315.052000 22.000000

