>compound BML4171299
>parentmass 177.05460000000002
>ionization [M+H]+
>formula C10H8O3
>rt 289.200000
>profile qtof
#smiles_iso CC1=CC(=O)OC2=C1C=C(C=C2)O
#smiles_can CC1=CC(=O)OC2=C1C=C(C=C2)O
#inchikey IRUHWRSITUYICV-UHFFFAOYSA-N
#pubchem_id 75409
#mb_accession BML01379,BML01388,BML01397

>ms2peaks
103.058100 30.000000
105.070300 212.000000
115.055700 40.000000
116.947200 52.000000
121.064600 189.000000
133.065800 21.000000
147.044600 24.000000
148.049300 55.000000
149.056800 34.000000
176.044000 42.000000
177.054300 2384.000000

>ms2peaks
103.054100 326.000000
105.069400 323.000000
115.054900 83.000000
116.948200 22.000000
121.064500 467.000000
121.093500 26.000000
131.048700 69.000000
147.037100 29.000000
147.045900 34.000000
148.052700 36.000000
149.056900 87.000000
177.054800 359.000000

>ms2peaks
102.044600 28.000000
103.054100 258.000000
103.072000 24.000000
131.050100 23.000000
147.041500 46.000000

