>compound BML4325681
>parentmass 277.1071
>ionization [M+H]+
>formula C15H16O5
>rt 464.640000
>profile qtof
#smiles_iso CC(=CCOC1=C(C=C2C=CC(=O)OC2=C1O)OC)C
#smiles_can CC(=CCOC1=C(C=C2C=CC(=O)OC2=C1O)OC)C
#inchikey QJZRVRVZRIXGMR-UHFFFAOYSA-N
#pubchem_id 644959
#mb_accession BML00162,BML00176

>ms2
149.018900 33.000000
149.034500 24.000000
163.036500 25.000000
194.029200 24.000000
198.501800 21.000000
209.044200 1292.000000
209.088800 71.000000

>ms2
107.048700 41.000000
110.029600 25.000000
133.028800 40.000000
135.044000 99.000000
138.032200 21.000000
149.019400 183.000000
149.030900 20.000000
163.036200 131.000000
177.017700 29.000000
181.045800 22.000000
181.056900 25.000000
194.020000 117.000000
209.044200 518.000000

