>compound BML4105346
>parentmass 253.0932
>ionization [M+H]+
>formula C10H12N4O4
>rt 109.500000
>profile qtof
#smiles_iso C1=C2C(=NC=N1)N(C=N2)C3C(C(C(O3)CO)O)O
#smiles_can C1=C2C(=NC=N1)N(C=N2)C3C(C(C(O3)CO)O)O
#inchikey MRWXACSTFXYYMV-UHFFFAOYSA-N
#pubchem_id 248425
#mb_accession BML01218,BML01224,BML01230

>ms2peaks
117.054900 24.000000
119.035800 39.000000
121.050900 1585.000000
121.076000 62.000000
121.098700 31.000000
136.061200 2766.000000
136.093400 88.000000
136.113300 57.000000
136.144600 27.000000
136.169400 25.000000
137.062800 255.000000
173.961900 22.000000
181.007300 28.000000
192.959600 51.000000
193.963200 36.000000
252.110100 36.000000
253.107200 54.000000

>ms2peaks
102.926400 32.000000
117.054900 89.000000
119.034700 109.000000
121.050500 2204.000000
121.083100 56.000000
121.150700 23.000000
136.060400 2619.000000
136.095200 102.000000
136.116600 41.000000
136.149500 29.000000
136.171100 32.000000
137.064500 362.000000
137.101300 33.000000
149.976400 44.000000
193.960300 28.000000

>ms2peaks
119.035000 686.000000
119.057100 42.000000
119.299800 20.000000
120.037100 105.000000
121.050400 1082.000000
121.078100 43.000000
122.175100 34.000000
136.061100 921.000000
136.091300 22.000000
137.058200 27.000000
137.068700 86.000000

