>compound BML4736933
>parentmass 285.0394
>ionization [M+H]+
>formula C15H8O6
>rt 510.480000
>profile qtof
#smiles_iso C1=CC2=C(C(=C1)O)C(=O)C3=C(C2=O)C=C(C=C3O)C(=O)O
#smiles_can C1=CC2=C(C(=C1)O)C(=O)C3=C(C2=O)C=C(C=C3O)C(=O)O
#inchikey FCDLCPWAQCPTKC-UHFFFAOYSA-N
#pubchem_id 10168
#mb_accession BML01013

>ms2
241.046200 60.000000
285.039500 270.000000

