>compound BML4531582
>parentmass 257.0809
>ionization [M+H]+
>formula C15H12O4
>rt 470.520000
>profile qtof
#smiles_iso C1[C@@H](OC2=CC(=CC(=C2C1=O)O)O)C3=CC=CC=C3
#smiles_can C1C(OC2=CC(=CC(=C2C1=O)O)O)C3=CC=CC=C3
#inchikey URFCJEUYXNAHFI-CYBMUJFWSA-N
#pubchem_id 667544
#mb_accession BML00105,BML00117,BML00129

>ms2
131.047900 83.000000
153.017500 163.000000
176.985500 37.000000
178.983600 23.000000
257.080600 448.000000

>ms2
103.052100 161.000000
131.047800 433.000000
131.080200 26.000000
131.991400 21.000000
147.081000 67.000000
151.043800 45.000000
153.018400 925.000000
153.057000 20.000000
154.017100 29.000000
178.988400 26.000000
215.072000 25.000000
229.051800 20.000000
239.050000 28.000000
257.080700 184.000000

>ms2
103.052500 118.000000
153.017300 189.000000

