>compound BML4796950
>parentmass 221.0476
>ionization [M+H]+
>formula C11H9ClN2O
>rt 423.900000
>profile qtof
#smiles_iso C1CNC(=O)C2=C1C3=C(N2)C(=CC=C3)Cl
#smiles_can C1CNC(=O)C2=C1C3=C(N2)C(=CC=C3)Cl
#inchikey ILCLBYYAGZLAGC-UHFFFAOYSA-N
#pubchem_id 4174840
#mb_accession BML01805,BML01815,BML01825

>ms2peaks
131.072800 32.000000
143.073800 51.000000
157.080800 35.000000
158.082200 210.000000
164.028000 35.000000
166.040000 120.000000
176.025000 27.000000
178.040700 100.000000
191.036700 32.000000
192.017900 43.000000
192.040900 45.000000
193.051200 653.000000
193.086000 22.000000
204.018300 34.000000
221.046200 2203.000000

>ms2peaks
130.065800 100.000000
131.073500 114.000000
140.050800 23.000000
141.056900 27.000000
143.071600 87.000000
149.013900 23.000000
156.067700 37.000000
157.074800 97.000000
158.083800 764.000000
158.121600 31.000000
164.022900 128.000000
166.041000 295.000000
176.025000 91.000000
178.039400 79.000000
178.046300 31.000000
192.016800 36.000000
192.041900 127.000000
193.051500 443.000000
203.037000 45.000000
204.016800 43.000000
221.046800 203.000000

>ms2peaks
101.039900 98.000000
103.059800 43.000000
114.046700 94.000000
115.055200 119.000000
116.049000 21.000000
117.055700 84.000000
122.999400 25.000000
128.050200 136.000000
129.058000 50.000000
130.064800 1196.000000
130.095300 42.000000
130.114900 23.000000
131.072000 231.000000
140.048000 173.000000
141.055100 172.000000
142.059100 41.000000
143.072100 160.000000
149.014500 114.000000
150.010900 23.000000
151.013600 20.000000
156.066300 68.000000
157.076000 223.000000
158.081900 379.000000
158.119900 22.000000
164.024000 285.000000
191.031300 22.000000
192.035300 25.000000
192.050600 23.000000

