>compound BML4051573
>parentmass 315.0863
>ionization [M+H]+
>formula C17H14O6
>rt 498.300000
>profile qtof
#smiles_iso COC1=C(C=C(C=C1)C2=C(C(=O)C3=C(O2)C=C(C=C3)O)O)OC
#smiles_can COC1=C(C=C(C=C1)C2=C(C(=O)C3=C(O2)C=C(C=C3)O)O)OC
#inchikey LTSJJOKAWSCMBC-UHFFFAOYSA-N
#pubchem_id 5378832
#mb_accession BML01645,BML01656,BML01667

>ms2
123.043500 22.000000
299.046300 25.000000
315.086000 765.000000

>ms2
271.061300 30.000000
299.054900 107.000000
300.066200 43.000000
315.085200 223.000000

>ms2
137.023600 54.000000
149.023200 22.000000
197.060400 33.000000
243.069100 27.000000
253.039100 32.000000
253.060600 34.000000
254.054900 37.000000
271.058100 60.000000
271.064800 48.000000
299.053000 135.000000

