>compound BML5370146
>parentmass 352.1616000000001
>ionization [M+H]+
>formula C15H21N5O5
>rt 237.900000
>profile qtof
#smiles_iso CC(=CCNC1=C2C(=NC=N1)N(C=N2)C3C(C(C(O3)CO)O)O)CO
#smiles_can CC(=CCNC1=C2C(=NC=N1)N(C=N2)C3C(C(C(O3)CO)O)O)CO
#inchikey GOSWTRUMMSCNCW-UHFFFAOYSA-N
#pubchem_id 5529
#mb_accession BML00907,BML00918,BML00929

>ms2
119.035900 27.000000
136.057200 110.000000
136.065600 39.000000
148.061600 51.000000
185.083600 22.000000
202.106800 112.000000
220.118600 1315.000000
220.162500 78.000000
352.159700 1024.000000

>ms2
136.061100 1011.000000
136.092200 30.000000
148.062900 298.000000
185.081400 57.000000
202.108700 502.000000
220.118100 1455.000000
220.161400 81.000000
352.157100 57.000000

>ms2
119.034600 152.000000
136.061000 863.000000
136.095700 31.000000
146.041400 20.000000
148.060800 123.000000
157.056000 23.000000
185.078400 54.000000
202.101500 33.000000
202.110900 44.000000

