>compound BML5980784
>parentmass 190.0499
>ionization [M+H]+
>formula C10H7NO3
>rt 163.800000
>profile qtof
#smiles_iso C1=CC=C2C(=C1)C(=O)C=C(N2)C(=O)O
#smiles_can C1=CC=C2C(=C1)C(=O)C=C(N2)C(=O)O
#inchikey HCZHHEIFKROPDY-UHFFFAOYSA-N
#pubchem_id 3845
#mb_accession BML00236,BML00243,BML00250

>ms2peaks
116.049200 130.000000
144.043800 4850.000000
144.082800 112.000000
144.106300 64.000000
144.127700 54.000000
144.154400 124.000000
162.053400 30.000000
172.039800 995.000000
172.077100 33.000000
190.048400 1104.000000

>ms2peaks
116.048600 1007.000000
144.044100 9445.000000
144.079700 261.000000
144.096700 100.000000
144.111800 50.000000
144.127400 81.000000
144.155300 243.000000
172.034900 93.000000

>ms2peaks
100.015500 32.000000
101.037100 114.000000
116.049300 1825.000000
116.080600 54.000000
116.101200 34.000000
116.148900 26.000000
121.049300 29.000000
126.027500 30.000000
144.042700 329.000000
144.071800 23.000000

