>compound BML5431024
>parentmass 338.1459
>ionization [M+H]+
>formula C14H19N5O5
>rt 259.440000
>profile qtof
#smiles_iso CC(C)C(=O)NC1=NC2=C(C(=O)N1)N=CN2[C@H]3C[C@@H]([C@H](O3)CO)O
#smiles_can CC(C)C(=O)NC1=NC2=C(C(=O)N1)N=CN2C3CC(C(O3)CO)O
#inchikey SIDXEQFMTMICKG-DJLDLDEBSA-N
#pubchem_id 135407017
#mb_accession BML01752,BML01763,BML01774

>ms2
117.055800 213.000000
135.027400 23.000000
152.056400 441.000000
204.082700 32.000000
204.091900 41.000000
222.097700 4039.000000
222.142400 154.000000
222.197700 24.000000
222.236800 44.000000

>ms2
117.054100 221.000000
135.028200 104.000000
152.056400 1704.000000
152.090500 67.000000
152.110300 33.000000
204.087300 323.000000
222.098200 2799.000000
222.138900 131.000000
222.232700 21.000000

>ms2
110.034500 126.000000
135.029600 573.000000
152.056100 1570.000000
152.091400 52.000000
162.040400 29.000000
204.087800 77.000000
222.098900 66.000000

