>compound BML5669160
>parentmass 273.0758
>ionization [M+H]+
>formula C15H12O5
>rt 398.160000
>profile qtof
#smiles_iso C1C(OC2=CC(=CC(=C2C1=O)O)O)C3=CC=C(C=C3)O
#smiles_can C1C(OC2=CC(=CC(=C2C1=O)O)O)C3=CC=C(C=C3)O
#inchikey FTVWIRXFELQLPI-UHFFFAOYSA-N
#pubchem_id 932
#mb_accession BML00645,BML00656,BML00667

>ms2peaks
147.043300 258.000000
147.077100 22.000000
153.017200 447.000000
153.028900 33.000000
153.051700 30.000000
163.067900 25.000000
164.947900 24.000000
194.954100 32.000000
273.071300 1330.000000

>ms2peaks
107.049500 58.000000
119.048900 79.000000
123.038300 43.000000
123.044600 31.000000
135.942700 25.000000
147.043500 491.000000
147.096600 21.000000
153.016900 1158.000000
153.058200 39.000000
153.076300 24.000000
189.054700 23.000000
273.074400 85.000000

>ms2peaks
107.045600 21.000000
107.052900 21.000000
111.008300 37.000000
119.050300 266.000000
125.024500 22.000000
147.041200 49.000000
153.018400 490.000000

