>compound BML5999690
>parentmass 269.0809
>ionization [M+H]+
>formula C16H12O4
>rt 580.380000
>profile qtof
#smiles_iso COC1=CC=CC(=C1)C2=CC(=O)C3=C(C=CC=C3O2)O
#smiles_can COC1=CC=CC(=C1)C2=CC(=O)C3=C(C=CC=C3O2)O
#inchikey IPQOBEBHJDIMQR-UHFFFAOYSA-N
#pubchem_id 688678
#mb_accession BML01758,BML01769,BML01780

>ms2
104.991900 209.000000
176.987800 36.000000
226.065100 60.000000
269.079200 1332.000000

>ms2
104.994200 59.000000
137.023700 44.000000
226.062900 426.000000
226.101700 21.000000
254.057700 186.000000
269.079900 1190.000000

>ms2
137.022500 308.000000
226.061800 573.000000
226.107500 22.000000

