>compound BML5770950
>parentmass 257.1132
>ionization [M+H]+
>formula C11H16N2O5
>rt 146.280000
>profile qtof
#smiles_iso CCC1=CN(C(=O)NC1=O)C2CC(C(O2)CO)O
#smiles_can CCC1=CN(C(=O)NC1=O)C2CC(C(O2)CO)O
#inchikey XACKNLSZYYIACO-UHFFFAOYSA-N
#pubchem_id 1814
#mb_accession BML01220

>ms2
124.044400 23.000000
141.064600 549.000000

