>compound BML5190780
>parentmass 314.1751
>ionization [M+H]+
>formula C19H23NO3
>rt 210.360000
>profile qtof
#smiles_iso CN(C)CCC12C3C=CC(C1OC4=C(C=CC(=C24)C=C3)OC)O
#smiles_can CN(C)CCC12C3C=CC(C1OC4=C(C=CC(=C24)C=C3)OC)O
#inchikey ZOCTZZQDDXGIRB-UHFFFAOYSA-N
#pubchem_id 3395837
#mb_accession BML00865,BML00874,BML00883

>ms2
137.065000 25.000000
161.057300 25.000000
165.068600 20.000000
171.448400 23.000000
174.070000 24.000000
181.057900 24.000000
183.079100 43.000000
187.075500 62.000000
193.067200 24.000000
194.068800 21.000000
199.068200 63.000000
215.105800 267.000000
225.090700 93.000000
237.090500 40.000000
241.083100 25.000000
243.098900 696.000000
243.141200 45.000000
254.101300 21.000000
269.114500 79.000000
296.157500 21.000000
314.173600 2661.000000

>ms2
115.052200 21.000000
141.069600 42.000000
153.072900 24.000000
155.081300 72.000000
156.055400 21.000000
159.072600 22.000000
161.056700 124.000000
165.069400 100.000000
171.076800 26.000000
174.065700 49.000000
181.061700 55.000000
183.078400 192.000000
185.054300 34.000000
187.067700 42.000000
187.079300 61.000000
187.106200 41.000000
191.081700 35.000000
193.066100 90.000000
194.071100 28.000000
195.075300 24.000000
197.093200 33.000000
199.073900 237.000000
200.082100 45.000000
209.066300 24.000000
209.094600 59.000000
211.096600 21.000000
213.092700 100.000000
215.107400 554.000000
215.157600 28.000000
219.083100 25.000000
220.085800 21.000000
223.117100 22.000000
225.088800 176.000000
236.072300 20.000000
237.087600 76.000000
239.095100 22.000000
241.083300 110.000000
241.123200 32.000000
243.101300 312.000000
251.099500 53.000000
269.111600 51.000000
314.172400 203.000000

>ms2
115.055800 52.000000
121.063900 27.000000
127.051400 33.000000
128.059800 97.000000
129.072800 38.000000
137.056000 21.000000
141.068600 41.000000
143.083900 21.000000
144.058000 71.000000
152.060200 86.000000
153.069500 170.000000
154.081000 36.000000
155.046800 28.000000
155.088900 77.000000
156.055800 78.000000
158.075200 35.000000
159.077600 41.000000
161.059200 53.000000
164.065000 23.000000
165.070800 377.000000
167.083600 29.000000
168.057300 34.000000
170.040600 40.000000
171.078400 119.000000
172.053700 23.000000
172.078300 26.000000
181.061000 111.000000
181.099200 22.000000
182.071800 62.000000
183.040300 33.000000
183.047700 39.000000
183.075600 57.000000
185.058900 76.000000
187.076100 30.000000
190.081000 37.000000
191.081300 38.000000
193.060800 37.000000
194.073100 113.000000
197.062300 21.000000
198.070100 78.000000
199.072700 69.000000
201.093600 24.000000
210.060600 46.000000
211.068300 26.000000
213.096200 20.000000
223.075700 29.000000
225.088900 41.000000
241.085500 22.000000

