>compound BML5638254
>parentmass 255.0652
>ionization [M+H]+
>formula C15H10O4
>rt 584.220000
>profile qtof
#smiles_iso CC1=CC2=C(C(=C1)O)C(=O)C3=C(C2=O)C=CC=C3O
#smiles_can CC1=CC2=C(C(=C1)O)C(=O)C3=C(C2=O)C=CC=C3O
#inchikey LQGUBLBATBMXHT-UHFFFAOYSA-N
#pubchem_id 10208
#mb_accession BML01120,BML01132

>ms2peaks
176.987200 1784.000000
177.011500 21.000000
177.030800 83.000000
177.068600 23.000000

>ms2peaks
173.078200 24.000000
176.987600 288.000000

