>compound BML5802841
>parentmass 313.1071
>ionization [M+H]+
>formula C18H16O5
>rt 567.480000
>profile qtof
#smiles_iso COC1=CC2=C(C=C1)OC(=CC2=O)C3=C(C(=CC=C3)OC)OC
#smiles_can COC1=CC2=C(C=C1)OC(=CC2=O)C3=C(C(=CC=C3)OC)OC
#inchikey JAJRYQVSBTWNTH-UHFFFAOYSA-N
#pubchem_id 688801
#mb_accession BML01257,BML01263,BML01269

>ms2
150.031300 32.000000
151.038000 86.000000
163.041100 22.000000
237.052900 42.000000
252.076800 156.000000
265.043400 50.000000
269.081900 47.000000
280.072300 195.000000
297.078000 111.000000
298.078500 113.000000
313.105500 6011.000000

>ms2
123.047000 24.000000
150.030600 166.000000
151.037800 290.000000
151.069000 20.000000
177.056300 32.000000
181.055800 26.000000
209.060200 22.000000
224.079100 23.000000
237.055700 37.000000
252.075600 793.000000
252.125900 33.000000
255.060300 42.000000
265.048700 215.000000
268.071000 71.000000
269.076600 234.000000
279.058300 31.000000
280.071500 518.000000
281.076100 104.000000
283.062000 25.000000
295.064400 43.000000
297.074300 512.000000
298.078900 123.000000
298.098000 38.000000
313.105600 1539.000000

>ms2
107.013800 352.000000
107.037700 30.000000
108.020300 110.000000
117.030500 30.000000
118.041200 29.000000
120.056100 31.000000
122.035200 250.000000
123.043400 131.000000
135.006000 106.000000
145.024100 29.000000
147.045200 28.000000
150.030900 307.000000
151.038900 665.000000
151.082600 26.000000
152.060300 86.000000
153.068100 55.000000
157.063500 26.000000
162.031000 25.000000
164.055300 33.000000
168.053000 31.000000
177.045800 26.000000
177.056000 36.000000
181.061600 55.000000
181.070000 60.000000
183.045100 80.000000
184.050800 33.000000
184.060900 37.000000
193.058800 31.000000
195.087200 24.000000
198.065500 23.000000
201.055100 25.000000
209.059000 167.000000
210.058800 35.000000
211.083200 37.000000
212.046600 21.000000
224.055100 27.000000
226.059100 166.000000
226.078200 23.000000
237.053500 418.000000
238.070400 24.000000
240.042300 28.000000
251.065900 81.000000
252.073800 177.000000
252.100900 20.000000
253.092000 22.000000
254.059200 147.000000
255.061400 200.000000
265.045800 279.000000
267.068700 98.000000
268.064800 30.000000
269.078000 219.000000
279.063900 93.000000
281.079000 92.000000
282.049300 48.000000
295.062500 199.000000
297.073000 437.000000

