>compound BML5930446
>parentmass 365.10200000000003
>ionization [M+H]+
>formula C21H16O6
>rt 535.320000
>profile qtof
#smiles_iso COC1=CC2=CC3=C(C(=C2C=C1OC)C4=CC5=C(C=C4)OCO5)C(=O)OC3
#smiles_can COC1=CC2=CC3=C(C(=C2C=C1OC)C4=CC5=C(C=C4)OCO5)C(=O)OC3
#inchikey RTDRYYULUYRTAN-UHFFFAOYSA-N
#pubchem_id 442882
#mb_accession BML01595,BML01604,BML01613

>ms2peaks
275.072000 33.000000
289.077700 35.000000
291.100600 80.000000
303.063700 75.000000
307.089500 24.000000
321.110200 129.000000
335.091300 99.000000
364.091800 30.000000
365.101400 2130.000000

>ms2peaks
246.063100 24.000000
260.083700 51.000000
262.090000 20.000000
263.101400 57.000000
275.067100 63.000000
276.075000 45.000000
289.088500 63.000000
291.100200 135.000000
293.118400 23.000000
303.066300 163.000000
307.092200 87.000000
317.085000 23.000000
319.098700 37.000000
321.111800 251.000000
333.074000 50.000000
335.090200 202.000000
347.098700 45.000000
365.101600 465.000000

>ms2peaks
189.065200 94.000000
190.078400 45.000000
191.081300 24.000000
193.064800 25.000000
201.070300 28.000000
202.074800 55.000000
203.083100 76.000000
205.064000 110.000000
216.053300 43.000000
217.059500 51.000000
217.073700 24.000000
218.071500 140.000000
219.080600 162.000000
220.087600 71.000000
230.070800 73.000000
231.078200 48.000000
232.088700 48.000000
233.061300 105.000000
233.093100 33.000000
235.073500 38.000000
245.056300 46.000000
246.068100 155.000000
247.074600 216.000000
248.080400 131.000000
249.049500 21.000000
258.070400 35.000000
259.073000 42.000000
260.078900 39.000000
260.092100 35.000000
261.051300 28.000000
261.096900 70.000000
262.062400 26.000000
262.093500 52.000000
263.069700 22.000000
263.106500 53.000000
264.078200 48.000000
274.062400 51.000000
275.070100 197.000000
276.074500 89.000000
277.054400 25.000000
277.084700 53.000000
279.097900 35.000000
289.086800 68.000000
290.060400 45.000000
291.064900 55.000000
291.103700 46.000000
303.063100 120.000000
304.066100 21.000000
305.083100 29.000000
306.096700 21.000000
321.109100 61.000000
335.091400 21.000000

