>compound BML5423875
>parentmass 325.1435
>ionization [M+H]+
>formula C20H20O4
>rt 606.240000
>profile qtof
#smiles_iso CC(=CCC1=C2C(=C(C=C1O)O)C(=O)CC(O2)C3=CC=CC=C3)C
#smiles_can CC(=CCC1=C2C(=C(C=C1O)O)C(=O)CC(O2)C3=CC=CC=C3)C
#inchikey DAWSYIQAGQMLFS-UHFFFAOYSA-N
#pubchem_id 3144815
#mb_accession BML00108,BML00120

>ms2
165.018500 64.000000
269.081400 382.000000
325.143000 261.000000

>ms2
155.080800 21.000000
165.016400 217.000000
269.081000 142.000000
325.146400 35.000000

