>compound BML5553416
>parentmass 355.2022
>ionization [M+H]+
>formula C21H26N2O3
>rt 243.600000
>profile qtof
#smiles_iso COC(=O)[C@H]1[C@H](CC[C@@H]2[C@@H]1C[C@H]3C4=C(CCN3C2)C5=CC=CC=C5N4)O
#smiles_can COC(=O)C1C(CCC2C1CC3C4=C(CCN3C2)C5=CC=CC=C5N4)O
#inchikey BLGXFZZNTVWLAY-SCYLSFHTSA-N
#pubchem_id 8969
#mb_accession BML00908,BML00919,BML00930

>ms2peaks
144.079700 321.000000
212.127900 301.000000
224.125600 71.000000
355.198100 4315.000000

>ms2peaks
106.065100 35.000000
114.370000 43.000000
115.052900 36.000000
117.070300 82.000000
127.052400 74.000000
128.048800 28.000000
130.063800 30.000000
131.085500 24.000000
132.076500 31.000000
134.092500 42.000000
134.099900 111.000000
143.073300 76.000000
144.079800 6850.000000
144.114100 222.000000
144.124900 33.000000
144.136500 138.000000
144.164400 73.000000
144.191500 100.000000
144.252000 30.000000
144.276400 22.000000
144.336100 20.000000
144.475900 28.000000
144.531600 21.000000
144.566300 23.000000
144.835000 20.000000
144.889200 21.000000
146.091500 25.000000
158.096800 47.000000
162.088400 97.000000
177.083900 40.000000
180.102600 179.000000
186.085500 35.000000
191.940600 29.000000
192.103100 21.000000
194.118000 205.000000
194.127700 25.000000
195.106200 20.000000
198.107300 29.000000
206.141900 20.000000
208.109000 28.000000
212.127100 3502.000000
212.170400 167.000000
212.260000 42.000000
212.469300 24.000000
212.791100 38.000000
213.183800 22.000000
222.116700 23.000000
224.126500 570.000000
226.138100 71.000000
248.152400 43.000000
250.127500 25.000000
260.156100 26.000000
282.155400 20.000000
288.138400 23.000000
290.138400 25.000000
294.148300 143.000000
306.146300 24.000000
308.168300 30.000000
312.146800 26.000000
326.177100 119.000000
337.183800 25.000000
338.176400 66.000000
355.032200 22.000000
355.152400 24.000000
355.199500 5512.000000

>ms2peaks
106.065400 174.000000
115.052500 197.000000
116.055200 25.000000
117.069100 499.000000
118.065600 21.000000
127.053000 181.000000
128.058900 42.000000
129.071400 34.000000
130.065300 70.000000
131.069500 21.000000
132.074000 26.000000
133.086100 21.000000
134.093400 285.000000
136.062600 24.000000
142.066700 21.000000
143.072200 211.000000
144.080100 3598.000000
144.115900 131.000000
144.133000 41.000000
144.163800 33.000000
144.191500 58.000000
144.502500 20.000000
145.062000 23.000000
152.103400 34.000000
157.086200 22.000000
158.095800 77.000000
162.090800 98.000000
180.100400 77.000000
181.088100 21.000000
186.084700 35.000000
194.120600 117.000000
196.110800 21.000000
206.090600 60.000000
207.103900 40.000000
212.126800 156.000000
220.107800 34.000000
224.120800 23.000000
231.102100 32.000000
245.114000 24.000000
248.141600 28.000000
260.148200 30.000000

