>compound BML5741665
>parentmass 156.0768
>ionization [M+H]+
>formula C6H9N3O2
>rt 19.200000
>profile qtof
#smiles_iso C1=C(NC=N1)CC(C(=O)O)N
#smiles_can C1=C(NC=N1)CC(C(=O)O)N
#inchikey HNDVDQJCIGZPNO-UHFFFAOYSA-N
#pubchem_id 773
#mb_accession BML01070

>ms2peaks
111.985600 103.000000
114.947100 265.000000
155.980900 21.000000

