>compound BML5757938
>parentmass 257.0809
>ionization [M+H]+
>formula C15H12O4
>rt 408.720000
>profile qtof
#smiles_iso C1C(OC2=C(C1=O)C=C(C=C2)O)C3=CC=CC=C3O
#smiles_can C1C(OC2=C(C1=O)C=C(C=C2)O)C3=CC=CC=C3O
#inchikey JMSUEPQZGKBECJ-UHFFFAOYSA-N
#pubchem_id 5106787
#mb_accession BML01469,BML01484

>ms2peaks
137.022700 665.000000
163.034300 58.000000
176.983100 32.000000
176.989600 30.000000
178.984900 55.000000
215.069200 34.000000
239.068100 93.000000
257.078600 42.000000

>ms2peaks
109.027200 64.000000
137.022700 563.000000
137.057500 24.000000
163.041600 28.000000
187.071300 25.000000
239.067800 34.000000

