>compound BML5811064
>parentmass 170.0118
>ionization [M+H]+
>formula C3H7NO5S
>rt 22.560000
>profile qtof
#smiles_iso C(C(C(=O)O)N)S(=O)(=O)O
#smiles_can C(C(C(=O)O)N)S(=O)(=O)O
#inchikey XVOYSCVBGLVSOL-UHFFFAOYSA-N
#pubchem_id 25701
#mb_accession BML01640

>ms2peaks
105.997800 119.000000
124.005400 385.000000
137.943300 24.000000
170.011600 39.000000

