>compound BML5891668
>parentmass 217.04959999999997
>ionization [M+H]+
>formula C12H8O4
>rt 439.620000
>profile qtof
#smiles_iso COC1=C2C=CC(=O)OC2=CC3=C1C=CO3
#smiles_can COC1=C2C=CC(=O)OC2=CC3=C1C=CO3
#inchikey BGEBZHIAGXMEMV-UHFFFAOYSA-N
#pubchem_id 2355
#mb_accession BML00701,BML00710,BML00719

>ms2
115.052300 55.000000
117.067000 27.000000
118.041900 70.000000
131.049100 42.000000
173.058500 110.000000
174.029200 201.000000
202.025100 1575.000000
202.073200 61.000000
217.047300 5372.000000

>ms2
100.030400 23.000000
105.071900 27.000000
115.055100 227.000000
117.072300 33.000000
118.042500 189.000000
130.039400 38.000000
131.049800 163.000000
143.049500 52.000000
145.023500 44.000000
145.062700 41.000000
146.035600 149.000000
158.032000 66.000000
161.055800 75.000000
161.065000 25.000000
173.025000 25.000000
173.057400 109.000000
174.029500 822.000000
174.076000 23.000000
202.024700 4065.000000
202.064400 142.000000
202.085100 58.000000
202.124900 32.000000
202.156800 68.000000
202.202000 24.000000
202.360900 22.000000
217.046600 942.000000

>ms2
100.031100 161.000000
102.044500 186.000000
103.051100 52.000000
105.034700 40.000000
115.053900 202.000000
117.033100 126.000000
118.041000 1383.000000
118.074800 40.000000
118.093800 26.000000
118.142600 23.000000
119.014500 33.000000
120.017300 43.000000
127.017700 24.000000
128.025000 104.000000
129.031400 24.000000
131.047500 116.000000
145.026300 238.000000
146.034000 480.000000
146.068100 26.000000
156.019500 123.000000
173.020000 46.000000
174.029400 903.000000
202.023600 156.000000

