>compound BML5418305
>parentmass 346.2740999999999
>ionization [M+H]+
>formula C22H35NO2
>rt 356.580000
>profile qtof
#smiles_iso CC1CCCC(N1C)C=CC2C3CCCCC3CC4C2C(OC4=O)C
#smiles_can CC1CCCC(N1C)C=CC2C3CCCCC3CC4C2C(OC4=O)C
#inchikey FMPNFDSPHNUFOS-UHFFFAOYSA-N
#pubchem_id 1205
#mb_accession BML01314,BML01321,BML01328

>ms2
346.272500 5024.000000

>ms2
107.084800 25.000000
109.100500 28.000000
121.103700 20.000000
145.101700 32.000000
187.146900 29.000000
269.221200 21.000000
302.284800 25.000000
346.273200 2720.000000

>ms2
105.069900 106.000000
107.084200 30.000000
107.089000 38.000000
109.099700 24.000000
117.069500 71.000000
119.084200 133.000000
121.101200 64.000000
129.068900 21.000000
131.084600 64.000000
131.090300 30.000000
133.101500 89.000000
135.119800 24.000000
143.085300 71.000000
145.099700 137.000000
147.114300 34.000000
157.099300 30.000000
159.114300 74.000000
161.133300 64.000000
171.119900 27.000000
173.126100 34.000000
173.135900 28.000000
185.130700 77.000000
187.143400 44.000000
199.146700 28.000000
302.275200 24.000000
346.273900 96.000000

