>compound BML5148428
>parentmass 286.1438
>ionization [M+H]+
>formula C17H19NO3
>rt 549.900000
>profile qtof
#smiles_iso C1CCN(CC1)C(=O)C=CC=CC2=CC3=C(C=C2)OCO3
#smiles_can C1CCN(CC1)C(=O)C=CC=CC2=CC3=C(C=C2)OCO3
#inchikey MXXWOMGUGJBKIW-UHFFFAOYSA-N
#pubchem_id 4840
#mb_accession BML01649,BML01660,BML01671

>ms2
112.075800 94.000000
115.054200 181.000000
135.043100 455.000000
135.063300 33.000000
143.047300 119.000000
150.092900 46.000000
151.098800 45.000000
159.046300 57.000000
161.057600 29.000000
171.043000 130.000000
173.061000 81.000000
185.091300 42.000000
201.053900 3320.000000
201.092300 161.000000
201.183900 31.000000
201.444200 22.000000
201.742400 28.000000
203.064900 47.000000
215.101600 28.000000
215.115700 20.000000
286.142600 5800.000000

>ms2
112.075200 310.000000
114.088800 26.000000
115.054300 451.000000
115.082500 21.000000
117.069000 33.000000
121.050100 23.000000
127.063300 25.000000
135.043600 1069.000000
135.071900 43.000000
143.048500 672.000000
143.084700 38.000000
150.093300 29.000000
151.093200 78.000000
151.102200 31.000000
159.043700 135.000000
171.045300 383.000000
173.058200 253.000000
187.076900 23.000000
201.053800 4527.000000
201.092700 158.000000
201.119600 96.000000
201.154400 41.000000
201.187500 39.000000
201.391200 24.000000
201.409800 21.000000
258.154400 20.000000
286.141400 336.000000

>ms2
103.052700 117.000000
105.029900 36.000000
112.074100 25.000000
115.053800 2952.000000
115.081900 140.000000
115.094800 28.000000
115.111900 29.000000
115.152400 42.000000
117.034200 38.000000
117.066100 71.000000
122.097900 32.000000
127.054700 76.000000
129.068700 38.000000
135.043200 630.000000
135.062500 22.000000
143.048100 917.000000
143.084600 34.000000
150.090000 23.000000
151.094500 29.000000
159.042800 115.000000
171.043700 250.000000
173.057500 24.000000
201.052500 187.000000

