>compound BML5825779
>parentmass 363.2166
>ionization [M+H]+
>formula C21H30O5
>rt 441.180000
>profile qtof
#smiles_iso C[C@]12CCC(=O)C=C1CC[C@@H]3[C@@H]2[C@H](C[C@]4([C@H]3CC[C@@]4(C(=O)CO)O)C)O
#smiles_can CC12CCC(=O)C=C1CCC3C2C(CC4(C3CCC4(C(=O)CO)O)C)O
#inchikey JYGXADMDTFJGBT-VWUMJDOOSA-N
#pubchem_id 5754
#mb_accession BML01012,BML01020

>ms2peaks
119.085200 24.000000
121.064600 81.000000
123.082100 21.000000
201.131700 32.000000
225.165800 22.000000
231.132200 20.000000
241.156000 41.000000
243.171500 21.000000
249.165400 23.000000
251.131900 20.000000
267.168100 71.000000
267.190500 25.000000
269.183500 26.000000
281.184200 25.000000
291.153800 21.000000
291.183400 28.000000
297.180500 60.000000
309.184100 70.000000
327.182300 26.000000
327.201000 119.000000
345.204000 75.000000
363.214900 806.000000

>ms2peaks
121.063500 171.000000
123.080800 43.000000
135.078100 21.000000
147.078100 35.000000
147.122200 36.000000
157.099600 37.000000
159.118500 29.000000
161.096400 28.000000
173.088800 20.000000
175.106300 25.000000
185.129900 20.000000
187.109200 48.000000
209.130500 24.000000
223.149500 27.000000
225.125400 42.000000
229.161600 20.000000
241.158700 31.000000
265.153600 21.000000
267.171900 30.000000
269.191700 27.000000
281.189300 24.000000
297.175800 28.000000
309.185000 68.000000
327.197700 51.000000
363.219300 35.000000

