>compound BML5622274
>parentmass 269.0809
>ionization [M+H]+
>formula C16H12O4
>rt 586.740000
>profile qtof
#smiles_iso COC1=CC(=C2C(=C1)OC(=CC2=O)C3=CC=CC=C3)O
#smiles_can COC1=CC(=C2C(=C1)OC(=CC2=O)C3=CC=CC=C3)O
#inchikey IRZVHDLBAYNPCT-UHFFFAOYSA-N
#pubchem_id 5281954
#mb_accession BML00749,BML00756

>ms2peaks
104.992800 240.000000
269.078000 639.000000

>ms2peaks
104.988300 49.000000
104.995000 32.000000
167.036100 34.000000
226.071400 40.000000
254.055300 47.000000
254.066900 25.000000
269.078300 485.000000

