>compound BML5907091
>parentmass 172.11929999999998
>ionization [M+H]+
>formula C6H13N5O
>rt 23.460000
>profile qtof
#smiles_iso C1COCCN1C(=N)N=C(N)N
#smiles_can C1COCCN1C(=N)N=C(N)N
#inchikey KJHOZAZQWVKILO-UHFFFAOYSA-N
#pubchem_id 71655
#mb_accession BML00467,BML00476,BML00485

>ms2
113.070800 2014.000000
113.102300 73.000000
113.122300 57.000000
130.096500 1092.000000
155.092900 808.000000
172.118800 10858.000000

>ms2
112.033700 23.000000
113.041600 22.000000
113.070200 1918.000000
113.102400 77.000000
113.120100 36.000000
113.171100 27.000000
130.096000 472.000000
130.118300 24.000000
155.091400 270.000000
172.118100 340.000000
172.154500 26.000000

>ms2
113.070800 309.000000
113.081500 93.000000
113.106400 27.000000
130.096400 82.000000

