>compound BML5531787
>parentmass 303.0863
>ionization [M+H]+
>formula C16H14O6
>rt 422.940000
>profile qtof
#smiles_iso COC1=C(C=C(C=C1)C2CC(=O)C3=C(C=C(C=C3O2)O)O)O
#smiles_can COC1=C(C=C(C=C1)C2CC(=O)C3=C(C=C(C=C3O2)O)O)O
#inchikey AIONOLUJZLIMTK-UHFFFAOYSA-N
#pubchem_id 3593
#mb_accession BML00282,BML00291,BML00300

>ms2
111.003700 21.000000
145.030900 31.000000
149.055100 24.000000
151.040000 22.000000
153.016800 242.000000
177.051700 262.000000
179.036000 45.000000
303.086700 548.000000

>ms2
145.024800 86.000000
149.059700 26.000000
151.074800 22.000000
153.017100 305.000000
153.049900 32.000000
177.053000 263.000000
177.068000 25.000000
179.036300 57.000000
303.080100 34.000000

>ms2
117.030800 77.000000
136.045000 25.000000
149.055800 30.000000
153.015700 316.000000

