>compound BML5103956
>parentmass 395.0762
>ionization [M+H]+
>formula C21H14O8
>rt 486.300000
>profile qtof
#smiles_iso CC(=O)OC1=C(C=C2C=C(C(=O)OC2=C1)OC3=CC4=C(C=C3)C=CC(=O)O4)OC
#smiles_can CC(=O)OC1=C(C=C2C=C(C(=O)OC2=C1)OC3=CC4=C(C=C3)C=CC(=O)O4)OC
#inchikey JGZOXTSCOZGQNQ-UHFFFAOYSA-N
#pubchem_id 1269245
#mb_accession BML01188,BML01194,BML01200

>ms2peaks
321.039400 37.000000
353.063800 847.000000
353.113900 26.000000
395.075200 472.000000

>ms2peaks
179.031300 83.000000
293.044600 28.000000
321.033000 75.000000
338.040700 39.000000
353.063900 569.000000

>ms2peaks
146.036100 230.000000
149.018500 29.000000
150.029100 25.000000
151.034700 62.000000
164.007100 41.000000
164.044800 22.000000
165.015600 81.000000
177.016100 42.000000
179.031500 243.000000
191.030400 20.000000
193.011800 28.000000
208.039800 37.000000
253.043400 28.000000
281.036900 28.000000
282.051800 28.000000
310.043500 36.000000
310.054600 51.000000
337.034700 23.000000
338.047800 62.000000
353.065000 55.000000

