>compound BML5157397
>parentmass 297.1962
>ionization [M+H]+
>formula C19H24N2O
>rt 297.720000
>profile qtof
#smiles_iso CCC1CN2CCC1CC2C(C3=CC=NC4=CC=CC=C34)O
#smiles_can CCC1CN2CCC1CC2C(C3=CC=NC4=CC=CC=C34)O
#inchikey WFJNHVWTKZUUTR-UHFFFAOYSA-N
#pubchem_id 101711
#mb_accession BML00471,BML00480

>ms2
107.084000 21.000000
279.182700 78.000000
297.194600 1285.000000

>ms2
279.182500 98.000000
297.191900 410.000000

