>compound BML5905879
>parentmass 327.2067
>ionization [M+H]+
>formula C20H26N2O2
>rt 327.120000
>profile qtof
#smiles_iso CC[C@H]1CN2CC[C@H]1C[C@@H]2[C@H](C3=C4C=C(C=CC4=NC=C3)OC)O
#smiles_can CCC1CN2CCC1CC2C(C3=C4C=C(C=CC4=NC=C3)OC)O
#inchikey LJOQGZACKSYWCH-LHHVKLHASA-N
#pubchem_id 91503
#mb_accession BML00401,BML00415,BML00429

>ms2
160.074100 62.000000
184.076400 56.000000
186.086700 99.000000
200.101900 41.000000
281.167000 54.000000
309.196800 157.000000
327.205100 7012.000000

>ms2
108.086100 28.000000
110.095800 32.000000
119.084600 22.000000
124.113500 37.000000
136.110800 31.000000
138.128400 23.000000
140.146700 21.000000
154.067200 24.000000
155.073800 22.000000
160.072900 155.000000
160.087700 24.000000
162.093700 26.000000
168.138400 47.000000
183.063300 37.000000
184.075800 118.000000
185.082800 47.000000
186.088400 141.000000
198.089500 52.000000
227.113800 117.000000
238.113800 21.000000
239.124600 25.000000
253.125600 62.000000
253.140400 56.000000
255.147700 30.000000
264.157100 26.000000
266.150400 54.000000
267.973200 27.000000
280.171700 47.000000
281.166300 86.000000
309.193600 476.000000
309.230300 48.000000
327.205700 2109.000000

>ms2
106.066900 21.000000
108.080100 84.000000
110.095600 47.000000
115.056200 26.000000
120.077600 25.000000
124.110800 40.000000
126.123100 21.000000
136.112100 113.000000
138.126300 26.000000
143.072200 72.000000
145.054800 35.000000
154.062200 73.000000
154.069900 23.000000
155.070800 63.000000
160.076300 164.000000
162.089400 25.000000
166.067500 40.000000
167.069300 93.000000
169.050600 57.000000
171.062800 38.000000
172.075100 295.000000
173.079200 30.000000
174.069100 25.000000
174.084600 35.000000
180.079100 67.000000
181.087500 27.000000
182.090600 25.000000
183.063000 40.000000
183.074800 26.000000
184.072600 128.000000
186.088800 247.000000
189.076100 28.000000
195.087200 27.000000
196.070100 59.000000
198.076400 25.000000
198.092900 74.000000
200.103400 23.000000
206.085600 22.000000
208.094700 36.000000
210.082500 41.000000
210.098600 72.000000
211.082300 50.000000
212.108700 53.000000
213.106300 26.000000
219.096400 41.000000
223.104600 31.000000
224.102300 21.000000
225.105900 25.000000
227.115700 47.000000
236.124300 22.000000
237.101800 23.000000
238.117100 35.000000
239.126600 29.000000
240.130300 32.000000
251.117400 67.000000
253.123200 54.000000
265.133100 34.000000
266.153000 20.000000
277.149100 20.000000
281.161700 24.000000
309.199100 42.000000

