>compound BML5527173
>parentmass 241.0859
>ionization [M+H]+
>formula C15H12O3
>rt 501.540000
>profile qtof
#smiles_iso C1=CC=C(C(=C1)C(=O)/C=C/C2=CC=C(C=C2)O)O
#smiles_can C1=CC=C(C(=C1)C(=O)C=CC2=CC=C(C=C2)O)O
#inchikey FGPJTMCJNPRZGF-JXMROGBWSA-N
#pubchem_id 5357218
#mb_accession BML01285,BML01291,BML01297

>ms2
119.043500 23.000000
119.051300 31.000000
121.027800 706.000000
121.058800 42.000000
147.041900 367.000000
163.008800 26.000000
195.078300 115.000000
223.072000 66.000000
226.060700 162.000000
241.085300 1212.000000

>ms2
119.048900 163.000000
121.027800 1868.000000
121.052100 40.000000
121.059800 31.000000
147.043600 373.000000
167.085700 43.000000
177.070000 40.000000
195.079200 174.000000
197.053200 24.000000
223.078400 87.000000
226.060400 104.000000
241.085800 97.000000

>ms2
101.038200 31.000000
119.047400 42.000000
119.052300 26.000000
121.027800 401.000000
121.057200 23.000000
152.063000 55.000000
165.071200 56.000000
176.062900 42.000000
181.059300 22.000000

