>compound BML5195949
>parentmass 357.2636
>ionization [M+H]+
>formula C20H36O5
>rt 502.500000
>profile qtof
#smiles_iso CC1CCC2C(C13CCC(O3)(CCO)CO)(CCC(C2(C)CO)O)C
#smiles_can CC1CCC2C(C13CCC(O3)(CCO)CO)(CCC(C2(C)CO)O)C
#inchikey XYPPDQHBNJURHU-UHFFFAOYSA-N
#pubchem_id 3482911
#mb_accession BML00786

>ms2
107.084500 26.000000
137.097200 30.000000
149.134700 61.000000
167.101500 27.000000
175.146100 48.000000
185.115100 92.000000
185.131000 37.000000
187.148200 43.000000
207.135600 25.000000
207.162400 25.000000
213.164800 39.000000
217.162800 24.000000
227.178000 22.000000
227.192700 20.000000
241.199100 31.000000
255.207500 48.000000
267.210500 30.000000
273.221300 104.000000
285.215500 86.000000
291.226100 24.000000
303.226100 110.000000
309.236700 45.000000
321.235200 95.000000

