>compound BML5445273
>parentmass 315.0015
>ionization [M+H]+
>formula C16H11BrO2
>rt 624.360000
>profile qtof
#smiles_iso CC1=CC(=CC=C1)C2=CC(=O)C3=C(O2)C=CC(=C3)Br
#smiles_can CC1=CC(=CC=C1)C2=CC(=O)C3=C(O2)C=CC(=C3)Br
#inchikey VNLPVWHRKKWDQB-UHFFFAOYSA-N
#pubchem_id 688751
#mb_accession BML01543,BML01555,BML01567

>ms2
208.087900 41.000000
315.000600 1250.000000
315.064100 32.000000

>ms2
198.936200 32.000000
208.088700 95.000000
221.058300 50.000000
236.082100 33.000000
315.000600 922.000000

>ms2
115.055500 116.000000
116.061900 43.000000
117.068200 59.000000
120.019000 115.000000
142.948200 64.000000
143.047800 57.000000
154.950100 126.000000
165.070400 96.000000
170.942400 48.000000
179.086100 39.000000
193.062900 29.000000
198.937800 57.000000
208.088600 188.000000
221.061600 140.000000
235.075400 97.000000
236.081800 50.000000
315.002400 57.000000

