>compound BML5856377
>parentmass 612.3181
>ionization [M+H]+
>formula C35H41N5O5
>rt 426.420000
>profile qtof
#smiles_iso CC(C)C1(C(=O)N2C(C(=O)N3CCCC3C2(O1)O)CC4=CC=CC=C4)NC(=O)C5CC6C(CC7=CNC8=CC=CC6=C78)N(C5)C
#smiles_can CC(C)C1(C(=O)N2C(C(=O)N3CCCC3C2(O1)O)CC4=CC=CC=C4)NC(=O)C5CC6C(CC7=CNC8=CC=CC6=C78)N(C5)C
#inchikey DEQITUUQPICUMR-UHFFFAOYSA-N
#pubchem_id 3065
#mb_accession BML00474,BML00483,BML00492

>ms2
168.081200 39.000000
253.132800 198.000000
270.159200 1445.000000
270.204500 60.000000
271.157800 40.000000
322.191200 48.000000
325.158700 45.000000
350.185400 369.000000
594.304600 569.000000
612.316900 7564.000000

>ms2
194.097000 32.000000
208.074000 33.000000
210.089300 80.000000
225.140600 116.000000
227.119000 37.000000
237.134400 34.000000
253.132600 836.000000
253.175100 43.000000
253.200200 26.000000
270.159100 4800.000000
270.195800 81.000000
270.209500 79.000000
270.239700 47.000000
270.310600 61.000000
270.581900 39.000000
270.638800 26.000000
271.157500 27.000000
322.190500 56.000000
325.149100 295.000000
325.195800 24.000000
350.184300 1001.000000
350.239300 57.000000
594.302900 413.000000
594.345900 46.000000
612.316000 2559.000000

>ms2
222.111500 102.000000
223.121100 59.000000
225.136900 1199.000000
225.177800 59.000000
227.116900 125.000000
235.117900 117.000000
237.136400 76.000000
238.110600 123.000000
243.113100 280.000000
253.131600 2311.000000
253.199400 56.000000
270.158500 10273.000000
270.207300 267.000000
270.236600 70.000000
270.308200 133.000000
270.507700 58.000000
271.163700 78.000000
294.188000 53.000000
322.188800 457.000000
325.147400 245.000000
350.184900 583.000000

