>compound BML5171454
>parentmass 285.1122
>ionization [M+H]+
>formula C17H16O4
>rt 522.540000
>profile qtof
#smiles_iso COC1=CC2=C(C(=O)CC(O2)C3=CC=CC=C3)C(=C1)OC
#smiles_can COC1=CC2=C(C(=O)CC(O2)C3=CC=CC=C3)C(=C1)OC
#inchikey IAFBOKYTDSDNHV-UHFFFAOYSA-N
#pubchem_id 378567
#mb_accession BML01475,BML01490,BML01505

>ms2peaks
131.051200 327.000000
152.039400 24.000000
166.023200 27.000000
179.067200 24.000000
181.048400 2959.000000
181.088200 115.000000
181.108900 40.000000
181.169300 25.000000
181.217600 24.000000
181.252100 22.000000
243.097800 149.000000
253.084700 20.000000
285.110900 7157.000000
285.159000 288.000000
285.202300 73.000000
285.223400 40.000000
285.237900 21.000000
285.267300 70.000000
285.290500 42.000000
285.420300 27.000000
285.462300 49.000000
285.510800 25.000000
285.535200 21.000000
285.625400 41.000000
285.716800 33.000000
285.762000 31.000000
285.977900 35.000000

>ms2peaks
103.052200 86.000000
103.057500 41.000000
110.038500 28.000000
131.047400 453.000000
138.029500 107.000000
166.027100 133.000000
179.064200 21.000000
181.048400 5493.000000
181.087700 176.000000
181.112100 49.000000
181.137800 37.000000
181.172300 69.000000
181.469000 32.000000
182.043200 28.000000
243.104000 59.000000
285.109400 473.000000

>ms2peaks
103.054100 568.000000
105.032900 34.000000
107.052600 21.000000
108.021100 51.000000
109.030100 62.000000
110.036100 282.000000
111.042600 40.000000
119.042100 20.000000
122.033700 34.000000
123.007100 56.000000
123.044700 49.000000
125.060600 53.000000
125.066900 25.000000
131.047800 84.000000
136.018200 46.000000
137.019300 51.000000
137.028400 24.000000
138.030700 743.000000
138.062900 28.000000
149.024700 26.000000
151.037800 49.000000
166.025200 447.000000
166.060600 21.000000
181.048600 1291.000000
193.051800 28.000000

