>compound BML5850395
>parentmass 353.0656
>ionization [M+H]+
>formula C19H12O7
>rt 446.940000
>profile qtof
#smiles_iso COC1=C(C=C2C(=C1)C=C(C(=O)O2)OC3=CC4=C(C=C3)C=CC(=O)O4)O
#smiles_can COC1=C(C=C2C(=C1)C=C(C(=O)O2)OC3=CC4=C(C=C3)C=CC(=O)O4)O
#inchikey JRHMMVBOTXEHGJ-UHFFFAOYSA-N
#pubchem_id 5281406
#mb_accession BML00160,BML00174

>ms2peaks
179.037000 30.000000
353.066400 556.000000

>ms2peaks
147.045200 33.000000
148.016500 25.000000
164.013200 23.000000
164.047900 28.000000
179.033000 193.000000
192.039700 75.000000
208.032800 22.000000
338.050300 141.000000
353.064100 551.000000

