>compound BML6354525
>parentmass 243.1088
>ionization [M+H]+
>formula C9H14N4O4
>rt 19.200000
>profile qtof
#smiles_iso C1=C(NC=N1)CC(C(=O)NC(CO)C(=O)O)N
#smiles_can C1=C(NC=N1)CC(C(=O)NC(CO)C(=O)O)N
#inchikey KRBMQYPTDYSENE-UHFFFAOYSA-N
#pubchem_id 435727
#mb_accession BML01463,BML01478,BML01493

>ms2
110.071400 11468.000000
110.104100 227.000000
110.120600 160.000000
110.141000 89.000000
110.168600 220.000000
110.208600 23.000000
110.244100 24.000000
110.270100 26.000000
110.294800 22.000000
110.370600 24.000000
110.385900 30.000000
110.407900 25.000000
110.447700 22.000000
110.473800 21.000000
110.586800 22.000000
110.616000 21.000000
116.028300 26.000000
138.066000 320.000000
152.077600 129.000000
156.076400 958.000000
156.112000 44.000000
164.082400 38.000000
166.063700 44.000000
167.089000 61.000000
179.091800 172.000000
180.075200 37.000000
195.086000 104.000000
197.105800 177.000000
207.089500 93.000000
208.070500 71.000000
225.097300 2449.000000
225.147700 78.000000
225.170600 43.000000
225.193600 21.000000
225.234800 31.000000
226.081100 24.000000
243.107900 1454.000000
243.150300 72.000000
243.178900 32.000000
243.254500 23.000000

>ms2
110.071300 13420.000000
110.102400 293.000000
110.121900 138.000000
110.142700 76.000000
110.168300 286.000000
110.198400 39.000000
110.226800 29.000000
110.299100 34.000000
110.342800 41.000000
110.374000 22.000000
110.416000 20.000000
110.430200 23.000000
110.449800 28.000000
110.613900 24.000000
110.716600 21.000000
111.071400 22.000000
121.041700 28.000000
122.071900 34.000000
124.083600 25.000000
138.061000 21.000000
150.069400 24.000000
152.080000 146.000000
156.077100 174.000000
179.093700 77.000000
180.076100 24.000000
195.088400 33.000000
207.086100 26.000000
225.096900 46.000000

>ms2
106.047000 23.000000
109.065200 25.000000
110.071500 3716.000000
110.099900 98.000000
110.112000 27.000000
110.128100 37.000000
110.142800 34.000000
110.168700 46.000000
110.386300 29.000000
110.586400 25.000000
124.085300 34.000000

