>compound BML6068230
>parentmass 334.1649
>ionization [M+H]+
>formula C18H23NO5
>rt 175.200000
>profile qtof
#smiles_iso CC=C1CC(=C)C(C(=O)OCC2=CCN3C2C(CC3)OC1=O)(C)O
#smiles_can CC=C1CC(=C)C(C(=O)OCC2=CCN3C2C(CC3)OC1=O)(C)O
#inchikey FCEVNJIUIMLVML-UHFFFAOYSA-N
#pubchem_id 521227
#mb_accession BML00779,BML00790,BML00801

>ms2peaks
103.054700 24.000000
120.080100 62.000000
306.168700 41.000000
334.162600 3513.000000

>ms2peaks
103.053900 23.000000
105.069000 27.000000
118.066500 40.000000
120.081200 197.000000
122.095300 54.000000
123.085800 21.000000
138.090300 184.000000
151.071200 71.000000
288.156700 44.000000
306.170200 143.000000
334.162600 1759.000000

>ms2peaks
103.055300 40.000000
103.060200 37.000000
106.070800 33.000000
107.071400 29.000000
108.080500 56.000000
109.064200 84.000000
110.095100 58.000000
118.063300 114.000000
120.079700 252.000000
121.065400 42.000000
122.101700 38.000000
123.078000 64.000000
133.064000 28.000000
138.089800 146.000000
140.105700 21.000000
151.074800 26.000000
306.157300 24.000000

