>compound BML6927453
>parentmass 381.2036
>ionization [M+Na]+
>formula C22H30O4
>rt 638.700000
>profile qtof
#smiles_iso CC1=CCC(C(=CC(C(CCC1)(C)C)O)C)OC(=O)C2=CC=C(C=C2)O
#smiles_can CC1=CCC(C(=CC(C(CCC1)(C)C)O)C)OC(=O)C2=CC=C(C=C2)O
#inchikey JDZBITULCWBIMC-UHFFFAOYSA-N
#pubchem_id 3327183
#mb_accession BML00871

>ms2
161.021900 30.000000
243.163100 30.000000
381.201700 373.000000

