>compound BML6657329
>parentmass 335.1754
>ionization [M+H]+
>formula C21H22N2O2
>rt 201.660000
>profile qtof
#smiles_iso C1CN2CC3=CCOC4CC(=O)N5C6C4C3CC2C61C7=CC=CC=C75
#smiles_can C1CN2CC3=CCOC4CC(=O)N5C6C4C3CC2C61C7=CC=CC=C75
#inchikey QMGVPVSNSZLJIA-UHFFFAOYSA-N
#pubchem_id 5304
#mb_accession BML00638,BML00649,BML00660

>ms2
273.042800 22.000000
335.172800 1154.000000

>ms2
335.173900 1228.000000
335.239100 66.000000

>ms2
130.061200 26.000000
144.080100 48.000000
156.080700 95.000000
168.086000 21.000000
180.077100 21.000000
181.073700 20.000000
184.072700 256.000000
194.094900 51.000000
198.086000 26.000000
207.099400 21.000000
220.073300 33.000000
222.089100 58.000000
235.134300 24.000000
264.099600 34.000000
335.174000 139.000000

