>compound BML6716211
>parentmass 372.18059999999997
>ionization [M+H]+
>formula C21H25NO5
>rt 297.000000
>profile qtof
#smiles_iso CNC1CCC2=CC(=C(C(=C2C3=CC=C(C(=O)C=C13)OC)OC)OC)OC
#smiles_can CNC1CCC2=CC(=C(C(=C2C3=CC=C(C(=O)C=C13)OC)OC)OC)OC
#inchikey NNJPGOLRFBJNIW-UHFFFAOYSA-N
#pubchem_id 2832
#mb_accession BML01010,BML01018,BML01026

>ms2peaks
250.096900 20.000000
256.100500 22.000000
267.103100 30.000000
268.114200 24.000000
270.114700 22.000000
272.099600 46.000000
278.091000 70.000000
279.101300 36.000000
279.133100 23.000000
282.122500 52.000000
284.107500 47.000000
285.110600 52.000000
287.118800 23.000000
295.093700 44.000000
298.120200 21.000000
299.125600 67.000000
300.097000 37.000000
301.143300 97.000000
307.112200 25.000000
308.126800 110.000000
308.140100 30.000000
309.127800 84.000000
310.115500 357.000000
310.157700 24.000000
310.187400 21.000000
311.128200 44.000000
312.155500 157.000000
313.113000 24.000000
313.145400 90.000000
315.123600 214.000000
323.145000 40.000000
323.155500 32.000000
324.128200 47.000000
325.125700 72.000000
326.109800 131.000000
326.124900 52.000000
326.148700 28.000000
329.139200 31.000000
340.153200 639.000000
340.200000 30.000000
341.137900 372.000000
341.168400 31.000000
341.200500 29.000000
342.135800 57.000000
344.149500 112.000000
354.169500 87.000000
357.155000 85.000000
372.180400 6018.000000

>ms2peaks
137.057600 30.000000
164.071300 28.000000
178.078600 37.000000
181.083900 59.000000
207.082500 44.000000
223.068600 26.000000
235.077600 25.000000
237.095000 27.000000
241.082400 37.000000
249.083100 36.000000
250.093000 26.000000
251.103700 25.000000
252.074700 31.000000
253.080400 28.000000
254.095200 21.000000
255.100000 48.000000
256.108300 121.000000
257.078800 31.000000
258.082200 26.000000
263.067300 32.000000
264.098400 32.000000
265.078000 23.000000
266.088900 26.000000
266.104100 31.000000
267.096100 96.000000
268.107400 27.000000
269.084400 50.000000
270.086500 30.000000
270.125600 31.000000
271.086600 21.000000
271.132700 34.000000
272.103100 83.000000
277.080900 25.000000
277.101500 61.000000
278.095400 100.000000
279.059500 25.000000
279.113400 90.000000
280.107400 38.000000
280.130700 21.000000
281.112700 70.000000
282.118400 189.000000
283.093800 97.000000
283.133200 53.000000
284.106400 78.000000
285.110900 97.000000
286.136100 22.000000
287.081900 42.000000
287.126000 99.000000
293.092200 30.000000
294.091900 66.000000
294.109700 90.000000
294.145800 21.000000
295.092000 182.000000
296.122800 80.000000
297.109600 30.000000
298.100900 38.000000
298.122200 77.000000
299.127600 86.000000
300.098400 97.000000
301.102300 31.000000
301.143600 38.000000
302.114000 31.000000
308.127300 73.000000
309.131600 213.000000
310.115800 774.000000
310.171000 53.000000
311.088000 143.000000
311.116700 74.000000
311.130400 54.000000
312.157900 285.000000
313.102600 45.000000
313.134300 88.000000
313.145600 29.000000
314.105100 102.000000
315.119000 148.000000
316.137200 26.000000
323.146600 59.000000
324.118700 114.000000
325.132200 154.000000
326.117800 300.000000
328.158200 39.000000
329.137300 34.000000
338.134400 32.000000
339.147700 79.000000
340.149500 387.000000
340.184100 25.000000
341.135700 264.000000
341.162700 60.000000
342.130000 150.000000
342.142200 57.000000
344.144800 92.000000
354.178300 39.000000
356.149300 40.000000
357.154400 142.000000
372.178900 757.000000

>ms2peaks
137.062800 28.000000
148.049600 24.000000
149.054300 32.000000
152.059100 23.000000
153.068300 37.000000
164.065800 29.000000
164.075600 26.000000
165.067700 115.000000
166.078000 36.000000
167.085500 33.000000
169.066400 72.000000
176.077100 38.000000
177.061200 26.000000
178.081000 49.000000
179.086300 44.000000
181.065100 99.000000
181.101800 22.000000
182.072000 60.000000
183.082400 20.000000
185.060400 21.000000
188.079400 23.000000
192.065600 27.000000
192.080900 33.000000
193.063300 31.000000
194.080300 27.000000
195.079500 98.000000
196.078100 37.000000
197.058100 107.000000
198.061300 43.000000
199.073900 45.000000
205.064600 51.000000
206.070900 24.000000
207.080500 137.000000
208.087800 62.000000
208.107000 24.000000
209.059100 102.000000
209.096200 66.000000
210.071300 39.000000
210.099100 20.000000
211.067000 44.000000
211.079900 59.000000
212.078300 34.000000
213.090900 70.000000
215.068000 21.000000
217.070200 20.000000
219.077700 55.000000
220.085000 40.000000
220.111000 40.000000
221.056700 45.000000
221.086400 30.000000
221.110700 22.000000
222.062800 31.000000
222.080200 39.000000
222.102600 29.000000
223.075600 174.000000
224.047800 27.000000
224.082600 145.000000
225.053700 66.000000
225.090900 78.000000
226.063900 32.000000
226.100800 39.000000
227.068300 98.000000
227.085300 20.000000
229.082700 42.000000
233.059900 81.000000
234.059800 35.000000
234.085800 23.000000
235.074900 189.000000
235.098100 20.000000
236.042600 31.000000
236.081700 62.000000
236.110400 25.000000
237.047500 33.000000
237.092800 117.000000
238.095700 22.000000
239.067800 53.000000
239.097100 204.000000
240.075100 60.000000
240.097300 29.000000
240.108800 38.000000
241.085400 179.000000
242.060900 39.000000
242.096000 31.000000
243.058100 23.000000
247.070200 40.000000
247.094900 30.000000
248.097900 54.000000
249.058000 47.000000
249.087400 46.000000
250.079800 72.000000
250.124700 43.000000
251.070400 75.000000
251.082300 49.000000
251.105600 53.000000
252.075900 40.000000
252.091600 48.000000
253.050700 24.000000
253.089700 101.000000
254.076900 69.000000
254.113200 61.000000
255.065700 52.000000
255.093800 79.000000
256.071900 31.000000
256.104900 82.000000
257.086200 38.000000
259.089200 35.000000
262.087800 33.000000
263.060500 39.000000
263.074700 57.000000
264.074500 28.000000
264.098200 126.000000
264.118300 26.000000
265.086900 126.000000
266.086100 30.000000
266.100700 22.000000
266.118100 73.000000
267.066600 61.000000
267.096300 181.000000
268.073100 137.000000
268.095800 50.000000
268.116500 26.000000
269.079300 94.000000
269.113200 22.000000
270.086600 46.000000
270.115900 21.000000
272.096600 27.000000
276.104100 28.000000
277.082100 38.000000
277.104400 27.000000
278.078800 58.000000
278.109100 72.000000
279.059900 26.000000
279.077600 36.000000
279.095700 36.000000
279.114300 57.000000
280.067000 21.000000
280.084300 23.000000
280.110300 47.000000
280.142000 25.000000
281.043100 43.000000
281.081800 69.000000
281.110300 52.000000
282.074200 26.000000
282.115100 213.000000
283.094600 88.000000
283.125100 21.000000
284.086500 28.000000
284.100800 24.000000
285.079800 28.000000
286.098300 26.000000
287.092000 37.000000
292.094100 57.000000
293.085800 55.000000
294.080800 48.000000
294.109800 47.000000
295.058100 26.000000
295.096200 179.000000
296.069600 32.000000
296.086500 21.000000
296.129300 126.000000
298.110100 40.000000
298.143700 23.000000
299.104200 29.000000
306.113700 27.000000
308.091300 20.000000
308.128200 23.000000
309.096400 90.000000
309.131100 34.000000
310.112800 131.000000
311.087400 87.000000
312.091000 23.000000
313.115800 28.000000
314.139500 22.000000
324.120700 61.000000
342.122300 28.000000

