>compound BML6108571
>parentmass 213.1023
>ionization [M+H]+
>formula C13H12N2O
>rt 269.940000
>profile qtof
#smiles_iso CC1=NC=CC2=C1NC3=C2C=CC(=C3)OC
#smiles_can CC1=NC=CC2=C1NC3=C2C=CC(=C3)OC
#inchikey BXNJHAXVSOCGBA-UHFFFAOYSA-N
#pubchem_id 5280953
#mb_accession BML01053,BML01056,BML01059

>ms2peaks
169.072500 32.000000
170.079800 88.000000
198.078900 157.000000
213.101300 2314.000000

>ms2peaks
144.073200 29.000000
155.056700 29.000000
169.076900 141.000000
170.084000 731.000000
170.119500 37.000000
198.078400 1688.000000
198.112600 64.000000
198.131200 44.000000
198.208300 24.000000
213.101200 1640.000000

>ms2peaks
115.055000 40.000000
118.065200 48.000000
128.044800 47.000000
129.054300 43.000000
130.067500 22.000000
142.067700 37.000000
143.066600 50.000000
144.071000 31.000000
144.080400 145.000000
155.060800 185.000000
168.068300 51.000000
169.075400 1269.000000
170.082800 1475.000000
170.121000 43.000000
198.074700 71.000000

