>compound BML6724051
>parentmass 258.1085
>ionization [M+H]+
>formula C10H15N3O5
>rt 23.340000
>profile qtof
#smiles_iso CC1=CN(C(=O)N=C1N)C2C(C(C(O2)CO)O)O
#smiles_can CC1=CN(C(=O)N=C1N)C2C(C(C(O2)CO)O)O
#inchikey ZAYHVCMSTBRABG-UHFFFAOYSA-N
#pubchem_id 262543
#mb_accession BML01751,BML01762,BML01773

>ms2peaks
108.056500 179.000000
109.039200 270.000000
115.035900 42.000000
126.065900 32002.000000
126.098700 859.000000
126.116600 403.000000
126.141100 260.000000
126.169200 527.000000
126.206200 51.000000
126.226600 51.000000
126.254100 20.000000
126.323300 57.000000
126.330500 20.000000
126.357300 30.000000
126.378900 61.000000
126.413900 40.000000
126.449400 33.000000
126.478300 53.000000
126.510900 42.000000
126.534000 23.000000
126.547500 28.000000
126.563100 55.000000
126.592800 34.000000
126.607900 29.000000
126.647000 38.000000
126.685400 39.000000
126.734600 33.000000
126.748000 31.000000
126.779200 25.000000
126.808600 24.000000
126.867200 53.000000
126.877700 26.000000
126.970700 26.000000
127.063300 45.000000
127.079200 29.000000
127.456200 23.000000
133.051400 45.000000
161.012600 26.000000
258.113000 93.000000

>ms2peaks
101.948600 43.000000
108.054500 342.000000
109.040000 643.000000
109.073500 24.000000
115.043000 37.000000
126.066100 24790.000000
126.099300 647.000000
126.119900 272.000000
126.140900 76.000000
126.169800 394.000000
126.224500 72.000000
126.313200 43.000000
126.328700 26.000000
126.350600 29.000000
126.380600 22.000000
126.407400 61.000000
126.463900 42.000000
126.513000 22.000000
126.545400 47.000000
126.576700 24.000000
126.640400 20.000000
126.676800 27.000000
126.734700 31.000000
126.802700 23.000000
126.918000 26.000000
127.071200 42.000000

>ms2peaks
100.975600 54.000000
101.949200 169.000000
101.960500 30.000000
107.063800 23.000000
108.055400 2482.000000
108.085300 88.000000
108.103400 21.000000
108.149600 22.000000
109.039700 3694.000000
109.070200 125.000000
109.088900 48.000000
109.135700 32.000000
110.044400 24.000000
126.066100 8477.000000
126.098300 279.000000
126.148300 26.000000
126.170000 84.000000
126.270600 22.000000
126.375200 29.000000
126.404700 23.000000
126.430600 32.000000
126.619900 25.000000

