>compound BML6009452
>parentmass 287.055
>ionization [M+H]+
>formula C15H10O6
>rt 426.720000
>profile qtof
#smiles_iso C1=CC(=C(C=C1C2=CC(=O)C3=C(C=C(C=C3O2)O)O)O)O
#smiles_can C1=CC(=C(C=C1C2=CC(=O)C3=C(C=C(C=C3O2)O)O)O)O
#inchikey IQPNAANSBPBGFQ-UHFFFAOYSA-N
#pubchem_id 5280445
#mb_accession BML00104,BML00116,BML00128

>ms2
161.019600 22.000000
287.054800 941.000000

>ms2
135.046100 42.000000
153.019600 54.000000
161.024600 20.000000
241.046800 27.000000
287.054100 902.000000

>ms2
117.032200 79.000000
135.040000 67.000000
153.018300 151.000000
157.061900 22.000000
241.043800 28.000000
287.050800 46.000000

