>compound BML6322705
>parentmass 221.0921
>ionization [M+H]+
>formula C11H12N2O3
>rt 23.280000
>profile qtof
#smiles_iso C1=CC2=C(C=C1O)C(=CN2)C[C@@H](C(=O)O)N
#smiles_can C1=CC2=C(C=C1O)C(=CN2)CC(C(=O)O)N
#inchikey LDCYZAJDBXYCGN-VIFPVBQESA-N
#pubchem_id 439280
#mb_accession BML01217,BML01223,BML01229

>ms2peaks
103.053500 36.000000
106.063700 69.000000
115.051100 33.000000
116.050800 49.000000
117.053100 34.000000
130.069000 23.000000
131.047700 36.000000
132.078300 49.000000
133.050100 28.000000
134.058700 416.000000
142.990500 74.000000
146.058400 61.000000
148.075300 127.000000
158.057300 156.000000
159.063000 106.000000
160.036100 24.000000
160.073700 599.000000
162.054100 3067.000000
162.089600 146.000000
162.143200 22.000000
162.170500 29.000000
175.088800 229.000000
176.070500 33.000000
186.054500 399.000000
204.064800 6469.000000
204.104700 248.000000
204.132000 121.000000
204.195100 63.000000
204.279000 42.000000
204.437400 49.000000
204.509100 23.000000
204.723100 21.000000
221.005100 69.000000
221.085400 46.000000

>ms2peaks
103.054400 88.000000
105.069500 64.000000
106.064600 195.000000
107.048000 69.000000
115.052800 118.000000
116.050300 261.000000
117.056300 168.000000
118.059700 25.000000
127.969200 25.000000
130.064300 171.000000
131.051600 195.000000
132.080200 254.000000
133.048600 93.000000
134.059100 2422.000000
134.093000 94.000000
134.166200 24.000000
142.061600 141.000000
142.988500 108.000000
142.998100 37.000000
143.071500 26.000000
146.059000 157.000000
148.075600 290.000000
158.058600 605.000000
158.094600 20.000000
159.067600 376.000000
160.035800 89.000000
160.074800 860.000000
160.110400 27.000000
162.054300 2950.000000
162.082500 47.000000
162.108400 25.000000
162.172300 25.000000
175.088400 148.000000
176.068700 32.000000
186.052800 455.000000
204.063600 341.000000

>ms2peaks
103.054500 889.000000
103.083600 36.000000
104.047400 29.000000
104.059300 45.000000
105.034200 25.000000
105.055300 25.000000
105.062700 133.000000
105.069800 33.000000
106.041300 40.000000
106.064600 713.000000
106.090100 36.000000
106.102600 22.000000
107.049100 560.000000
107.070500 26.000000
115.054800 328.000000
116.048400 745.000000
116.072600 29.000000
116.088500 24.000000
117.058600 382.000000
118.062800 156.000000
120.080600 56.000000
126.959000 44.000000
127.976800 21.000000
128.050400 22.000000
128.058400 26.000000
129.059500 21.000000
130.064700 638.000000
130.097100 28.000000
131.049700 582.000000
131.070900 108.000000
132.055700 116.000000
133.052700 529.000000
133.078500 34.000000
134.058800 521.000000
134.082800 28.000000
140.045800 50.000000
141.054900 56.000000
142.069100 29.000000
143.071400 109.000000
144.042900 58.000000
146.059800 328.000000
146.078700 21.000000
148.072500 59.000000
158.058900 280.000000
159.066900 555.000000
159.099700 24.000000
160.072700 39.000000
162.052600 22.000000
186.055900 32.000000

