>compound BML6058581
>parentmass 180.1019
>ionization [M+H]+
>formula C10H13NO2
>rt 235.680000
>profile qtof
#smiles_iso CCCCC1=CN=C(C=C1)C(=O)O
#smiles_can CCCCC1=CN=C(C=C1)C(=O)O
#inchikey DGMPVYSXXIOGJY-UHFFFAOYSA-N
#pubchem_id 3442
#mb_accession BML00604,BML00612,BML00620

>ms2
107.085900 105.000000
115.056000 71.000000
117.069400 167.000000
119.069800 62.000000
132.079100 89.000000
134.096100 8238.000000
134.129700 264.000000
134.150900 53.000000
134.164900 48.000000
134.176300 63.000000
134.203600 142.000000
152.103600 91.000000
162.090600 2869.000000
162.127900 122.000000
162.149700 61.000000
180.099300 451.000000

>ms2
105.070400 107.000000
106.064400 262.000000
107.084200 209.000000
115.053700 291.000000
116.059000 29.000000
117.069000 391.000000
118.066200 182.000000
119.073000 304.000000
132.078900 200.000000
133.081800 30.000000
134.095600 3102.000000
134.131900 122.000000
134.175000 21.000000
134.202100 48.000000
152.107100 46.000000
162.091700 58.000000
166.115600 27.000000

>ms2
104.050300 47.000000
105.070100 44.000000
106.064200 41.000000
115.049000 46.000000
115.054600 114.000000
117.054600 36.000000
117.062400 38.000000
117.070900 27.000000
118.065000 389.000000
118.093300 22.000000
119.069700 40.000000
119.076900 24.000000
132.083500 22.000000

