>compound BML6179861
>parentmass 501.1603
>ionization [M+H]+
>formula C22H28O13
>rt 239.820000
>profile qtof
#smiles_iso CC1C(C(C(C(O1)OCC2C(C(C(C(O2)OC3=C(C=C4C=CC(=O)OC4=C3)OC)O)O)O)O)O)O
#smiles_can CC1C(C(C(C(O1)OCC2C(C(C(C(O2)OC3=C(C=C4C=CC(=O)OC4=C3)OC)O)O)O)O)O)O
#inchikey FCIZPHNZRNLUJD-UHFFFAOYSA-N
#pubchem_id 20106091
#mb_accession BML01534,BML01546,BML01558

>ms2
193.048800 952.000000
193.090700 39.000000
355.100300 159.000000
355.114600 22.000000

>ms2
193.048600 1076.000000
193.082700 22.000000
193.093200 20.000000

>ms2
133.027500 114.000000
150.027800 24.000000
178.024800 74.000000
193.049200 978.000000
193.094600 35.000000

