>compound BML6630625
>parentmass 447.1286
>ionization [M+H]+
>formula C22H22O10
>rt 400.980000
>profile qtof
#smiles_iso COC1=CC=C(C=C1)C2=COC3=CC(=CC(=C3C2=O)O)OC4C(C(C(C(O4)CO)O)O)O
#smiles_can COC1=CC=C(C=C1)C2=COC3=CC(=CC(=C3C2=O)O)OC4C(C(C(C(O4)CO)O)O)O
#inchikey LFEUICHQZGNOHD-UHFFFAOYSA-N
#pubchem_id 5358913
#mb_accession BML00158,BML00172,BML00186

>ms2peaks
285.074800 1078.000000
285.121500 44.000000
447.132900 41.000000

>ms2peaks
270.053000 24.000000
285.075700 1451.000000
285.127700 82.000000

>ms2peaks
123.040000 40.000000
149.027400 23.000000
152.008800 85.000000
153.020400 22.000000
229.084000 100.000000
242.042400 29.000000
242.058700 35.000000
253.051100 32.000000
257.080900 28.000000
269.038700 28.000000
270.050400 53.000000
285.074100 592.000000
285.121000 51.000000

