>compound BML6446315
>parentmass 267.1492
>ionization [M+H]+
>formula C17H18N2O
>rt 328.080000
>profile qtof
#smiles_iso C1=CC=C(C=C1)COC2=CC=CC3=C2NC=C3CCN
#smiles_can C1=CC=C(C=C1)COC2=CC=CC3=C2NC=C3CCN
#inchikey JOYGWYISRWPUIM-UHFFFAOYSA-N
#pubchem_id 260806
#mb_accession BML01380,BML01389,BML01398

>ms2peaks
130.064400 28.000000
159.066800 33.000000
172.072500 62.000000
238.122800 35.000000
250.122100 4353.000000

>ms2peaks
131.074900 25.000000
159.068800 72.000000
191.083900 21.000000
250.123100 236.000000

>ms2peaks
103.058600 31.000000
104.067000 22.000000
130.066100 311.000000
130.099400 24.000000
131.074000 135.000000
146.062700 56.000000
158.059600 26.000000
159.070300 37.000000

