>compound BML6544678
>parentmass 531.1497
>ionization [M+H]+
>formula C26H26O12
>rt 509.160000
>profile qtof
#smiles_iso C/C=C/C(=O)OCC1C(C(C(C(O1)OC2=CC(=C3C(=C2)OC(=CC3=O)C4=CC(=C(C=C4)O)OC)O)O)O)O
#smiles_can CC=CC(=O)OCC1C(C(C(C(O1)OC2=CC(=C3C(=C2)OC(=CC3=O)C4=CC(=C(C=C4)O)OC)O)O)O)O
#inchikey OAZSPRBLFZZMMR-ONEGZZNKSA-N
#pubchem_id 24208689
#mb_accession BML01594,BML01603,BML01612

>ms2peaks
301.069800 1057.000000
301.122500 26.000000
531.147700 364.000000

>ms2peaks
286.046900 41.000000
301.069800 1107.000000

>ms2peaks
258.050000 45.000000
286.044800 262.000000
301.069500 786.000000
301.118000 44.000000

