>compound BML6259382
>parentmass 657.1814
>ionization [M+H]+
>formula C32H32O15
>rt 592.560000
>profile qtof
#smiles_iso CC(=O)OCC1C(C(C(C(O1)OC2=C(C3=C(C=C2)OC=C(C3=O)C4=CC=C(C=C4)OC)OC(=O)C)OC(=O)C)OC(=O)C)OC(=O)C
#smiles_can CC(=O)OCC1C(C(C(C(O1)OC2=C(C3=C(C=C2)OC=C(C3=O)C4=CC=C(C=C4)OC)OC(=O)C)OC(=O)C)OC(=O)C)OC(=O)C
#inchikey RFTHIXXAUSTEOS-UHFFFAOYSA-N
#pubchem_id 5125341
#mb_accession BML00167,BML00181,BML00195

>ms2
109.029300 119.000000
127.037700 27.000000
169.048000 436.000000
211.055800 55.000000
271.081500 62.000000
285.077000 882.000000
285.117200 64.000000
285.149000 25.000000
285.228400 21.000000
327.082900 311.000000
327.124100 45.000000
331.099900 96.000000
615.170600 401.000000
657.186500 100.000000

>ms2
109.027400 446.000000
127.034800 49.000000
139.035400 24.000000
169.049900 288.000000
169.087600 20.000000
285.076000 1346.000000
285.114100 30.000000
285.131400 43.000000
327.082200 44.000000
331.088500 22.000000
331.111800 22.000000

>ms2
109.028100 455.000000
109.054800 32.000000
127.038400 164.000000
131.043700 28.000000
161.093200 20.000000
169.054600 37.000000
285.074700 1575.000000
285.131200 90.000000

