>compound BML6015641
>parentmass 395.14889999999997
>ionization [M+H]+
>formula C23H22O6
>rt 566.820000
>profile qtof
#smiles_iso CC(=C)C1CC2=C(O1)C=CC3=C2OC4COC5=CC(=C(C=C5C4C3=O)OC)OC
#smiles_can CC(=C)C1CC2=C(O1)C=CC3=C2OC4COC5=CC(=C(C=C5C4C3=O)OC)OC
#inchikey JUVIOZPCNVVQFO-UHFFFAOYSA-N
#pubchem_id 5102
#mb_accession BML00702,BML00711,BML00720

>ms2
124.055600 20.000000
139.076400 25.000000
167.072200 29.000000
179.072000 65.000000
189.092200 31.000000
191.064100 81.000000
192.077000 268.000000
193.085000 53.000000
195.076500 26.000000
203.061800 65.000000
213.089800 276.000000
241.082600 95.000000
321.104900 27.000000
335.129200 21.000000
367.152100 84.000000
395.146600 1530.000000

>ms2
139.072900 140.000000
147.044900 26.000000
151.070600 41.000000
161.094800 24.000000
167.069500 178.000000
177.047000 24.000000
179.068900 103.000000
189.079800 31.000000
189.092400 106.000000
191.067100 54.000000
192.076900 302.000000
192.110600 24.000000
193.083700 42.000000
195.076900 72.000000
203.066400 144.000000
213.090200 384.000000
220.064300 27.000000
241.084700 95.000000
367.141800 32.000000
395.145700 212.000000

>ms2
105.070500 41.000000
107.052100 36.000000
121.066500 31.000000
122.067100 25.000000
123.041200 20.000000
124.050300 59.000000
131.046100 35.000000
133.033800 51.000000
133.065600 34.000000
135.038500 24.000000
135.071100 22.000000
139.074700 112.000000
147.042300 142.000000
147.083700 53.000000
148.047700 46.000000
151.074300 175.000000
152.044900 35.000000
157.061900 40.000000
159.038900 47.000000
160.043800 51.000000
161.023200 85.000000
161.058900 94.000000
161.094500 34.000000
162.064800 43.000000
165.089800 36.000000
169.064100 32.000000
170.074000 79.000000
171.072900 31.000000
176.044800 31.000000
177.051900 183.000000
178.054800 31.000000
178.065500 28.000000
179.068200 85.000000
181.054600 50.000000
191.066800 498.000000
191.101000 40.000000
192.070200 84.000000
192.084200 33.000000
195.080200 327.000000
197.053100 21.000000
198.067900 124.000000
203.067000 54.000000
213.089200 203.000000
219.066200 20.000000
241.083700 22.000000

