>compound BML6995553
>parentmass 340.1544
>ionization [M+H]+
>formula C20H21NO4
>rt 316.380000
>profile qtof
#smiles_iso COC1=C(C2=C(CC3C4=CC5=C(C=C4CCN3C2)OCO5)C=C1)OC
#smiles_can COC1=C(C2=C(CC3C4=CC5=C(C=C4CCN3C2)OCO5)C=C1)OC
#inchikey VZTUIEROBZXUFA-UHFFFAOYSA-N
#pubchem_id 34458
#mb_accession BML00910,BML00921,BML00932

>ms2peaks
101.000600 28.000000
176.069200 169.000000
340.151500 742.000000

>ms2peaks
149.057000 75.000000
165.086600 54.000000
176.068900 542.000000
176.111600 24.000000
340.151600 356.000000

>ms2peaks
118.063500 40.000000
119.048000 46.000000
121.059500 34.000000
135.044500 27.000000
149.059600 68.000000
150.065800 33.000000
161.046300 20.000000
176.069300 518.000000
176.105500 31.000000

