>compound BML6817082
>parentmass 677.244
>ionization [M+H]+
>formula C33H40O15
>rt 475.500000
>profile qtof
#smiles_iso C[C@H]1[C@@H]([C@H]([C@H]([C@@H](O1)OC2=C(OC3=C(C2=O)C(=CC(=C3CC=C(C)C)O[C@H]4[C@@H]([C@H]([C@@H]([C@H](O4)CO)O)O)O)O)C5=CC=C(C=C5)OC)O)O)O
#smiles_can CC1C(C(C(C(O1)OC2=C(OC3=C(C2=O)C(=CC(=C3CC=C(C)C)OC4C(C(C(C(O4)CO)O)O)O)O)C5=CC=C(C=C5)OC)O)O)O
#inchikey TZJALUIVHRYQQB-XLRXWWTNSA-N
#pubchem_id 5318997
#mb_accession BML01808,BML01818,BML01828

>ms2peaks
129.059000 25.000000
313.069800 52.000000
369.132400 442.000000
369.186100 22.000000
531.184400 1381.000000
531.247100 36.000000
531.270000 33.000000
532.176600 25.000000
677.239000 133.000000

>ms2peaks
129.054800 40.000000
313.070100 103.000000
369.131900 1367.000000
531.185900 484.000000

>ms2peaks
313.070000 456.000000
313.106600 26.000000
369.130700 971.000000
369.164900 48.000000

