>compound BML6251012
>parentmass 345.1333
>ionization [M+H]+
>formula C19H20O6
>rt 467.280000
>profile qtof
#smiles_iso COC1=CC(=C(C(=C1)OC)C(=O)/C=C/C2=CC(=C(C=C2)O)OC)OC
#smiles_can COC1=CC(=C(C(=C1)OC)C(=O)C=CC2=CC(=C(C=C2)O)OC)OC
#inchikey BAHHZVVNFAOLAZ-SOFGYWHQSA-N
#pubchem_id 9974764
#mb_accession BML01755,BML01766,BML01777

>ms2
104.993600 25.000000
145.031200 37.000000
177.053700 245.000000
180.038000 24.000000
195.064100 1208.000000
195.102100 61.000000
262.987200 39.000000
327.127500 25.000000
345.132100 1858.000000

>ms2
104.993200 29.000000
117.032900 30.000000
145.026900 189.000000
152.046500 37.000000
177.053600 273.000000
180.041800 106.000000
195.064800 1847.000000
195.102400 66.000000
195.126600 23.000000
345.132000 102.000000

>ms2
105.030900 23.000000
107.045600 26.000000
109.062700 37.000000
117.032000 292.000000
122.036100 75.000000
123.045300 24.000000
134.034200 42.000000
135.042100 58.000000
137.022700 397.000000
137.059000 65.000000
145.026500 127.000000
145.031300 24.000000
149.056800 66.000000
150.032500 81.000000
151.036800 108.000000
152.045300 600.000000
152.089000 24.000000
163.039900 21.000000
165.052100 43.000000
180.041200 649.000000
180.077500 25.000000
195.064700 950.000000
195.102700 33.000000

