>compound BML6746394
>parentmass 281.1172
>ionization [M+H]+
>formula C18H16O3
>rt 587.400000
>profile qtof
#smiles_iso CC(C)OC1=CC2=C(C=C1)C(=O)C(=CO2)C3=CC=CC=C3
#smiles_can CC(C)OC1=CC2=C(C=C1)C(=O)C(=CO2)C3=CC=CC=C3
#inchikey SFBODOKJTYAUCM-UHFFFAOYSA-N
#pubchem_id 3747
#mb_accession BML01759,BML01770,BML01781

>ms2
102.045000 25.000000
239.069500 1601.000000
239.114800 50.000000
281.116600 1292.000000

>ms2
165.065100 45.000000
183.082300 69.000000
211.077100 23.000000
239.069400 1938.000000
239.115300 99.000000
239.148200 25.000000

>ms2
103.053200 101.000000
105.032100 57.000000
115.051200 21.000000
115.057500 27.000000
118.037400 30.000000
127.052200 64.000000
129.069000 21.000000
131.051100 21.000000
137.021100 103.000000
141.066600 49.000000
153.070000 196.000000
154.074000 30.000000
155.088600 111.000000
165.068600 433.000000
181.063500 100.000000
182.072000 34.000000
183.079900 115.000000
239.071300 157.000000

