>compound BML6197304
>parentmass 623.1971
>ionization [M+H]+
>formula C29H34O15
>rt 442.020000
>profile qtof
#smiles_iso CC1C(C(C(C(O1)OCC2C(C(C(C(O2)OC3=C(C(=C4C(=C3)OC(=CC4=O)C5=CC=C(C=C5)OC)O)OC)O)O)O)O)O)O
#smiles_can CC1C(C(C(C(O1)OCC2C(C(C(C(O2)OC3=C(C(=C4C(=C3)OC(=CC4=O)C5=CC=C(C=C5)OC)O)OC)O)O)O)O)O)O
#inchikey DUXQKCCELUKXOE-UHFFFAOYSA-N
#pubchem_id 3818047
#mb_accession BML01591,BML01600,BML01609

>ms2peaks
300.057800 34.000000
315.084900 1684.000000
315.138200 62.000000
315.162800 31.000000
315.195200 25.000000
477.138300 1636.000000
477.205700 39.000000
477.238700 23.000000
477.288500 22.000000
478.139400 28.000000
623.195600 790.000000

>ms2peaks
300.063400 96.000000
315.085800 4178.000000
315.130200 98.000000
315.148300 30.000000
315.169300 43.000000
315.212000 33.000000
315.246100 36.000000
316.094000 28.000000
323.056900 35.000000
401.064800 26.000000
477.136900 560.000000
477.192400 49.000000
623.180200 20.000000

>ms2peaks
300.062000 1173.000000
300.110800 65.000000
315.085400 3369.000000
315.133600 132.000000
315.256800 26.000000
315.427200 21.000000
315.467700 26.000000
316.087000 34.000000

