>compound BML6334128
>parentmass 321.1333
>ionization [M+H]+
>formula C17H20O6
>rt 484.020000
>profile qtof
#smiles_iso CC1=C2COC(=O)C2=C(C(=C1OC)CC=C(C)CCC(=O)O)O
#smiles_can CC1=C2COC(=O)C2=C(C(=C1OC)CC=C(C)CCC(=O)O)O
#inchikey HPNSFSBZBAHARI-UHFFFAOYSA-N
#pubchem_id 4272
#mb_accession BML00241,BML00248,BML00255

>ms2peaks
207.064100 395.000000
275.128300 78.000000
285.112100 25.000000
303.121400 235.000000

>ms2peaks
104.993700 24.000000
109.064500 21.000000
135.080900 21.000000
159.041200 181.000000
195.067300 27.000000
207.063900 1102.000000
207.110600 50.000000
207.131500 21.000000
223.059900 21.000000
231.129300 21.000000
275.129300 31.000000
285.111000 43.000000

>ms2peaks
103.049300 49.000000
103.054400 130.000000
121.062100 20.000000
131.049400 21.000000
159.043200 392.000000
207.061900 41.000000

