>compound BML6942485
>parentmass 414.1548
>ionization [M+H]+
>formula C22H23NO7
>rt 321.120000
>profile qtof
#smiles_iso CN1CCC2=CC3=C(C(=C2[C@@H]1[C@@H]4C5=C(C(=C(C=C5)OC)OC)C(=O)O4)OC)OCO3
#smiles_can CN1CCC2=CC3=C(C(=C2C1C4C5=C(C(=C(C=C5)OC)OC)C(=O)O4)OC)OCO3
#inchikey AKNNEGZIBPJZJG-MSOLQXFVSA-N
#pubchem_id 275196
#mb_accession BML00280,BML00289,BML00298

>ms2
179.066200 28.000000
220.096100 997.000000
220.138600 55.000000
353.099300 117.000000
365.095800 36.000000
383.117100 22.000000
414.152900 2182.000000

>ms2
179.069400 107.000000
206.079300 33.000000
219.087900 37.000000
220.096500 1600.000000
220.137700 112.000000
220.164500 32.000000
220.236100 21.000000
248.083400 25.000000
295.091000 22.000000
307.092600 22.000000
308.098100 24.000000
320.069800 27.000000
322.084600 23.000000
323.090100 101.000000
334.074100 25.000000
335.085400 25.000000
350.080100 100.000000
352.090800 24.000000
353.101300 399.000000
353.155500 22.000000
365.100700 136.000000
378.122000 43.000000
381.114000 75.000000
383.107500 23.000000
396.144100 54.000000
414.152900 199.000000

>ms2
265.049100 65.000000
265.086200 41.000000
276.037400 27.000000
276.075100 32.000000
277.046400 39.000000
277.078400 49.000000
279.070100 47.000000
280.071900 69.000000
281.085200 29.000000
289.046800 28.000000
292.076100 30.000000
293.077100 26.000000
294.080800 21.000000
295.057300 25.000000
295.082300 31.000000
306.059500 28.000000
307.065000 64.000000
309.068800 47.000000
310.082400 34.000000
319.051700 39.000000
322.085600 38.000000
323.091800 84.000000
325.101900 59.000000
334.093800 26.000000
335.052600 36.000000
337.071100 56.000000
338.067700 23.000000
350.073100 27.000000
351.066900 28.000000
352.117400 26.000000
366.095100 23.000000

