>compound BML6821469
>parentmass 266.1387
>ionization [M+H]+
>formula C14H19NO4
>rt 170.760000
>profile qtof
#smiles_iso CC(=O)OC1C(CNC1CC2=CC=C(C=C2)OC)O
#smiles_can CC(=O)OC1C(CNC1CC2=CC=C(C=C2)OC)O
#inchikey YKJYKKNCCRKFSL-UHFFFAOYSA-N
#pubchem_id 2199
#mb_accession BML00905,BML00916,BML00927

>ms2
114.943600 28.000000
121.064500 1818.000000
121.091900 62.000000
121.105800 21.000000
121.167100 25.000000
144.059700 27.000000
145.065000 110.000000
147.077400 98.000000
149.095200 23.000000
150.090600 105.000000
159.078100 155.000000
159.084300 62.000000
161.093900 66.000000
163.070600 22.000000
163.093800 26.000000
171.081800 30.000000
173.965100 21.000000
176.107500 24.000000
177.090300 28.000000
188.104200 567.000000
188.133300 23.000000
189.088400 77.000000
206.115600 1801.000000
206.158400 75.000000
206.251800 23.000000
224.122700 82.000000
224.152500 21.000000
266.136500 3661.000000

>ms2
114.945300 47.000000
115.053200 25.000000
117.072500 25.000000
118.066800 28.000000
119.054200 20.000000
121.064400 3302.000000
121.095900 81.000000
121.101000 41.000000
121.116800 44.000000
121.136400 25.000000
121.166000 48.000000
132.041400 25.000000
132.059400 24.000000
136.071400 22.000000
144.055900 168.000000
145.063300 100.000000
147.076600 136.000000
149.091000 60.000000
150.091100 79.000000
158.057600 23.000000
159.071100 26.000000
159.079400 206.000000
159.101000 23.000000
161.093900 78.000000
162.087500 22.000000
163.073600 24.000000
163.096300 21.000000
171.077400 74.000000
173.077500 59.000000
176.101200 43.000000
177.082500 23.000000
188.105000 213.000000
189.087500 56.000000
206.115800 624.000000
206.154600 24.000000
206.181400 20.000000
224.123000 119.000000
266.127400 23.000000
266.140000 75.000000

>ms2
102.046000 47.000000
103.054100 40.000000
105.066700 25.000000
105.073200 23.000000
106.041900 25.000000
107.048300 31.000000
114.949300 23.000000
115.051500 129.000000
116.061400 37.000000
117.058100 21.000000
117.068600 31.000000
118.063500 47.000000
121.064800 2863.000000
121.080000 36.000000
121.092200 31.000000
121.100900 44.000000
121.110700 33.000000
121.126000 21.000000
121.166300 56.000000
127.049500 21.000000
127.057500 35.000000
128.059800 102.000000
129.068700 26.000000
130.063400 34.000000
131.071700 32.000000
132.056500 31.000000
135.074900 40.000000
144.056800 116.000000
145.066400 43.000000
146.065500 41.000000
147.080200 59.000000
156.049500 20.000000
156.080000 58.000000
158.056000 26.000000
172.084700 21.000000
173.078400 26.000000

