>compound BML6666028
>parentmass 263.1278
>ionization [M+H]+
>formula C15H18O4
>rt 335.520000
>profile qtof
#smiles_iso CC1C2C(CC(=C3C(C2OC1=O)C(=CC3=O)C)C)O
#smiles_can CC1C2C(CC(=C3C(C2OC1=O)C(=CC3=O)C)C)O
#inchikey YMUOZXZDDBRJEP-UHFFFAOYSA-N
#pubchem_id 99114
#mb_accession BML00523

>ms2peaks
104.992900 108.000000
123.078600 51.000000
135.077500 35.000000
137.092500 91.000000
143.082300 21.000000
145.099800 60.000000
147.080400 39.000000
147.112400 44.000000
156.093800 44.000000
157.102400 23.000000
161.060000 27.000000
161.094800 116.000000
163.073700 45.000000
171.082100 273.000000
171.105100 21.000000
171.115000 59.000000
171.141500 20.000000
172.090400 64.000000
173.089000 32.000000
173.128800 23.000000
175.072900 54.000000
175.112700 39.000000
189.127300 236.000000
189.158800 24.000000
193.086300 23.000000
199.109100 235.000000
201.127200 54.000000
207.128100 28.000000
217.123100 114.000000
227.108700 60.000000
235.134100 130.000000
245.113800 120.000000
263.126300 1521.000000

