>compound BML6360829
>parentmass 447.1286
>ionization [M+H]+
>formula C22H22O10
>rt 401.040000
>profile qtof
#smiles_iso C1C2C(C3=C(O1)C=C(C=C3)OC4C(C(C(C(O4)CO)O)O)O)OC5=CC6=C(C=C25)OCO6
#smiles_can C1C2C(C3=C(O1)C=C(C=C3)OC4C(C(C(C(O4)CO)O)O)O)OC5=CC6=C(C=C25)OCO6
#inchikey VGSYCWGXBYZLLE-UHFFFAOYSA-N
#pubchem_id 4485132
#mb_accession BML01589,BML01598,BML01607

>ms2
285.074700 786.000000
285.114000 29.000000
447.128200 46.000000

>ms2
285.074800 932.000000
285.121500 40.000000

>ms2
149.022000 36.000000
152.008400 28.000000
153.015200 35.000000
229.085700 35.000000
253.048700 35.000000
269.040700 24.000000
270.050900 68.000000
285.074100 390.000000

