>compound BML6543908
>parentmass 459.1286
>ionization [M+H]+
>formula C23H22O10
>rt 552.240000
>profile qtof
#smiles_iso CC(=O)OC1=C(C=CC(=C1)C2=C(C(=O)C3=C(C(=C(C=C3O2)OC)OC(=O)C)OC)OC)OC
#smiles_can CC(=O)OC1=C(C=CC(=C1)C2=C(C(=O)C3=C(C(=C(C=C3O2)OC)OC(=O)C)OC)OC)OC
#inchikey FWZKNPRCZCUJMQ-UHFFFAOYSA-N
#pubchem_id 1269246
#mb_accession BML00165,BML00179,BML00193

>ms2peaks
342.084300 33.000000
375.106800 214.000000
417.116100 2819.000000
417.189800 27.000000
417.222700 52.000000
417.266500 43.000000
417.305400 36.000000
417.373100 21.000000
418.108200 53.000000
459.125000 105.000000

>ms2peaks
284.502500 31.000000
299.058200 24.000000
342.074700 55.000000
345.058300 46.000000
359.067900 36.000000
359.084400 30.000000
360.087700 47.000000
375.036900 29.000000
375.108500 1588.000000
375.163800 69.000000
375.200000 41.000000
417.117300 1642.000000
417.173200 51.000000
417.213200 28.000000

>ms2peaks
167.048000 22.000000
183.024500 31.000000
271.062100 69.000000
274.043400 25.000000
284.067300 49.000000
285.074800 28.000000
289.074600 25.000000
297.080800 27.000000
299.056200 212.000000
311.049000 119.000000
312.054900 41.000000
313.061500 40.000000
314.058200 21.000000
314.076100 156.000000
314.105600 30.000000
317.065400 455.000000
325.068100 64.000000
327.043800 64.000000
329.063300 25.000000
330.047600 25.000000
331.079000 21.000000
341.066200 134.000000
342.072800 471.000000
343.086300 33.000000
345.059500 406.000000
359.075000 250.000000
360.084200 257.000000
360.124900 29.000000
375.106500 550.000000
375.143500 24.000000
375.169300 29.000000

