>compound BML6126818
>parentmass 216.1019
>ionization [M+H]+
>formula C13H13NO2
>rt 208.500000
>profile qtof
#smiles_iso C1=CC=C2C=C(C=CC2=C1)CC(C(=O)O)N
#smiles_can C1=CC=C2C=C(C=CC2=C1)CC(C(=O)O)N
#inchikey JPZXHKDZASGCLU-UHFFFAOYSA-N
#pubchem_id 250399
#mb_accession BML01642,BML01653,BML01664

>ms2
128.058500 67.000000
129.069500 381.000000
143.085700 200.000000
151.054400 33.000000
152.062500 91.000000
153.068900 1578.000000
153.104900 54.000000
155.086600 77.000000
157.064300 2168.000000
157.094400 68.000000
157.181700 25.000000
170.095800 7372.000000
170.132300 225.000000
170.159000 62.000000
170.179100 63.000000
170.215900 91.000000
170.253800 32.000000
170.274800 21.000000
170.411700 29.000000
171.075300 42.000000
181.064600 1533.000000
181.101800 46.000000
181.123500 25.000000
199.074300 896.000000
199.114300 43.000000
216.101000 311.000000
216.146400 21.000000

>ms2
115.053800 41.000000
127.055000 105.000000
128.061500 351.000000
129.069700 2315.000000
129.098500 57.000000
129.117700 39.000000
129.174700 24.000000
137.946700 21.000000
141.071700 83.000000
143.084800 933.000000
151.054800 46.000000
152.062400 253.000000
153.069700 6391.000000
153.095200 61.000000
153.104400 99.000000
153.115600 51.000000
153.126800 84.000000
153.151800 31.000000
153.184200 90.000000
153.227000 22.000000
153.395400 24.000000
153.485300 21.000000
154.070100 30.000000
155.085300 98.000000
157.064500 867.000000
157.104300 34.000000
168.079400 32.000000
169.086900 26.000000
170.095900 2927.000000
170.132900 85.000000
170.164100 20.000000
170.216700 23.000000
181.064300 244.000000
199.073500 23.000000

>ms2
101.040400 22.000000
102.043700 45.000000
102.048800 22.000000
115.054300 189.000000
126.044600 28.000000
127.053700 859.000000
127.096700 22.000000
128.061600 2439.000000
128.084600 25.000000
128.093300 60.000000
128.112800 54.000000
128.167100 32.000000
129.069200 924.000000
129.093400 25.000000
129.102900 25.000000
141.069200 338.000000
142.073200 20.000000
143.070400 36.000000
143.085300 96.000000
150.047500 72.000000
151.053700 491.000000
152.062100 2846.000000
152.096600 87.000000
152.114700 40.000000
152.175100 31.000000
153.068900 2178.000000
153.098400 21.000000
153.108100 23.000000
153.122900 39.000000
153.182200 25.000000
154.068900 67.000000
167.075600 21.000000
168.082100 93.000000
169.089700 23.000000

