>compound BML6495314
>parentmass 269.0809
>ionization [M+H]+
>formula C16H12O4
>rt 546.720000
>profile qtof
#smiles_iso COC1=CC=CC(=C1)C2=C(C(=O)C3=CC=CC=C3O2)O
#smiles_can COC1=CC=CC(=C1)C2=C(C(=O)C3=CC=CC=C3O2)O
#inchikey GYLGASXCHFNKHD-UHFFFAOYSA-N
#pubchem_id 676296
#mb_accession BML00320,BML00325,BML00330

>ms2peaks
104.991700 426.000000
105.012000 23.000000
105.035200 20.000000
186.993600 69.000000
269.079900 641.000000

>ms2peaks
104.992300 137.000000
107.045500 46.000000
133.029000 29.000000
213.083600 23.000000
226.066300 34.000000
237.052900 25.000000
254.054800 43.000000
269.080000 326.000000

>ms2peaks
105.032000 68.000000
106.044200 25.000000
107.050300 45.000000
121.027100 84.000000
153.068600 31.000000
169.065800 98.000000
181.067300 29.000000
197.059900 191.000000
198.068800 23.000000
226.059000 25.000000
237.049400 40.000000

