>compound BML6269286
>parentmass 340.202
>ionization [M+H]+
>formula C20H25N3O2
>rt 199.020000
>profile qtof
#smiles_iso CCC(CO)NC(=O)C1CN(C2CC3=CNC4=CC=CC(=C34)C2=C1)C
#smiles_can CCC(CO)NC(=O)C1CN(C2CC3=CNC4=CC=CC(=C34)C2=C1)C
#inchikey UNBRKDKAWYKMIV-UHFFFAOYSA-N
#pubchem_id 4140
#mb_accession BML00906,BML00917,BML00928

>ms2peaks
121.044400 35.000000
126.086900 27.000000
197.106400 74.000000
208.075300 389.000000
208.099900 48.000000
210.090400 22.000000
223.121200 304.000000
225.098500 22.000000
251.116300 83.000000
269.127400 49.000000
279.144200 74.000000
297.157300 923.000000
297.204700 61.000000
309.164800 33.000000
322.197800 25.000000
325.171800 33.000000
340.200000 3563.000000

>ms2peaks
126.086800 48.000000
144.103100 28.000000
152.061000 23.000000
154.061200 25.000000
164.065200 29.000000
168.085800 27.000000
180.078200 571.000000
182.076600 26.000000
182.088400 42.000000
191.070000 40.000000
192.076500 45.000000
192.088200 30.000000
194.092200 104.000000
196.105800 26.000000
197.106300 321.000000
207.062700 70.000000
207.088600 101.000000
208.073800 1762.000000
208.118900 52.000000
208.146000 55.000000
208.207500 23.000000
210.087100 22.000000
221.107100 52.000000
223.121800 1223.000000
223.165700 46.000000
224.093900 116.000000
225.099600 218.000000
225.110200 27.000000
225.139700 27.000000
250.136200 20.000000
251.113700 129.000000
251.151700 66.000000
269.124000 106.000000
279.150300 107.000000
295.152000 23.000000
297.157200 791.000000
297.208300 48.000000
309.159700 38.000000
322.189900 61.000000
325.170300 42.000000
340.198500 536.000000

>ms2peaks
144.081700 24.000000
152.051600 41.000000
152.062100 47.000000
153.068900 218.000000
154.063600 60.000000
165.070800 21.000000
167.074300 120.000000
168.080600 83.000000
178.061700 64.000000
179.070900 51.000000
180.077400 781.000000
180.116400 46.000000
181.063400 71.000000
181.078700 65.000000
181.090200 39.000000
182.091900 129.000000
190.064300 184.000000
191.071200 371.000000
191.105900 29.000000
192.078300 190.000000
193.072300 21.000000
193.090000 27.000000
194.092900 104.000000
195.103300 25.000000
196.100700 40.000000
196.115000 25.000000
197.105500 103.000000
205.075000 22.000000
206.078500 20.000000
207.064200 303.000000
207.074800 167.000000
207.089800 340.000000
207.116900 26.000000
207.131800 20.000000
207.152100 20.000000
208.073900 821.000000
208.095200 322.000000
208.145100 34.000000
209.102900 45.000000
220.092200 29.000000
221.106800 94.000000
222.099400 45.000000
222.116900 22.000000
223.121800 242.000000
223.152700 21.000000
224.091300 34.000000
225.101900 20.000000

