>compound BML7598646
>parentmass 639.192
>ionization [M+H]+
>formula C29H34O16
>rt 399.300000
>profile qtof
#smiles_iso CC1C(C(C(C(O1)OCC2C(C(C(C(O2)OC3=C(C(=C4C(=C3)OC(=CC4=O)C5=CC(=C(C=C5)O)OC)O)OC)O)O)O)O)O)O
#smiles_can CC1C(C(C(C(O1)OCC2C(C(C(C(O2)OC3=C(C(=C4C(=C3)OC(=CC4=O)C5=CC(=C(C=C5)O)OC)O)OC)O)O)O)O)O)O
#inchikey PYPKJBUJNZMSTH-UHFFFAOYSA-N
#pubchem_id 20106119
#mb_accession BML01644,BML01655,BML01666

>ms2
331.079400 211.000000
493.135200 261.000000
639.195100 147.000000

>ms2
331.081300 498.000000
493.128700 77.000000

>ms2
316.057100 158.000000
331.081200 512.000000
331.130300 35.000000

