>compound BML7073196
>parentmass 543.1709
>ionization [M+H]+
>formula C24H30O14
>rt 325.380000
>profile qtof
#smiles_iso CC1C(C(C(C(O1)OCC2C(C(C(C(O2)OC3=C(C=C4C=CC(=O)OC4=C3)OC)OC(=O)C)O)O)O)O)O
#smiles_can CC1C(C(C(C(O1)OCC2C(C(C(C(O2)OC3=C(C=C4C=CC(=O)OC4=C3)OC)OC(=O)C)O)O)O)O)O
#inchikey VJPARTQOILTISJ-UHFFFAOYSA-N
#pubchem_id 5069226
#mb_accession BML01537,BML01549,BML01561

>ms2
109.026200 134.000000
111.046600 63.000000
127.038700 122.000000
129.054900 84.000000
139.035600 26.000000
145.045800 37.000000
147.062700 69.000000
169.046200 81.000000
169.055800 30.000000
187.059000 185.000000
187.105600 24.000000
193.049000 1484.000000
193.082800 25.000000
193.094900 28.000000
205.069200 804.000000
205.093300 35.000000
205.110200 26.000000
297.105800 22.000000
315.103200 43.000000
397.112500 22.000000

>ms2
109.027700 232.000000
111.045600 73.000000
127.037900 243.000000
129.049000 24.000000
129.060000 24.000000
139.040800 33.000000
145.047200 84.000000
169.047400 86.000000
187.062100 126.000000
193.049400 1329.000000
193.087700 50.000000
205.071000 308.000000

>ms2
109.026600 92.000000
127.040700 70.000000
133.030000 49.000000
139.037700 22.000000
145.049200 24.000000
178.026300 36.000000
193.049100 745.000000

