>compound BML7538993
>parentmass 368.1129
>ionization [M+H]+
>formula C20H17NO6
>rt 236.160000
>profile qtof
#smiles_iso CN1CCC2=CC3=C(C=C2C1C4C5=C(C6=C(C=C5)OCO6)C(=O)O4)OCO3
#smiles_can CN1CCC2=CC3=C(C=C2C1C4C5=C(C6=C(C=C5)OCO6)C(=O)O4)OCO3
#inchikey IYGYMKDQCDOMRE-UHFFFAOYSA-N
#pubchem_id 2376
#mb_accession BML00743,BML00750,BML00757

>ms2peaks
149.056400 85.000000
176.065800 78.000000
190.083200 409.000000
249.047500 82.000000
261.050200 48.000000
277.048600 198.000000
279.063700 72.000000
289.042500 48.000000
307.058500 1670.000000
319.057900 247.000000
325.068000 151.000000
337.067700 174.000000
368.110500 8527.000000

>ms2peaks
135.046300 25.000000
149.058500 125.000000
161.070400 34.000000
165.072500 24.000000
175.034700 36.000000
176.068400 188.000000
177.010200 25.000000
179.036800 37.000000
188.071100 55.000000
189.075700 193.000000
190.084900 846.000000
190.127400 37.000000
191.053500 29.000000
191.089500 39.000000
205.066400 52.000000
219.044800 36.000000
221.053300 25.000000
233.056500 100.000000
249.052600 397.000000
251.072600 73.000000
261.054200 260.000000
263.067800 80.000000
267.068300 39.000000
277.047400 1121.000000
277.100300 50.000000
279.064500 236.000000
281.083900 46.000000
289.045700 294.000000
289.074500 29.000000
291.064800 108.000000
292.069900 25.000000
293.071300 34.000000
295.061300 143.000000
303.064100 73.000000
306.927800 27.000000
307.057600 4586.000000
307.112300 207.000000
307.167900 62.000000
307.220800 78.000000
307.443900 26.000000
307.518700 24.000000
307.565900 34.000000
309.069300 42.000000
309.087800 23.000000
319.056400 585.000000
319.099700 24.000000
321.073000 26.000000
325.073300 154.000000
335.081100 88.000000
337.064000 50.000000
337.076000 43.000000
350.108100 53.000000
368.111100 1292.000000

>ms2peaks
131.046700 30.000000
131.070100 21.000000
135.042600 34.000000
139.049800 25.000000
149.057800 25.000000
159.042800 25.000000
159.068700 39.000000
160.073500 21.000000
161.044500 21.000000
163.051900 144.000000
165.069700 359.000000
167.087300 34.000000
175.055600 59.000000
176.068800 186.000000
176.107400 24.000000
177.011100 56.000000
177.064000 54.000000
188.069900 64.000000
188.080500 26.000000
189.073200 103.000000
190.085100 295.000000
191.048800 313.000000
191.081600 27.000000
192.055500 21.000000
193.061700 261.000000
195.077800 25.000000
203.046600 54.000000
205.066300 164.000000
209.057600 55.000000
217.058400 25.000000
219.040200 240.000000
220.050800 30.000000
221.058000 471.000000
221.090200 27.000000
221.107900 28.000000
222.065200 22.000000
223.072800 136.000000
231.046900 34.000000
233.056100 226.000000
237.052400 52.000000
245.068900 22.000000
247.035000 101.000000
249.053200 2139.000000
249.086900 54.000000
249.109000 31.000000
249.124100 26.000000
249.196500 32.000000
251.068200 123.000000
261.052000 216.000000
262.062200 21.000000
267.063500 68.000000
277.047700 1021.000000
277.104700 33.000000
278.053200 23.000000
279.064800 397.000000
280.071900 28.000000
289.042600 80.000000
291.060900 32.000000
303.064000 31.000000
307.059100 199.000000
320.050000 22.000000
320.067100 24.000000

