>compound BML7151362
>parentmass 341.0867
>ionization [M+H]+
>formula C15H16O9
>rt 169.800000
>profile qtof
#smiles_iso C1=CC(=O)OC2=CC(=C(C=C21)OC3C(C(C(C(O3)CO)O)O)O)O
#smiles_can C1=CC(=O)OC2=CC(=C(C=C21)OC3C(C(C(C(O3)CO)O)O)O)O
#inchikey XHCADAYNFIFUHF-UHFFFAOYSA-N
#pubchem_id 5351506
#mb_accession BML00468,BML00486

>ms2
123.046300 22.000000
179.032400 508.000000
179.059000 34.000000
341.080900 27.000000

>ms2
105.033800 27.000000
123.043100 310.000000
133.028100 267.000000
135.043000 24.000000
151.038300 77.000000
179.034000 331.000000

