>compound BML7577675
>parentmass 382.1649
>ionization [M+H]+
>formula C22H23NO5
>rt 559.740000
>profile qtof
#smiles_iso CN1CCC2=CC(=C(C3=C2C1=C(C4=CC(=C(C=C43)OC)OC)C=O)OC)OC
#smiles_can CN1CCC2=CC(=C(C3=C2C1=C(C4=CC(=C(C=C43)OC)OC)C=O)OC)OC
#inchikey IXHDNZKSQDEGGB-UHFFFAOYSA-N
#pubchem_id 1051535
#mb_accession BML00789,BML00800,BML00811

>ms2peaks
308.126600 48.000000
323.117000 27.000000
323.143900 80.000000
324.112600 31.000000
338.116900 31.000000
339.137100 50.000000
351.144500 171.000000
351.177000 29.000000
352.116200 82.000000
352.143200 46.000000
353.162400 71.000000
354.170500 190.000000
364.154100 99.000000
365.154200 61.000000
366.136600 130.000000
367.134900 507.000000
367.182700 51.000000
381.153300 287.000000
382.162000 4762.000000

>ms2peaks
260.070500 24.000000
262.084600 20.000000
263.090000 23.000000
264.103800 60.000000
265.104100 112.000000
279.120900 34.000000
280.095400 39.000000
281.102400 25.000000
282.105900 28.000000
283.122500 21.000000
289.117500 20.000000
292.094100 33.000000
292.132400 24.000000
293.100600 80.000000
294.085400 36.000000
295.090900 21.000000
295.127200 78.000000
296.123500 45.000000
297.109800 27.000000
302.069600 27.000000
306.114000 42.000000
307.128200 75.000000
308.125700 200.000000
308.148700 38.000000
309.108200 73.000000
309.140300 30.000000
312.123800 49.000000
312.143200 20.000000
318.111800 63.000000
320.085100 34.000000
320.126000 21.000000
321.100000 88.000000
322.133300 52.000000
323.108000 35.000000
323.149800 381.000000
323.174900 34.000000
323.202500 31.000000
324.123800 253.000000
324.175300 25.000000
333.134000 252.000000
334.134900 79.000000
334.154600 32.000000
335.119500 54.000000
336.118100 199.000000
337.126900 39.000000
338.136900 161.000000
339.145100 359.000000
349.127700 60.000000
350.140900 30.000000
351.142700 1045.000000
351.190600 55.000000
351.216500 38.000000
352.114800 1164.000000
352.150300 84.000000
352.192600 31.000000
352.219800 25.000000
352.316100 27.000000
353.160300 286.000000
353.231500 21.000000
354.165800 323.000000
354.177500 64.000000
354.215000 30.000000
364.152700 306.000000
364.189900 25.000000
365.155400 184.000000
365.179700 27.000000
365.216200 25.000000
366.128800 307.000000
366.183800 25.000000
367.138700 3136.000000
367.203500 87.000000
367.235200 42.000000
367.272200 39.000000
367.311800 47.000000
367.360000 21.000000
367.455200 23.000000
367.603900 22.000000
367.740400 35.000000
367.771200 40.000000
368.135900 22.000000
368.249400 22.000000
381.157100 105.000000
382.162000 2168.000000

>ms2peaks
191.086400 21.000000
210.088800 32.000000
218.095200 30.000000
220.076600 23.000000
221.090100 32.000000
224.100000 20.000000
237.105200 34.000000
238.085600 83.000000
247.063900 22.000000
247.101600 24.000000
248.065700 28.000000
248.078200 25.000000
248.102400 32.000000
249.075100 36.000000
250.083000 124.000000
250.126800 26.000000
251.087000 76.000000
252.097300 134.000000
253.102800 31.000000
259.100500 46.000000
260.103600 29.000000
262.092600 30.000000
263.098000 71.000000
264.063600 22.000000
264.098800 164.000000
265.070100 72.000000
265.109300 321.000000
265.146200 21.000000
266.078700 163.000000
266.115200 36.000000
274.086900 35.000000
275.092100 48.000000
276.064300 44.000000
276.104900 53.000000
277.084100 32.000000
277.106700 79.000000
278.078100 206.000000
278.102200 106.000000
279.086200 47.000000
279.119500 63.000000
280.093500 309.000000
280.115900 42.000000
280.133900 101.000000
281.100900 128.000000
288.100000 39.000000
289.104400 41.000000
290.073200 55.000000
290.109500 105.000000
291.083800 153.000000
291.120900 60.000000
292.093400 171.000000
292.141200 20.000000
293.061100 23.000000
293.101100 471.000000
293.145700 23.000000
294.070300 107.000000
294.086200 78.000000
294.115500 60.000000
295.119800 160.000000
295.130200 38.000000
296.123500 161.000000
306.073800 47.000000
306.106800 165.000000
307.116500 141.000000
308.092900 487.000000
308.125900 170.000000
308.159100 27.000000
309.095700 230.000000
309.147400 31.000000
310.131800 21.000000
318.107400 73.000000
319.090700 51.000000
319.114200 54.000000
320.089700 52.000000
320.132600 37.000000
321.093400 150.000000
322.089800 40.000000
322.109200 75.000000
322.136500 33.000000
323.110900 172.000000
323.150700 21.000000
324.120500 310.000000
324.144300 27.000000
333.130100 103.000000
334.107000 82.000000
334.136900 33.000000
336.082300 23.000000
336.121600 126.000000
337.093200 83.000000
338.136500 74.000000
348.114100 20.000000
351.101200 25.000000
352.114900 654.000000
352.140900 39.000000
352.168700 28.000000
353.152100 30.000000
366.131300 49.000000
367.138200 57.000000

