>compound BML7069313
>parentmass 197.0669
>ionization [M+H]+
>formula C7H8N4O3
>rt 109.140000
>profile qtof
#smiles_iso CN1C2=C(C(=O)N(C(=O)N2)C)NC1=O
#smiles_can CN1C2=C(C(=O)N(C(=O)N2)C)NC1=O
#inchikey UARKDOLETOEBCU-UHFFFAOYSA-N
#pubchem_id 108712
#mb_accession BML01703,BML01712

>ms2
140.049000 34.000000
169.071500 69.000000
197.066600 386.000000

>ms2
113.031700 22.000000
140.045800 232.000000
140.064000 21.000000
166.021300 22.000000
169.072700 65.000000
197.067200 66.000000

