>compound BML7255668
>parentmass 409.1282
>ionization [M+H]+
>formula C23H20O7
>rt 567.120000
>profile qtof
#smiles_iso COC1=C(C=C2C(=C1)C3=C(CO2)OC4=C(C3=O)C=CC5=C4CC(O5)C(=C)CO)OC
#smiles_can COC1=C(C=C2C(=C1)C3=C(CO2)OC4=C(C3=O)C=CC5=C4CC(O5)C(=C)CO)OC
#inchikey ZHDJHNSKUYZDCF-UHFFFAOYSA-N
#pubchem_id 4435675
#mb_accession BML00166,BML00180

>ms2peaks
349.099800 26.000000
363.104400 38.000000
377.097600 82.000000
378.111600 39.000000
408.124500 25.000000
409.125700 1374.000000

>ms2peaks
302.066500 31.000000
319.085600 34.000000
323.087000 20.000000
331.094200 32.000000
332.098000 33.000000
334.092300 45.000000
345.079800 34.000000
346.079400 54.000000
349.105000 125.000000
363.090100 50.000000
363.119700 39.000000
377.104000 157.000000
378.105200 182.000000
379.075200 30.000000
394.114500 33.000000
408.121300 32.000000

