>compound BML7962497
>parentmass 373.2374
>ionization [M+H]+
>formula C23H32O4
>rt 577.140000
>profile qtof
#smiles_iso CC(=O)C1CCC2C1(CC(C3C2CCC4=CC(=O)CCC34C)OC(=O)C)C
#smiles_can CC(=O)C1CCC2C1(CC(C3C2CCC4=CC(=O)CCC34C)OC(=O)C)C
#inchikey IWRPVTXREVYBHT-UHFFFAOYSA-N
#pubchem_id 519975
#mb_accession BML01709,BML01718

>ms2peaks
109.066100 28.000000
147.078500 30.000000
159.119500 20.000000
161.093100 22.000000
171.114700 30.000000
173.097700 21.000000
173.132600 33.000000
213.126100 23.000000
217.154700 28.000000
221.133400 31.000000
229.160100 28.000000
231.180700 21.000000
239.142600 41.000000
253.192200 86.000000
267.180300 32.000000
269.190800 30.000000
271.202100 59.000000
277.188700 62.000000
285.181200 23.000000
295.203900 386.000000
313.214800 535.000000
313.261200 30.000000
373.237000 118.000000

>ms2peaks
121.063500 61.000000
133.098700 49.000000
145.105500 23.000000
155.083100 28.000000
157.095400 27.000000
159.111700 33.000000
161.133400 20.000000
171.116500 26.000000
173.127700 25.000000
175.104900 34.000000
177.130600 27.000000
197.128700 24.000000
211.143100 46.000000
213.160300 24.000000
235.143200 21.000000
239.142600 22.000000
253.195400 56.000000
269.184600 21.000000
277.192200 29.000000
277.212900 20.000000
285.185100 25.000000
295.203200 88.000000
313.211700 88.000000

