>compound BML7923593
>parentmass 419.1337
>ionization [M+H]+
>formula C21H22O9
>rt 306.720000
>profile qtof
#smiles_iso C1C(OC2=C(C1=O)C=CC(=C2)O)C3=CC=C(C=C3)OC4C(C(C(C(O4)CO)O)O)O
#smiles_can C1C(OC2=C(C1=O)C=CC(=C2)O)C3=CC=C(C=C3)OC4C(C(C(C(O4)CO)O)O)O
#inchikey DEMKZLAVQYISIA-UHFFFAOYSA-N
#pubchem_id 3794292
#mb_accession BML01643,BML01654

>ms2
137.021600 46.000000
257.080300 405.000000
257.117500 30.000000

>ms2
137.025900 42.000000
147.041300 24.000000
257.080200 270.000000

