>compound BML7051006
>parentmass 233.1285
>ionization [M+H]+
>formula C13H16N2O2
>rt 301.080000
>profile qtof
#smiles_iso CC(=O)NCCC1=CNC2=C1C=C(C=C2)OC
#smiles_can CC(=O)NCCC1=CNC2=C1C=C(C=C2)OC
#inchikey DRLFMBDRBRZALE-UHFFFAOYSA-N
#pubchem_id 896
#mb_accession BML00698,BML00707,BML00716

>ms2peaks
117.068600 23.000000
130.066200 42.000000
131.072500 40.000000
143.071900 82.000000
148.071500 26.000000
158.058000 27.000000
159.066000 152.000000
159.086200 25.000000
162.090200 22.000000
173.078300 52.000000
174.089200 3832.000000
174.125800 34.000000
174.135800 34.000000
174.154700 102.000000
174.174800 31.000000
174.210600 72.000000
174.296800 21.000000
174.412000 21.000000
198.091600 28.000000
216.101100 169.000000
233.122600 39.000000

>ms2peaks
103.057500 58.000000
115.052700 69.000000
117.068800 21.000000
130.061000 34.000000
130.068000 71.000000
131.071700 224.000000
131.083900 24.000000
142.065200 114.000000
143.070900 251.000000
144.081300 95.000000
146.097300 54.000000
147.070800 25.000000
158.061700 34.000000
159.066600 846.000000
159.105000 28.000000
174.089700 2546.000000
174.127300 115.000000
174.148400 58.000000
174.167000 21.000000
174.212400 38.000000
216.097500 49.000000
216.104300 38.000000

>ms2peaks
103.051300 69.000000
103.057100 36.000000
104.048800 48.000000
104.060300 41.000000
105.055400 109.000000
115.054300 326.000000
117.069000 108.000000
127.051800 25.000000
130.064200 1652.000000
130.095100 46.000000
130.101200 35.000000
130.113800 25.000000
130.167900 24.000000
131.072200 1250.000000
131.109400 28.000000
131.152000 21.000000
132.056600 52.000000
142.064200 81.000000
143.073000 519.000000
144.080500 35.000000
158.058300 128.000000
159.065900 620.000000
159.097400 26.000000
174.086800 69.000000

