>compound BML7688704
>parentmass 276.1707
>ionization [M+H]+
>formula C15H21N3O2
>rt 192.900000
>profile qtof
#smiles_iso CC12CCN(C1N(C3=C2C=C(C=C3)OC(=O)NC)C)C
#smiles_can CC12CCN(C1N(C3=C2C=C(C=C3)OC(=O)NC)C)C
#inchikey PIJVFDBKTWXHHD-UHFFFAOYSA-N
#pubchem_id 4811
#mb_accession BML00347,BML00357,BML00367

>ms2peaks
160.072300 36.000000
162.091100 1148.000000
162.116800 35.000000
162.128700 29.000000
162.142300 21.000000
162.210200 25.000000
176.107100 164.000000
188.105700 44.000000
219.110900 812.000000
219.149900 33.000000
233.126500 87.000000
233.144000 21.000000

>ms2peaks
146.057600 31.000000
147.062700 54.000000
160.071500 25.000000
161.080800 44.000000
162.089600 1041.000000
162.125500 29.000000
176.105600 180.000000
188.102100 37.000000
188.112800 24.000000
219.114000 36.000000

>ms2peaks
117.055900 20.000000
119.074400 36.000000
121.066300 80.000000
131.051800 27.000000
134.094000 80.000000
146.059200 258.000000
147.067200 1124.000000
147.098300 38.000000
154.061800 34.000000
160.073400 145.000000
160.110500 27.000000
161.082300 352.000000
161.093800 57.000000
162.091300 383.000000
172.077300 26.000000
173.083100 139.000000
174.087500 44.000000
176.101700 41.000000

