>compound BML7604062
>parentmass 611.1607
>ionization [M+H]+
>formula C27H30O16
>rt 319.980000
>profile qtof
#smiles_iso CC1C(C(C(C(O1)OCC2C(C(C(C(O2)OC3=C(OC4=CC(=CC(=C4C3=O)O)O)C5=CC(=C(C=C5)O)O)O)O)O)O)O)O
#smiles_can CC1C(C(C(C(O1)OCC2C(C(C(C(O2)OC3=C(OC4=CC(=CC(=C4C3=O)O)O)C5=CC(=C(C=C5)O)O)O)O)O)O)O)O
#inchikey IKGXIBQEEMLURG-UHFFFAOYSA-N
#pubchem_id 5293655
#mb_accession BML00101,BML00113,BML00125

>ms2
303.048600 303.000000
465.097900 50.000000

>ms2
115.046800 24.000000
129.056800 50.000000
303.048100 883.000000
303.104100 40.000000
465.099800 24.000000

>ms2
303.048400 272.000000

