>compound BML7782141
>parentmass 251.10669999999996
>ionization [M+H]+
>formula C17H14O2
>rt 613.020000
>profile qtof
#smiles_iso CC1=CC(=CC=C1)C2=CC(=O)C3=C(O2)C=CC(=C3)C
#smiles_can CC1=CC(=CC=C1)C2=CC(=O)C3=C(O2)C=CC(=C3)C
#inchikey JAFAHOKDGKCLNO-UHFFFAOYSA-N
#pubchem_id 688822
#mb_accession BML01476,BML01491,BML01506

>ms2
166.073800 36.000000
192.963100 25.000000
251.105500 1200.000000
251.150900 88.000000
251.192700 21.000000

>ms2
135.044800 46.000000
165.065800 22.000000
208.086600 22.000000
251.105700 710.000000
251.146300 29.000000

>ms2
103.052800 22.000000
107.045400 23.000000
115.054900 69.000000
135.044600 47.000000
143.049600 100.000000
165.066700 54.000000
191.089800 20.000000

