>compound BML7557930
>parentmass 273.1234
>ionization [M+H]+
>formula C15H16N2O3
>rt 418.680000
>profile qtof
#smiles_iso CN(CCC#N)CC1=CC(=O)OC2=C1C=CC(=C2)OC
#smiles_can CN(CCC#N)CC1=CC(=O)OC2=C1C=CC(=C2)OC
#inchikey FMDMLXZPCLVWSQ-UHFFFAOYSA-N
#pubchem_id 4315245
#mb_accession BML01539,BML01551,BML01563

>ms2
161.060500 113.000000
175.075400 191.000000
177.062100 21.000000
178.081300 21.000000
178.089000 28.000000
189.051200 62.000000
191.073900 37.000000
194.959100 61.000000
204.102800 131.000000
231.114300 28.000000
232.096500 5336.000000
232.141800 184.000000
232.166500 46.000000
232.203500 34.000000
232.237500 44.000000
232.350200 22.000000
273.123000 1026.000000

>ms2
102.045400 46.000000
105.066000 23.000000
108.041600 61.000000
121.061000 24.000000
133.057700 20.000000
133.064900 27.000000
133.071300 21.000000
135.079000 21.000000
144.080900 23.000000
145.064600 113.000000
147.081400 136.000000
150.094400 30.000000
161.058700 346.000000
163.078300 24.000000
173.058400 163.000000
173.076400 30.000000
175.074700 751.000000
176.070900 57.000000
177.054200 146.000000
178.085300 118.000000
188.106200 30.000000
189.053900 222.000000
189.075300 76.000000
190.074700 40.000000
190.089000 77.000000
191.069500 154.000000
203.070700 42.000000
204.101000 635.000000
204.139500 38.000000
217.072300 21.000000
232.096200 2700.000000
232.133500 152.000000
232.159900 42.000000
232.235700 27.000000
245.126500 32.000000
273.125900 25.000000

>ms2
102.046800 336.000000
103.053800 99.000000
105.068600 113.000000
107.047300 91.000000
109.068500 24.000000
115.053300 181.000000
116.062300 57.000000
117.066100 29.000000
117.070800 37.000000
118.040300 177.000000
121.065000 266.000000
127.055900 69.000000
128.057800 30.000000
130.037300 31.000000
130.042900 57.000000
131.047400 49.000000
132.052900 32.000000
132.059000 95.000000
133.064100 232.000000
133.087400 20.000000
135.080300 111.000000
144.057800 60.000000
144.078600 54.000000
145.063800 247.000000
146.037100 94.000000
146.060500 30.000000
147.048900 29.000000
147.079800 97.000000
148.053500 33.000000
148.069900 26.000000
150.093400 95.000000
160.050700 81.000000
160.074600 46.000000
161.059000 368.000000
161.087600 41.000000
162.050600 44.000000
162.063800 22.000000
162.088900 38.000000
163.074700 89.000000
172.077100 39.000000
173.057600 73.000000
173.082100 29.000000
174.055600 55.000000
175.075500 242.000000
176.112000 21.000000
177.052700 52.000000
178.087100 56.000000
189.074800 107.000000
204.101800 88.000000

