>compound BML7794963
>parentmass 319.0247
>ionization [M+H]+
>formula C12H12Cl2N2O4
>rt 330.240000
>profile qtof
#smiles_iso C1=C2C(=CC(=C1Cl)Cl)N(C=N2)C3C(C(C(O3)CO)O)O
#smiles_can C1=C2C(=CC(=C1Cl)Cl)N(C=N2)C3C(C(C(O3)CO)O)O
#inchikey XHSQDZXAVJRBMX-UHFFFAOYSA-N
#pubchem_id 3165
#mb_accession BML01468,BML01483,BML01498

>ms2peaks
103.037100 23.000000
115.040300 23.000000
133.048800 100.000000
186.981400 2061.000000
187.022100 89.000000
319.025900 55.000000

>ms2peaks
115.040000 39.000000
186.981500 1419.000000
187.019100 41.000000

>ms2peaks
123.994000 36.000000
151.003500 112.000000
152.013600 172.000000
186.981100 860.000000
187.021300 43.000000

