>compound BML7282310
>parentmass 467.2768
>ionization [M+Na]+
>formula C27H40O5
>rt 650.760000
>profile qtof
#smiles_iso CC(=O)C12CCCCC1CC3C2(CCC4C3CC(=O)C5(C4(CCC(C5)OC(=O)C)C)O)C
#smiles_can CC(=O)C12CCCCC1CC3C2(CCC4C3CC(=O)C5(C4(CCC(C5)OC(=O)C)C)O)C
#inchikey DMAXEADUOQCSHM-UHFFFAOYSA-N
#pubchem_id 4008455
#mb_accession BML00013,BML00026

>ms2
407.253500 21.000000
467.273400 375.000000

>ms2
407.241600 40.000000
467.274100 205.000000

