>compound BML7284938
>parentmass 293.102
>ionization [M+H]+
>formula C15H16O6
>rt 253.260000
>profile qtof
#smiles_iso CC(=C)C1C2C3C4(C(C1C(=O)O2)(CC5C4(O5)C(=O)O3)O)C
#smiles_can CC(=C)C1C2C3C4(C(C1C(=O)O2)(CC5C4(O5)C(=O)O3)O)C
#inchikey PIMZUZSSNYHVCU-UHFFFAOYSA-N
#pubchem_id 4816
#mb_accession BML00640

>ms2peaks
137.060900 29.000000
159.072100 27.000000
175.109600 65.000000
203.106400 27.000000
219.107200 21.000000
257.076300 22.000000

