>compound BML7137736
>parentmass 301.0626
>ionization [M+H]+
>formula C17H13ClO3
>rt 572.040000
>profile qtof
#smiles_iso CCOC1=CC2=C(C=C1)C=C(C(=O)O2)C3=CC=CC=C3Cl
#smiles_can CCOC1=CC2=C(C=C1)C=C(C(=O)O2)C3=CC=CC=C3Cl
#inchikey GIFPGRLKDGPYAR-UHFFFAOYSA-N
#pubchem_id 689007
#mb_accession BML01540,BML01552,BML01564

>ms2peaks
181.068600 28.000000
217.040800 78.000000
265.087100 53.000000
266.085700 28.000000
273.029800 209.000000
301.061300 2050.000000

>ms2peaks
153.068200 25.000000
166.075000 46.000000
181.062300 84.000000
182.071500 107.000000
194.070100 35.000000
210.067300 247.000000
217.040200 433.000000
237.060300 41.000000
238.063500 49.000000
238.093900 20.000000
245.034900 21.000000
245.066900 45.000000
266.082600 28.000000
266.098000 24.000000
273.030300 686.000000
273.067700 60.000000
301.061900 550.000000

>ms2peaks
101.946200 27.000000
152.063000 129.000000
153.069400 261.000000
154.076500 73.000000
164.063900 46.000000
165.069300 191.000000
165.098600 21.000000
166.075600 62.000000
181.063900 710.000000
181.094000 20.000000
181.112400 23.000000
182.071300 538.000000
194.072900 45.000000
199.031800 60.000000
209.056100 38.000000
210.068000 540.000000
217.040800 203.000000
237.052500 60.000000
238.058400 51.000000

