>compound BML7413510
>parentmass 283.0965
>ionization [M+H]+
>formula C17H14O4
>rt 541.500000
>profile qtof
#smiles_iso COC1=CC=CC=C1C2=CC(=O)C3=C(O2)C=CC=C3OC
#smiles_can COC1=CC=CC=C1C2=CC(=O)C3=C(O2)C=CC=C3OC
#inchikey QNKIRTADURZGPG-UHFFFAOYSA-N
#pubchem_id 688667
#mb_accession BML01757,BML01768,BML01779

>ms2
137.022600 147.000000
150.029700 20.000000
240.073500 23.000000
249.057000 43.000000
251.068700 29.000000
267.065500 31.000000
268.072200 402.000000
268.119100 32.000000
283.096200 7364.000000

>ms2
108.015900 21.000000
108.021800 21.000000
115.053200 21.000000
122.034000 22.000000
131.051400 64.000000
132.055800 47.000000
136.018600 22.000000
137.023100 1040.000000
137.049500 22.000000
137.058500 33.000000
150.029500 72.000000
151.038700 78.000000
175.040700 21.000000
181.065600 35.000000
197.054500 50.000000
222.066000 52.000000
239.065800 46.000000
240.077500 120.000000
249.052900 234.000000
250.063500 42.000000
251.067700 83.000000
267.065200 100.000000
268.072000 2478.000000
268.120400 85.000000
268.227200 23.000000
283.095900 3507.000000

>ms2
103.054800 56.000000
104.062600 35.000000
105.068400 45.000000
107.013700 118.000000
108.020700 236.000000
109.023300 27.000000
109.029800 35.000000
115.055400 28.000000
118.040700 61.000000
118.048700 20.000000
121.025600 107.000000
122.033400 95.000000
122.039800 32.000000
129.032800 41.000000
131.048600 395.000000
132.053300 20.000000
132.059000 102.000000
135.045600 25.000000
136.016000 55.000000
137.023000 1698.000000
137.054300 50.000000
141.071700 33.000000
147.042100 97.000000
150.030200 84.000000
151.035700 48.000000
152.060900 43.000000
165.063900 43.000000
165.070300 73.000000
168.056300 26.000000
181.063400 153.000000
193.065900 38.000000
194.065700 26.000000
194.075900 22.000000
197.059900 540.000000
205.062800 25.000000
208.052000 21.000000
211.076100 33.000000
221.058800 74.000000
222.067300 68.000000
223.075100 31.000000
225.053000 80.000000
236.046300 109.000000
237.052800 90.000000
237.064600 24.000000
239.068700 164.000000
240.077700 203.000000
249.055000 320.000000
250.059300 20.000000
251.069100 142.000000
252.041800 194.000000
253.051100 41.000000
267.067000 120.000000
268.076100 71.000000

