>compound BML8700212
>parentmass 260.0918
>ionization [M+H]+
>formula C14H13NO4
>rt 462.060000
>profile qtof
#smiles_iso COC1=C(C2=C(C=C1)C(=C3C=COC3=N2)OC)OC
#smiles_can COC1=C(C2=C(C=C1)C(=C3C=COC3=N2)OC)OC
#inchikey SLSIBLKBHNKZTB-UHFFFAOYSA-N
#pubchem_id 6760
#mb_accession BML00007,BML00020,BML00033

>ms2
184.031300 92.000000
199.063600 98.000000
216.064800 137.000000
227.057100 897.000000
245.066800 556.000000
260.091000 6100.000000
260.140900 191.000000
260.164500 119.000000
260.239100 87.000000

>ms2
156.044500 78.000000
184.036700 144.000000
199.063000 596.000000
199.102900 35.000000
212.037000 49.000000
216.064600 458.000000
227.057100 2793.000000
227.114400 38.000000
227.130700 39.000000
227.195700 37.000000
230.043900 260.000000
244.058600 157.000000
245.067800 695.000000
245.101700 38.000000
260.092200 648.000000

>ms2
101.038300 163.000000
103.042700 26.000000
114.047200 32.000000
115.054900 68.000000
116.043900 24.000000
116.050300 48.000000
117.059400 54.000000
118.061200 55.000000
127.049600 33.000000
128.048700 637.000000
128.081100 31.000000
130.027300 28.000000
130.061900 29.000000
131.037100 42.000000
140.050900 22.000000
142.063300 119.000000
144.046100 97.000000
145.051400 137.000000
146.058500 58.000000
156.044400 1037.000000
156.083000 36.000000
158.057100 85.000000
159.028500 70.000000
160.034400 31.000000
169.047700 96.000000
170.061700 130.000000
172.038300 127.000000
173.045300 62.000000
174.053700 110.000000
184.038900 1235.000000
184.072800 82.000000
184.102500 25.000000
185.045400 22.000000
186.051000 28.000000
187.024600 184.000000
197.047700 21.000000
198.054300 123.000000
199.063500 596.000000
199.103600 34.000000
200.034900 131.000000
201.041600 431.000000
201.084300 23.000000
202.048900 507.000000
211.017500 21.000000
212.033400 75.000000
213.040700 32.000000
216.063100 224.000000
227.053200 134.000000
228.027200 92.000000
228.065000 29.000000
229.033900 145.000000
230.042400 122.000000
242.044000 82.000000
244.053300 73.000000

