>compound BML8942269
>parentmass 611.1971
>ionization [M+H]+
>formula C28H34O15
>rt 340.200000
>profile qtof
#smiles_iso C[C@H]1[C@@H]([C@H]([C@H]([C@@H](O1)OC[C@@H]2[C@H]([C@@H]([C@H]([C@@H](O2)OC3=CC(=C4C(=O)C[C@H](OC4=C3)C5=CC(=C(C=C5)OC)O)O)O)O)O)O)O)O
#smiles_can CC1C(C(C(C(O1)OCC2C(C(C(C(O2)OC3=CC(=C4C(=O)CC(OC4=C3)C5=CC(=C(C=C5)OC)O)O)O)O)O)O)O)O
#inchikey QUQPHWDTPGMPEX-QJBIFVCTSA-N
#pubchem_id 10621
#mb_accession BML00642,BML00653,BML00664

>ms2
129.052200 81.000000
147.060300 46.000000
263.054700 26.000000
281.064100 57.000000
303.084400 688.000000
303.137300 51.000000
345.101000 72.000000
369.094600 80.000000
395.102100 23.000000
413.118500 152.000000
431.123700 75.000000
431.151400 35.000000
447.131000 25.000000
449.134700 118.000000
465.131700 91.000000
465.150400 51.000000
611.197500 27.000000

>ms2
129.055900 89.000000
153.016200 128.000000
179.032800 40.000000
195.027300 68.000000
263.051900 99.000000
281.059600 49.000000
281.087100 21.000000
285.062400 20.000000
303.083500 893.000000
303.123800 26.000000
303.138900 28.000000
303.163200 24.000000
345.097900 43.000000
369.088700 60.000000
413.109600 62.000000
431.141400 30.000000
449.145200 23.000000
465.155500 23.000000

>ms2
111.010500 59.000000
153.017600 514.000000
153.039200 25.000000
165.016800 25.000000
177.054400 246.000000
177.079900 25.000000
179.039600 42.000000
195.018800 20.000000
195.029500 98.000000
219.019100 55.000000
219.064800 32.000000
245.038500 88.000000
263.057300 44.000000
285.078700 40.000000
303.082700 459.000000
303.144000 40.000000
315.092300 27.000000
327.083100 21.000000

