>compound BML8361445
>parentmass 300.0761
>ionization [M+H]+
>formula C10H13N5O4S
>rt 146.340000
>profile qtof
#smiles_iso C1=NC(=C2C(=N1)N(C(=S)N2)C3C(C(C(O3)CO)O)O)N
#smiles_can C1=NC(=C2C(=N1)N(C(=S)N2)C3C(C(C(O3)CO)O)O)N
#inchikey QILZVYQRHGBEAR-UHFFFAOYSA-N
#pubchem_id 2868728
#mb_accession BML01424,BML01431,BML01438

>ms2peaks
168.033500 655.000000
168.072700 39.000000
300.074700 49.000000

>ms2peaks
151.006200 34.000000
168.033200 795.000000
168.071600 36.000000

>ms2peaks
124.001800 22.000000
135.050900 26.000000
141.027600 20.000000
151.005800 136.000000
168.031400 206.000000
168.047900 66.000000

