>compound BML8946686
>parentmass 286.2529
>ionization [M+H]+
>formula C20H31N
>rt 500.400000
>profile qtof
#smiles_iso CC(C)C1=CC2=C(C=C1)C3(CCCC(C3CC2)(C)CN)C
#smiles_can CC(C)C1=CC2=C(C=C1)C3(CCCC(C3CC2)(C)CN)C
#inchikey JVVXZOOGOGPDRZ-UHFFFAOYSA-N
#pubchem_id 106831
#mb_accession BML00353,BML00363,BML00373

>ms2
117.074100 43.000000
123.111600 38.000000
131.084700 252.000000
143.087200 43.000000
145.101900 64.000000
157.097000 27.000000
159.117100 212.000000
171.110800 35.000000
173.131000 3268.000000
173.171900 143.000000
173.254700 55.000000
173.493400 27.000000
173.684800 27.000000
173.766300 20.000000
185.130100 304.000000
187.142700 117.000000
187.149800 174.000000
199.148100 39.000000
213.161500 128.000000
227.179500 55.000000
269.226700 186.000000
286.250700 1566.000000

>ms2
109.094500 57.000000
117.071700 148.000000
121.100500 30.000000
123.120300 81.000000
129.068300 66.000000
131.085100 1200.000000
131.117700 59.000000
131.342100 26.000000
133.098600 26.000000
143.084000 229.000000
143.111500 22.000000
145.098800 210.000000
157.093700 86.000000
159.114600 379.000000
162.209800 21.000000
171.115900 133.000000
173.131200 4045.000000
173.166000 68.000000
173.188000 125.000000
173.219600 70.000000
173.251200 68.000000
173.369900 34.000000
173.393600 33.000000
173.445600 21.000000
173.500900 21.000000
173.781800 26.000000
173.847600 23.000000
185.069800 35.000000
185.132100 532.000000
185.155900 26.000000
185.174700 23.000000
187.149400 155.000000
199.143200 152.000000
199.160100 39.000000
213.164000 74.000000
269.220700 28.000000
286.250600 36.000000

>ms2
103.048900 53.000000
105.068000 31.000000
115.052900 33.000000
115.059500 47.000000
116.060300 64.000000
117.068300 221.000000
127.049900 45.000000
127.058200 44.000000
128.062600 151.000000
129.068800 223.000000
130.076600 44.000000
131.083900 1280.000000
131.119000 39.000000
131.141200 36.000000
141.072000 27.000000
142.079900 39.000000
143.083400 185.000000
145.094700 44.000000
157.100400 37.000000
173.130900 157.000000
185.139500 29.000000

