>compound BML8572679
>parentmass 377.1456
>ionization [M+H]+
>formula C17H20N4O6
>rt 255.240000
>profile qtof
#smiles_iso CC1=CC2=C(C=C1C)N(C3=NC(=O)NC(=O)C3=N2)CC(C(C(CO)O)O)O
#smiles_can CC1=CC2=C(C=C1C)N(C3=NC(=O)NC(=O)C3=N2)CC(C(C(CO)O)O)O
#inchikey AUNGANRZJHBGPY-UHFFFAOYSA-N
#pubchem_id 1072
#mb_accession BML00066,BML00073,BML00080

>ms2peaks
172.089300 30.000000
243.084500 236.000000
377.146600 1031.000000

>ms2peaks
149.136500 26.000000
172.083200 59.000000
198.068300 67.000000
243.087900 417.000000
243.136500 25.000000
316.131000 23.000000
377.146500 132.000000

>ms2peaks
145.073800 25.000000
170.075300 22.000000
172.087000 251.000000
198.067000 83.000000
243.088800 65.000000

