>compound BML8720354
>parentmass 428.1857
>ionization [M+H]+
>formula C27H25NO4
>rt 437.460000
>profile qtof
#smiles_iso COC1=C(C2=C(C=C1)C=C3C4=CC5=C(C=C4CCN3C2CC6=CC=CC=C6)OCO5)OC
#smiles_can COC1=C(C2=C(C=C1)C=C3C4=CC5=C(C=C4CCN3C2CC6=CC=CC=C6)OCO5)OC
#inchikey NCGZRLGSEHVTTI-UHFFFAOYSA-N
#pubchem_id 3393977
#mb_accession BML00785

>ms2
119.302200 23.000000
134.957300 21.000000
303.008400 30.000000
336.126900 22.000000
427.275700 21.000000
428.197900 23.000000
432.557400 20.000000
523.165400 77.000000
733.677900 33.000000
733.725900 21.000000

