>compound BML8279981
>parentmass 198.0761
>ionization [M+H]+
>formula C9H11NO4
>rt 23.100000
>profile qtof
#smiles_iso C1=CC(=C(C=C1CC(C(=O)O)N)O)O
#smiles_can C1=CC(=C(C=C1CC(C(=O)O)N)O)O
#inchikey WTDRDQBEARUVNC-UHFFFAOYSA-N
#pubchem_id 836
#mb_accession BML01802,BML01812,BML01822

>ms2
105.032400 32.000000
106.066400 349.000000
107.050300 2528.000000
107.079700 92.000000
107.099900 35.000000
107.117200 25.000000
107.144600 20.000000
109.030200 172.000000
111.045100 1345.000000
111.071300 50.000000
116.049900 77.000000
117.036200 27.000000
119.047500 137.000000
123.044200 88.000000
125.063600 45.000000
125.072700 25.000000
134.060000 545.000000
134.072400 21.000000
134.089700 23.000000
135.044900 10159.000000
135.067000 67.000000
135.079800 347.000000
135.122100 41.000000
135.132000 27.000000
135.152400 103.000000
135.185400 31.000000
135.209800 37.000000
135.240700 38.000000
135.270200 47.000000
135.397500 26.000000
135.456000 26.000000
135.901900 22.000000
136.047200 50.000000
137.059200 347.000000
139.039700 13790.000000
139.074400 360.000000
139.092800 117.000000
139.121500 42.000000
139.148600 195.000000
139.190100 35.000000
139.220200 42.000000
139.243900 63.000000
139.264500 22.000000
139.370000 31.000000
139.434700 23.000000
139.456100 22.000000
139.597800 26.000000
139.662300 21.000000
139.687900 22.000000
139.786300 23.000000
139.804800 22.000000
140.046000 26.000000
140.159600 37.000000
151.062100 29.000000
152.071300 31367.000000
152.107200 811.000000
152.127400 382.000000
152.154700 253.000000
152.185300 530.000000
152.234600 96.000000
152.290400 87.000000
152.326800 51.000000
152.345100 45.000000
152.411700 59.000000
152.436800 37.000000
152.452400 59.000000
152.480000 35.000000
152.494000 28.000000
152.532800 60.000000
152.571700 33.000000
152.603400 53.000000
152.657400 60.000000
152.694000 45.000000
152.751600 27.000000
152.812100 43.000000
152.831700 41.000000
152.854800 29.000000
152.886400 25.000000
152.928500 20.000000
153.029300 43.000000
153.056000 62.000000
153.067500 67.000000
153.129800 25.000000
153.143400 24.000000
153.216800 21.000000
153.342300 26.000000
162.063200 49.000000
163.039500 3052.000000
163.065400 43.000000
163.078500 76.000000
163.099500 64.000000
163.159100 30.000000
181.050000 6863.000000
181.086100 173.000000
181.119500 44.000000
181.142100 42.000000
181.173500 59.000000
181.309500 33.000000
181.388500 21.000000
181.417900 27.000000
181.451500 31.000000
181.641900 22.000000
181.700100 22.000000
181.920400 24.000000
182.231200 20.000000
198.076400 1266.000000

>ms2
106.066400 1777.000000
106.090400 41.000000
106.097500 30.000000
107.050400 11673.000000
107.075400 209.000000
107.082600 111.000000
107.093500 88.000000
107.104100 44.000000
107.118500 61.000000
107.125100 25.000000
107.146200 153.000000
107.192300 23.000000
107.241100 24.000000
107.277200 38.000000
107.346000 25.000000
107.379600 27.000000
107.524200 29.000000
109.028900 807.000000
109.061800 30.000000
109.069800 32.000000
109.076200 26.000000
111.045700 3747.000000
111.078900 110.000000
111.092900 36.000000
111.142100 46.000000
116.051000 183.000000
117.034400 312.000000
117.068700 21.000000
119.051400 204.000000
123.045500 296.000000
124.072700 23.000000
125.058600 109.000000
134.060700 2268.000000
134.099800 50.000000
134.115800 29.000000
134.169400 24.000000
135.045000 8797.000000
135.078200 338.000000
135.098000 77.000000
135.113200 37.000000
135.121300 68.000000
135.152200 112.000000
135.180300 27.000000
135.233300 23.000000
135.276900 24.000000
135.380000 20.000000
135.412600 31.000000
135.687300 27.000000
135.782300 22.000000
137.027900 28.000000
137.058200 54.000000
139.040100 5001.000000
139.071800 207.000000
139.148800 57.000000
145.028700 25.000000
152.071100 6852.000000
152.106000 130.000000
152.186900 72.000000
152.274800 27.000000
152.301300 21.000000
152.377900 26.000000
152.528100 22.000000
152.751100 22.000000
153.055900 38.000000
163.038900 486.000000
163.082200 21.000000
163.614500 20.000000
181.051800 102.000000

>ms2
104.051900 54.000000
105.035900 181.000000
105.058800 102.000000
106.066900 1265.000000
106.099700 55.000000
107.051000 5271.000000
107.076400 81.000000
107.082900 75.000000
107.091800 48.000000
107.104800 26.000000
107.122600 43.000000
107.147400 73.000000
107.602100 22.000000
108.060700 30.000000
109.029200 324.000000
110.036400 132.000000
111.039800 35.000000
111.047100 121.000000
116.052500 188.000000
117.029200 25.000000
117.035600 166.000000
117.058100 27.000000
117.064800 29.000000
120.044300 35.000000
123.045400 595.000000
133.050800 96.000000
134.060700 720.000000
135.046800 262.000000
135.069200 53.000000
136.055200 38.000000
152.071600 22.000000

