>compound BML8791771
>parentmass 181.072
>ionization [M+H]+
>formula C7H8N4O2
>rt 158.460000
>profile qtof
#smiles_iso CN1C=NC2=C1C(=O)NC(=O)N2C
#smiles_can CN1C=NC2=C1C(=O)NC(=O)N2C
#inchikey YAPQBXQYLJRXSA-UHFFFAOYSA-N
#pubchem_id 5429
#mb_accession BML01074,BML01082

>ms2peaks
137.080600 23.000000
138.066600 216.000000
163.056300 67.000000
181.070400 927.000000
181.113000 23.000000

>ms2peaks
108.054300 35.000000
110.070700 122.000000
135.066400 32.000000
137.082300 49.000000
138.064200 163.000000
138.070900 47.000000
163.058800 76.000000
181.071600 116.000000

