>compound BML8682558
>parentmass 378.0058000000001
>ionization [M+H]+
>formula C10H12IN5O3
>rt 221.400000
>profile qtof
#smiles_iso C1=NC(=C2C(=N1)N(C=N2)C3C(C(C(O3)CI)O)O)N
#smiles_can C1=NC(=C2C(=N1)N(C=N2)C3C(C(C(O3)CI)O)O)N
#inchikey FUWWLIOFNXNKQR-UHFFFAOYSA-N
#pubchem_id 4376867
#mb_accession BML01466,BML01481,BML01496

>ms2
136.061300 1839.000000
136.098000 61.000000
136.115600 29.000000
136.166600 23.000000
378.005500 513.000000
378.048000 27.000000
378.071800 22.000000

>ms2
119.033700 25.000000
136.061400 2699.000000
136.095800 87.000000
136.168000 23.000000

>ms2
119.033900 159.000000
136.061200 1334.000000
136.096400 26.000000

