>compound BML8370001
>parentmass 255.0652
>ionization [M+H]+
>formula C15H10O4
>rt 506.040000
>profile qtof
#smiles_iso C1=CC(=CC(=C1)O)C2=CC(=O)C3=C(C=CC=C3O2)O
#smiles_can C1=CC(=CC(=C1)O)C2=CC(=O)C3=C(C=CC=C3O2)O
#inchikey SZMQXDYEGKRZDG-UHFFFAOYSA-N
#pubchem_id 676030
#mb_accession BML01222,BML01228,BML01234

>ms2peaks
137.023700 80.000000
176.987300 650.000000
177.015800 29.000000
177.031800 24.000000
255.063900 3528.000000

>ms2peaks
119.045600 44.000000
137.023100 219.000000
152.062900 22.000000
176.987200 131.000000
181.062700 54.000000
227.068700 39.000000
255.064800 3206.000000

>ms2peaks
107.013600 58.000000
109.022500 31.000000
119.051100 63.000000
121.028500 43.000000
131.051300 30.000000
137.022600 317.000000
145.027300 84.000000
151.049900 49.000000
152.062100 188.000000
153.067300 78.000000
155.047700 162.000000
181.064000 223.000000
209.054800 36.000000
227.068500 38.000000
255.064100 78.000000

