>compound BML8202086
>parentmass 255.0652
>ionization [M+H]+
>formula C15H10O4
>rt 462.600000
>profile qtof
#smiles_iso C1=CC=C2C(=C1)C(=O)C(=C(O2)C3=CC(=CC=C3)O)O
#smiles_can C1=CC=C2C(=C1)C(=O)C(=C(O2)C3=CC(=CC=C3)O)O
#inchikey QZESEGHSLFKZIV-UHFFFAOYSA-N
#pubchem_id 676295
#mb_accession BML00318,BML00323

>ms2
176.988200 222.000000
255.063800 1021.000000

>ms2
105.036000 46.000000
121.026700 112.000000
133.025400 106.000000
171.081400 34.000000
181.064100 32.000000
199.075300 40.000000
209.055400 76.000000
255.063800 464.000000

