>compound BML8596729
>parentmass 222.11250000000004
>ionization [M+H]+
>formula C12H15NO3
>rt 349.800000
>profile qtof
#smiles_iso CN1CCC2=CC(=C(C=C2C1=O)OC)OC
#smiles_can CN1CCC2=CC(=C(C=C2C1=O)OC)OC
#inchikey BDIZBBGNYDRCCA-UHFFFAOYSA-N
#pubchem_id 303906
#mb_accession BML00784,BML00795,BML00806

>ms2
165.089600 1353.000000
165.130500 38.000000
165.160100 28.000000
179.071000 23.000000
191.068800 52.000000
194.117900 67.000000
204.099600 58.000000
206.078200 25.000000
222.111300 4636.000000

>ms2
103.054800 122.000000
104.061700 42.000000
105.069600 317.000000
105.081400 30.000000
107.047000 104.000000
118.038600 69.000000
119.049400 52.000000
120.057900 95.000000
121.064500 86.000000
131.049500 23.000000
132.053300 22.000000
133.063200 180.000000
134.071400 153.000000
135.039900 164.000000
135.079500 165.000000
137.093400 28.000000
149.060700 43.000000
150.066700 1100.000000
150.100600 43.000000
150.122500 25.000000
163.076000 67.000000
163.101300 52.000000
165.089400 2076.000000
165.125700 83.000000
165.172500 21.000000
165.208100 34.000000
178.081100 38.000000
179.067800 27.000000
179.093100 40.000000
188.066700 36.000000
194.116600 86.000000
204.099700 68.000000
206.077800 100.000000
207.085700 50.000000
222.112700 521.000000

>ms2
102.045000 133.000000
103.054000 475.000000
103.081900 24.000000
104.062600 160.000000
105.031600 56.000000
105.067100 254.000000
105.075700 73.000000
107.049100 378.000000
117.029400 34.000000
118.043100 168.000000
118.063400 27.000000
119.049100 415.000000
120.056800 230.000000
121.029600 29.000000
121.064200 385.000000
122.069000 25.000000
123.045700 25.000000
130.064000 39.000000
131.047400 130.000000
132.057000 34.000000
132.079000 46.000000
133.025800 51.000000
133.064600 105.000000
134.070300 242.000000
135.043800 534.000000
135.079400 25.000000
147.044400 21.000000
148.047700 28.000000
148.073100 134.000000
149.058600 142.000000
149.079100 21.000000
150.065600 226.000000
160.074100 44.000000
163.044900 28.000000
165.093400 57.000000
186.053300 20.000000
188.067100 38.000000
206.088000 20.000000

