>compound BML8847610
>parentmass 191.1179
>ionization [M+H]+
>formula C11H14N2O
>rt 23.040000
>profile qtof
#smiles_iso C1[C@H]2CNC[C@@H]1C3=CC=CC(=O)N3C2
#smiles_can C1C2CNCC1C3=CC=CC(=O)N3C2
#inchikey ANJTVLIZGCUXLD-DTWKUNHWSA-N
#pubchem_id 10235
#mb_accession BML00001,BML00014,BML00027

>ms2
148.075200 7916.000000
191.117300 46297.000000
191.156500 668.000000
191.179200 829.000000
191.208800 492.000000
191.244700 1265.000000

>ms2
120.080500 215.000000
130.065200 159.000000
133.051200 196.000000
134.058600 206.000000
146.060600 182.000000
148.075500 12133.000000
148.112400 232.000000
148.128800 161.000000
148.158200 128.000000
148.188300 267.000000
160.076200 146.000000
162.089200 375.000000
174.092300 136.000000
191.117500 7529.000000
191.161400 182.000000
191.245500 133.000000

>ms2
102.050200 20.000000
103.053400 521.000000
104.047500 519.000000
105.057400 430.000000
105.085200 21.000000
106.064900 361.000000
107.051300 32.000000
108.045300 85.000000
109.053500 59.000000
115.055000 224.000000
116.046600 76.000000
116.059100 20.000000
117.059200 198.000000
117.075000 31.000000
118.064200 209.000000
119.069100 31.000000
120.047300 24.000000
120.081500 337.000000
122.056700 66.000000
127.051100 109.000000
127.067200 22.000000
128.050500 49.000000
129.068500 21.000000
130.065800 283.000000
131.080300 23.000000
132.047900 49.000000
132.080200 65.000000
133.051400 562.000000
133.081300 23.000000
134.058700 281.000000
134.095600 89.000000
142.064700 38.000000
143.071800 97.000000
144.079700 56.000000
146.059300 528.000000
146.095800 39.000000
147.064900 123.000000
148.075000 902.000000
148.119000 28.000000
160.076600 23.000000
162.091200 50.000000

