>compound BML8534108
>parentmass 901.2397
>ionization [M+H]+
>formula C42H44O22
>rt 602.460000
>profile qtof
#smiles_iso CC(=O)OC1COC(C(C1OC(=O)C)OC(=O)C)OCC2C(C(C(C(O2)OC3=CC4=C(C(=C3)OC(=O)C)C(=O)C(=CO4)C5=CC=C(C=C5)OC(=O)C)OC(=O)C)OC(=O)C)OC(=O)C
#smiles_can CC(=O)OC1COC(C(C1OC(=O)C)OC(=O)C)OCC2C(C(C(C(O2)OC3=CC4=C(C(=C3)OC(=O)C)C(=O)C(=CO4)C5=CC=C(C=C5)OC(=O)C)OC(=O)C)OC(=O)C)OC(=O)C
#inchikey PWNURKDPPRSGQU-UHFFFAOYSA-N
#pubchem_id 20106114
#mb_accession BML01597,BML01606,BML01615

>ms2peaks
139.041200 259.000000
157.048000 101.000000
199.059600 288.000000
259.081100 265.000000
313.069800 50.000000
571.129200 25.000000
859.227800 674.000000
859.311300 39.000000
901.244700 230.000000

>ms2peaks
139.038200 718.000000
157.048000 320.000000
199.059600 489.000000
199.090800 29.000000
229.062100 32.000000
259.080400 258.000000
313.071300 97.000000
355.080500 26.000000
571.143300 30.000000
601.146500 24.000000
859.232600 86.000000

>ms2peaks
109.029100 22.000000
139.037600 973.000000
139.069700 52.000000
139.099200 21.000000
157.048700 433.000000
199.056700 43.000000
271.062000 75.000000
313.069000 440.000000

