>compound BML8349679
>parentmass 229.0859
>ionization [M+H]+
>formula C14H12O3
>rt 323.940000
>profile qtof
#smiles_iso C1=CC(=CC=C1C=CC2=CC(=CC(=C2)O)O)O
#smiles_can C1=CC(=CC=C1C=CC2=CC(=CC(=C2)O)O)O
#inchikey LUKBXSAWLPMMSZ-UHFFFAOYSA-N
#pubchem_id 5056
#mb_accession BML00641

>ms2peaks
107.046400 118.000000
111.046000 39.000000
119.046500 45.000000
135.040800 245.000000
135.047000 29.000000
211.075900 52.000000
229.082000 174.000000
229.123500 25.000000

