>compound BML8881990
>parentmass 285.0758
>ionization [M+H]+
>formula C16H12O5
>rt 504.060000
>profile qtof
#smiles_iso COC1=CC=C(C=C1)C2=COC3=CC(=CC(=C3C2=O)O)O
#smiles_can COC1=CC=C(C=C1)C2=COC3=CC(=CC(=C3C2=O)O)O
#inchikey WUADCCWRTIWANL-UHFFFAOYSA-N
#pubchem_id 5280373
#mb_accession BML00747,BML00754,BML00761

>ms2peaks
123.040700 31.000000
124.011500 26.000000
152.009300 46.000000
229.070000 29.000000
241.044200 37.000000
253.050800 23.000000
270.052200 72.000000
285.073800 4214.000000

>ms2peaks
107.050100 32.000000
118.043100 38.000000
123.040900 25.000000
123.045600 63.000000
124.017100 30.000000
149.021600 30.000000
152.007700 243.000000
153.015800 107.000000
158.032700 23.000000
179.025500 38.000000
179.038000 26.000000
197.053400 43.000000
213.056500 43.000000
229.082300 147.000000
241.050300 24.000000
242.057000 78.000000
252.038500 28.000000
253.047600 127.000000
255.064400 27.000000
269.042600 113.000000
270.049200 260.000000
270.095300 25.000000
285.072500 1867.000000

>ms2peaks
103.050600 38.000000
111.010300 31.000000
115.055700 29.000000
118.039100 164.000000
121.029600 20.000000
123.043300 71.000000
124.014600 193.000000
127.055600 31.000000
130.040100 63.000000
131.046800 41.000000
133.064000 33.000000
141.067800 39.000000
144.058000 33.000000
152.006000 45.000000
152.013100 87.000000
153.018800 140.000000
158.036300 116.000000
158.077000 44.000000
168.058600 31.000000
169.066400 24.000000
171.039500 32.000000
185.061600 69.000000
186.066400 33.000000
196.047000 23.000000
196.056500 20.000000
197.055900 89.000000
213.052900 402.000000
214.062800 42.000000
216.034500 22.000000
225.049200 49.000000
229.082700 40.000000
241.047300 152.000000
242.055400 107.000000
253.044700 76.000000
269.041200 200.000000
270.055100 32.000000

