>compound BML8059795
>parentmass 219.1128
>ionization [M+H]+
>formula C12H14N2O2
>rt 92.880000
>profile qtof
#smiles_iso CNC(CC1=CNC2=CC=CC=C21)C(=O)O
#smiles_can CNC(CC1=CNC2=CC=CC=C21)C(=O)O
#inchikey CZCIKBSVHDNIDH-UHFFFAOYSA-N
#pubchem_id 914
#mb_accession BML00813,BML00823,BML00833

>ms2peaks
115.051700 24.000000
117.054700 32.000000
118.063300 114.000000
132.080000 1270.000000
132.112900 47.000000
132.129900 26.000000
144.079600 190.000000
146.058900 847.000000
146.089800 23.000000
170.057300 66.000000
173.106400 56.000000
188.069000 1695.000000
188.094700 41.000000
188.106100 64.000000
188.131700 23.000000
188.193000 22.000000
219.110600 78.000000

>ms2peaks
115.050500 96.000000
115.056800 107.000000
117.056200 55.000000
117.061200 61.000000
117.067800 59.000000
117.075800 51.000000
118.065300 1028.000000
118.097600 41.000000
127.055400 27.000000
130.065800 97.000000
131.072500 26.000000
132.080000 1771.000000
132.104200 36.000000
132.116900 52.000000
132.186600 27.000000
142.065200 103.000000
143.072800 147.000000
144.039100 29.000000
144.079700 589.000000
146.059700 1883.000000
146.093100 87.000000
146.112100 46.000000
146.173100 33.000000
160.072600 34.000000
170.058400 184.000000
173.102300 26.000000
173.113500 30.000000
188.071100 291.000000

>ms2peaks
103.054500 49.000000
105.068200 78.000000
115.053800 627.000000
116.057600 53.000000
116.063700 51.000000
117.057400 755.000000
117.084600 21.000000
118.065300 756.000000
118.095100 37.000000
127.052800 66.000000
128.048100 34.000000
130.066100 208.000000
131.075600 73.000000
132.079500 230.000000
140.045900 21.000000
142.066700 120.000000
143.071600 257.000000
144.080000 67.000000

