>compound BML8718723
>parentmass 293.0809
>ionization [M+H]+
>formula C18H12O4
>rt 586.200000
>profile qtof
#smiles_iso COC1=C(OC2=C(C1=O)C=CC3=C2C=CO3)C4=CC=CC=C4
#smiles_can COC1=C(OC2=C(C1=O)C=CC3=C2C=CO3)C4=CC=CC=C4
#inchikey LKPQNZRGGNOPPU-UHFFFAOYSA-N
#pubchem_id 100633
#mb_accession BML00286,BML00295,BML00304

>ms2
221.064000 45.000000
250.058000 30.000000
277.046800 89.000000
278.058300 208.000000
293.079700 1859.000000

>ms2
194.071700 38.000000
221.049800 22.000000
221.061700 39.000000
249.049900 23.000000
250.068300 69.000000
277.050100 512.000000
277.091700 33.000000
278.055300 926.000000
278.095600 38.000000
278.115700 26.000000
278.127500 34.000000
293.078800 922.000000

>ms2
105.033000 42.000000
117.033000 35.000000
144.020000 49.000000
145.025600 46.000000
160.015000 58.000000
165.065600 125.000000
165.074000 36.000000
166.074500 38.000000
177.071400 32.000000
193.063700 21.000000
194.073300 33.000000
205.062900 29.000000
221.055300 255.000000
249.055000 220.000000
250.060700 59.000000
277.050500 1037.000000
277.093000 70.000000
277.122000 23.000000

