>compound BML8318444
>parentmass 355.20160000000004
>ionization [M+H]+
>formula C21H26N2O3
>rt 198.060000
>profile qtof
#smiles_iso COC(=O)[C@@H]1[C@H](CC[C@H]2[C@@H]1C[C@H]3C4=C(CCN3C2)C5=CC=CC=C5N4)O
#smiles_can COC(=O)C1C(CCC2C1CC3C4=C(CCN3C2)C5=CC=CC=C5N4)O
#inchikey BLGXFZZNTVWLAY-DIRVCLHFSA-N
#pubchem_id 643606
#mb_accession BML00469,BML00478,BML00487

>ms2peaks
144.080500 168.000000
212.122100 62.000000
224.124600 89.000000
337.194000 55.000000
355.199600 2421.000000

>ms2peaks
117.067800 24.000000
144.080000 808.000000
163.039400 21.000000
192.098600 32.000000
194.119100 72.000000
212.125900 400.000000
224.126000 243.000000
248.148500 23.000000
323.173200 21.000000
337.186500 83.000000
355.199500 814.000000

>ms2peaks
105.065400 47.000000
106.061500 74.000000
108.082700 105.000000
111.045300 28.000000
115.051300 146.000000
117.034700 46.000000
117.069400 631.000000
119.048900 32.000000
119.080800 26.000000
122.095200 25.000000
123.084200 32.000000
127.053300 325.000000
128.049600 38.000000
128.057100 29.000000
130.062800 113.000000
131.072900 94.000000
132.078500 62.000000
134.094700 313.000000
135.044700 32.000000
139.068700 25.000000
139.575000 25.000000
142.062600 32.000000
143.071900 414.000000
144.080100 4812.000000
144.116400 196.000000
144.147500 75.000000
144.167500 52.000000
144.191300 78.000000
144.240000 27.000000
145.028900 45.000000
145.065600 28.000000
146.103700 26.000000
147.104400 56.000000
150.092700 26.000000
152.106500 49.000000
154.059400 39.000000
156.079500 26.000000
158.094700 184.000000
162.090000 169.000000
164.103200 52.000000
167.075300 28.000000
168.075700 82.000000
170.096400 40.000000
174.089000 56.000000
180.100500 133.000000
181.080400 27.000000
181.093900 31.000000
192.101000 222.000000
194.094000 45.000000
194.117000 223.000000
194.142300 28.000000
205.092800 29.000000
206.091600 35.000000
206.114000 58.000000
207.108800 30.000000
208.108800 70.000000
209.119000 60.000000
212.125900 66.000000
220.115000 26.000000
224.127000 93.000000
231.093500 39.000000
234.126400 33.000000
245.120200 40.000000
248.145800 94.000000
260.135700 35.000000
278.149800 42.000000

