>compound BML8289474
>parentmass 345.1268
>ionization [M+H]+
>formula C18H20N2O3S
>rt 405.960000
>profile qtof
#smiles_iso CC1=CC=C(C=C1)S(=O)(=O)N2CC3CC(C2)C4=CC=CC(=O)N4C3
#smiles_can CC1=CC=C(C=C1)S(=O)(=O)N2CC3CC(C2)C4=CC=CC(=O)N4C3
#inchikey IEMDPPNEUUFQGC-UHFFFAOYSA-N
#pubchem_id 3155738
#mb_accession BML01538,BML01550,BML01562

>ms2
104.994200 20.000000
109.051300 30.000000
146.058100 95.000000
147.068200 132.000000
155.010200 61.000000
189.096000 24.000000
190.106800 36.000000
198.058200 45.000000
345.126600 11599.000000

>ms2
104.992500 42.000000
109.051300 160.000000
110.061200 28.000000
134.061300 98.000000
146.059800 210.000000
147.066800 902.000000
147.087400 21.000000
147.103800 37.000000
148.072200 31.000000
155.015500 524.000000
155.050900 25.000000
159.063200 20.000000
160.073500 92.000000
163.098100 39.000000
189.100400 93.000000
190.109800 138.000000
198.056900 393.000000
345.126100 8680.000000

>ms2
109.052000 352.000000
109.079700 20.000000
110.057500 32.000000
117.057800 33.000000
118.057500 22.000000
118.067400 31.000000
122.056000 21.000000
131.066800 22.000000
131.076100 42.000000
133.053600 44.000000
134.060000 343.000000
146.059400 1604.000000
146.091600 64.000000
146.110000 33.000000
147.067500 837.000000
147.103400 36.000000
148.072400 97.000000
148.077000 46.000000
155.016300 471.000000
159.066900 67.000000
160.074200 120.000000
161.080400 22.000000
189.100100 33.000000
198.059800 60.000000
345.125500 149.000000

