>compound BML8879903
>parentmass 269.0809
>ionization [M+H]+
>formula C16H12O4
>rt 468.840000
>profile qtof
#smiles_iso COC1=CC=C(C=C1)C2=COC3=C(C2=O)C=CC(=C3)O
#smiles_can COC1=CC=C(C=C1)C2=COC3=C(C2=O)C=CC(=C3)O
#inchikey HKQYGTCOTHHOMP-UHFFFAOYSA-N
#pubchem_id 5280378
#mb_accession BML00163,BML00177

>ms2peaks
104.992100 241.000000
105.003900 22.000000
105.008700 22.000000
180.055400 25.000000
186.995300 44.000000
269.081000 505.000000

>ms2peaks
104.992000 129.000000
107.042700 31.000000
133.063300 22.000000
136.013600 26.000000
137.016700 21.000000
185.050900 22.000000
196.045200 47.000000
213.089500 35.000000
226.058600 44.000000
237.055100 66.000000
238.346600 23.000000
253.046800 93.000000
254.055000 123.000000
269.078400 353.000000
269.100600 23.000000

