>compound BML8479090
>parentmass 193.0496
>ionization [M+H]+
>formula C10H8O4
>rt 277.740000
>profile qtof
#smiles_iso COC1=C(C=C2C(=C1)C=CC(=O)O2)O
#smiles_can COC1=C(C=C2C(=C1)C=CC(=O)O2)O
#inchikey RODXRVNMMDRFIK-UHFFFAOYSA-N
#pubchem_id 5280460
#mb_accession BML00349,BML00359

>ms2
114.945200 37.000000
133.026800 281.000000
137.055400 78.000000
150.029600 24.000000
164.044500 52.000000
178.024200 123.000000
192.961900 26.000000
193.048300 1339.000000

>ms2
114.945500 56.000000
122.035000 210.000000
133.027300 454.000000
137.058500 172.000000
148.969500 21.000000
149.063500 28.000000
150.030100 119.000000
165.055700 23.000000
178.026200 305.000000
193.047500 201.000000

