>compound BML8272943
>parentmass 354.13359999999994
>ionization [M+H]+
>formula C20H19NO5
>rt 262.740000
>profile qtof
#smiles_iso CN1CCC2=CC3=C(C=C2C(=O)CC4=C(C1)C5=C(C=C4)OCO5)OCO3
#smiles_can CN1CCC2=CC3=C(C=C2C(=O)CC4=C(C1)C5=C(C=C4)OCO5)OCO3
#inchikey GPTFURBXHJWNHR-UHFFFAOYSA-N
#pubchem_id 4970
#mb_accession BML00237,BML00244,BML00251

>ms2
149.061200 91.000000
188.070100 163.000000
189.079500 100.000000
190.089300 25.000000
206.081900 30.000000
217.062700 20.000000
247.070800 30.000000
275.072600 51.000000
323.086600 24.000000
336.125100 39.000000
354.134300 3706.000000

>ms2
107.047600 24.000000
119.043700 28.000000
119.050000 78.000000
135.037600 30.000000
135.042900 70.000000
149.059700 659.000000
149.089900 23.000000
159.066000 36.000000
165.053900 360.000000
175.037900 59.000000
176.072200 53.000000
177.077200 65.000000
178.077900 32.000000
178.090400 78.000000
188.070600 1012.000000
188.109100 32.000000
188.136500 22.000000
189.078400 1121.000000
189.120600 35.000000
190.081400 75.000000
192.101400 43.000000
195.080000 37.000000
204.063500 31.000000
206.079800 365.000000
206.116500 36.000000
207.074600 75.000000
219.085800 20.000000
223.077000 22.000000
225.100100 27.000000
235.076200 34.000000
237.053100 22.000000
247.075300 136.000000
253.074400 33.000000
265.084500 114.000000
267.066100 67.000000
275.071100 238.000000
275.090500 22.000000
278.118100 39.000000
292.071200 20.000000
293.082600 76.000000
295.098300 64.000000
305.084000 83.000000
306.118100 48.000000
321.108500 23.000000
323.088800 108.000000
324.119500 24.000000
334.113600 35.000000
336.072900 21.000000
336.121200 217.000000
354.134400 3174.000000

>ms2
103.050100 40.000000
107.047400 94.000000
119.047600 107.000000
130.063200 31.000000
131.042500 68.000000
131.069700 81.000000
135.042900 113.000000
146.056200 20.000000
147.045100 73.000000
149.059300 322.000000
158.063700 23.000000
159.067400 116.000000
160.076100 99.000000
165.051400 24.000000
165.067500 21.000000
167.085000 41.000000
173.053900 26.000000
175.035300 47.000000
177.074700 41.000000
178.081100 23.000000
179.086300 44.000000
188.070000 760.000000
189.076100 735.000000
189.112200 31.000000
190.087600 36.000000
195.079900 68.000000
205.057300 32.000000
206.077900 74.000000
207.078400 147.000000
209.063800 66.000000
217.070600 138.000000
219.079000 56.000000
233.086100 21.000000
235.076700 65.000000
235.089400 33.000000
237.048600 26.000000
237.096100 45.000000
247.075600 131.000000
265.079300 30.000000
275.072400 130.000000
293.096600 27.000000
320.083800 42.000000
320.104600 26.000000
321.098800 21.000000
334.104500 33.000000
354.133200 22.000000

