>compound BML8104969
>parentmass 216.088
>ionization [M+H]+
>formula C10H9N5O
>rt 264.300000
>profile qtof
#smiles_iso C1=COC(=C1)CNC2=NC=NC3=C2NC=N3
#smiles_can C1=COC(=C1)CNC2=NC=NC3=C2NC=N3
#inchikey QANMHLXAZMSUEX-UHFFFAOYSA-N
#pubchem_id 3830
#mb_accession BML00697,BML00706,BML00715

>ms2
136.061100 703.000000
148.061000 12109.000000
148.093900 118.000000
148.097500 233.000000
148.173700 234.000000
173.068000 828.000000
188.091400 2268.000000
198.073700 193.000000
216.086600 23027.000000

>ms2
109.051200 42.000000
119.034800 332.000000
121.050800 222.000000
134.070300 39.000000
135.066200 142.000000
136.061500 1067.000000
146.056900 30.000000
147.063300 38.000000
148.060900 5274.000000
148.093500 146.000000
148.103900 42.000000
148.111000 45.000000
148.123300 27.000000
148.143100 39.000000
148.173200 80.000000
160.060500 34.000000
161.083000 109.000000
162.078600 58.000000
171.066200 223.000000
172.061000 60.000000
173.068700 672.000000
186.074600 27.000000
188.091400 1175.000000
188.129100 49.000000
198.073800 116.000000
199.062000 28.000000
216.086500 675.000000

>ms2
104.034400 44.000000
107.060700 25.000000
108.046100 21.000000
117.042500 30.000000
118.041900 60.000000
119.034700 1522.000000
119.052400 32.000000
119.064700 44.000000
119.074200 29.000000
120.042100 58.000000
121.048900 206.000000
134.062100 31.000000
135.069000 44.000000
136.060200 311.000000
144.055400 37.000000
145.045000 33.000000
145.055400 26.000000
146.056900 32.000000
148.058600 232.000000
148.064000 41.000000
171.059300 20.000000
172.061000 118.000000
173.068800 43.000000

