>compound BML8049203
>parentmass 255.0652
>ionization [M+H]+
>formula C15H10O4
>rt 442.320000
>profile qtof
#smiles_iso C1=CC(=CC(=C1)O)C2=CC(=O)C3=C(O2)C=C(C=C3)O
#smiles_can C1=CC(=CC(=C1)O)C2=CC(=O)C3=C(O2)C=C(C=C3)O
#inchikey DYARIVMCYYQNNQ-UHFFFAOYSA-N
#pubchem_id 5391140
#mb_accession BML00239,BML00246,BML00253

>ms2peaks
137.023300 62.000000
145.032000 31.000000
165.067100 25.000000
176.988200 222.000000
255.065900 3282.000000

>ms2peaks
119.049200 45.000000
121.026600 27.000000
137.020800 297.000000
141.070900 20.000000
145.025000 167.000000
159.036300 23.000000
159.083700 31.000000
176.989600 89.000000
181.064100 65.000000
187.085000 22.000000
199.075900 25.000000
227.069600 63.000000
255.064500 2961.000000

>ms2peaks
105.031200 48.000000
109.030300 67.000000
119.054100 78.000000
121.035900 47.000000
127.050300 86.000000
128.064700 56.000000
131.082800 21.000000
137.021200 423.000000
141.072000 25.000000
145.026100 599.000000
152.057700 65.000000
153.219700 39.000000
164.058900 84.000000
165.061600 23.000000
165.075300 57.000000
181.064000 106.000000
193.445000 21.000000
226.066000 66.000000
227.070100 36.000000
255.061100 143.000000

