>compound BML9720637
>parentmass 384.1667
>ionization [M+H]+
>formula C19H21N5O4
>rt 335.700000
>profile qtof
#smiles_iso COC1=C(C=C2C(=C1)C(=NC(=N2)N3CCN(CC3)C(=O)C4=CC=CO4)N)OC
#smiles_can COC1=C(C=C2C(=C1)C(=NC(=N2)N3CCN(CC3)C(=O)C4=CC=CO4)N)OC
#inchikey IENZQIKPVFGBNW-UHFFFAOYSA-N
#pubchem_id 4893
#mb_accession BML00699,BML00708,BML00717

>ms2
138.058300 59.000000
247.113900 240.000000
366.140000 54.000000
368.126700 55.000000
384.162500 6401.000000

>ms2
138.054500 339.000000
164.070200 234.000000
203.090600 49.000000
221.103400 75.000000
231.083400 94.000000
232.095900 110.000000
245.096700 35.000000
247.117000 1413.000000
315.110400 36.000000
316.135400 84.000000
341.118100 111.000000
350.127100 49.000000
366.153400 266.000000
368.127800 144.000000
369.139600 116.000000
384.164900 6776.000000

>ms2
120.045000 95.000000
138.055000 742.000000
138.086400 31.000000
150.050700 20.000000
164.067100 84.000000
164.071400 174.000000
174.091700 44.000000
177.066900 33.000000
186.068200 29.000000
188.043100 60.000000
189.057800 22.000000
189.067800 30.000000
202.087600 38.000000
203.091500 300.000000
204.072600 200.000000
205.073500 49.000000
205.082800 33.000000
217.064000 22.000000
220.086400 34.000000
221.105100 80.000000
229.068300 72.000000
230.090600 22.000000
231.085700 840.000000
231.136200 30.000000
232.091000 281.000000
233.103900 140.000000
243.101000 26.000000
245.106900 95.000000
247.117000 644.000000
247.159200 29.000000
248.103300 28.000000
257.101300 57.000000
258.091700 21.000000
268.089900 25.000000
272.115900 28.000000
274.119400 29.000000
299.080400 25.000000
300.108300 44.000000
322.129300 45.000000
325.083700 40.000000
340.139200 23.000000
341.119700 37.000000
350.124900 229.000000
366.153200 90.000000
368.133700 188.000000
369.142400 32.000000
384.144600 21.000000
384.175500 21.000000

