>compound BML9743950
>parentmass 295.1441
>ionization [M+H]+
>formula C18H18N2O2
>rt 324.480000
>profile qtof
#smiles_iso C1C2CN(CC1C3=CC=CC(=O)N3C2)C(=O)C4=CC=CC=C4
#smiles_can C1C2CN(CC1C3=CC=CC(=O)N3C2)C(=O)C4=CC=CC=C4
#inchikey HODDQHCNQOBZKP-UHFFFAOYSA-N
#pubchem_id 3537816
#mb_accession BML01353,BML01360

>ms2peaks
105.031800 67.000000
295.142300 306.000000

>ms2peaks
105.032900 418.000000
295.147300 102.000000

