>compound BML9498313
>parentmass 179.0339
>ionization [M+H]+
>formula C9H6O4
>rt 190.080000
>profile qtof
#smiles_iso C1=CC(=O)OC2=CC(=C(C=C21)O)O
#smiles_can C1=CC(=O)OC2=CC(=C(C=C21)O)O
#inchikey ILEDWLMCKZNDJK-UHFFFAOYSA-N
#pubchem_id 5281416
#mb_accession BML01641,BML01652

>ms2
123.044100 58.000000
133.027600 85.000000
151.038900 37.000000
179.034000 477.000000

>ms2
105.033500 24.000000
123.043800 167.000000
133.027700 97.000000
150.029000 40.000000
179.031900 22.000000

