>compound BML9265892
>parentmass 295.181
>ionization [M+H]+
>formula C19H22N2O
>rt 267.240000
>profile qtof
#smiles_iso C=CC1CN2CCC1CC2C(C3=CC=NC4=CC=CC=C34)O
#smiles_can C=CC1CN2CCC1CC2C(C3=CC=NC4=CC=CC=C34)O
#inchikey KMPWYEUPVWOPIM-UHFFFAOYSA-N
#pubchem_id 2757
#mb_accession BML00067,BML00074

>ms2
277.168500 26.000000
295.179300 713.000000

>ms2
142.059900 32.000000
168.078800 45.000000
277.172000 131.000000
295.178100 310.000000

