>compound BML9936822
>parentmass 275.0914
>ionization [M+H]+
>formula C15H14O5
>rt 402.780000
>profile qtof
#smiles_iso C1=CC(=CC=C1CCC(=O)C2=C(C=C(C=C2O)O)O)O
#smiles_can C1=CC(=CC=C1CCC(=O)C2=C(C=C(C=C2O)O)O)O
#inchikey VGEREEWJJVICBM-UHFFFAOYSA-N
#pubchem_id 4788
#mb_accession BML00573,BML00579,BML00585

>ms2peaks
107.049100 2501.000000
107.077800 98.000000
107.093800 37.000000
107.108400 25.000000
107.144500 30.000000
121.066500 37.000000
127.037700 71.000000
149.060600 48.000000
151.036700 23.000000
169.049200 454.000000
169.085400 38.000000
196.960300 40.000000
275.082600 88.000000

>ms2peaks
107.049100 2240.000000
107.079800 64.000000
107.096500 40.000000
121.065400 26.000000
127.036900 43.000000
151.039700 59.000000
169.048800 288.000000

>ms2peaks
107.049500 1642.000000
107.077200 44.000000
107.083100 24.000000
107.095800 24.000000
107.146600 28.000000

