>compound BML9266843
>parentmass 546.2698
>ionization [M+H]+
>formula C29H39NO9
>rt 284.580000
>profile qtof
#smiles_iso CC(C)(CCCC(CC(=O)OC)(C(=O)OC1C2C3=CC4=C(C=C3CCN5C2(CCC5)C=C1OC)OCO4)O)O
#smiles_can CC(C)(CCCC(CC(=O)OC)(C(=O)OC1C2C3=CC4=C(C=C3CCN5C2(CCC5)C=C1OC)OCO4)O)O
#inchikey HYFHYPWGAURHIV-UHFFFAOYSA-N
#pubchem_id 3628
#mb_accession BML00909,BML00920,BML00931

>ms2
251.100500 49.000000
298.141900 667.000000
546.267500 8680.000000

>ms2
120.075100 28.000000
126.088600 56.000000
126.098500 22.000000
150.089400 99.000000
176.063500 48.000000
215.067800 28.000000
226.081600 103.000000
227.093700 113.000000
229.080700 30.000000
240.099800 68.000000
251.104700 107.000000
253.085400 29.000000
255.104200 53.000000
266.113000 174.000000
267.122300 27.000000
268.133900 30.000000
269.122300 75.000000
281.109200 26.000000
283.118000 35.000000
284.127100 129.000000
298.141600 2887.000000
298.188300 68.000000
298.218700 62.000000
298.264000 45.000000
298.305000 42.000000
316.151200 173.000000
472.227200 33.000000
546.267000 3898.000000

>ms2
107.084700 48.000000
109.063100 71.000000
109.069400 50.000000
111.077700 22.000000
120.080400 30.000000
123.079500 94.000000
126.089800 75.000000
149.052100 34.000000
149.063300 36.000000
150.089800 477.000000
159.048800 20.000000
161.060400 21.000000
165.069500 33.000000
167.108500 28.000000
173.051500 32.000000
173.063200 25.000000
176.069400 207.000000
176.092300 31.000000
181.098400 40.000000
185.056400 22.000000
187.074000 32.000000
191.085300 47.000000
195.080800 24.000000
197.094600 35.000000
207.075200 34.000000
208.114400 36.000000
209.055400 25.000000
209.102900 24.000000
211.069300 70.000000
211.109100 24.000000
213.087800 23.000000
214.081800 49.000000
215.068500 86.000000
216.099700 33.000000
219.076900 31.000000
223.071200 167.000000
223.108300 121.000000
225.084000 76.000000
226.082400 311.000000
226.124000 50.000000
227.054500 27.000000
227.093000 484.000000
229.088200 46.000000
229.105900 143.000000
230.117600 52.000000
236.076000 34.000000
236.106300 83.000000
237.087100 68.000000
238.063700 22.000000
238.085300 107.000000
238.120500 50.000000
239.071100 41.000000
240.073500 27.000000
240.098600 386.000000
240.127200 46.000000
240.159700 20.000000
241.076900 44.000000
242.078500 80.000000
249.090000 74.000000
250.094600 55.000000
251.101600 429.000000
252.067000 25.000000
252.083900 27.000000
252.099300 58.000000
253.088700 56.000000
253.101300 172.000000
254.115400 131.000000
255.095100 93.000000
255.111300 25.000000
256.089700 23.000000
266.114800 635.000000
267.121700 410.000000
268.095700 98.000000
268.130300 157.000000
269.109200 32.000000
269.123900 23.000000
270.113600 127.000000
281.114700 59.000000
282.111800 52.000000
283.118700 118.000000
284.124500 287.000000
296.120100 44.000000
298.141400 2003.000000
298.194000 107.000000
298.228600 34.000000
298.308100 28.000000
299.113900 23.000000
316.149300 137.000000
546.265700 34.000000

