>compound BML9389154
>parentmass 287.055
>ionization [M+H]+
>formula C15H10O6
>rt 374.880000
>profile qtof
#smiles_iso C1=CC(=C(C=C1C2=C(C(=O)C3=C(O2)C=C(C=C3)O)O)O)O
#smiles_can C1=CC(=C(C=C1C2=C(C(=O)C3=C(O2)C=C(C=C3)O)O)O)O
#inchikey XHEFDIBZLJXQHF-UHFFFAOYSA-N
#pubchem_id 5281614
#mb_accession BML00281,BML00299

>ms2
176.983400 22.000000
287.053800 222.000000

>ms2
137.019800 35.000000
145.064400 20.000000
157.058700 36.000000

