>compound BML9269925
>parentmass 363.134
>ionization [M+H]+
>formula C21H18N2O4
>rt 484.260000
>profile qtof
#smiles_iso CC1=CC(=CC(=C1C2=C(C3=C(C=C2N)OC4=CC(=O)C=C(C4=N3)C)C)O)O
#smiles_can CC1=CC(=CC(=C1C2=C(C3=C(C=C2N)OC4=CC(=O)C=C(C4=N3)C)C)O)O
#inchikey NNZHGEUZKBYASA-UHFFFAOYSA-N
#pubchem_id 5036900
#mb_accession BML00746,BML00753,BML00760

>ms2peaks
363.133400 624.000000

>ms2peaks
347.093100 22.000000
363.129600 644.000000

>ms2peaks
223.055100 22.000000
240.089700 29.000000
277.108400 28.000000
279.106400 54.000000
303.086700 89.000000
330.102700 23.000000
331.075600 37.000000
331.099900 86.000000
332.082700 81.000000
345.111400 43.000000
346.130800 24.000000
347.104600 74.000000
347.151200 27.000000
348.108600 67.000000

