>compound BML9583371
>parentmass 205.09720000000002
>ionization [M+H]+
>formula C11H12N2O2
>rt 75.600000
>profile qtof
#smiles_iso C1=CC=C2C(=C1)C(=CN2)CC(C(=O)O)N
#smiles_can C1=CC=C2C(=C1)C(=CN2)CC(C(=O)O)N
#inchikey QIVBCDIJIAJPQS-UHFFFAOYSA-N
#pubchem_id 1148
#mb_accession BML01185,BML01191,BML01197

>ms2
103.004900 22.000000
115.055100 23.000000
118.065800 177.000000
130.065900 24.000000
132.081200 123.000000
142.065600 30.000000
144.079700 268.000000
145.007400 50.000000
146.059800 1276.000000
146.093800 43.000000
159.092000 145.000000
170.059000 94.000000
188.069500 1741.000000
188.107300 36.000000
188.119200 24.000000
188.133700 22.000000

>ms2
115.053600 124.000000
117.060600 30.000000
117.069200 45.000000
118.065000 1059.000000
118.093500 22.000000
118.100900 28.000000
127.054500 32.000000
130.061300 23.000000
130.066300 33.000000
132.079600 196.000000
142.066500 86.000000
143.073500 126.000000
144.079200 325.000000
145.007200 31.000000
146.059700 1019.000000
146.094300 30.000000
159.091200 101.000000
170.057500 163.000000
188.071200 86.000000

>ms2
103.055100 64.000000
105.068400 31.000000
115.053400 866.000000
116.048900 29.000000
116.059600 90.000000
117.058400 562.000000
118.064400 671.000000
118.091600 34.000000
127.052900 44.000000
128.051000 22.000000
130.065300 211.000000
131.073800 35.000000
132.082500 60.000000
140.049200 22.000000
141.053600 36.000000
142.064500 289.000000
143.071700 350.000000
144.077600 46.000000

