>compound BML9534785
>parentmass 342.17
>ionization [M+H]+
>formula C20H23NO4
>rt 252.180000
>profile qtof
#smiles_iso CN1CCC2=CC(=C(C3=C2C1CC4=C3C(=C(C=C4)OC)O)OC)OC
#smiles_can CN1CCC2=CC(=C(C3=C2C1CC4=C3C(=C(C=C4)OC)O)OC)OC
#inchikey QELDJEKNFOQJOY-UHFFFAOYSA-N
#pubchem_id 48704
#mb_accession BML00399,BML00413,BML00427

>ms2
205.061200 21.000000
236.085100 104.000000
247.073800 73.000000
248.080200 168.000000
248.121900 21.000000
249.085800 58.000000
251.109900 120.000000
263.975300 30.000000
264.073900 78.000000
265.084000 80.000000
267.097100 54.000000
279.101100 1132.000000
279.155700 48.000000
280.108300 117.000000
280.139100 27.000000
293.123800 26.000000
296.102000 228.000000
299.138300 34.000000
310.144700 43.000000
311.126100 999.000000
311.182500 60.000000
311.228500 22.000000
311.288700 22.000000
311.537800 24.000000
342.169800 1700.000000

>ms2
180.089500 23.000000
182.060500 32.000000
207.076700 25.000000
219.082900 29.000000
231.078300 20.000000
233.101000 21.000000
236.080500 242.000000
237.091300 21.000000
238.069200 30.000000
247.076300 99.000000
248.082500 364.000000
249.097400 32.000000
251.106300 160.000000
253.086900 23.000000
261.087400 27.000000
263.057100 28.000000
264.077000 409.000000
264.103500 23.000000
264.123800 27.000000
265.082100 156.000000
267.104700 81.000000
278.086500 23.000000
279.100200 1015.000000
279.142900 89.000000
280.108700 388.000000
280.182800 25.000000
281.079400 197.000000
296.106300 368.000000
311.121400 200.000000
311.137200 113.000000
311.170800 24.000000
342.169300 32.000000

>ms2
195.078800 35.000000
201.065900 21.000000
202.074500 38.000000
203.082200 38.000000
205.061300 87.000000
205.075100 21.000000
206.065300 45.000000
207.076500 153.000000
207.092400 24.000000
208.088800 110.000000
209.065400 28.000000
209.104700 52.000000
217.053200 41.000000
218.054500 29.000000
218.073500 51.000000
219.078300 119.000000
220.044700 41.000000
220.078600 40.000000
221.056800 145.000000
222.065700 61.000000
224.074900 38.000000
225.088300 28.000000
231.078500 31.000000
233.049800 24.000000
233.062200 24.000000
233.105300 24.000000
234.073400 39.000000
235.075900 204.000000
236.082500 366.000000
236.120000 22.000000
237.052500 48.000000
237.084900 137.000000
238.067600 161.000000
238.106000 24.000000
247.074700 349.000000
247.089800 29.000000
247.109300 23.000000
248.084000 167.000000
249.070200 21.000000
251.103900 37.000000
253.083100 178.000000
263.063900 30.000000
263.077600 20.000000
264.075000 176.000000
265.081300 296.000000
265.115400 21.000000
279.105100 27.000000
281.079400 86.000000

