>compound BML9344816
>parentmass 885.1848
>ionization [M+Na]+
>formula C42H38O20
>rt 379.200000
>profile qtof
#smiles_iso C1=CC2=C(C(=C1)OC3C(C(C(C(O3)CO)O)O)O)C(=O)C4=C(C2C5C6=C(C(=CC=C6)OC7C(C(C(C(O7)CO)O)O)O)C(=O)C8=C5C=C(C=C8O)C(=O)O)C=C(C=C4O)C(=O)O
#smiles_can C1=CC2=C(C(=C1)OC3C(C(C(C(O3)CO)O)O)O)C(=O)C4=C(C2C5C6=C(C(=CC=C6)OC7C(C(C(C(O7)CO)O)O)O)C(=O)C8=C5C=C(C=C8O)C(=O)O)C=C(C=C4O)C(=O)O
#inchikey IPQVTOJGNYVQEO-UHFFFAOYSA-N
#pubchem_id 5199
#mb_accession BML01315,BML01322,BML01329

>ms2peaks
454.083700 49.000000
885.183400 356.000000

>ms2peaks
185.035600 22.000000
454.084400 210.000000
454.122300 22.000000
885.177300 201.000000

>ms2peaks
185.041800 68.000000
292.034900 35.000000
454.085500 273.000000

