>compound BML9815023
>parentmass 367.1917
>ionization [M+H]+
>formula C24H22N4
>rt 423.840000
>profile qtof
#smiles_iso CC1=CC=C(C=C1)CC(CC2=NC3=CC=CC=C3N2)C4=NC5=CC=CC=C5N4
#smiles_can CC1=CC=C(C=C1)CC(CC2=NC3=CC=CC=C3N2)C4=NC5=CC=CC=C5N4
#inchikey GAODIMGJPXDDHA-UHFFFAOYSA-N
#pubchem_id 3095741
#mb_accession BML00004,BML00017,BML00030

>ms2
249.136500 317.000000
261.111800 108.000000
262.118000 238.000000
367.191200 7710.000000
367.247300 134.000000
367.274600 241.000000
367.366300 124.000000

>ms2
119.060100 321.000000
131.060600 66.000000
132.071800 63.000000
144.071200 77.000000
157.074300 158.000000
235.125100 164.000000
236.126900 116.000000
249.137000 1800.000000
249.183900 87.000000
261.114600 414.000000
262.120100 1188.000000
262.169000 60.000000
367.189800 6019.000000
367.313700 93.000000
367.363400 100.000000

>ms2
105.068800 171.000000
107.062500 28.000000
115.052900 53.000000
118.050000 41.000000
119.059600 443.000000
131.059000 355.000000
131.083200 109.000000
132.068800 236.000000
132.090100 20.000000
133.077200 77.000000
143.060500 70.000000
144.066700 234.000000
144.083800 26.000000
145.076000 299.000000
156.065500 154.000000
157.074100 634.000000
157.113800 31.000000
157.329300 20.000000
218.079700 21.000000
219.093300 104.000000
220.094800 87.000000
233.104400 46.000000
234.095000 36.000000
234.120700 42.000000
235.124500 373.000000
235.160000 36.000000
236.136900 29.000000
249.138800 879.000000
249.390800 22.000000
261.111600 1646.000000
261.171300 54.000000
261.264700 21.000000
261.404200 27.000000
261.656000 20.000000
262.121700 200.000000

