>compound BML9667568
>parentmass 683.3538
>ionization [M+H]+
>formula C37H50N2O10
>rt 364.500000
>profile qtof
#smiles_iso CCN1CC2(CCC(C34C2C(C(C31)(C5(CC(C6CC4C5C6OC)OC)O)O)OC)OC)COC(=O)C7=CC=CC=C7N8C(=O)CC(C8=O)C
#smiles_can CCN1CC2(CCC(C34C2C(C(C31)(C5(CC(C6CC4C5C6OC)OC)O)O)OC)OC)COC(=O)C7=CC=CC=C7N8C(=O)CC(C8=O)C
#inchikey XLTANAWLDBYGFU-UHFFFAOYSA-N
#pubchem_id 494471
#mb_accession BML00002,BML00015,BML00028

>ms2
683.351600 8045.000000
683.494200 187.000000
683.584900 118.000000
684.358800 112.000000

>ms2
619.305600 65.000000
651.338200 49.000000
683.353500 4768.000000
683.434600 195.000000
683.585100 71.000000
683.714200 62.000000
684.188400 51.000000
684.366300 75.000000

>ms2
108.079300 797.000000
121.073400 45.000000
121.084000 47.000000
122.095300 444.000000
124.111200 42.000000
138.089000 53.000000
151.071400 60.000000
159.087100 42.000000
162.128500 40.000000
178.079300 37.000000
188.102800 39.000000
193.098200 58.000000
216.064800 1342.000000
216.131100 40.000000
217.100000 53.000000
219.115700 54.000000
221.114200 42.000000
223.113400 55.000000
231.097400 48.000000
233.135800 50.000000
251.136700 40.000000
277.129100 46.000000
322.183900 38.000000
336.182200 114.000000
340.229100 73.000000
353.147200 39.000000
354.207000 102.000000
358.228800 49.000000
368.223000 61.000000
386.233200 312.000000
515.260300 38.000000
541.257900 91.000000
559.279200 74.000000
569.268900 103.000000
573.300300 131.000000
587.263400 131.000000
591.289900 68.000000
601.288800 141.000000
605.316800 127.000000
605.346200 75.000000
619.301600 506.000000
619.352600 53.000000
633.307500 136.000000
651.322600 540.000000
651.366400 51.000000
665.340100 74.000000
683.351400 3575.000000
683.469300 101.000000
683.524700 40.000000
683.951400 40.000000
684.025600 39.000000
684.347200 72.000000
684.430900 37.000000

