>compound BML9331977
>parentmass 375.1439
>ionization [M+H]+
>formula C20H22O7
>rt 611.040000
>profile qtof
#smiles_iso COC1=CC(=C(C(=C1)OC)C(=O)C=CC2=CC(=C(C=C2OC)OC)OC)O
#smiles_can COC1=CC(=C(C(=C1)OC)C(=O)C=CC2=CC(=C(C=C2OC)OC)OC)O
#inchikey VHCQVGQULWFQTM-UHFFFAOYSA-N
#pubchem_id 3899901
#mb_accession BML01710,BML01719,BML01728

>ms2peaks
166.021800 24.000000
181.049400 857.000000
181.085700 40.000000
206.057900 83.000000
221.078700 912.000000
221.121700 33.000000
375.141200 1320.000000

>ms2peaks
166.026500 56.000000
167.064300 21.000000
178.067400 57.000000
181.048800 3472.000000
181.085400 120.000000
181.121500 27.000000
181.140100 31.000000
181.172700 32.000000
191.029800 80.000000
193.089200 20.000000
206.056300 519.000000
206.104700 27.000000
221.080300 1396.000000
221.119300 64.000000
221.148700 22.000000
357.126900 25.000000
375.145400 143.000000

>ms2peaks
107.050300 92.000000
110.036300 62.000000
111.046600 28.000000
121.024600 42.000000
123.040500 24.000000
125.057200 30.000000
135.041800 41.000000
136.047100 26.000000
137.020600 39.000000
138.031000 121.000000
151.038100 51.000000
151.075300 32.000000
163.039800 105.000000
166.025500 215.000000
178.062100 112.000000
181.048700 1151.000000
181.083100 28.000000
181.091100 28.000000
191.033500 161.000000
191.043600 25.000000
206.055800 94.000000

