>compound BML9978488
>parentmass 854.3383
>ionization [M+H]+
>formula C47H51NO14
>rt 577.200000
>profile qtof
#smiles_iso CC1=C2C(C(=O)C3(C(CC4C(C3C(C(C2(C)C)(CC1OC(=O)C(C(C5=CC=CC=C5)NC(=O)C6=CC=CC=C6)O)O)OC(=O)C7=CC=CC=C7)(CO4)OC(=O)C)O)C)OC(=O)C
#smiles_can CC1=C2C(C(=O)C3(C(CC4C(C3C(C(C2(C)C)(CC1OC(=O)C(C(C5=CC=CC=C5)NC(=O)C6=CC=CC=C6)O)O)OC(=O)C7=CC=CC=C7)(CO4)OC(=O)C)O)C)OC(=O)C
#inchikey RCINICONZNJXQF-UHFFFAOYSA-N
#pubchem_id 4666
#mb_accession BML00914,BML00925

>ms2peaks
105.033300 104.000000
122.060100 101.000000
133.104300 30.000000
151.109300 25.000000
239.141200 35.000000
240.097800 137.000000
253.158700 26.000000
263.144200 32.000000
268.091900 173.000000
273.113200 23.000000
281.146700 54.000000
286.104300 704.000000
286.140500 25.000000
291.133600 52.000000
299.159800 38.000000
309.144500 133.000000
327.157900 159.000000
329.139700 30.000000
345.166400 25.000000
369.168200 88.000000
387.180200 78.000000
390.134600 25.000000
447.196800 35.000000
449.194900 43.000000
473.188400 23.000000
491.197100 89.000000
509.213200 434.000000
509.257100 44.000000
509.282100 27.000000
551.225900 180.000000
569.232400 315.000000
655.254700 67.000000
714.290500 27.000000
716.287200 23.000000
776.308500 134.000000
854.337000 116.000000

>ms2peaks
105.031600 124.000000
105.070600 42.000000
119.086000 30.000000
122.058000 149.000000
135.080000 22.000000
147.114500 23.000000
149.054800 25.000000
149.099400 46.000000
161.101400 33.000000
177.087700 38.000000
223.152700 27.000000
239.101100 21.000000
239.143400 41.000000
240.099800 195.000000
249.129400 21.000000
259.093500 20.000000
263.139700 74.000000
267.137600 27.000000
268.098100 41.000000
269.080700 24.000000
281.151000 88.000000
286.103900 436.000000
286.157900 23.000000
291.138400 60.000000
297.140700 26.000000
309.143000 172.000000
327.156700 148.000000
345.165900 34.000000
351.157300 22.000000
359.192000 21.000000
369.169600 56.000000
387.175200 62.000000
491.206200 39.000000
509.188000 42.000000
509.218600 177.000000
509.267200 28.000000
551.207300 24.000000
551.251400 29.000000
569.236300 54.000000
655.251800 45.000000

