>compound BML9723000
>parentmass 245.0955
>ionization [M+H]+
>formula C10H16N2O3S
>rt 208.020000
>profile qtof
#smiles_iso C1C2C(C(S1)CCCCC(=O)O)NC(=O)N2
#smiles_can C1C2C(C(S1)CCCCC(=O)O)NC(=O)N2
#inchikey YBJHBAHKTGYVGT-UHFFFAOYSA-N
#pubchem_id 253
#mb_accession BML00278,BML00287

>ms2peaks
138.092300 21.000000
150.089400 29.000000
166.064200 36.000000
227.085000 1359.000000
227.124400 78.000000
227.165400 30.000000
227.221900 28.000000
245.094700 200.000000

>ms2peaks
100.022000 31.000000
100.076100 26.000000
123.017300 90.000000
123.030700 48.000000
130.065500 21.000000
143.023600 24.000000
147.026500 26.000000
165.100000 24.000000
166.071400 68.000000
167.046900 26.000000
167.060000 25.000000
185.068900 21.000000
199.091000 75.000000
209.076900 48.000000
227.084400 655.000000
227.115800 27.000000

