>compound BML9404026
>parentmass 306.2064
>ionization [M+H]+
>formula C18H27NO3
>rt 533.940000
>profile qtof
#smiles_iso CC(C)/C=C/CCCCC(=O)NCC1=CC(=C(C=C1)O)OC
#smiles_can CC(C)C=CCCCCC(=O)NCC1=CC(=C(C=C1)O)OC
#inchikey YKPUWZUDDOIDPM-SOFGYWHQSA-N
#pubchem_id 1548943
#mb_accession BML00609,BML00617,BML00625

>ms2
107.082700 27.000000
107.089000 24.000000
109.101200 55.000000
114.091700 72.000000
122.031600 39.000000
133.098600 120.000000
135.112300 69.000000
137.059400 4737.000000
137.094600 156.000000
137.118200 33.000000
137.141100 30.000000
137.168200 64.000000
151.109300 38.000000
153.131300 66.000000
165.127900 26.000000
170.150500 161.000000
182.154100 309.000000
306.197400 84.000000

>ms2
109.061800 29.000000
109.099100 43.000000
122.031200 65.000000
122.038500 82.000000
133.105400 38.000000
135.041000 28.000000
135.122000 47.000000
137.058800 4075.000000
137.090400 163.000000
137.112800 78.000000
137.168000 53.000000
137.209000 28.000000
137.293000 26.000000
137.394100 25.000000
153.124300 30.000000
170.155400 29.000000
182.152800 29.000000

>ms2
105.072200 22.000000
107.050000 31.000000
107.086000 27.000000
109.065300 27.000000
122.035700 750.000000
137.059100 1502.000000
137.093300 67.000000

