>compound BML9145225
>parentmass 257.0809
>ionization [M+H]+
>formula C15H12O4
>rt 470.460000
>profile qtof
#smiles_iso C1C(OC2=CC(=CC(=C2C1=O)O)O)C3=CC=CC=C3
#smiles_can C1C(OC2=CC(=CC(=C2C1=O)O)O)C3=CC=CC=C3
#inchikey URFCJEUYXNAHFI-UHFFFAOYSA-N
#pubchem_id 238782
#mb_accession BML00869,BML00878,BML00887

>ms2peaks
103.053100 21.000000
131.047800 125.000000
153.016600 296.000000
176.987300 23.000000
178.983700 24.000000
257.079400 924.000000

>ms2peaks
103.054600 108.000000
107.050300 26.000000
131.048600 360.000000
151.038600 31.000000
153.015700 790.000000
153.043500 32.000000
153.057800 20.000000
173.056500 47.000000
177.989000 20.000000
179.030200 35.000000
257.077100 130.000000

>ms2peaks
103.054300 266.000000
131.051300 32.000000
153.016200 163.000000

