>compound BML9583274
>parentmass 442.147
>ionization [M+H]+
>formula C19H19N7O6
>rt 239.220000
>profile qtof
#smiles_iso C1=CC(=CC=C1C(=O)N[C@@H](CCC(=O)O)C(=O)O)NCC2=CN=C3C(=N2)C(=O)N=C(N3)N
#smiles_can C1=CC(=CC=C1C(=O)NC(CCC(=O)O)C(=O)O)NCC2=CN=C3C(=N2)C(=O)N=C(N3)N
#inchikey OVBPIULPVIDEAO-LBPRGKRZSA-N
#pubchem_id 6037
#mb_accession BML00959,BML00968,BML00977

>ms2peaks
120.044300 40.000000
176.054700 36.000000
269.116100 22.000000
295.092400 1689.000000
295.142400 53.000000
295.187300 30.000000
295.247900 23.000000

>ms2peaks
120.045600 152.000000
176.056300 100.000000
295.092800 1667.000000
295.137700 67.000000
295.157000 39.000000
295.183600 30.000000

>ms2peaks
108.053600 79.000000
108.061100 23.000000
120.044200 538.000000
120.073600 25.000000
134.035100 23.000000
148.063400 51.000000
176.055300 718.000000
176.102400 24.000000
295.093600 202.000000

