>compound BML9168742
>parentmass 195.0877
>ionization [M+H]+
>formula C8H10N4O2
>rt 247.320000
>profile qtof
#smiles_iso CN1C=NC2=C1C(=O)N(C(=O)N2C)C
#smiles_can CN1C=NC2=C1C(=O)N(C(=O)N2C)C
#inchikey RYYVLZVUVIJVGH-UHFFFAOYSA-N
#pubchem_id 2519
#mb_accession BML00696,BML00705,BML00714

>ms2peaks
110.071000 388.000000
138.065500 3270.000000
138.105700 85.000000
138.174200 54.000000
195.086400 10111.000000

>ms2peaks
109.040300 294.000000
109.064100 41.000000
110.071200 1973.000000
110.105000 39.000000
110.168400 39.000000
111.055000 172.000000
123.042700 211.000000
138.065700 7595.000000
138.097800 140.000000
138.104300 86.000000
138.121800 122.000000
138.146600 53.000000
138.174700 145.000000
195.086700 1942.000000

>ms2peaks
108.053300 31.000000
109.038000 103.000000
110.071800 149.000000
123.042300 421.000000
123.081200 21.000000
138.064400 98.000000

