>compound BML9305038
>parentmass 414.3367
>ionization [M+H]+
>formula C27H43NO2
>rt 529.860000
>profile qtof
#smiles_iso CC1CCC2(C(C3C(O2)CC4C3(CCC5C4CC=C6C5(CCC(C6)O)C)C)C)NC1
#smiles_can CC1CCC2(C(C3C(O2)CC4C3(CCC5C4CC=C6C5(CCC(C6)O)C)C)C)NC1
#inchikey KWVISVAMQJWJSZ-UHFFFAOYSA-N
#pubchem_id 5250
#mb_accession BML00913,BML00924,BML00935

>ms2
271.203900 22.000000
414.333200 1796.000000

>ms2
107.083400 50.000000
109.102900 33.000000
114.089100 47.000000
121.100000 47.000000
124.114500 21.000000
126.125800 33.000000
133.099500 28.000000
157.100600 50.000000
253.194200 105.000000
271.201900 135.000000
396.324100 187.000000
414.333700 2199.000000

>ms2
105.068100 135.000000
107.085200 32.000000
107.094200 23.000000
109.099900 93.000000
114.091300 22.000000
117.071900 40.000000
119.088200 48.000000
121.101900 106.000000
124.113800 67.000000
126.126000 84.000000
131.085200 70.000000
133.098700 83.000000
141.069400 26.000000
142.078600 49.000000
143.086300 57.000000
144.092200 22.000000
145.100100 143.000000
147.116100 209.000000
151.112000 34.000000
157.099800 393.000000
159.117000 156.000000
163.132900 20.000000
171.111300 27.000000
171.118900 66.000000
173.132200 26.000000
175.111600 79.000000
183.117900 29.000000
185.132300 27.000000
197.129300 47.000000
199.144800 26.000000
211.142000 50.000000
225.159000 20.000000
253.194000 248.000000
271.199900 43.000000
396.324000 186.000000
396.380900 20.000000
414.326500 67.000000

