>compound BML9110930
>parentmass 187.039
>ionization [M+H]+
>formula C11H6O3
>rt 376.260000
>profile qtof
#smiles_iso C1=CC(=O)OC2=CC3=C(C=CO3)C=C21
#smiles_can C1=CC(=O)OC2=CC3=C(C=CO3)C=C21
#inchikey ZCCUUQDIBDJBTK-UHFFFAOYSA-N
#pubchem_id 6199
#mb_accession BML00644,BML00655,BML00666

>ms2
104.991200 103.000000
115.053100 220.000000
115.066600 26.000000
131.047300 298.000000
143.047600 278.000000
159.043100 42.000000
159.049200 34.000000
187.037700 2180.000000

>ms2
102.049000 28.000000
103.051800 37.000000
115.054400 825.000000
131.048800 1479.000000
131.075100 20.000000
131.154600 21.000000
143.049200 232.000000
158.035500 49.000000
159.045400 69.000000
187.038400 352.000000

>ms2
102.048800 122.000000
103.054600 419.000000
103.081800 33.000000
115.053200 236.000000
115.063700 24.000000
131.048500 689.000000
131.084900 36.000000

