>compound BML9006833
>parentmass 177.1023
>ionization [M+H]+
>formula C10H12N2O
>rt 118.620000
>profile qtof
#smiles_iso CN1C(CCC1=O)C2=CN=CC=C2
#smiles_can CN1C(CCC1=O)C2=CN=CC=C2
#inchikey UIKROCXWUNQSPJ-UHFFFAOYSA-N
#pubchem_id 408
#mb_accession BML00569,BML00575

>ms2
116.949100 56.000000
118.065100 129.000000
120.080000 76.000000
146.059800 307.000000
149.069300 52.000000
177.100800 7379.000000

>ms2
106.063300 32.000000
116.948500 20.000000
118.064600 224.000000
119.048400 26.000000
120.079400 136.000000
146.059300 295.000000
149.076100 24.000000
177.101000 1055.000000

