>compound LU00015208
>parentmass 196.1132
>ionization [M-H]-
>formula C14H15N
>rt 1167.060000
>profile orbitrap
#smiles_iso C1=CC=C(C=C1)CNCC2=CC=CC=C2
#smiles_can C1=CC=C(C=C1)CNCC2=CC=CC=C2
#inchikey BWLUMTFWVZZZND-UHFFFAOYSA-N
#pubchem_id 7656
#mb_accession LU035951,LU035952,LU035953,LU035954,LU035955,LU035956

>ms2
179.086600 8164.600000
180.082100 16539.900000
192.082100 13003.700000
194.097500 13657.800000
196.113200 2094473.600000

>ms2
179.086700 18299.600000
180.081900 43115.000000
192.082100 38145.400000
194.097500 27109.500000
196.113200 2391653.200000

>ms2
92.050600 5005.500000
118.066200 5564.600000
179.086600 43491.300000
180.081900 114400.700000
192.081900 122800.000000
194.097500 81116.600000
196.113100 1185051.600000

>ms2
92.050600 15555.100000
118.066300 9803.600000
120.081700 7788.600000
144.081900 4735.500000
179.073700 8477.500000
179.086600 51057.600000
180.081900 120663.100000
192.082000 124520.900000
193.090000 2719.700000
194.097500 88831.700000
196.113200 323211.200000

>ms2
92.050600 42153.000000
116.050500 2242.500000
118.066600 1858.900000
120.081900 10434.100000
144.081700 4577.300000
179.074300 11223.200000
179.086700 22280.000000
180.082000 71765.500000
192.082000 60587.600000
193.089600 2007.600000
194.097600 46757.500000
196.113200 56058.100000

>ms2
92.050600 68649.300000
116.050300 2490.200000
120.081700 7422.100000
144.081800 2463.000000
179.074200 7286.300000
179.086500 5946.400000
180.082000 25331.100000
192.081900 16626.100000
194.097600 16344.900000
196.113200 5787.700000

