>compound LU00557332
>parentmass 344.07830000000007
>ionization [M-H]-
>formula C15H15ClF3N3O
>rt 1142.280000
>profile orbitrap
#smiles_iso CCCOCC(=NC1=C(C=C(C=C1)Cl)C(F)(F)F)N2C=CN=C2
#smiles_can CCCOCC(=NC1=C(C=C(C=C1)Cl)C(F)(F)F)N2C=CN=C2
#inchikey HSMVPDGQOIQYSR-UHFFFAOYSA-N
#pubchem_id 91699
#mb_accession LU108851,LU108852,LU108853,LU108854,LU108855,LU108856

>ms2peaks
67.030100 343425.900000
178.988100 4875.200000
183.081600 2235.800000
186.017100 8690.200000
232.986000 53744.500000
301.023600 61664.900000

>ms2peaks
67.030100 384502.100000
178.988300 2182.500000
184.085000 2112.600000
186.017100 18093.600000
232.985900 11542.800000
301.023300 21085.300000

>ms2peaks
67.030100 414953.500000
183.081700 2359.000000
184.085500 2545.100000

>ms2peaks
67.030200 415490.200000

>ms2peaks
67.030200 399851.800000

>ms2peaks
67.030200 375574.500000

