>compound LU00455322
>parentmass 149.01790000000003
>ionization [M-H]-
>formula C7H6N2S
>rt 711.600000
>profile orbitrap
#smiles_iso C1=CC=C2C(=C1)NC(=S)N2
#smiles_can C1=CC=C2C(=C1)NC(=S)N2
#inchikey YHMYGUUIMTVXNW-UHFFFAOYSA-N
#pubchem_id 707035
#mb_accession LU072151,LU072152,LU072153,LU072154,LU072155,LU072156

>ms2
57.975600 5385.300000
117.045900 145028.300000
148.010200 4118.500000
149.017900 515687.200000

>ms2
57.975400 9721.700000
117.045900 288081.000000
148.010200 4809.700000
149.017900 1093061.400000

>ms2
57.975600 25193.500000
90.035100 2160.400000
117.045900 378009.300000
148.010200 8541.600000
149.017900 611596.200000

>ms2
57.975600 68669.300000
90.035000 3815.900000
117.045800 552016.000000
148.010100 16533.300000
149.017800 325001.200000

>ms2
57.975700 191832.600000
90.035000 7627.200000
117.045800 687157.400000
148.010200 19944.100000
149.017900 172355.800000

>ms2
57.975700 318255.000000
90.035000 14338.700000
117.045800 651835.500000
148.010200 21292.000000
149.017900 58401.700000

