>compound LU00721182
>parentmass 137.0244
>ionization [M-H]-
>formula C7H6O3
>rt 896.100000
>profile orbitrap
#smiles_iso C1=CC=C(C(=C1)C(=O)O)O
#smiles_can C1=CC=C(C(=C1)C(=O)O)O
#inchikey YGSDEFSMJLZEOE-UHFFFAOYSA-N
#pubchem_id 338
#mb_accession LU090951,LU090952,LU090953,LU090954,LU090955,LU090956

>ms2
65.039600 19962.000000
80.026600 4842.700000
93.034600 4128921.800000
137.024500 653108.500000

>ms2
65.039700 23218.400000
80.026700 12623.100000
93.034600 4987584.500000
137.024400 813791.300000

>ms2
65.039700 35643.800000
80.026800 7373.900000
93.034600 4387104.500000
137.024400 279611.900000

>ms2
65.039700 167131.300000
75.024100 6184.700000
80.026800 10059.300000
93.034600 5399202.000000
137.024400 60543.900000

>ms2
65.039700 314608.500000
67.019000 6085.400000
75.024100 18633.500000
80.026700 5593.300000
93.034600 4136606.200000
137.024600 8206.000000

>ms2
65.039700 623852.900000
67.019000 12030.100000
75.024100 49895.100000
80.026900 6259.700000
93.034600 3869249.800000

