>compound LU01200873
>parentmass 203.013
>ionization [M-H]-
>formula C9H5ClN4
>rt 1080.420000
>profile orbitrap
#smiles_iso C1=CC(=CC(=C1)Cl)NN=C(C#N)C#N
#smiles_can C1=CC(=CC(=C1)Cl)NN=C(C#N)C#N
#inchikey UGTJLJZQQFGTJD-UHFFFAOYSA-N
#pubchem_id 2603
#mb_accession LU067551,LU067552,LU067553,LU067554,LU067555,LU067556

>ms2peaks
64.006600 1037990.200000
115.030100 210547.600000
139.030300 300527.200000
151.006900 32008852.000000
167.036400 305797.500000
175.006900 87305.700000
176.002200 2550028.500000
203.013100 44747512.000000

>ms2peaks
64.006700 1996420.200000
65.014600 78611.300000
66.009900 50460.000000
115.030100 686085.700000
139.030200 420816.600000
151.006800 42208084.000000
167.036300 349393.900000
175.006900 165284.900000
176.002100 3025693.200000
203.013100 27653742.000000

>ms2peaks
64.006700 6468976.000000
65.014500 163063.300000
66.009800 83477.900000
80.001600 124656.100000
88.019200 61785.500000
89.014600 108264.200000
93.020700 102275.700000
115.030100 5078365.000000
139.030200 759072.100000
140.025500 87645.200000
151.006800 44900428.000000
167.036400 193694.300000
175.007000 79765.300000
176.002000 2508297.200000
203.013000 4559741.500000

>ms2peaks
64.006700 11548389.000000
65.014500 520470.500000
66.009800 67291.900000
80.001600 221258.200000
88.019300 307070.900000
89.014500 328961.000000
93.020700 128187.600000
112.019300 49349.200000
115.030100 11684981.000000
139.030200 482067.100000
140.025400 377519.500000
151.006800 26101052.000000
167.036600 49558.600000
176.002000 1308259.600000
203.012900 406726.600000

>ms2peaks
64.006700 15509173.000000
65.014500 1412974.900000
66.009800 68849.800000
74.003500 34738.500000
80.001600 296500.300000
88.019300 701833.200000
89.014500 466340.400000
93.020700 123580.800000
112.019400 70509.600000
115.030100 13475833.000000
139.030100 233990.400000
140.025400 565470.900000
151.006800 10150542.000000
176.002100 513309.800000

>ms2peaks
64.006700 15725743.000000
65.014500 2615955.200000
66.009800 46276.800000
74.003700 26905.700000
80.001600 323539.000000
88.019300 765157.000000
89.014500 439100.300000
93.020600 85335.600000
112.019300 77758.800000
115.030200 8393500.000000
139.030100 64018.800000
140.025400 419025.600000
151.006900 2532863.500000
176.002200 92144.700000

