>compound LU01062310
>parentmass 197.0204
>ionization [M-H]-
>formula C7H6N2O5
>rt 980.940000
>profile orbitrap
#smiles_iso CC1=CC(=CC(=C1O)[N+](=O)[O-])[N+](=O)[O-]
#smiles_can CC1=CC(=CC(=C1O)[N+](=O)[O-])[N+](=O)[O-]
#inchikey ZXVONLUNISGICL-UHFFFAOYSA-N
#pubchem_id 10800
#mb_accession LU023051,LU023052,LU023053,LU023054,LU023055,LU023056

>ms2
63.024100 26083.300000
64.019200 52567.100000
65.039600 32529.500000
93.034700 28377.900000
109.029500 201993.400000
137.024400 1243159.800000
138.019600 27679.500000
150.019600 26161.100000
151.027400 31282.500000
167.022400 1291395.600000
180.017700 846301.300000
197.020300 24914344.000000

>ms2
63.024100 49144.600000
64.019300 93504.300000
65.014500 30089.800000
65.039700 88106.200000
65.998600 25959.000000
81.034600 26560.300000
88.019200 49102.600000
93.034500 51139.300000
109.029500 470806.700000
122.024900 27836.100000
123.032700 31943.400000
137.024400 2471433.500000
138.019600 60302.200000
150.019300 67808.700000
151.027400 61829.600000
166.014400 58739.500000
167.022400 2055607.100000
180.017700 1728917.800000
197.020300 22250812.000000

>ms2
55.018900 7560.600000
63.011400 11775.600000
63.024000 68090.100000
64.019200 177412.500000
65.014500 47524.800000
65.039700 361419.500000
65.998500 59606.900000
66.034900 32173.400000
67.018900 28350.100000
68.014200 15937.300000
68.998100 26384.800000
69.034500 28682.400000
76.019300 13139.800000
78.035000 15467.400000
79.018900 17002.400000
80.026800 19686.300000
81.034600 109003.800000
82.029900 11675.600000
83.013900 7460.900000
88.019300 80193.800000
93.034600 191559.200000
94.029800 10392.000000
95.013900 22914.200000
105.022000 9059.700000
106.029800 11387.000000
109.029500 2288884.200000
110.024700 88162.000000
121.029500 162024.300000
122.024600 112393.000000
123.008600 17994.700000
123.032600 78577.100000
125.024200 16848.300000
134.024800 24151.500000
137.024400 4986605.000000
138.019600 322481.000000
139.027400 62512.200000
150.019600 625250.100000
151.027500 140176.200000
166.014500 205248.900000
167.022300 2162907.800000
180.017600 4000058.200000
183.016700 8072.800000
197.020300 7153461.500000

>ms2
55.018900 20704.900000
63.011500 7231.200000
63.024100 51161.200000
64.019300 207682.300000
65.014500 49558.700000
65.039700 620930.200000
65.998600 96716.400000
66.035000 37614.500000
67.018900 81012.800000
68.014200 13912.000000
68.998200 35791.300000
69.034600 30882.900000
76.019200 23977.400000
78.035000 17178.800000
79.018900 16707.400000
80.026700 37579.400000
81.034600 159435.900000
82.029800 10992.400000
88.019300 62293.400000
92.014100 8633.100000
93.034600 307769.100000
94.029800 15206.600000
95.013900 40243.100000
105.022400 6512.400000
106.029900 11706.400000
108.021800 32379.100000
109.029500 4071626.800000
110.024700 133601.600000
111.008900 6846.800000
121.029500 283867.700000
122.024700 297536.300000
123.008500 13615.900000
123.032600 185482.000000
125.011800 8809.800000
125.024300 11216.100000
134.024900 59876.000000
136.016700 12829.400000
137.024400 3362147.500000
138.019700 471637.800000
139.027500 167268.800000
150.019600 1503332.400000
151.027900 113400.200000
166.014600 263356.200000
167.022400 712690.700000
180.017700 3059108.200000
183.017300 8696.600000
197.020400 1179392.800000

>ms2
55.019000 24139.300000
63.011500 13618.400000
63.024000 54347.200000
64.019300 157758.700000
65.003300 29027.700000
65.014600 32952.400000
65.039700 515890.000000
65.998500 130650.800000
66.034900 51390.700000
67.018900 151317.500000
68.014300 15466.400000
68.998200 84561.600000
69.034700 19090.800000
75.024100 20575.100000
76.019300 11010.700000
78.035000 18971.400000
79.019100 7038.400000
80.026700 48127.900000
81.034600 124616.000000
82.030000 7368.700000
83.013900 8829.500000
88.019200 50438.400000
91.019100 7611.100000
92.014300 5408.200000
93.034600 272361.000000
94.029800 11891.900000
95.013800 33281.800000
96.009100 11250.100000
103.019000 19624.700000
106.029800 5955.900000
108.021700 65594.900000
109.029500 3488644.200000
110.024800 109288.700000
120.021900 7709.300000
121.029500 174958.200000
122.024800 421223.800000
123.008700 9211.400000
123.032600 131827.300000
125.012100 8168.300000
134.024700 79586.200000
136.016400 34938.900000
137.024400 1103422.200000
138.019700 385377.600000
139.027500 181822.000000
150.019600 1038755.700000
151.027600 22287.500000
166.014500 183875.000000
167.022400 118886.000000
180.017700 921815.500000
197.020400 110423.300000

>ms2
55.018900 45123.600000
63.011500 9648.500000
63.024000 59928.100000
64.019300 137136.900000
65.003300 41573.000000
65.014500 28017.600000
65.039700 397195.900000
65.998600 182023.900000
66.034900 45719.300000
67.019000 208709.000000
68.014300 11976.500000
68.998200 137049.500000
69.034600 9234.600000
75.024100 84548.600000
76.019400 17151.300000
78.035000 13147.200000
79.018900 12245.900000
80.026800 31339.100000
81.034600 77741.700000
88.019200 43082.500000
91.018900 15163.400000
92.014100 12206.600000
93.034600 224508.100000
94.029800 19450.900000
95.013800 30580.300000
96.009200 14991.400000
103.019000 21492.700000
105.021900 10745.800000
108.021700 131734.400000
109.029500 2463795.500000
110.024700 73657.900000
121.029500 70799.400000
122.024800 517257.400000
123.032700 78806.200000
134.024800 49901.600000
136.016400 37365.600000
137.024400 277326.200000
138.019700 260965.500000
139.027500 116475.000000
150.019600 353008.500000
166.014600 88645.900000
167.022300 18093.900000
180.017700 144160.400000
197.020800 13401.100000

