>compound LU01515679
>parentmass 322.106
>ionization [M-H]-
>formula C17H16F3NO2
>rt 1045.560000
>profile orbitrap
#smiles_iso CC(C)OC1=CC=CC(=C1)NC(=O)C2=CC=CC=C2C(F)(F)F
#smiles_can CC(C)OC1=CC=CC(=C1)NC(=O)C2=CC=CC=C2C(F)(F)F
#inchikey PTCGDEVVHUXTMP-UHFFFAOYSA-N
#pubchem_id 47898
#mb_accession LU117551,LU117552,LU117553,LU117554,LU117555,LU117556

>ms2
92.050400 12413.800000
134.024600 108658.500000
145.026900 2616064.200000
150.092300 12961.700000
176.071600 109986.800000
189.016800 112673.600000
238.051100 12411.500000
240.046500 115090.600000
260.052800 410263.500000
279.051000 26644.400000
280.058700 13281.300000
302.099200 22589.200000
322.105900 10029767.000000

>ms2
57.034400 18199.400000
68.995700 31306.700000
92.050500 40820.300000
118.029900 12977.600000
134.024700 565107.700000
145.026900 12553624.000000
176.071600 83781.000000
189.016800 544013.200000
212.051600 22609.400000
238.050700 18608.200000
240.046600 528914.800000
260.052800 420449.900000
279.051300 76716.100000
280.058800 37236.600000
302.099500 43665.900000
322.106000 1048429.600000

>ms2
68.995700 43860.300000
125.020600 13161.400000
134.024700 665257.900000
145.026900 10538589.000000
189.016800 536902.400000
192.045800 17049.300000
212.051700 28662.600000
220.040200 32282.500000
240.046600 355216.700000
260.053000 35168.700000

>ms2
68.995700 267336.600000
91.019000 16369.400000
105.014700 22345.300000
125.020800 82406.600000
134.024900 968623.200000
145.027100 9279423.000000
146.025000 23333.100000
148.020400 11460.800000
164.050600 10122.200000
189.017000 361220.100000
192.045700 44094.400000
210.036400 9933.100000
212.051900 55021.700000
220.040500 94706.100000
240.046900 189606.100000
258.037400 18611.500000

>ms2
57.034500 4553.900000
68.995800 809387.400000
75.024100 8845.300000
85.008500 5694.600000
91.018900 37413.500000
105.014600 88915.300000
118.030200 6001.500000
120.025300 7927.400000
125.020900 115388.200000
134.024800 693546.800000
145.027200 3880661.800000
146.024800 21497.200000
148.020300 7361.300000
164.050600 25945.100000
189.017100 165949.300000
192.045800 39061.700000
210.036300 19767.900000
212.052100 36608.400000
220.040400 51353.700000
240.047100 32038.000000
258.037900 10572.400000

>ms2
68.995800 1502660.900000
75.024100 22014.900000
85.008400 29396.700000
91.019000 59121.500000
105.014600 150167.800000
118.029700 4369.000000
120.025500 9170.300000
125.020900 94532.800000
134.024900 329633.400000
145.027200 1159902.400000
146.025000 8464.400000
164.050600 24439.500000
189.017000 39743.000000
192.045700 22625.800000
210.036200 25487.800000
212.052200 14251.300000
220.040800 14587.900000
240.047300 4244.800000

