>compound LU01884778
>parentmass 148.9526
>ionization [M-H]-
>formula CHF3O3S
>rt 215.160000
>profile orbitrap
#smiles_iso C(F)(F)(F)S(=O)(=O)O
#smiles_can C(F)(F)(F)S(=O)(=O)O
#inchikey ITMCEJHCFYSIIV-UHFFFAOYSA-N
#pubchem_id 62406
#mb_accession LU124551,LU124552,LU124553,LU124554,LU124555,LU124556

>ms2peaks
68.995500 20820.700000
79.957400 2412132.200000
82.960900 198830.500000
98.955800 217495.900000
148.952500 13307792.000000

>ms2peaks
68.995500 33453.200000
79.957400 3063301.800000
82.960900 268089.500000
98.955800 258081.400000
148.952500 16758547.000000

>ms2peaks
68.995600 58923.400000
79.957400 5193166.000000
82.960900 359119.200000
98.955800 489954.200000
148.952500 10436569.000000

>ms2peaks
68.995800 147312.200000
79.957400 7800606.000000
82.960900 387243.200000
84.990500 9557.700000
98.955800 817494.700000
148.952500 4217072.000000

>ms2peaks
68.995800 404541.900000
79.957400 14602385.000000
82.960900 368231.000000
98.955800 1709940.200000
148.952500 2105402.500000

>ms2peaks
68.995800 361315.700000
79.957400 11073641.000000
82.960800 154719.100000
98.955800 1386649.100000
148.952500 383558.700000

