>compound LU01740323
>parentmass 355.1122
>ionization [M-H]-
>formula C19H20N2O3S
>rt 815.840000
>profile orbitrap
#smiles_iso CCC1=CN=C(C=C1)CCOC2=CC=C(C=C2)CC3C(=O)NC(=O)S3
#smiles_can CCC1=CN=C(C=C1)CCOC2=CC=C(C=C2)CC3C(=O)NC(=O)S3
#inchikey HYAFETHFCAUJAY-UHFFFAOYSA-N
#pubchem_id 4829
#mb_accession LU028951,LU028952,LU028953,LU028954,LU028955,LU028956

>ms2peaks
284.111900 13779.800000
312.106500 141886.100000
355.112200 5174675.000000

>ms2peaks
284.111400 42244.500000
312.106400 214701.200000
355.112200 260323.100000

>ms2peaks
114.973400 9069.400000
117.034500 2713.800000
119.050200 33973.400000
121.029500 6166.500000
133.029600 1932.200000
145.029500 3870.200000
149.006600 4743.500000
150.014500 183527.200000
151.022400 10180.300000
160.041100 1901.000000
178.009400 50054.100000
193.020100 12223.500000
284.111600 3819.300000
312.106700 25410.400000

>ms2peaks
71.967600 4383.000000
114.973300 3560.700000
117.034600 22416.400000
119.050200 35123.900000
121.029700 8593.400000
133.029400 2018.300000
145.029500 5017.200000
149.006500 29374.300000
150.014500 160622.800000
151.022300 6855.600000
160.040500 2464.000000
178.009000 11281.600000
193.020500 4112.500000

>ms2peaks
56.980400 1957.200000
71.967600 3779.600000
116.026800 1926.800000
117.034600 73921.900000
119.050200 30062.900000
121.029500 5513.700000
145.029600 3951.000000
149.006700 50411.500000
150.014500 79029.700000
151.022300 2219.500000

>ms2peaks
56.980500 2185.700000
71.967500 2778.700000
116.026800 3494.900000
117.034600 100984.600000
119.050300 27223.700000
145.029700 2468.900000
149.006700 49273.200000
150.014500 31098.500000

