>compound LU02085222
>parentmass 239.06729999999996
>ionization [M-H]-
>formula C10H12N2O5
>rt 1131.680000
>profile orbitrap
#smiles_iso CC(C)(C)C1=C(C(=CC(=C1)[N+](=O)[O-])[N+](=O)[O-])O
#smiles_can CC(C)(C)C1=C(C(=CC(=C1)[N+](=O)[O-])[N+](=O)[O-])O
#inchikey IIPZYDQGBIWLBU-UHFFFAOYSA-N
#pubchem_id 14994
#mb_accession LU091551,LU091552,LU091553,LU091554,LU091555,LU091556

>ms2peaks
193.025000 157858.900000
194.045800 762930.700000
209.069100 129214.400000
210.027600 106115.500000
221.056400 105961.300000
222.064700 134789.600000
239.067200 52778928.000000

>ms2peaks
151.076200 102200.300000
179.071200 270806.700000
193.074200 77840.500000
194.045800 250174.700000
207.041100 1098651.600000
208.061400 68298.600000
209.069400 560603.900000
224.043800 275451.800000
239.067300 56987064.000000

>ms2peaks
107.086600 397540.400000
109.029500 32786.400000
123.008900 61572.600000
123.032600 170960.300000
135.081500 34626.300000
136.053100 38013.000000
148.040600 37836.700000
150.056000 303177.600000
151.027600 164129.900000
151.076400 1180945.000000
153.006900 60236.300000
164.071600 184172.900000
165.079400 56644.500000
166.014500 153955.800000
166.051000 172550.000000
176.035300 149238.900000
177.043200 100004.600000
178.051000 406876.200000
179.071400 1715512.000000
181.074600 29134.300000
192.066300 53661.900000
193.074500 115618.800000
194.045900 1003368.300000
206.032900 60319.100000
207.041100 10620913.000000
208.061400 565667.600000
209.069300 1756629.200000
223.036500 61881.300000
224.043900 924489.500000
239.067300 27831948.000000

>ms2peaks
55.018900 61966.200000
65.039700 56445.200000
65.998500 48310.200000
67.019000 29210.400000
80.026800 58017.400000
81.034600 56198.700000
81.071000 50974.900000
91.055300 350032.100000
93.034600 26854.700000
95.013800 39902.800000
95.050200 32128.300000
107.050200 68830.500000
107.086600 740228.800000
108.021600 35407.600000
109.029500 73533.000000
121.029600 32838.400000
123.008900 125674.000000
123.032500 782826.300000
123.045400 49896.400000
134.024900 30444.600000
135.045100 198417.400000
135.081600 54801.900000
136.053000 320763.800000
139.027600 45022.300000
147.045000 64828.400000
148.040100 85991.900000
149.048100 262434.900000
150.056000 1181810.000000
151.027500 485896.300000
151.076400 3146721.800000
155.022300 31169.500000
162.019700 147850.200000
162.068700 30068.200000
163.039900 102863.100000
164.035700 170692.000000
164.047500 96263.400000
164.071700 1218034.100000
165.079600 44388.700000
166.014600 226685.600000
166.051000 380684.100000
176.035300 981242.600000
177.043200 917222.600000
178.051000 1551703.000000
179.071300 1866079.400000
183.017400 50088.300000
192.030800 28039.100000
192.066700 262308.600000
193.025500 329380.300000
193.036400 30524.300000
193.074500 166491.500000
194.045800 1747921.600000
206.033500 53178.200000
207.041100 23515562.000000
208.061400 826925.800000
209.069200 952878.100000
223.036100 162574.700000
224.043900 492337.700000
239.067300 7017276.500000

>ms2peaks
55.018900 233497.500000
64.019300 20344.000000
65.003300 16640.400000
65.039600 163750.800000
65.998400 75780.800000
66.035000 42774.400000
67.018900 50629.400000
68.998200 53931.800000
77.039700 38712.100000
79.055300 57039.400000
80.026800 96693.900000
81.034600 63712.300000
81.071100 89468.000000
91.055300 945556.700000
93.034800 68617.700000
95.013900 52061.400000
95.050400 99587.900000
107.050200 197722.200000
107.086600 445349.800000
108.021700 128049.800000
108.045500 68354.700000
109.016900 34724.900000
109.029600 71660.800000
119.050200 46436.100000
121.029500 147857.300000
122.037400 24974.800000
123.008900 88386.900000
123.032600 817278.300000
123.045200 80618.300000
128.050500 19471.100000
131.050300 16092.200000
134.024700 242053.600000
135.045200 572737.800000
135.081600 28661.700000
136.053000 822048.300000
139.027500 96417.000000
146.025000 38778.400000
146.037500 29663.800000
147.045100 85838.900000
147.081800 14802.400000
148.040500 358548.000000
149.048200 2092235.400000
150.056000 2084581.600000
151.027600 324677.800000
151.076400 2372580.500000
155.022400 51019.100000
160.040200 95720.200000
162.019700 1154671.100000
163.027500 37833.000000
163.040100 307009.500000
164.035500 926699.700000
164.047200 160473.700000
164.071700 2043107.600000
166.014800 83949.000000
166.051000 168948.400000
168.043100 51599.000000
176.035300 4905338.500000
177.043100 2200723.500000
178.051000 1589764.900000
179.071400 494344.500000
180.030100 30155.800000
183.017100 37897.300000
192.030100 15940.900000
192.066800 232831.700000
193.025900 150168.300000
193.037200 122189.700000
193.074500 35387.700000
194.045900 836437.600000
207.041100 13837946.000000
208.061500 377934.200000
209.019700 19803.300000
209.069200 99111.000000
223.036300 120431.600000
224.043500 41538.000000
239.067400 533625.900000

>ms2peaks
55.018900 175182.900000
64.019300 22221.200000
65.003300 23649.600000
65.039700 119530.700000
65.998500 88831.300000
66.035000 23285.300000
67.019000 34841.100000
68.998100 71149.900000
77.039800 26254.800000
79.055300 45451.100000
80.026800 63477.800000
81.034700 38181.600000
81.071000 88432.900000
91.055300 630960.900000
93.034600 84016.200000
95.013900 81344.700000
95.050200 70240.900000
107.050300 121018.500000
107.086600 147625.200000
108.021700 101565.900000
108.045300 29408.600000
109.016900 48881.400000
109.029400 45877.500000
119.050200 98474.800000
121.029500 262159.900000
122.037300 24489.900000
123.032600 695120.100000
123.045200 56539.400000
125.011800 42913.700000
128.050400 83694.000000
131.050300 26002.000000
132.045400 130996.000000
134.024800 1064254.200000
135.032700 63970.800000
135.045200 527717.900000
136.053000 866621.800000
139.027500 60893.700000
146.024600 57420.400000
146.037300 213376.400000
146.060800 29775.800000
147.045300 132566.400000
147.081500 20951.700000
148.040500 2468230.500000
149.048200 4270913.500000
150.056000 1996162.100000
151.027400 194593.700000
151.076400 998224.800000
152.035500 17419.900000
155.022300 28855.300000
159.032500 24043.100000
160.040800 103644.900000
162.019700 2377197.200000
163.027400 33602.200000
163.040000 238074.900000
164.035400 1948495.500000
164.071700 1554892.500000
166.051100 27604.400000
168.042700 52368.700000
176.035300 9982984.000000
177.043100 1304214.500000
178.050900 827673.200000
179.071400 64937.500000
180.030400 31669.500000
192.066700 141943.800000
193.025600 43221.100000
193.037900 90540.700000
194.045700 231998.100000
207.041100 3286794.000000
208.061500 103488.800000
223.036300 67579.900000
239.067000 27588.200000

