>compound LU02720700
>parentmass 143.0502
>ionization [M-H]-
>formula C10H8O
>rt 1055.820000
>profile orbitrap
#smiles_iso C1=CC=C2C(=C1)C=CC=C2O
#smiles_can C1=CC=C2C(=C1)C=CC=C2O
#inchikey KJCVRFUGPWSIIH-UHFFFAOYSA-N
#pubchem_id 7005
#mb_accession LU113651,LU113652,LU113653,LU113654,LU113655,LU113656

>ms2
115.055300 38660.100000
143.050200 882860.100000

>ms2
115.055300 34321.500000
143.050200 722381.700000

>ms2
115.055300 23491.000000
143.050200 222288.300000

>ms2
115.055300 131215.300000
143.050200 403086.200000

>ms2
115.055300 256289.500000
143.050200 292447.800000

>ms2
115.055300 147825.700000
143.050300 73347.300000

