>compound LU03159640
>parentmass 482.2371
>ionization [M-H]-
>formula C28H37NO4S
>rt 940.620000
>profile orbitrap
#smiles_iso CC1=CC(=C(C=C1CO)C(C)(C)C)SC2=C(C[C@@](OC2=O)(CCC3=CC=C(C=C3)N)C(C)C)O
#smiles_can CC1=CC(=C(C=C1CO)C(C)(C)C)SC2=C(CC(OC2=O)(CCC3=CC=C(C=C3)N)C(C)C)O
#inchikey ZUBPKHVCBGWWGO-NDEPHWFRSA-N
#pubchem_id 54687772
#mb_accession LU041551,LU041552,LU041553,LU041554,LU041555,LU041556

>ms2
482.237000 7231378.000000

>ms2
71.967600 6588.100000
203.090000 27696.600000
209.100400 22461.200000
219.084700 10103.100000
221.100100 12014.200000
247.116100 7667.900000
249.095400 550856.900000
261.118600 3777.300000
291.106400 39879.200000
305.109100 105967.600000
482.236800 3631997.200000

>ms2
59.967500 28444.400000
63.962400 21083.300000
70.996100 4684.900000
71.967500 214886.200000
72.975400 3529.500000
85.065900 4111.200000
111.998700 3758.200000
113.978200 2661.000000
138.050900 4040.200000
141.037900 12166.600000
155.988700 2273.700000
162.092400 8763.300000
169.102000 4715.700000
188.066400 4802.300000
191.090000 21247.100000
203.090000 534107.600000
204.062000 2464.200000
205.069200 4690.700000
209.100500 42590.700000
218.064500 27656.000000
219.084800 156913.800000
221.027500 7569.900000
221.100600 82681.400000
231.084800 90931.200000
233.063100 2968.300000
247.079900 5029.700000
247.116100 15320.600000
249.095400 1667089.600000
251.038200 6467.100000
261.119500 8856.200000
291.106400 11450.200000
305.109000 229165.400000
482.236800 292409.800000

>ms2
59.967500 48660.400000
60.975300 2404.900000
63.962500 34362.400000
70.996100 14636.600000
71.967500 343907.200000
72.975300 10995.700000
85.065900 8479.000000
111.998800 14381.700000
113.043100 6644.300000
113.978100 2452.700000
135.027100 3646.200000
138.051000 4127.600000
141.038000 9901.800000
146.060800 2630.200000
155.988900 10363.300000
162.092600 11898.700000
163.022300 9592.500000
169.102600 2823.800000
173.042900 4547.700000
175.058400 2404.200000
186.051300 4203.500000
187.058900 4662.900000
188.066400 16166.200000
191.090000 25025.100000
203.090000 401113.100000
204.061500 5635.200000
205.068900 5267.100000
209.100300 7910.800000
215.053400 3136.700000
218.064500 11595.700000
219.084900 115916.800000
221.028000 15423.600000
221.100600 18368.900000
231.084800 79817.700000
233.063000 4573.500000
247.079800 6885.500000
249.095500 206629.500000
251.038200 5532.900000
305.108600 10527.300000
333.117700 2683.800000

>ms2
59.967500 25538.400000
63.962500 19975.900000
70.996100 11638.700000
71.967600 178984.600000
72.975300 5318.400000
85.065700 3058.400000
111.999000 8942.900000
113.043200 4529.300000
135.027300 2639.000000
141.037700 2454.800000
146.060900 3633.200000
155.988400 6024.900000
163.022400 2505.000000
173.042700 5984.800000
186.050500 2636.800000
187.058700 5671.600000
188.066500 8763.200000
191.090000 8700.700000
203.053500 7161.900000
203.090100 63367.000000
215.053700 8001.000000
219.084800 8734.500000
221.028300 3525.600000
231.085100 9126.600000
233.064100 5176.400000
249.096100 4661.100000

>ms2
59.967500 18054.000000
60.975200 2859.700000
63.962500 14310.200000
70.996100 11401.600000
71.967600 163553.300000
72.975400 5134.900000
85.065900 3322.200000
111.998800 4942.300000
135.027100 2646.700000
146.061200 2382.400000
155.989100 2877.200000
173.043200 8278.200000
175.059100 1875.200000
186.051000 3498.300000
187.058900 5851.300000
188.066800 2053.700000
203.053600 8350.200000
203.090200 12572.300000
215.053900 8015.800000

