>compound LU03761434
>parentmass 270.0918
>ionization [M-H]-
>formula C11H17N3O3S
>rt 807.120000
>profile orbitrap
#smiles_iso CCCCNC(=O)NS(=O)(=O)C1=CC=C(C=C1)N
#smiles_can CCCCNC(=O)NS(=O)(=O)C1=CC=C(C=C1)N
#inchikey VDTNNGKXZGSZIP-UHFFFAOYSA-N
#pubchem_id 9564
#mb_accession LU069851,LU069852,LU069853,LU069854,LU069855,LU069856

>ms2peaks
78.973500 7396.900000
79.981200 3704.000000
171.023500 1946498.000000
270.091900 766439.200000

>ms2peaks
78.973300 5816.800000
79.981000 4066.800000
171.023400 1684627.900000
270.091900 44690.300000

>ms2peaks
63.962400 11485.200000
77.965500 2869.000000
78.973000 8373.600000
79.981200 34086.500000
93.960500 5023.300000
107.061500 2823.300000
171.023500 953939.300000
187.075200 6591.900000

>ms2peaks
61.970600 15392.300000
63.962500 22757.800000
77.965600 11815.600000
78.973300 37523.200000
79.981200 88652.100000
80.965300 2109.300000
93.960400 14958.900000
107.061500 3422.100000
108.045500 5749.000000
171.023400 396482.300000
187.075000 4959.100000

>ms2peaks
61.970600 53988.600000
63.962400 44399.100000
77.965500 23627.900000
78.973400 78394.300000
79.981200 185148.100000
80.965300 7346.200000
93.960400 42155.500000
108.045500 9383.200000
171.023400 151841.800000

>ms2peaks
61.970600 86151.100000
63.962400 49118.100000
77.965500 24721.200000
78.973300 85517.000000
79.981200 128439.600000
80.965200 6987.300000
93.960400 51479.800000
108.045500 4250.200000
171.023400 24806.900000

