>compound LU03378834
>parentmass 219.03459999999998
>ionization [M-H]-
>formula C9H8N4OS
>rt 931.200000
>profile orbitrap
#smiles_iso C1=CC=C(C=C1)NC(=O)NC2=CN=NS2
#smiles_can C1=CC=C(C=C1)NC(=O)NC2=CN=NS2
#inchikey HFCYZXMHUIHAQI-UHFFFAOYSA-N
#pubchem_id 40087
#mb_accession LU045851,LU045852,LU045853,LU045854,LU045855,LU045856

>ms2
70.983500 123901.900000
71.991400 13941.600000
99.997600 1673045.500000

>ms2
70.983500 209651.100000
71.991400 18773.500000
99.997600 1327290.800000

>ms2
70.983600 433240.500000
71.991400 23564.800000
85.970800 1740.800000
99.997600 791965.400000

>ms2
57.975600 2587.000000
70.983500 630336.200000
71.991300 18078.400000
85.970300 1699.900000
92.050400 2645.100000
99.997500 381204.400000

>ms2
57.975700 2702.500000
70.983500 774606.600000
71.991400 10986.600000
92.050700 4616.800000
99.997600 176006.000000

>ms2
57.975700 7004.300000
70.983500 1084762.600000
71.991400 9113.900000
92.050700 12265.800000
99.997600 88961.600000

