>compound LU03852195
>parentmass 138.01970000000003
>ionization [M-H]-
>formula C6H5NO3
>rt 832.260000
>profile orbitrap
#smiles_iso C1=CC(=CC=C1[N+](=O)[O-])O
#smiles_can C1=CC(=CC=C1[N+](=O)[O-])O
#inchikey BTJIUGUIPKRLHP-UHFFFAOYSA-N
#pubchem_id 980
#mb_accession LU098251,LU098252,LU098253,LU098254,LU098255,LU098256,LU120251,LU120252,LU120253,LU120254,LU120255,LU120256

>ms2peaks
92.026700 49425.100000
108.021700 11212314.000000
138.019600 19253724.000000

>ms2peaks
92.026800 27238.900000
95.013800 18042.800000
108.021700 8213920.000000
138.019700 14057430.000000

>ms2peaks
92.026700 60983.200000
95.013900 41815.700000
108.021700 12267305.000000
122.025100 15989.800000
138.019600 11658661.000000

>ms2peaks
91.019000 15435.500000
92.026800 174030.400000
95.013800 107753.200000
108.021700 15293685.000000
123.008700 18362.400000
138.019700 6116999.000000

>ms2peaks
82.006000 17078.300000
91.018900 16050.300000
92.026800 218970.000000
95.013900 157597.500000
108.021700 10227982.000000
123.008900 20425.600000
138.019700 1886388.100000

>ms2peaks
82.006000 9308.400000
92.026800 130822.600000
95.013900 109240.200000
108.021700 3592087.800000
123.008900 9435.100000
138.019700 306990.300000

>ms2peaks
95.013800 17352.100000
108.021700 8143086.500000
138.019700 13295994.000000

>ms2peaks
95.013800 15449.200000
108.021700 7372830.000000
138.019600 12043891.000000

>ms2peaks
92.026800 32023.300000
95.013700 39901.800000
108.021700 12221718.000000
138.019600 11322595.000000

>ms2peaks
91.019000 10507.500000
92.026800 25986.600000
95.013900 76329.300000
108.021700 10116602.000000
123.008600 13521.100000
138.019700 3872632.500000

>ms2peaks
82.006100 11919.300000
91.018900 13198.900000
92.026800 50804.700000
95.013900 139694.500000
108.021700 8566972.000000
123.008700 16237.400000
138.019600 1547899.200000

>ms2peaks
82.006000 9772.400000
91.019100 7396.400000
92.026800 19891.600000
95.013900 121012.100000
106.006200 6316.500000
108.021700 3564653.000000
122.024700 8145.800000
123.008800 13757.900000
138.019600 315802.000000

