>compound LU03346273
>parentmass 205.0362
>ionization [M-H]-
>formula C8H14O2S2
>rt 999.900000
>profile orbitrap
#smiles_iso C1CSSC1CCCCC(=O)O
#smiles_can C1CSSC1CCCCC(=O)O
#inchikey AGBQKNBQESQNJD-UHFFFAOYSA-N
#pubchem_id 864
#mb_accession LU101551,LU101552,LU101553,LU101554,LU101555,LU101556

>ms2
64.952500 10008.400000
93.071100 5953.700000
127.058900 6825.600000
171.048600 14328.700000

>ms2
63.944700 4490.700000
64.952500 15784.200000
93.071000 7023.800000
127.058900 8575.700000
171.048500 12096.200000

>ms2
63.944700 8601.200000
64.952500 21311.600000
93.070900 2933.000000
127.058600 2622.300000

>ms2
63.944700 5326.200000
64.952500 13215.200000

>ms2
63.944700 11748.600000
64.952500 19913.700000

>ms2
63.944700 9853.300000
64.952500 17661.700000

