>compound LU04416732
>parentmass 277.0354
>ionization [M-H]-
>formula C13H10O7
>rt 684.840000
>profile orbitrap
#smiles_iso C1=CC(=C(C(=C1C(=O)C2=CC(=C(C(=C2)O)O)O)O)O)O
#smiles_can C1=CC(=C(C(=C1C(=O)C2=CC(=C(C(=C2)O)O)O)O)O)O
#inchikey XEDWWPGWIXPVRQ-UHFFFAOYSA-N
#pubchem_id 40399
#mb_accession LU044051,LU044052,LU044053,LU044054,LU044055,LU044056

>ms2peaks
125.024400 165966.000000
151.003700 233065.500000
169.014300 158979.200000
277.035400 182419.400000

>ms2peaks
69.034700 1619.700000
95.014200 2068.900000
107.013800 21330.600000
123.008900 10451.900000
125.024400 367735.900000
151.003700 263591.400000
169.014300 169498.000000
277.036200 10563.700000

>ms2peaks
67.018800 1869.800000
69.034500 4909.700000
95.013900 10140.900000
97.029500 4264.600000
107.013800 69297.300000
123.008800 57575.000000
124.016500 2066.100000
125.024400 410667.400000
151.003600 133180.700000
169.014200 45830.700000

>ms2peaks
67.018900 3440.000000
69.034600 15193.600000
79.018900 2893.000000
81.034600 3173.900000
95.013900 28251.800000
97.029500 14599.100000
107.013800 66252.800000
123.008800 91463.800000
124.016400 3699.300000
125.024400 392511.400000
151.003700 36785.900000
169.014200 6663.600000

>ms2peaks
53.003400 1906.500000
67.018900 8998.500000
68.998000 2052.200000
69.034600 31467.400000
79.019000 2855.900000
81.034600 7024.400000
95.013800 30928.700000
97.029500 27415.300000
107.013900 33624.800000
123.008800 61037.600000
124.016600 6678.000000
125.024400 265319.800000
151.003500 5589.000000

>ms2peaks
53.003200 1966.500000
67.018900 17955.500000
68.998200 3871.200000
69.034600 60635.300000
79.019100 10953.800000
81.034600 8825.400000
95.013900 36635.300000
97.029600 40988.300000
107.013900 25224.900000
123.008800 42063.700000
124.016600 23585.300000
125.024400 217862.500000
151.003500 2125.500000

