>compound LU04252670
>parentmass 163.0765
>ionization [M-H]-
>formula C10H12O2
>rt 993.840000
>profile orbitrap
#smiles_iso CC1=CC(=C(C(=C1)C)C(=O)O)C
#smiles_can CC1=CC(=C(C(=C1)C)C(=O)O)C
#inchikey FFFIRKXTFQCCKJ-UHFFFAOYSA-N
#pubchem_id 10194
#mb_accession LU036251,LU036252,LU036253,LU036254,LU036255

>ms2peaks
106.042500 3547.200000
119.086600 1250909.100000
121.066100 5529.300000
163.076500 572223.800000

>ms2peaks
119.086600 1458503.400000
121.065900 5982.700000
136.053100 1759.500000
163.076500 710765.600000

>ms2peaks
91.019100 2417.300000
106.042500 1937.700000
119.086600 599393.900000
121.066000 2779.500000
136.052900 2078.600000
163.076400 93641.000000

>ms2peaks
119.086600 127746.300000
163.076500 13622.700000

>ms2peaks
91.018900 1551.000000
119.086600 21591.300000

