>compound LU04777909
>parentmass 152.0118
>ionization [M-H]-
>formula C3H8NO4P
>rt 131.940000
>profile orbitrap
#smiles_iso CCOP(=O)(C(=O)N)O
#smiles_can CCOP(=O)(C(=O)N)O
#inchikey UCHDFLNGIZUADY-UHFFFAOYSA-N
#pubchem_id 33257
#mb_accession LU072351,LU072352,LU072353,LU072354,LU072355,LU072356

>ms2peaks
62.964100 942691.900000
78.959100 5868.000000
80.974700 117791.900000
105.970300 2369.300000
109.006000 262913.700000
152.011900 27571.300000

>ms2peaks
62.964100 980706.100000
78.959000 2815.800000
80.974700 119553.500000
105.970100 3644.000000
109.006000 270281.400000
152.011800 27657.200000

>ms2peaks
62.964200 837616.800000
78.959100 3966.100000
80.974700 111521.400000
109.006000 85305.500000
152.011700 2240.900000

>ms2peaks
62.964100 1257200.000000
78.959000 13861.500000
80.974700 151538.000000
109.006000 33681.500000

>ms2peaks
62.964200 1079764.600000
78.959000 17938.100000
80.974700 87712.900000
109.005800 5869.200000

>ms2peaks
62.964100 1329635.900000
78.959100 33364.700000
80.974700 71064.500000
109.005900 2267.100000

