>compound LU05159120
>parentmass 237.067
>ionization [M-H]-
>formula C14H10N2O2
>rt 987.480000
>profile orbitrap
#smiles_iso C1=CC=C2C(=C1)C(=O)C3=C(C=CC(=C3C2=O)N)N
#smiles_can C1=CC=C2C(=C1)C(=O)C3=C(C=CC(=C3C2=O)N)N
#inchikey FBMQNRKSAWNXBT-UHFFFAOYSA-N
#pubchem_id 31420
#mb_accession LU053051,LU053052,LU053053,LU053054,LU053055,LU053056

>ms2peaks
237.067000 248787.300000

>ms2peaks
237.067100 230041.200000

>ms2peaks
196.040800 1929.400000
209.048300 4115.000000
210.056100 5966.000000
220.040300 2677.100000
236.058900 3829.900000
237.067000 155193.900000

>ms2peaks
196.040400 6770.000000
209.048300 8376.200000
210.055900 9018.200000
220.040400 4535.300000
236.059400 5678.800000
237.066900 34264.000000

>ms2peaks
196.040500 7458.400000
208.040400 1902.300000
209.048300 13417.600000
210.056400 5803.300000
220.040300 5602.400000
236.059900 3148.200000
237.067100 4547.900000

>ms2peaks
196.040400 3756.100000
208.040500 3312.100000
209.048400 6577.000000
220.040800 4433.600000

