>compound LU05968995
>parentmass 254.0145
>ionization [M-H]-
>formula C12H11Cl2NO
>rt 1065.360000
>profile orbitrap
#smiles_iso CC(C)(C#C)NC(=O)C1=CC(=CC(=C1)Cl)Cl
#smiles_can CC(C)(C#C)NC(=O)C1=CC(=CC(=C1)Cl)Cl
#inchikey PHNUZKMIPFFYSO-UHFFFAOYSA-N
#pubchem_id 32154
#mb_accession LU123451,LU123452,LU123453,LU123454,LU123455,LU123456

>ms2
144.961700 194585.300000
186.972300 34380.300000
212.975200 21104.400000
227.998900 1976622.100000
254.014700 1160918.800000

>ms2
144.961700 640503.700000
186.972300 113118.400000
212.975300 74702.500000
227.998900 1416550.800000
254.014600 137131.900000

>ms2
63.024000 22328.200000
65.003200 12645.600000
83.013700 1929.500000
107.013900 15987.100000
143.050400 11242.100000
144.961700 932416.800000
186.972300 116976.100000
212.975300 89975.000000
227.998900 319166.600000

>ms2
63.024000 18900.900000
65.003200 5744.000000
101.039800 2158.000000
107.013900 4344.000000
143.050400 6822.700000
144.961700 249502.800000
186.972300 26453.100000
212.975400 10976.800000
227.998800 13168.900000

>ms2
63.024000 250646.000000
65.003300 128471.000000
83.013800 7645.400000
89.003300 15198.800000
101.039700 18288.400000
107.013800 30282.300000
115.055300 9260.300000
119.050200 40146.400000
143.050200 44190.400000
144.961700 27534.900000
145.029500 31581.700000
186.972600 2584.900000

>ms2
63.024000 40329.600000
65.003300 35644.000000
89.003200 2486.500000
101.039700 4602.800000
107.013800 3026.300000
115.055300 1482.000000
119.050000 3343.500000
144.961900 2796.800000
145.029300 4009.700000

