>compound LU05124038
>parentmass 184.9914
>ionization [M-H]-
>formula C7H6O4S
>rt 530.060000
>profile orbitrap
#smiles_iso C1=CC=C(C(=C1)C=O)S(=O)(=O)O
#smiles_can C1=CC=C(C(=C1)C=O)S(=O)(=O)O
#inchikey SHHKMWMIKILKQW-UHFFFAOYSA-N
#pubchem_id 7049
#mb_accession LU076651,LU076652,LU076653,LU076654,LU076655,LU076656

>ms2
79.957000 82712.600000
93.034600 187007.000000
121.029500 130630.300000
156.996500 886998.500000
184.991300 5272421.500000

>ms2
79.957100 128602.300000
93.034600 296710.700000
121.029400 172057.300000
156.996400 1220724.900000
184.991300 4808449.500000

>ms2
79.957400 580450.700000
80.965000 3198.400000
93.034600 1031950.900000
121.029500 202529.000000
156.996500 1543144.100000
184.991400 1374013.900000

>ms2
65.039700 11914.500000
79.957300 2040500.400000
80.965100 12048.300000
93.034600 2329933.200000
121.029500 148069.300000
156.996400 1281968.400000
184.991300 415211.700000

>ms2
65.039700 42302.700000
79.957300 3294500.500000
80.965100 24716.700000
93.034600 2357135.800000
121.029500 49253.200000
156.996400 421100.000000
184.991400 60400.000000

>ms2
65.039700 59979.400000
79.957400 2466232.200000
80.965100 25938.200000
93.034600 1225178.500000
121.029400 6145.000000
156.996500 64521.000000
184.991800 3279.200000

