>compound LU05316710
>parentmass 135.0452
>ionization [M-H]-
>formula C8H8O2
>rt 747.060000
>profile orbitrap
#smiles_iso CC(=O)C1=CC=C(C=C1)O
#smiles_can CC(=O)C1=CC=C(C=C1)O
#inchikey TXFPEBPIARQUIG-UHFFFAOYSA-N
#pubchem_id 7469
#mb_accession LU021451,LU021452,LU021453,LU021454,LU021455,LU021456

>ms2
92.026700 46353.800000
93.034600 2589597.500000
95.013800 139173.400000
108.021700 961758.200000
117.034500 11943.100000
120.021700 57076.200000
135.045100 7099518.500000

>ms2
82.006000 7567.000000
92.026700 47410.900000
93.034600 2585557.500000
95.013900 129967.800000
108.021700 956311.200000
117.034700 12444.800000
120.021600 53741.800000
135.045200 6948338.500000

>ms2
68.998200 6938.900000
69.034700 6440.900000
82.006100 11054.000000
92.026700 65746.400000
93.034600 3051972.800000
95.013800 242175.500000
97.029700 5139.100000
106.006100 12884.100000
108.021700 1257352.600000
117.034600 19136.700000
120.021700 59279.000000
135.045100 5008108.500000

>ms2
65.039700 11835.500000
67.019000 6042.300000
68.998200 16981.000000
69.034600 14174.300000
70.006100 7026.100000
71.014000 9558.200000
79.018900 7031.500000
79.990400 3655.200000
82.006000 29605.700000
92.026800 117652.900000
93.034600 3239967.500000
95.013900 597840.600000
97.029500 9005.300000
106.006000 31200.400000
107.014100 4435.000000
108.021700 1549314.200000
117.034700 35026.600000
120.021600 43805.300000
135.045200 2150684.500000

>ms2
53.003200 3799.900000
65.003300 3904.900000
65.039700 32017.200000
67.019100 7591.100000
68.998200 18647.600000
69.034700 24192.700000
70.006100 5170.600000
71.013800 13427.300000
79.019000 9505.700000
79.990400 7814.600000
80.998400 3596.600000
82.006100 42215.000000
92.026800 158366.100000
93.034600 2603483.200000
95.013900 849003.400000
97.029600 8631.400000
106.006000 44644.400000
107.013900 5663.100000
108.021700 1341804.000000
117.034700 44946.600000
120.021700 30832.000000
135.045200 637848.800000

>ms2
53.003300 4302.100000
65.003300 4046.000000
65.039700 74680.300000
67.019000 8780.900000
68.998300 25778.600000
69.034600 25339.100000
70.006000 5044.200000
71.013800 17887.600000
79.019000 10692.200000
79.990500 14642.700000
80.998200 10825.200000
82.006100 37173.600000
92.026800 161788.500000
93.034600 1892405.200000
95.013900 929422.900000
97.029500 16560.700000
106.006000 49885.900000
107.013900 8639.700000
108.021700 1073431.400000
117.034600 41029.300000
120.021700 11700.500000
135.045200 180143.100000

