>compound LU05583878
>parentmass 183.05639999999997
>ionization [M-H]-
>formula C11H8N2O
>rt 1065.370000
>profile orbitrap
#smiles_iso C1=CC=C2C(=C1)NC(=N2)C3=CC=CO3
#smiles_can C1=CC=C2C(=C1)NC(=N2)C3=CC=CO3
#inchikey UYJUZNLFJAWNEZ-UHFFFAOYSA-N
#pubchem_id 19756
#mb_accession LU127551,LU127552,LU127553,LU127554,LU127555,LU127556

>ms2
167.026700 24839.800000
168.034100 11676.600000
183.058100 8829811.000000

>ms2
167.027000 32816.600000
168.034800 19754.000000
183.058100 9034977.000000

>ms2
141.011400 7763.200000
167.027000 43716.500000
168.034600 26864.200000
181.042700 16224.100000
183.058100 4824176.500000

>ms2
107.050400 4195.200000
141.011200 7553.600000
167.026700 24434.900000
168.034500 8230.300000
181.042600 14509.600000
183.058200 1267610.400000

>ms2
107.050400 3719.400000
141.011000 2514.100000
167.027000 10210.700000
181.042500 6415.600000
183.058200 179500.000000

>ms2
117.045700 2499.000000
154.053700 28129.500000
155.061500 33512.800000

