>compound LU05476551
>parentmass 171.0121
>ionization [M-H]-
>formula C7H8O3S
>rt 612.540000
>profile orbitrap
#smiles_iso CC1=CC=C(C=C1)S(=O)(=O)O
#smiles_can CC1=CC=C(C=C1)S(=O)(=O)O
#inchikey JOXIMZWYDAKGHI-UHFFFAOYSA-N
#pubchem_id 6101
#mb_accession LU033751,LU033752,LU033753,LU033754,LU033755,LU033756

>ms2
79.957200 156327.400000
107.050200 250328.900000
171.012100 5975004.500000

>ms2
79.957200 280635.500000
107.050200 417436.600000
171.012100 9461992.000000

>ms2
79.957300 1540824.600000
80.965100 12761.700000
107.050200 1645666.900000
171.012100 5993451.500000

>ms2
79.957400 4424224.000000
80.965100 41221.700000
95.050100 5358.600000
106.042400 37173.900000
107.050200 2832143.500000
108.021700 14367.200000
123.045300 39756.700000
138.032200 5850.800000
171.012100 3220131.500000

>ms2
79.957300 6698526.000000
80.965100 63978.600000
95.050200 31171.200000
106.042400 76469.600000
107.050200 2266321.000000
108.021700 28196.300000
123.045200 97659.100000
138.032300 16721.500000
171.012100 923095.700000

>ms2
79.957300 6059691.500000
80.965100 68189.800000
95.050200 41319.800000
106.042400 76833.600000
107.050200 1047024.900000
108.021700 29178.300000
123.045100 90537.400000
138.032100 10509.400000
171.012100 153257.800000

