>compound LU05664266
>parentmass 145.052
>ionization [M-H]-
>formula C7H6N4
>rt 793.860000
>profile orbitrap
#smiles_iso C1=CC=C(C=C1)C2=NNN=N2
#smiles_can C1=CC=C(C=C1)C2=NNN=N2
#inchikey MARUHZGHZWCEQU-UHFFFAOYSA-N
#pubchem_id 87425
#mb_accession LU077251,LU077252,LU077253,LU077254,LU077255,LU077256

>ms2
89.039700 62128.000000
117.045800 161900.800000
145.052100 16190.700000

>ms2
89.039700 63462.900000
117.045800 170946.200000
145.052000 15837.200000

>ms2
89.039700 84843.500000
117.045900 127144.400000
145.052100 7979.400000

>ms2
89.039700 58563.800000
117.045800 46736.500000

>ms2
89.039700 26855.600000
117.045800 13709.100000

>ms2
89.039600 6367.600000
117.045800 2494.700000

