>compound LU05781104
>parentmass 249.17070000000004
>ionization [M-H]-
>formula C12H26O5
>rt 808.200000
>profile orbitrap
#smiles_iso CCC(CO)(CO)COCC(CC)(CO)CO
#smiles_can CCC(CO)(CO)COCC(CC)(CO)CO
#inchikey WMYINDVYGQKYMI-UHFFFAOYSA-N
#pubchem_id 90038
#mb_accession LU043951,LU043952,LU043953,LU043954,LU043955,LU043956

>ms2
101.060800 1753.000000
133.087000 51890.300000
249.171000 22942.800000

>ms2
101.060800 13020.300000
133.087100 65316.500000
249.171100 3748.800000

>ms2
83.050200 5559.800000
101.060900 20410.300000
133.087000 35593.900000

>ms2
83.050300 6543.500000
101.060700 10436.000000
133.086900 8481.100000

>ms2
83.050200 4458.300000
101.060900 2217.400000

>ms2
83.050100 2021.600000

