>compound LU06778552
>parentmass 329.0254
>ionization [M-H]-
>formula C17H12Cl2N2O
>rt 1081.872000
>profile orbitrap
#smiles_iso C1=CC=C(C(=C1)C(C2=CC=C(C=C2)Cl)(C3=CN=CN=C3)O)Cl
#smiles_can C1=CC=C(C(=C1)C(C2=CC=C(C=C2)Cl)(C3=CN=CN=C3)O)Cl
#inchikey NHOWDZOIZKMVAI-UHFFFAOYSA-N
#pubchem_id 43226
#mb_accession LU108751,LU108752,LU108753,LU108754,LU108755

>ms2peaks
79.030100 8737.400000
111.000500 6260.600000
216.009500 5945.800000
217.017300 134594.100000
293.048500 2435.600000
329.025500 304581.300000

>ms2peaks
79.030100 11329.500000
111.000600 4110.800000
216.009500 29535.600000
217.017300 41193.200000
293.049500 3266.000000
329.025700 19207.400000

>ms2peaks
79.030200 12695.600000
111.081700 3673.000000
121.029500 19461.600000
216.009500 15577.900000
217.017600 4085.900000

>ms2peaks
79.030100 7999.500000
121.029400 8746.600000
216.009300 3768.300000

>ms2peaks
79.030200 4145.300000
121.029500 1719.100000

