>compound LU06516776
>parentmass 310.1231
>ionization [M-H]-
>formula C14H21N3O3S
>rt 968.400000
>profile orbitrap
#smiles_iso CC1=CC=C(C=C1)S(=O)(=O)NC(=O)NN2CCCCCC2
#smiles_can CC1=CC=C(C=C1)S(=O)(=O)NC(=O)NN2CCCCCC2
#inchikey OUDSBRTVNLOZBN-UHFFFAOYSA-N
#pubchem_id 5503
#mb_accession LU027251,LU027252,LU027254,LU027255,LU027256

>ms2peaks
78.973400 10540.000000
79.981000 3277.400000
170.028100 2823386.000000
310.123100 2801968.500000

>ms2peaks
78.973300 32825.400000
79.981200 8653.700000
106.066200 66444.900000
170.028100 6918453.000000
310.123000 219816.800000

>ms2peaks
61.970600 72088.100000
63.962400 66355.800000
77.965600 44109.200000
78.973300 158973.800000
79.981200 415918.500000
80.965200 9311.000000
93.960400 73825.500000
105.058300 6532.200000
106.066200 2515376.800000
107.050200 57115.900000
122.061200 46657.900000
150.056000 19990.400000
155.017100 4268.400000
170.028100 3439697.200000

>ms2peaks
61.970600 262188.700000
63.962400 150588.400000
77.965500 115339.100000
78.973300 416252.800000
79.981200 857282.900000
80.965200 32701.100000
93.960400 232675.400000
104.050500 8136.800000
105.058400 4279.700000
106.066200 2742364.200000
107.050200 90097.800000
122.061100 126719.700000
150.056100 24919.400000
170.028100 1119827.100000

>ms2peaks
61.970600 12463.400000
63.962500 7558.800000
77.965500 4794.900000
78.973400 15800.700000
79.981200 22688.400000
80.965400 1604.400000
93.960500 7458.200000
106.066200 39628.200000
107.050300 2211.100000
122.061300 3785.200000
170.028300 6476.600000

