>compound LU06841357
>parentmass 229.0506
>ionization [M-H]-
>formula C13H10O4
>rt 920.760000
>profile orbitrap
#smiles_iso C1=CC(=CC=C1C(=O)C2=C(C=C(C=C2)O)O)O
#smiles_can C1=CC(=CC=C1C(=O)C2=C(C=C(C=C2)O)O)O
#inchikey OKJFKPFBSPZTAH-UHFFFAOYSA-N
#pubchem_id 73852
#mb_accession LU077851,LU077852,LU077853,LU077854,LU077855,LU077856

>ms2
91.018900 246542.200000
93.034600 1796461.200000
109.029400 88244.900000
135.008800 5738338.000000
153.019300 1734837.100000
185.060700 78244.400000
229.050500 11917328.000000

>ms2
65.003200 10179.200000
91.018900 1106556.000000
93.034600 4015493.000000
109.029500 356012.500000
117.034600 24598.800000
135.008800 8068282.000000
143.050400 9120.800000
153.019300 2203828.500000
157.065700 12909.100000
184.053200 11746.400000
185.060700 339011.200000
187.040000 16224.400000
229.050500 8497999.000000

>ms2
65.003100 35822.400000
65.039600 29742.000000
67.018900 14703.400000
89.040000 8667.100000
91.019000 5222545.000000
93.034600 6363746.500000
107.013600 27651.300000
109.029500 627471.200000
117.034600 211581.000000
135.008800 6353225.000000
137.024200 12449.200000
141.070900 15739.200000
143.050200 62298.300000
145.029500 11899.600000
153.019300 1577119.000000
156.058300 24236.400000
157.065900 57533.400000
159.044700 22820.200000
167.050600 9027.100000
183.044800 15434.200000
184.052900 70362.200000
185.060700 710667.400000
187.039800 76156.800000
229.050500 2060365.000000

>ms2
63.024000 13611.700000
65.003300 160411.300000
65.039700 75388.000000
67.018900 45097.400000
89.039700 13379.000000
91.019000 7645727.000000
93.034600 6860058.000000
107.013800 49285.200000
108.021700 15608.100000
109.029500 267869.100000
115.055800 8977.000000
117.034600 345353.300000
135.008800 2564248.800000
137.024600 14333.600000
141.070900 18091.600000
143.050200 92127.400000
145.029700 30479.800000
153.019400 582131.000000
156.058300 52526.500000
157.065700 49944.400000
158.037000 9767.900000
159.044900 35513.200000
183.045200 36864.700000
184.053000 81562.600000
185.060700 272567.000000
187.039900 52401.600000
229.050600 186842.500000

>ms2
63.024000 37421.100000
65.003300 532264.400000
65.039700 153046.600000
67.018900 85252.000000
69.034700 10045.600000
79.018800 12223.200000
89.039800 21093.100000
91.019000 7060969.000000
93.034500 7623472.000000
97.029600 9410.400000
107.013800 99905.000000
108.021600 17196.600000
109.029400 97793.200000
115.055300 15221.500000
117.034600 351999.500000
135.008800 726071.600000
143.050200 77419.000000
145.029700 39736.600000
153.019300 154484.100000
156.058100 48262.900000
157.065700 17147.800000
158.037200 15014.800000
159.045200 25793.400000
183.045200 32407.400000
184.052900 34148.000000
185.060700 39992.400000
187.040100 12738.900000

>ms2
63.024000 81531.800000
65.003300 937191.800000
65.039700 250569.700000
67.018900 99750.600000
69.034600 12617.700000
75.023900 15001.300000
79.018900 18055.500000
89.039800 27699.800000
91.019000 4544531.000000
93.034600 7572472.000000
97.029600 8896.800000
107.013800 82182.300000
108.021600 15081.500000
109.029500 29959.500000
115.055300 10100.600000
117.034600 324985.200000
135.008800 152137.200000
141.034700 13595.800000
143.050200 58326.800000
145.029700 32945.200000
153.019400 27287.400000
156.058100 19458.200000
158.037300 11046.300000
159.044900 10538.700000
183.045100 22647.000000
184.053200 10198.200000

