>compound LU06215525
>parentmass 292.0979
>ionization [M-H]-
>formula C18H15NO3
>rt 1099.380000
>profile orbitrap
#smiles_iso COC1=CC=CC=C1NC(=O)C2=CC3=CC=CC=C3C=C2O
#smiles_can COC1=CC=CC=C1NC(=O)C2=CC3=CC=CC=C3C=C2O
#inchikey AQYMRQUYPFCXDM-UHFFFAOYSA-N
#pubchem_id 67274
#mb_accession LU064951,LU064952,LU064953,LU064954,LU064955,LU064956

>ms2peaks
107.038100 27290.300000
134.024700 98112.300000
143.049800 99502.000000
260.071800 115002.800000
277.074400 1237830.100000
291.092400 24955.600000
292.098000 22124564.000000

>ms2peaks
107.037600 381079.500000
114.047800 15819.600000
122.061100 13450.600000
130.042300 30452.400000
134.024800 3200797.200000
142.042200 11303.100000
143.050200 1146094.000000
158.037600 16635.200000
159.045300 12227.900000
168.045200 29298.500000
216.081800 14447.300000
218.061100 26223.600000
232.076500 70291.600000
233.061300 60478.000000
233.084600 23402.500000
234.068800 26842.500000
249.079500 120744.400000
260.071700 673842.100000
274.088200 23220.400000
276.066600 329351.500000
277.074400 8917249.000000
278.082100 20139.300000
292.098200 10749621.000000

>ms2peaks
106.042500 17087.600000
107.037700 5137985.500000
108.021700 34904.500000
115.055300 36088.400000
122.060900 30476.700000
130.042400 161809.900000
134.024700 11943818.000000
141.071000 48091.500000
142.042400 31614.000000
143.050200 3042971.200000
158.037300 100194.400000
159.045000 91538.000000
168.045400 152286.400000
216.081800 35027.500000
218.060900 25711.300000
232.076800 250179.600000
233.060800 264972.900000
233.084200 19888.900000
234.068300 36033.700000
248.071700 36093.200000
249.079400 211535.800000
260.071600 594671.000000
274.087400 18807.600000
276.066500 1034154.400000
277.074400 3606065.500000
292.097500 649643.200000

>ms2peaks
90.035000 14038.600000
91.018900 10732.100000
93.034600 24386.700000
106.042600 18548.700000
107.037600 10275548.000000
108.021700 32916.600000
115.055300 317769.800000
117.034800 16533.500000
118.029800 52527.800000
119.050200 13576.000000
122.061000 17586.300000
130.042400 125118.100000
134.024700 10481538.000000
141.070800 48272.400000
142.042500 45087.300000
143.050200 3591370.000000
145.029300 19338.900000
158.037200 60886.400000
159.045100 77458.400000
168.045400 200290.700000
184.040300 19980.900000
216.081400 36155.300000
218.061600 10884.600000
232.076900 179957.600000
233.060800 194138.300000
248.072200 49468.100000
249.079300 46719.400000
260.071600 186685.300000
276.066500 570133.600000
277.074400 176649.100000

>ms2peaks
78.034900 20631.000000
90.035100 8916.000000
91.019000 17184.400000
93.034500 26956.500000
107.037700 7524048.500000
108.021700 30535.900000
114.047600 9901.200000
115.055300 886128.200000
117.034600 39089.900000
118.029900 44889.500000
122.061100 12056.600000
130.042400 99620.600000
134.024800 6918969.500000
141.071000 23391.100000
142.042600 17676.400000
143.050200 2904544.500000
145.029500 36546.800000
158.037300 12000.800000
159.045100 49129.500000
168.045400 211155.600000
184.040300 13800.600000
205.065800 11669.100000
216.081300 21150.400000
231.068600 25717.400000
232.076800 91496.000000
233.060700 99617.300000
247.063700 12901.300000
248.071800 43418.600000
260.071400 48002.700000
276.066600 327887.100000

>ms2peaks
78.034900 67394.500000
89.039700 7505.300000
90.035000 20352.900000
91.019000 37069.900000
93.034600 26087.900000
107.037700 4823554.500000
108.021800 15881.600000
114.047600 10306.200000
115.055300 1794044.500000
117.034700 52375.700000
118.030000 41831.500000
119.050300 9630.300000
130.042400 121423.800000
134.024800 4875749.500000
141.070900 9841.300000
142.042600 7402.000000
143.050200 1990158.800000
145.029400 53260.900000
158.037500 6057.100000
159.045100 35529.300000
168.045500 159397.900000
205.066000 14487.200000
216.082100 12841.200000
231.068900 28227.900000
232.076700 30046.600000
233.061000 56024.800000
247.063700 24711.500000
248.071900 27181.300000
260.071400 10095.500000
276.066500 101509.800000

