>compound LU06513982
>parentmass 403.0945
>ionization [M-H]-
>formula C17H19F3N2O4S
>rt 825.240000
>profile orbitrap
#smiles_iso CC(CC1=CC=C(C=C1)OCC(=O)O)NCC(C2=CSC(=N2)C(F)(F)F)O
#smiles_can CC(CC1=CC=C(C=C1)OCC(=O)O)NCC(C2=CSC(=N2)C(F)(F)F)O
#inchikey YVIXXPCJZAUQHJ-UHFFFAOYSA-N
#pubchem_id 18551400
#mb_accession LU026551,LU026552,LU026553,LU026554,LU026555,LU026556

>ms2
151.978300 135253.100000
192.102900 102159.500000
206.118500 52316.200000
345.088900 1363298.500000
403.094400 6735044.000000

>ms2
56.980400 102437.000000
58.029800 5523.400000
59.013900 6321.400000
68.995800 8681.900000
84.045500 88415.200000
93.034600 4059.900000
106.042500 9684.000000
107.050200 77553.800000
119.050200 6161.100000
120.058200 3972.100000
121.066000 25813.100000
127.978900 5653.700000
133.065800 64113.300000
135.045200 9989.200000
147.081800 12110.900000
151.978700 2190053.200000
162.092400 11436.900000
174.092500 4559.700000
181.989400 55260.200000
192.103000 3907774.000000
195.968600 4674.900000
206.118600 102082.400000
345.088900 2547339.200000
403.094400 338726.600000

>ms2
56.980400 937726.100000
57.975600 20827.000000
58.029700 8184.800000
59.013800 9038.500000
66.034900 19617.000000
68.050500 10660.800000
68.995500 32140.500000
84.045500 214611.800000
86.061200 4523.600000
93.034500 8773.900000
98.007000 6875.400000
106.042400 111489.800000
107.050200 193634.600000
108.021600 57121.300000
119.050100 41305.800000
120.058000 5231.100000
121.029500 15416.100000
121.066000 20084.300000
123.045000 5174.700000
126.983600 11562.700000
127.978600 11448.700000
133.065900 378847.300000
135.045400 22164.300000
135.081700 11691.200000
138.032300 23587.200000
147.068700 5320.600000
147.081400 9517.000000
149.060700 9286.600000
151.978700 3305560.800000
162.092500 26520.300000
163.076400 7584.300000
174.092400 28765.300000
181.989300 50518.900000
192.103000 2791373.800000
195.968300 5360.300000
206.118600 11133.800000
345.089000 41846.700000

>ms2
55.972600 2621.800000
56.980400 2356175.500000
57.975600 34514.800000
58.029800 7234.900000
59.013800 5055.900000
66.034900 33432.300000
68.050600 38219.400000
68.995800 107346.200000
81.975600 14803.000000
84.045500 156378.500000
84.975400 2399.600000
86.061200 3731.200000
93.034500 10381.600000
98.007100 10207.300000
106.042400 285140.600000
107.050300 157359.800000
108.021700 103008.700000
111.986200 7107.300000
119.050200 114739.800000
121.029600 8328.200000
121.066000 10414.000000
123.045100 22759.100000
126.983600 14463.400000
127.978800 6539.100000
132.058000 7656.400000
133.065900 424475.200000
135.045300 15727.400000
135.081600 24706.500000
138.032300 51757.400000
141.977100 2916.500000
147.068900 9820.900000
147.081600 5029.100000
149.061000 6914.300000
151.978700 1756204.400000
162.017200 3144.800000
162.092400 16704.400000
163.076700 7402.800000
174.092300 23036.300000
181.989100 11928.000000
192.103100 493224.500000
193.004900 2738.900000

>ms2
56.980400 2998134.200000
57.975600 44223.100000
58.029900 4847.100000
66.034900 20883.800000
68.050600 40289.300000
68.995800 355124.400000
81.975700 40366.100000
84.045500 58868.100000
84.975100 3412.200000
93.034700 15295.900000
95.050200 5469.900000
98.007100 12016.800000
106.042400 169866.100000
107.050300 103829.000000
108.021700 56935.000000
114.951600 3165.500000
119.050200 135329.200000
121.029300 4335.300000
121.065900 5181.600000
123.002100 4915.200000
123.045100 19723.800000
126.983500 6301.200000
127.978500 3379.000000
132.057900 9324.700000
133.065900 252864.200000
135.045100 9848.600000
135.081700 14927.400000
138.032300 32066.200000
147.069000 4764.700000
151.978700 481179.200000
162.092400 3797.800000
174.092500 3454.300000
192.103300 35439.700000
193.004900 4616.700000

>ms2
56.980400 2636342.200000
57.975700 40157.500000
66.034900 9667.300000
68.050600 25985.700000
68.995800 577330.700000
81.975700 63858.500000
84.045500 12351.700000
84.975500 4255.700000
93.034600 13734.600000
95.050200 14267.900000
98.007100 13023.800000
100.968000 5087.900000
106.042500 45769.400000
107.050300 56795.100000
108.021700 13744.100000
114.951500 2725.400000
119.050200 90184.600000
123.002600 3958.400000
123.045200 11623.600000
131.050600 2920.600000
132.058000 14334.000000
133.065900 119064.100000
135.045600 3714.900000
135.081600 4701.800000
138.032500 8005.600000
151.978800 88209.100000

