>compound LU06828861
>parentmass 347.2017
>ionization [M-H]-
>formula C24H28O2
>rt 1284.000000
>profile orbitrap
#smiles_iso CC1=CC2=C(C=C1C(=C)C3=CC=C(C=C3)C(=O)O)C(CCC2(C)C)(C)C
#smiles_can CC1=CC2=C(C=C1C(=C)C3=CC=C(C=C3)C(=O)O)C(CCC2(C)C)(C)C
#inchikey NAVMQTYZDKMPEU-UHFFFAOYSA-N
#pubchem_id 82146
#mb_accession LU050151,LU050152,LU050153,LU050154

>ms2
303.211900 153379.700000
305.190800 9970.000000
347.201600 4638933.000000

>ms2
257.154900 30625.900000
301.196200 13968.900000
303.211800 2003734.600000
305.191000 145379.100000
307.206600 4151.700000
317.191100 20158.600000
319.206700 8698.500000
335.201600 31285.400000
347.201500 1637007.000000

>ms2
257.155100 15001.700000
301.196600 7399.200000
303.211800 839606.700000
305.191200 63853.900000
307.207700 1935.300000
317.190600 9793.000000
319.207100 10729.200000
335.201800 12094.400000
347.201600 92023.300000

>ms2
303.211800 31047.300000
319.208100 2003.400000

