>compound LU07899426
>parentmass 266.0493000000001
>ionization [M-H]-
>formula C12H13NO4S
>rt 816.000000
>profile orbitrap
#smiles_iso CC1=C(S(=O)(=O)CCO1)C(=O)NC2=CC=CC=C2
#smiles_can CC1=C(S(=O)(=O)CCO1)C(=O)NC2=CC=CC=C2
#inchikey AMEKQAFGQBKLKX-UHFFFAOYSA-N
#pubchem_id 21330
#mb_accession LU102751,LU102752,LU102753,LU102754,LU102755,LU102756

>ms2peaks
83.013900 4037.800000
83.050300 21613.300000
120.996400 3850.500000
130.980700 3343.900000
147.012200 206340.000000
158.061100 3730.800000
266.049400 160352.600000

>ms2peaks
57.034500 7629.200000
63.962300 1988.100000
83.050300 83234.100000
92.050800 2144.700000
105.001700 1977.800000
120.996600 20126.600000
130.980800 3402.900000
147.012200 215401.700000
158.061000 5784.400000
266.049300 17864.900000

>ms2peaks
57.034500 39980.600000
63.962400 6410.200000
78.985900 6301.800000
83.050300 115187.600000
92.050600 11158.500000
105.001500 3022.600000
120.996500 36477.800000
130.980900 4405.200000
147.012200 76268.100000

>ms2peaks
57.034500 79307.800000
60.975300 3007.400000
63.962400 8558.100000
78.986000 8180.300000
83.013800 6365.700000
83.050300 80762.700000
92.047600 2089.300000
92.050600 30881.200000
105.001500 2551.000000
120.996500 23329.000000
130.980600 4166.900000
147.012200 15235.500000

>ms2peaks
57.034500 91364.400000
60.975300 6683.800000
63.962400 8433.300000
78.985900 11036.200000
83.013800 3207.400000
83.050300 28985.900000
92.047600 2744.600000
92.050600 37737.100000
120.996400 3907.000000

>ms2peaks
57.034600 79284.900000
60.975400 6676.500000
63.962500 10082.800000
78.986100 8125.300000
83.014000 2836.300000
83.050300 9788.100000
92.050700 32074.500000

