>compound LU07380021
>parentmass 179.08259999999999
>ionization [M-H]-
>formula C9H12N2O2
>rt 908.100000
>profile orbitrap
#smiles_iso CC(=O)NC1=CC(=C(C=C1)OC)N
#smiles_can CC(=O)NC1=CC(=C(C=C1)OC)N
#inchikey SJWQCBCAGCEWCV-UHFFFAOYSA-N
#pubchem_id 80779
#mb_accession LU075051,LU075052,LU075053,LU075054,LU075055,LU075056

>ms2
134.024800 230423.600000
135.081700 5963.800000
151.076000 1701.200000
179.082800 26359.900000

>ms2
134.024800 240623.700000
135.081600 6263.500000
151.076400 2444.700000
179.082700 22118.100000

>ms2
91.018900 8237.200000
134.024800 233963.200000
135.081700 6391.700000
151.076500 5583.300000
179.083000 2241.200000

>ms2
91.018900 9839.600000
134.024700 134057.500000
135.081800 3639.800000
151.076200 3606.800000

>ms2
91.018900 11635.800000
134.024800 62221.000000
151.076600 4187.800000

>ms2
91.019000 8774.800000
134.024700 24508.300000

