>compound LU07304862
>parentmass 239.04960000000003
>ionization [M-H]-
>formula C10H12N2O3S
>rt 940.440000
>profile orbitrap
#smiles_iso CC(C)N1C(=O)C2=CC=CC=C2NS1(=O)=O
#smiles_can CC(C)N1C(=O)C2=CC=CC=C2NS1(=O)=O
#inchikey ZOMSMJKLGFBRBS-UHFFFAOYSA-N
#pubchem_id 2328
#mb_accession LU120451,LU120452,LU120453,LU120454,LU120455,LU120456

>ms2peaks
132.032700 248364.900000
133.040700 117037.700000
145.041100 65318.100000
175.087700 1347373.400000
195.994500 41906.000000
197.002700 1212399.200000
239.049500 37099608.000000

>ms2peaks
117.045700 62807.700000
132.032900 1956394.500000
133.040700 1003420.100000
145.041200 41050.600000
147.081600 164564.300000
175.087700 5265782.000000
195.994800 210876.300000
197.002600 4700418.000000
239.049600 29113480.000000

>ms2peaks
69.034700 13755.700000
77.965600 49420.900000
79.957300 116156.100000
105.034600 93617.300000
116.038000 72481.800000
117.045900 528844.100000
121.029600 66893.300000
123.045000 13711.000000
130.042600 27824.900000
132.032900 10155437.000000
133.040700 4744239.500000
134.025000 15108.700000
145.040900 35174.100000
145.066000 125361.400000
147.081600 508547.800000
153.997100 21636.800000
159.056500 11042.600000
175.087700 6363819.000000
194.987000 21333.100000
195.994900 954824.600000
197.002600 7401597.500000
239.049600 7862875.500000

>ms2peaks
69.034800 19097.000000
77.965600 58377.500000
79.957400 511663.400000
80.965300 39218.100000
90.035000 21649.300000
92.050600 20693.000000
105.022100 51288.200000
105.034600 512219.600000
115.030100 33553.200000
116.038000 596187.900000
117.045800 1837067.000000
121.029600 429932.400000
123.045200 105844.700000
130.042500 57042.000000
131.025100 18497.700000
132.032900 17597346.000000
133.040700 7435058.000000
145.040600 50299.200000
145.065700 144258.300000
147.081600 304564.100000
149.024500 25035.300000
153.996700 76906.600000
159.056300 28360.800000
167.999800 87078.900000
175.087700 1989023.100000
194.986900 118293.200000
195.994900 1215781.000000
197.002600 4063452.800000
239.049700 907410.700000

>ms2peaks
69.034700 19098.200000
77.039600 15504.300000
77.965600 99410.600000
78.034800 18122.200000
79.957400 926891.200000
80.965200 71631.600000
83.061500 24323.600000
90.034900 61031.700000
91.018900 20909.200000
92.050600 23043.100000
93.034500 18128.400000
104.038100 46587.200000
105.022000 81476.400000
105.034600 648694.100000
106.029800 14493.100000
114.022300 28056.300000
115.030200 116496.000000
116.038000 781281.400000
117.045800 2325593.800000
121.029500 628435.700000
123.045200 162189.900000
130.042500 31901.600000
131.025200 22685.300000
132.032900 12978959.000000
133.040700 4781296.500000
145.040700 111957.900000
145.065600 39208.100000
147.081800 41549.900000
149.024500 38777.900000
153.996700 48543.900000
159.056700 44380.500000
168.000000 156409.800000
175.087600 214679.600000
194.986900 118316.200000
195.994800 450922.400000
197.002600 1114526.400000
239.049800 58940.200000

>ms2peaks
63.962500 24950.600000
65.039800 9375.600000
65.998600 24294.500000
69.034700 15654.400000
77.039700 12509.300000
77.965600 113873.900000
78.034900 29781.400000
79.957400 1114968.000000
80.965100 71446.900000
81.022000 20317.000000
83.061600 31741.800000
90.035000 74252.400000
91.018900 27293.800000
91.042700 14041.500000
92.050600 21423.000000
93.034500 22272.800000
104.038000 69266.900000
105.022000 62381.800000
105.034600 435751.900000
106.029800 13780.700000
114.022300 21158.100000
115.030100 158381.900000
116.038000 386623.800000
117.045800 2117810.000000
118.029700 17640.500000
121.029500 479364.200000
123.045100 129931.000000
130.042600 11380.000000
131.025200 19372.100000
131.061700 9415.500000
132.032900 6448646.500000
133.040700 2026692.200000
145.040700 191871.500000
147.081700 7306.900000
148.077000 7662.400000
149.024600 35351.100000
153.996900 30728.900000
159.056300 58199.400000
167.999800 87190.300000
175.087400 19829.400000
194.986800 50619.500000
195.994600 86141.700000
197.002600 202764.700000

