>compound LU07824787
>parentmass 357.17070000000007
>ionization [M-H]-
>formula C21H26O5
>rt 924.240000
>profile orbitrap
#smiles_iso C[C@]12CC(=O)[C@H]3[C@H]([C@@H]1CC[C@@]2(C(=O)CO)O)CCC4=CC(=O)C=C[C@]34C
#smiles_can CC12CC(=O)C3C(C1CCC2(C(=O)CO)O)CCC4=CC(=O)C=CC34C
#inchikey XOFYZVNMUHMLCC-ZPOLXVRWSA-N
#pubchem_id 5865
#mb_accession LU057351,LU057352,LU057353,LU057354,LU057355,LU057356

>ms2
123.045200 54486.000000
125.061100 10462.100000
149.061500 1837.900000
201.092300 24224.300000
203.108000 4956.700000
269.117600 1920.100000
284.142500 2008.400000
285.149500 3631.400000
297.149700 12028.500000
299.165300 166156.700000
324.137300 13751.500000
327.160300 596747.500000
339.160000 13060.300000
342.147600 14751.000000

>ms2
57.034600 5332.000000
107.050200 2967.200000
121.065900 4176.100000
122.037300 2609.900000
123.045200 102939.800000
125.060800 29344.800000
133.066000 1912.600000
135.045100 2871.400000
136.052800 2984.300000
137.060700 17773.400000
145.065800 8743.800000
149.060700 18873.200000
151.076500 5773.200000
162.068700 3131.800000
163.076400 16209.500000
176.084400 1833.100000
177.092200 18076.500000
186.068400 3311.100000
187.076300 2519.200000
191.107900 8037.300000
201.092300 23190.600000
203.107800 18249.500000
269.118500 13228.700000
270.126300 26452.900000
282.126200 6555.800000
284.142100 18387.400000
285.149700 73022.800000
299.165200 37849.900000
309.150100 11862.900000
312.136800 4937.800000
324.136300 25392.500000
327.160200 388903.900000
339.159000 2259.000000
342.147700 16370.000000

>ms2
57.034600 7343.200000
97.065900 3922.500000
107.050300 10206.300000
109.065700 2078.300000
120.058600 2693.600000
121.066000 11998.600000
122.037400 20022.300000
123.045200 112117.100000
125.060900 23524.700000
133.065900 6489.600000
135.045300 7102.600000
135.081600 16230.700000
136.053000 22138.900000
137.060800 58763.100000
138.032200 3213.000000
145.066000 16808.300000
149.060800 85827.000000
151.040100 11798.700000
151.076500 29652.100000
159.081400 5601.000000
162.068700 19664.300000
163.076500 26681.700000
168.043200 10112.600000
176.084300 2657.400000
177.092300 19608.000000
185.060800 2810.600000
186.068900 8396.400000
187.076500 8415.600000
191.107900 7462.100000
201.092000 8223.300000
203.108200 4470.200000
243.139200 4051.000000
269.118200 10993.500000
270.126400 20588.000000
282.125900 7546.900000
284.141700 19481.200000
285.149700 69726.100000
297.149200 1790.300000
299.164500 3039.400000
309.112900 4419.000000
309.149500 11009.100000
312.136300 3308.800000
324.137100 22768.200000
327.160000 54989.800000
342.145900 2939.000000

>ms2
57.034600 6335.300000
95.050200 7202.800000
97.065900 7762.400000
107.050200 13036.800000
108.021800 2497.300000
109.066000 3448.800000
121.065800 25218.100000
122.037300 25143.400000
123.045100 101908.300000
123.081500 7817.200000
125.060800 13064.800000
133.065900 12806.700000
135.045200 15107.300000
135.081500 23251.200000
136.052900 18969.300000
137.060700 46175.900000
138.032100 4035.100000
143.050400 1777.400000
145.065900 18477.200000
147.045500 3207.700000
149.060700 110781.200000
151.040300 6033.600000
151.076400 28565.000000
157.065800 2402.400000
159.081700 6705.000000
162.068600 16253.000000
163.076500 11681.500000
168.042700 4401.900000
177.092200 5550.700000
185.060800 9733.800000
186.068900 3209.000000
187.076400 16178.600000
191.109000 2060.400000
243.138900 2467.100000
269.118100 4648.200000
282.126300 3564.300000
284.141600 5364.500000
285.149900 9611.900000
309.113900 2656.600000

>ms2
57.034700 7857.700000
95.050300 7161.300000
97.066000 5393.100000
107.050300 11879.300000
108.021800 6762.300000
109.066000 3037.100000
119.050200 3213.100000
120.058400 2347.100000
121.029300 4426.600000
121.065900 22887.200000
122.037300 22241.500000
123.045200 77657.800000
123.081500 10997.200000
125.061100 4694.800000
130.042600 6336.700000
131.050600 2060.500000
133.065900 13964.200000
134.037200 2260.400000
135.045200 17722.800000
135.081500 16928.100000
136.053100 11291.600000
137.060900 17111.700000
143.050500 5543.100000
145.065900 11110.700000
147.045100 2955.600000
149.060800 80924.300000
151.040100 3280.600000
151.076500 11683.800000
157.065800 3409.400000
159.044600 3553.700000
159.081600 3463.700000
162.068800 4283.800000
168.043100 2362.000000
185.061000 11676.900000
187.076400 12162.300000

>ms2
57.034600 8221.300000
95.050400 5906.300000
97.066200 2927.300000
107.050200 8840.900000
108.021900 7165.000000
109.065800 3085.000000
119.050200 2168.400000
120.058000 3250.500000
121.029600 3031.400000
121.066000 17560.100000
122.037400 27059.400000
123.045200 50387.800000
123.081800 6137.900000
130.042400 9823.200000
131.050300 2926.500000
133.066100 8019.600000
134.037400 4506.000000
135.045400 12035.100000
135.081700 6226.400000
136.052700 3372.400000
137.061100 4466.400000
143.050200 10144.900000
145.065900 9389.100000
147.045300 4521.500000
149.060700 45467.600000
151.076500 4725.400000
157.066000 2065.400000
159.044700 3696.700000
185.060400 10632.000000
187.076700 4080.200000

