>compound LU07639393
>parentmass 227.9988
>ionization [M-H]-
>formula C10H9Cl2NO
>rt 1071.780000
>profile orbitrap
#smiles_iso CC(=C)C(=O)NC1=CC(=C(C=C1)Cl)Cl
#smiles_can CC(=C)C(=O)NC1=CC(=C(C=C1)Cl)Cl
#inchikey VCBRBUKGTWLJOB-UHFFFAOYSA-N
#pubchem_id 16560
#mb_accession LU051251,LU051252,LU051253,LU051254,LU051255,LU051256

>ms2peaks
55.018900 212612.600000
156.045500 159874.800000
159.972600 23740.300000
160.956700 31121.700000
185.951800 79067.500000
190.007100 26072.100000
192.022100 54897.900000
212.975000 25093.600000
225.983400 139303.200000
227.998800 19133284.000000

>ms2peaks
55.018900 692600.700000
70.946100 26542.800000
149.975200 16944.900000
156.045600 441953.500000
159.972600 64113.000000
160.956700 109165.100000
176.998800 15670.600000
185.951900 321584.200000
190.006600 76145.000000
192.022200 113305.000000
197.988600 15568.000000
200.003800 38323.100000
209.988400 26891.600000
211.967600 22497.300000
211.980600 18407.000000
212.975300 57128.000000
225.983400 362746.200000
227.998900 13907641.000000

>ms2peaks
55.018900 1418114.500000
70.946100 23286.100000
121.980500 3854.700000
124.979900 13720.000000
128.050400 8505.700000
149.975200 195563.300000
155.037400 9767.900000
156.045500 601460.200000
159.972600 132161.900000
160.956600 240273.700000
176.998400 22857.800000
183.973200 20431.000000
185.951900 641562.700000
187.968400 5300.400000
190.006500 125708.200000
192.022200 72376.100000
197.988000 43688.200000
200.003800 28056.700000
209.988100 16388.800000
210.972200 7289.200000
211.967500 14429.800000
211.979500 7770.700000
212.975300 43839.400000
225.983300 453655.400000
227.998900 2903548.500000

>ms2peaks
55.018900 1440778.100000
70.946100 16770.900000
98.964300 5286.800000
100.019400 4728.100000
113.998500 9953.100000
121.980200 30508.100000
123.995900 7919.700000
124.980000 47243.500000
128.050600 15773.400000
149.975200 344069.000000
155.037700 26858.700000
156.045500 344978.100000
159.972600 90475.500000
160.956600 207285.700000
176.998700 12073.600000
183.972700 15964.600000
185.951900 338998.400000
187.966600 4857.300000
190.006500 82106.400000
192.021800 24207.500000
197.988300 29311.500000
200.004000 4411.300000
211.966900 6723.200000
212.975300 7706.200000
225.983200 198820.800000
227.998900 264337.200000

>ms2peaks
55.018900 1124116.200000
70.946100 5299.700000
86.003600 14095.100000
89.003500 4435.200000
98.964300 30390.700000
100.019300 18516.500000
113.998500 28539.900000
114.035100 4051.300000
121.980300 75983.400000
123.996000 7791.600000
124.979900 59990.900000
128.050500 9770.000000
149.975200 259684.200000
155.037600 29081.000000
156.045500 132417.800000
159.972600 34433.500000
160.956700 76840.800000
183.972700 8134.900000
185.951900 81626.800000
190.006700 38367.200000
197.988400 6235.800000
211.967400 4468.200000
225.983200 43250.700000
227.998700 10902.600000

>ms2peaks
55.018900 847670.600000
86.003700 35255.400000
89.003200 5813.800000
98.964400 46107.300000
100.019400 16042.300000
113.998600 23633.000000
114.035000 4839.500000
121.980300 80116.700000
123.996200 4106.600000
124.980000 46320.400000
149.975200 103328.800000
155.037700 22976.000000
156.045500 38276.300000
159.972900 10925.100000
160.956600 23751.500000
185.952000 10475.900000
190.007000 12377.300000
225.983200 3843.200000

