>compound LU07025008
>parentmass 352.877
>ionization [M-H]-
>formula C12H6Cl4O2S
>rt 1213.920000
>profile orbitrap
#smiles_iso C1=C(C=C(C(=C1SC2=C(C(=CC(=C2)Cl)Cl)O)O)Cl)Cl
#smiles_can C1=C(C=C(C(=C1SC2=C(C(=CC(=C2)Cl)Cl)O)O)Cl)Cl
#inchikey JFIOVJDNOJYLKP-UHFFFAOYSA-N
#pubchem_id 2406
#mb_accession LU136451,LU136452,LU136453,LU136454,LU136455,LU136456

>ms2
160.956600 903974.400000
191.920800 613283.400000
194.917600 163580.700000
316.900000 170790.300000
352.876900 7613029.000000

>ms2
160.956700 819212.800000
191.921000 585453.600000
194.917600 53058.400000
316.900200 29044.200000
352.877100 102652.600000

>ms2
124.979900 4296.600000
160.956700 186449.200000
191.921000 138888.900000
194.917600 7229.100000

>ms2
89.003400 8488.700000
119.967400 15418.600000
124.980000 90884.600000
155.944300 8317.500000
160.956700 538161.000000
191.921000 424796.000000
194.917900 14836.300000

>ms2
89.003300 17063.900000
91.972800 2338.800000
119.967500 15560.400000
124.979900 85793.600000
155.944600 2521.200000
160.956700 150403.600000
191.920900 101902.700000
194.917500 3184.000000

>ms2
89.003300 31243.700000
91.972700 2363.800000
119.967600 12064.500000
124.979900 57439.300000
160.956700 34507.800000
191.920900 14051.800000

