>compound LU07525228
>parentmass 117.0458
>ionization [M-H]-
>formula C7H6N2
>rt 855.840000
>profile orbitrap
#smiles_iso C1=CC=C2C(=C1)NC=N2
#smiles_can C1=CC=C2C(=C1)NC=N2
#inchikey HYZJCKYKOHLVJF-UHFFFAOYSA-N
#pubchem_id 5798
#mb_accession LU134851,LU134852,LU134853,LU134854,LU134855,LU134856

>ms2peaks
66.034900 1896.200000
90.035000 12013.600000
117.045700 1857890.800000

>ms2peaks
90.034900 8255.000000
117.045700 1472300.400000

>ms2peaks
90.035000 18537.600000
117.045700 2316392.000000

>ms2peaks
66.034900 2257.000000
90.034900 24586.900000
117.045800 1479853.200000

>ms2peaks
66.035000 3912.200000
90.035000 28754.500000
117.045800 946482.600000

>ms2peaks
66.035000 4084.900000
90.034900 17387.800000
117.045800 287683.700000

