>compound LU08611932
>parentmass 356.1304
>ionization [M-H]-
>formula C20H20FNO4
>rt 942.360000
>profile orbitrap
#smiles_iso CC(=O)C1=CC2=C(C=C1)OC([C@@H]([C@H]2NC(=O)C3=CC=C(C=C3)F)O)(C)C
#smiles_can CC(=O)C1=CC2=C(C=C1)OC(C(C2NC(=O)C3=CC=C(C=C3)F)O)(C)C
#inchikey RCLXAPJEFHPYEG-ZWKOTPCHSA-N
#pubchem_id 193943
#mb_accession LU115251,LU115252,LU115253,LU115254,LU115255,LU115256

>ms2peaks
135.045000 55984.500000
137.040500 24297.400000
138.035900 184538.400000
139.019900 29462.200000
160.040200 240202.300000
177.071900 28633.100000
217.087000 137656.400000
268.078100 27373.900000
284.072800 1660396.200000
285.080700 70852.900000
286.088600 165212.400000
298.088300 5927675.000000
320.109400 127866.200000
338.119900 2732854.800000
356.130200 21113428.000000

>ms2peaks
95.030100 22584.600000
117.021900 17410.700000
135.045100 1265923.400000
137.040700 891688.600000
138.035900 1953328.400000
139.020000 110924.700000
147.044900 20500.700000
149.060600 13058.100000
158.061200 12700.500000
159.044900 73278.000000
160.040300 4722340.000000
161.060600 9884.800000
162.036000 29116.100000
162.055900 212698.300000
174.055800 24668.100000
175.040000 12885.500000
177.072000 1047887.800000
189.092000 83944.100000
199.076700 32093.800000
208.078100 25888.900000
216.103000 34215.200000
217.086900 413076.500000
225.071900 11257.000000
268.077500 32702.900000
271.077500 98080.500000
282.057200 14546.200000
283.065100 336524.700000
284.072800 4718082.500000
286.088400 243837.300000
298.088400 9223301.000000
320.109200 1248987.500000
338.119900 2453883.200000
356.130400 905874.600000

>ms2peaks
81.034600 44680.500000
92.026400 7937.500000
93.034600 74166.600000
95.030300 214771.300000
108.021700 15968.200000
117.022100 26110.700000
118.029900 77001.200000
120.025500 30477.200000
123.008700 19546.600000
132.045600 25864.400000
133.016900 29105.500000
135.045200 4341494.500000
137.040800 2225530.500000
138.036100 2175333.000000
139.020100 78959.800000
139.055600 11568.000000
144.045800 17991.300000
147.045300 22197.500000
148.053000 37974.300000
149.040800 8864.300000
149.060900 17171.200000
150.036200 20909.200000
157.066200 18389.400000
158.061300 39911.800000
159.045300 411220.300000
159.061300 62684.300000
160.040400 6805039.500000
161.040900 89981.500000
161.060800 42888.800000
162.036300 96528.000000
162.056000 1063856.400000
163.040100 44092.300000
171.081500 12980.400000
174.056200 46585.600000
175.040200 51689.700000
175.056400 141640.700000
175.076200 16533.000000
176.071700 18622.000000
177.072100 1898344.900000
180.042500 28300.500000
189.092100 163898.800000
198.048800 9187.600000
199.076500 149501.700000
200.071800 13779.800000
202.067200 18797.800000
208.078000 12340.300000
213.072100 20787.400000
217.086900 141862.700000
225.072100 17499.600000
238.067100 8928.600000
241.054700 43330.800000
242.061800 46156.700000
244.042000 12088.900000
252.083200 13935.400000
253.066900 81286.600000
256.078200 70045.500000
257.061800 95948.400000
267.070600 8780.500000
268.078500 12039.700000
271.077800 174664.800000
278.099400 21496.500000
280.078100 71126.900000
282.057400 220125.300000
283.065200 670081.200000
284.072900 3383884.000000
296.072800 25174.700000
298.088500 1041544.800000
320.109300 872681.600000
322.088300 55621.500000
338.120000 145195.300000

>ms2peaks
65.998500 101087.600000
79.019100 6837.600000
81.034600 265500.100000
83.030100 9406.100000
92.026200 26779.400000
93.034600 692173.600000
95.030300 836716.600000
98.001100 7315.800000
105.022100 16155.600000
107.050300 11213.300000
108.021700 192974.900000
109.046000 13928.700000
117.021900 51311.200000
117.034500 50143.300000
118.029800 377581.500000
119.050200 29430.300000
120.009000 60798.700000
120.021000 11677.200000
120.025500 93648.000000
122.024500 6351.900000
123.008800 70559.900000
123.025200 18484.000000
132.045700 39889.800000
133.017000 308275.400000
135.045200 6293046.000000
136.040600 11647.900000
137.040800 1464791.900000
138.036000 766770.900000
139.020100 152864.400000
139.055300 20510.800000
144.045300 26372.600000
145.017000 24311.900000
147.045100 7284.500000
147.081800 21587.400000
148.053000 80710.200000
149.028300 7638.700000
149.040900 12688.500000
149.060800 35563.000000
150.019800 21245.500000
150.036100 16421.200000
157.065900 31562.500000
158.061100 53796.700000
159.045200 629627.400000
159.061100 65733.800000
160.040400 5814209.500000
161.040800 208031.700000
161.060700 36597.700000
162.036300 83606.200000
162.056000 1665329.800000
163.040100 92532.900000
164.015600 12240.200000
166.030800 40199.700000
171.081300 8650.100000
174.056000 14139.600000
175.039900 62508.000000
175.056400 330502.600000
175.076400 18599.500000
176.071800 12131.600000
177.072100 772881.100000
180.042600 63724.800000
189.092100 111635.400000
193.065700 17899.400000
198.048800 43246.400000
199.056500 15523.300000
199.076500 119819.800000
200.071500 10859.600000
202.067600 14668.800000
211.056600 9165.100000
213.035300 7941.400000
213.072300 11689.600000
214.067100 13733.200000
216.045900 9058.900000
217.087000 13141.400000
219.045200 8866.500000
225.072600 8581.000000
227.039100 8501.500000
233.060500 13639.100000
238.067200 9749.300000
239.038600 10126.400000
240.046600 27725.100000
241.054500 68833.500000
242.062300 48525.400000
244.041500 44293.400000
252.084500 7893.500000
253.067200 111832.900000
254.062100 22017.600000
255.082800 10696.600000
256.077800 72410.300000
257.062000 142026.100000
267.069900 6983.300000
271.077600 48244.500000
278.098300 52963.600000
280.078000 128003.800000
282.057200 396822.200000
283.065000 539762.200000
284.072800 613283.100000
296.073200 17014.200000
298.088500 22728.600000
320.109100 221119.500000
322.088400 92731.300000

>ms2peaks
65.003200 7324.700000
65.027200 6460.300000
65.039800 9892.800000
65.998600 322210.300000
67.006400 6377.900000
67.019000 6476.400000
68.998300 7349.500000
75.024100 6012.900000
81.034600 320179.800000
82.006200 10479.000000
91.019000 21736.100000
92.026700 35897.200000
93.034600 1562880.800000
95.013900 116365.300000
95.030300 1078655.800000
98.000900 9889.200000
100.019400 14678.700000
105.022000 33492.100000
107.050400 16341.900000
108.021700 476600.800000
109.046000 11499.500000
116.027000 8822.100000
116.050500 6115.700000
117.022000 119398.900000
117.034600 95495.100000
118.029900 683802.900000
119.013900 17486.700000
119.050200 35061.900000
120.009200 199112.400000
120.021500 20973.200000
120.025600 91420.700000
121.029400 10646.300000
122.024700 11383.200000
122.996400 9166.000000
123.008900 56327.400000
123.025500 9081.900000
128.014400 7848.200000
132.022000 16262.800000
132.045700 16792.700000
133.017100 538533.300000
135.045300 4329704.500000
136.040600 14727.400000
137.040900 384748.000000
138.036200 138463.100000
139.020200 120581.500000
139.055300 16407.700000
143.050400 11127.700000
144.045700 12859.500000
145.017100 49051.800000
146.073600 7418.300000
147.081500 19602.900000
148.004300 17719.700000
148.053200 39437.300000
149.061000 28548.400000
150.019700 12913.400000
156.058200 9218.800000
158.061200 26479.500000
159.045400 362367.400000
159.061600 23268.200000
160.040600 3251143.800000
161.041000 115473.300000
161.061000 18905.800000
162.056200 924561.900000
163.040000 29980.000000
164.015400 23083.300000
166.030900 33254.000000
175.040000 31376.000000
175.056600 226314.100000
176.071500 7638.600000
177.072200 107267.700000
180.042900 45709.200000
183.045400 9945.000000
183.061500 9110.300000
189.092200 26210.500000
193.066000 14576.400000
198.048300 26213.700000
199.076600 40117.600000
200.052600 7007.000000
202.067400 10047.300000
211.057300 12388.000000
212.051800 34488.100000
213.036100 27946.200000
214.031200 8668.800000
214.067800 13734.400000
215.051700 14896.900000
216.046600 8849.000000
229.067000 9277.200000
233.060600 15718.000000
234.055600 6782.200000
236.072500 6172.800000
238.031600 6016.600000
239.039000 9501.800000
240.046800 40202.700000
240.059100 7646.200000
241.054700 24512.200000
242.062500 13212.400000
244.041800 30051.000000
253.067300 23817.800000
254.062300 25287.200000
256.078500 13037.700000
257.062300 35080.900000
276.083000 12923.400000
278.098900 13346.800000
280.078100 57188.300000
282.057600 158306.800000
283.065300 110269.100000
284.073100 31907.100000
320.109600 11509.400000
322.088500 23008.700000

>ms2peaks
65.003300 29583.200000
65.027100 16789.900000
65.039800 16968.500000
65.998500 673692.700000
67.018900 14743.300000
68.014200 10209.600000
68.998200 15205.000000
79.018900 11666.000000
81.034600 294191.400000
82.006100 25134.500000
91.019000 58508.500000
92.026800 86208.700000
93.034600 2428550.800000
95.013900 278843.500000
95.030300 973349.800000
98.001000 17660.400000
100.019400 25552.800000
105.022000 42292.000000
107.050200 18771.400000
108.021700 905126.500000
109.046000 6322.900000
116.026700 18537.700000
117.022000 235051.800000
117.034600 106365.700000
118.029900 870184.700000
119.013900 32506.700000
119.050100 16370.000000
120.009100 433080.600000
120.021500 25875.000000
120.025500 96719.200000
121.029400 20516.700000
122.024800 6318.900000
122.037400 5834.600000
122.996200 20474.500000
123.008800 52879.300000
132.021600 30488.600000
132.045600 13260.200000
133.017000 646831.100000
135.045200 2886932.800000
136.040400 26910.400000
137.040800 93756.400000
138.036100 25611.700000
139.020100 72203.700000
139.055100 8531.800000
143.050100 16095.500000
145.016900 48166.100000
146.073700 9090.200000
147.081300 11199.700000
148.004200 39250.600000
148.053200 18183.500000
149.028100 8542.000000
149.060700 15960.700000
157.066100 12077.100000
158.061000 18946.700000
159.045200 159606.900000
160.040400 1967265.500000
161.040800 55859.300000
161.060800 11263.900000
162.035800 19169.600000
162.056100 338472.200000
163.040300 7714.900000
164.015400 20978.800000
166.031000 18186.300000
175.039900 12473.300000
175.056400 125113.900000
177.072400 9754.000000
180.042900 22996.000000
183.045100 11236.700000
189.092400 8597.500000
198.048600 9457.200000
199.076700 12935.600000
211.056200 8136.700000
212.051900 40154.100000
213.035600 45777.200000
215.052000 8945.400000
216.045800 6399.900000
219.045100 11664.100000
239.038700 7709.000000
240.046600 34980.700000
244.041400 8086.400000
254.062000 11414.200000
276.083300 10571.900000
280.078200 7298.400000
282.057200 46498.500000
283.064900 10867.500000

