>compound LU08226455
>parentmass 307.0758
>ionization [M-H]-
>formula C14H16N2O4S
>rt 872.760000
>profile orbitrap
#smiles_iso COC1=CC(=C(C=C1N)OC)S(=O)(=O)NC2=CC=CC=C2
#smiles_can COC1=CC(=C(C=C1N)OC)S(=O)(=O)NC2=CC=CC=C2
#inchikey NFYQAEPHDGXJSY-UHFFFAOYSA-N
#pubchem_id 104143
#mb_accession LU097451,LU097452,LU097453,LU097454,LU097455,LU097456

>ms2
167.107900 2937.700000
213.066800 2795.100000
292.052400 22938.100000
307.075800 227297.400000

>ms2
136.040600 9373.400000
152.035400 4375.500000
153.996800 6966.100000
167.107900 6565.000000
195.056300 11758.600000
197.048300 2199.900000
200.002300 10210.900000
213.066900 89398.700000
227.034800 1962.700000
277.028900 21409.300000
292.052700 41885.900000
307.075700 58538.200000

>ms2
92.050500 6009.300000
136.040300 19976.800000
152.035300 5592.500000
153.996800 3058.500000
167.107600 4525.600000
195.056500 14231.300000
196.040700 3011.400000
197.047900 9451.500000
200.002200 3646.700000
213.067000 186747.500000
227.034800 2391.500000
277.028400 2591.800000

>ms2
91.042800 4086.900000
92.050600 8637.600000
110.024700 21108.500000
116.050500 2867.600000
136.040300 14790.400000
138.019300 1908.700000
153.996100 2111.000000
167.061300 3458.300000
168.045600 2648.900000
185.072200 7779.400000
186.055900 8506.000000
195.056000 7995.100000
196.040500 3566.800000
197.048100 9192.900000
213.066900 124639.300000
227.034600 1948.400000

>ms2
68.014000 3348.300000
91.042800 3535.900000
92.050600 10830.900000
110.024700 45556.300000
116.050400 6231.100000
136.040400 9315.600000
138.019700 2599.700000
144.045700 2100.900000
167.061600 3788.600000
168.045500 3114.500000
185.072200 8330.700000
186.056000 9439.200000
195.056400 4651.800000
196.040400 5479.900000
197.048100 6835.300000
213.066900 36793.100000

>ms2
68.014300 8381.600000
91.043000 1752.600000
92.050600 19632.200000
110.024800 37016.700000
116.050600 9542.400000
136.040400 3318.100000
144.045600 1888.100000
168.045600 2987.400000
185.072000 2687.000000
186.056100 3967.500000
196.040600 2400.500000
197.047700 2254.200000
213.067500 3584.500000

