>compound LU08128675
>parentmass 255.06629999999998
>ionization [M-H]-
>formula C15H12O4
>rt 999.480000
>profile orbitrap
#smiles_iso C1=CC=C(C=C1)COC(=O)C2=CC=CC=C2C(=O)O
#smiles_can C1=CC=C(C=C1)COC(=O)C2=CC=CC=C2C(=O)O
#inchikey XIKIUQUXDNHBFR-UHFFFAOYSA-N
#pubchem_id 31736
#mb_accession LU072951,LU072952,LU072953,LU072954,LU072955,LU072956

>ms2peaks
59.013800 21828.100000
59.985400 4991.000000
60.993200 9563.000000
65.039700 9266.400000
77.039400 26881.700000
93.034600 61122.100000
105.034600 249703.800000
107.050300 1923676.000000
108.021700 8912.300000
121.029500 916640.100000
123.045200 119453.100000
125.060800 19902.900000
133.029400 10939.000000
147.008800 198005.000000
149.024400 84171.700000
151.040100 46721.100000
165.019300 38108.300000
167.086300 5452.000000
181.066100 8011.200000
183.081600 1166597.500000
197.060600 22409.600000
211.076400 219266.600000

>ms2peaks
59.013800 51799.900000
59.985300 6171.500000
60.993200 9013.300000
65.039700 9742.100000
75.024000 5698.100000
77.039500 18264.400000
93.034600 48812.500000
103.018700 3407.300000
105.034600 272819.600000
107.050300 1506202.500000
108.021600 13829.500000
119.013900 7162.000000
121.029500 750469.200000
123.045200 124505.700000
125.060900 26628.400000
133.029400 4219.600000
147.008800 229952.000000
149.024400 61667.200000
151.040000 33012.700000
165.019200 49534.500000
167.086300 8618.600000
180.058500 5347.800000
181.066000 23760.400000
183.081700 315577.500000
197.060100 3038.000000
211.076400 22902.900000

>ms2peaks
59.013800 44810.300000
60.993100 6135.200000
65.039600 5301.700000
75.024000 47220.600000
77.039700 11278.600000
93.034600 75602.000000
103.019000 21644.400000
105.034600 149366.700000
107.050200 488214.700000
108.021700 17180.400000
119.013800 24082.100000
121.029500 467495.300000
123.045100 71881.300000
125.060600 6027.900000
147.008700 157175.000000
149.024300 28448.000000
151.039900 11036.800000
165.019400 34576.700000
180.058100 7953.000000
181.066100 21656.000000
183.081600 33766.700000

>ms2peaks
59.013800 48598.400000
65.039800 5228.500000
75.024000 182161.500000
93.034500 76733.000000
103.019000 38306.800000
105.034600 67139.500000
107.050200 100236.400000
108.021600 10122.000000
119.013800 29490.300000
121.029500 212913.000000
123.045100 35512.300000
147.008700 71492.600000
149.024300 11302.500000
165.019200 15655.900000
180.057300 3231.700000
181.066200 4443.700000

>ms2peaks
59.013800 32400.100000
65.039400 2256.400000
75.024100 268516.500000
93.034600 37321.300000
103.019000 25688.400000
105.034500 16267.100000
107.050200 17643.400000
108.021700 4557.000000
119.013900 11687.300000
121.029500 74133.000000
123.045200 9759.900000
147.008500 16353.700000
149.024600 3263.500000

>ms2peaks
59.013800 26275.900000
75.024100 326650.500000
93.034700 15666.100000
103.018800 12576.700000
105.034600 7348.900000
107.050100 4677.300000
119.013700 6334.700000
121.029500 20193.600000
123.045400 4983.800000
147.008400 4143.000000

