>compound LU08495086
>parentmass 233.9366
>ionization [M-H]-
>formula C7H3Cl2NO4
>rt 927.360000
>profile orbitrap
#smiles_iso C1=C(C=C(C(=C1C(=O)O)Cl)[N+](=O)[O-])Cl
#smiles_can C1=C(C=C(C(=C1C(=O)O)Cl)[N+](=O)[O-])Cl
#inchikey AUAXYMOBWXOEQD-UHFFFAOYSA-N
#pubchem_id 6951
#mb_accession LU056551,LU056552

>ms2
159.949000 6976.800000
175.944000 12649.400000
189.946900 121969.600000

>ms2
159.948900 4299.900000
175.943800 12869.000000
189.946800 34575.700000

