>compound LU08271988
>parentmass 197.0316
>ionization [M-H]-
>formula C6H6N4O4
>rt 662.640000
>profile orbitrap
#smiles_iso C1=C(OC(=C1)[N+](=O)[O-])/C=N/NC(=O)N
#smiles_can C1=C(OC(=C1)[N+](=O)[O-])C=NNC(=O)N
#inchikey IAIWVQXQOWNYOU-FPYGCLRLSA-N
#pubchem_id 5447130
#mb_accession LU128651,LU128652,LU128653,LU128654,LU128655,LU128656

>ms2peaks
65.998500 2453.900000
67.030200 1881.300000
80.038100 26201.600000
82.017300 11455.100000
82.029900 2931.200000
95.013900 12812.900000
95.025200 2778.800000
107.025200 19297.100000
112.027900 4225.000000
124.027800 17091.200000
150.030800 13456.900000
167.033300 3710.500000

>ms2peaks
65.998500 3613.700000
67.030200 5249.700000
80.038000 23840.600000
82.017400 9115.400000
82.029900 2069.500000
95.014000 12022.100000
107.025200 18315.700000
112.027700 3156.300000
124.027800 10617.200000
150.031000 9283.200000
167.034300 1907.900000

>ms2peaks
65.998700 1726.100000
67.030300 7984.600000
80.038000 8817.800000
82.017300 6726.600000
95.014000 12475.300000
95.024900 2789.300000
107.025100 13648.200000

>ms2peaks
67.030200 7528.600000
79.030300 3109.300000
80.038100 5221.600000
82.017300 5974.600000
92.025400 1861.200000
95.013800 10545.000000
107.025200 6679.700000

>ms2peaks
67.030200 3744.700000
79.030200 5010.700000
82.017200 4721.900000
95.013800 6918.500000
107.024800 2686.800000

>ms2peaks
67.030200 1720.100000
82.017200 1458.800000
92.025300 1884.800000
95.013900 4026.900000

