>compound LU09907167
>parentmass 266.0782
>ionization [M-H]-
>formula C11H13N3O5
>rt 673.230000
>profile orbitrap
#smiles_iso C1=CC(=CC=C1N[C@@H](CCC(=O)N)C(=O)O)[N+](=O)[O-]
#smiles_can C1=CC(=CC=C1NC(CCC(=O)N)C(=O)O)[N+](=O)[O-]
#inchikey IMTMBDXEKMXETQ-VIFPVBQESA-N
#pubchem_id 21115778
#mb_accession LU038951,LU038952,LU038953,LU038954,LU038955,LU038956

>ms2
128.035300 1013547.700000
137.035600 880709.400000
177.066400 2193.800000
204.077600 8311.600000
222.088500 4586.900000
248.067600 31567.000000

>ms2
82.029700 6849.900000
107.037700 3387.900000
128.035200 824103.100000
137.035500 1360052.100000
177.066800 6359.200000
191.045900 2022.700000
204.077900 21957.700000
222.088100 7673.500000
248.067800 12699.200000
266.078300 21970.000000

>ms2
82.029700 9228.200000
84.045500 3185.000000
107.037500 36733.300000
122.024700 5155.900000
128.035200 371443.600000
137.035500 1557889.900000
177.067000 3462.100000
191.046000 3904.300000
204.077500 6486.600000
222.088500 2550.800000

>ms2
82.029800 9916.500000
107.037700 151142.200000
122.024900 3063.600000
128.035400 92933.100000
137.035600 1271890.600000

>ms2
82.030000 4219.300000
107.037700 252804.200000
122.024900 2879.500000
128.035500 23580.700000
137.035700 788545.400000

>ms2
82.029900 3434.600000
107.037700 212591.100000
128.035300 2982.800000
137.035600 376804.600000

