>compound LU09215612
>parentmass 259.0088
>ionization [M-H]-
>formula C9H13BrN2O2
>rt 921.000000
>profile orbitrap
#smiles_iso CCC(C)N1C(=O)C(=C(NC1=O)C)Br
#smiles_can CCC(C)N1C(=O)C(=C(NC1=O)C)Br
#inchikey CTSLUCNDVMMDHG-UHFFFAOYSA-N
#pubchem_id 9411
#mb_accession LU126551,LU126552,LU126553,LU126554,LU126555,LU126556

>ms2
78.918700 384991.100000
151.087600 34317.500000
159.940300 69352.400000
202.946200 1296616.800000
259.008600 12128604.000000

>ms2
78.918900 2335761.500000
118.913800 12658.000000
159.940400 353049.100000
173.992500 31208.600000
202.946300 4514663.500000
208.927000 11612.500000
259.008700 8159082.500000

>ms2
78.918900 5444784.500000
117.929900 24197.400000
118.913700 30530.700000
133.961100 10569.700000
135.056300 9811.800000
136.064100 6149.500000
151.087700 956555.100000
159.940400 233190.700000
173.992300 34032.600000
202.946200 3522361.500000
259.008700 1289816.400000

>ms2
78.918900 8817180.000000
116.921900 14081.900000
117.929800 34948.700000
118.913800 42143.700000
159.940300 90088.000000
173.992300 12535.400000
202.946200 1309996.800000
208.923200 10765.900000
259.008700 155896.100000

>ms2
78.918900 10434630.000000
104.922000 13382.600000
116.921800 24905.900000
117.930100 13878.800000
118.913800 41305.800000
159.940200 20273.100000
202.946300 244319.800000

>ms2
78.918900 10210441.000000
104.922000 10423.600000
110.012000 27840.700000
118.913800 24390.000000
135.056400 268257.300000
136.064100 51276.300000
151.087600 112913.600000
202.946300 27174.900000

