>compound LU09291003
>parentmass 283.06120000000004
>ionization [M-H]-
>formula C16H12O5
>rt 1064.340000
>profile orbitrap
#smiles_iso COC1=CC=C(C=C1)C2=COC3=CC(=CC(=C3C2=O)O)O
#smiles_can COC1=CC=C(C=C1)C2=COC3=CC(=CC(=C3C2=O)O)O
#inchikey WUADCCWRTIWANL-UHFFFAOYSA-N
#pubchem_id 5280373
#mb_accession LU096051,LU096052,LU096053,LU096054,LU096055,LU096056

>ms2peaks
267.031200 33006.600000
268.037700 1734592.600000
283.061100 32434364.000000

>ms2peaks
132.021900 22981.000000
223.039600 20031.500000
224.047700 56837.400000
239.034400 54680.900000
240.043200 49009.900000
267.030200 120423.000000
268.037700 17148286.000000
283.061200 18685688.000000

>ms2peaks
91.018900 29174.300000
132.021600 467584.100000
135.008700 234219.900000
151.003500 45897.400000
153.019200 62837.800000
180.058100 50259.500000
184.052700 61755.400000
195.045100 109148.000000
196.052900 210116.700000
198.032900 35009.800000
199.039900 25930.100000
200.047700 27161.300000
211.039900 422342.300000
212.047900 352198.800000
223.040100 384653.200000
224.047900 726267.100000
226.027100 381962.300000
239.034900 1600297.800000
240.042800 874601.400000
250.027300 43780.900000
267.030100 2116787.500000
268.037600 22338006.000000
283.061100 1855592.900000

>ms2peaks
63.024000 74104.900000
65.003200 50087.500000
83.013900 52588.900000
91.019000 295653.900000
104.026800 25073.100000
107.013800 136381.600000
108.021600 22076.000000
117.034700 25479.200000
119.013600 10125.600000
120.021600 10686.700000
121.029600 25692.600000
130.042700 19044.500000
132.021700 2623858.800000
133.029000 10781.900000
134.037400 173380.300000
135.008800 694284.200000
141.034400 14840.600000
142.042100 18954.700000
143.050200 35744.600000
145.029700 18278.800000
147.008900 88934.300000
149.995800 13356.100000
151.003600 259009.000000
153.019200 150945.800000
154.042500 253354.800000
155.050200 23380.500000
156.058000 56433.900000
158.037300 28627.200000
166.042500 16770.000000
167.050200 258740.600000
168.058000 93168.500000
169.014500 16089.100000
170.037500 63328.500000
171.045000 75301.000000
172.053300 30874.600000
173.061600 13534.700000
178.042700 21161.000000
179.050400 46607.100000
180.058100 170821.300000
182.037200 65249.900000
183.045100 165330.900000
184.053000 439355.700000
194.037200 20489.800000
195.045100 939027.500000
196.052900 565884.600000
197.025000 39839.700000
198.032200 164603.100000
199.040100 89877.900000
200.047700 61919.200000
210.032300 25079.500000
211.040000 3015183.500000
212.047900 802657.800000
222.032300 83884.200000
223.040100 1450932.600000
224.047900 975817.800000
225.019300 37104.200000
226.027100 850456.600000
227.035400 39698.800000
238.026900 16398.700000
239.034900 5794163.000000
240.042700 1570323.000000
244.037500 11935.600000
250.026800 119677.100000
251.035000 48069.100000
267.029900 5909107.000000
268.037600 7606721.000000
283.060400 56746.000000

>ms2peaks
63.024000 309778.900000
65.003300 254087.000000
68.998100 8494.900000
83.013900 143824.100000
89.003300 8877.200000
91.018900 595256.800000
93.034600 15940.100000
95.013800 16542.000000
104.026700 94794.700000
106.006100 19562.800000
107.013900 297118.500000
108.021600 64328.600000
116.027000 8534.500000
117.034600 58815.200000
119.013800 27797.200000
120.021700 18326.100000
121.029400 65339.000000
123.008800 24771.400000
123.045000 49474.200000
126.047000 7141.300000
130.042400 56920.700000
132.021700 3048567.500000
133.029500 35088.000000
134.037300 247083.700000
135.008800 316888.600000
139.055300 27051.900000
141.034600 64562.000000
142.042600 42936.000000
143.050200 91911.300000
145.029400 29278.600000
145.066200 7400.700000
147.008700 105150.000000
149.996200 10069.300000
151.003600 209567.700000
151.055200 22462.600000
153.019400 71793.800000
153.034300 16402.500000
154.042400 424200.800000
155.050400 82173.400000
156.021400 11620.400000
156.058200 95937.200000
158.037200 29434.500000
160.016800 8119.200000
165.034500 18868.400000
166.042500 33043.000000
167.050200 1085176.500000
168.057900 68033.300000
169.014200 8167.600000
169.029500 84218.200000
169.065700 26053.700000
170.037400 55641.600000
171.045100 100802.700000
172.052900 18704.200000
173.060300 7490.500000
178.042600 39749.500000
179.050200 195816.600000
180.057900 77364.000000
182.037400 87717.800000
183.045100 614045.900000
184.052900 451165.300000
185.060300 10102.000000
194.037200 28675.000000
195.045100 1710212.100000
196.052900 228364.800000
197.024300 57854.400000
198.032300 99697.900000
199.039900 78492.100000
200.047800 27125.000000
210.032200 110312.400000
211.040000 5027934.000000
212.047800 304196.800000
222.032300 45248.600000
223.040100 1167418.000000
224.047900 227742.800000
225.019300 30043.400000
226.027200 255203.300000
227.034300 9847.800000
238.027900 8289.100000
239.034900 3801658.500000
240.042800 440514.700000
250.027100 35123.700000
251.034600 38530.500000
266.021800 13317.000000
267.029900 3452814.500000
268.037600 628005.900000

>ms2peaks
63.024000 727842.500000
65.003300 618383.800000
68.998300 10287.000000
83.013900 240194.600000
89.003400 27952.400000
91.019000 641792.000000
93.034600 50044.800000
95.013900 19736.900000
104.026800 126059.500000
106.006000 19582.700000
107.013900 261068.500000
108.021800 85480.100000
116.027000 30937.100000
117.034600 142754.300000
119.013900 42667.600000
120.021500 7390.700000
121.029600 69055.900000
123.009000 22388.100000
123.045200 116108.200000
126.047500 8695.000000
130.042400 112036.800000
132.021700 2131092.800000
133.029700 27062.700000
134.037400 214713.800000
135.008800 114930.100000
139.055400 133062.400000
141.034700 249081.100000
142.042500 31992.100000
143.050200 197784.800000
145.029300 48819.900000
145.065900 25834.500000
147.008900 73822.200000
151.003800 84773.300000
151.055500 44867.800000
153.019400 25737.200000
153.034600 80962.900000
154.042500 376741.300000
155.050300 369451.400000
156.021800 10613.300000
156.058100 76510.100000
158.037300 32097.900000
160.017100 9857.300000
165.034700 61665.200000
166.042600 19956.400000
167.050300 2272260.500000
168.058200 28342.300000
169.029600 193005.100000
169.065700 43221.200000
170.037500 43838.600000
171.045300 83541.600000
172.052900 10395.500000
173.061000 48384.500000
178.042500 65091.100000
179.050300 224475.700000
180.058900 14066.100000
182.037500 258122.300000
183.045200 1412239.000000
184.053000 249298.000000
185.060900 16876.000000
194.037600 25624.800000
195.045200 1657617.600000
196.053400 49766.500000
197.024500 69478.500000
198.032300 33783.800000
199.040500 40038.400000
210.032300 482702.100000
211.040100 4334537.000000
212.048000 72405.200000
222.032600 28690.000000
223.040200 571774.900000
224.048200 29734.600000
225.019500 13372.300000
226.027000 37903.000000
238.027200 21730.100000
239.035100 1334869.000000
240.043000 47018.300000
251.036000 7758.800000
266.023500 8289.500000
267.030000 956092.100000
268.038200 30192.500000

