>compound LU10349630
>parentmass 273.85089999999997
>ionization [M-H]-
>formula C7H3Br2NO
>rt 988.920000
>profile orbitrap
#smiles_iso C1=C(C=C(C(=C1Br)O)Br)C#N
#smiles_can C1=C(C=C(C(=C1Br)O)Br)C#N
#inchikey UPMXNNIRAGDFEH-UHFFFAOYSA-N
#pubchem_id 15531
#mb_accession LU054951,LU054952,LU054953,LU054954,LU054955,LU054956

>ms2
78.918800 390811.400000
273.851000 7648299.500000

>ms2
78.918900 2571865.500000
193.924700 21759.700000
273.850900 5455157.500000

>ms2
78.918900 7438219.500000
193.924700 79796.000000
273.850900 1947260.200000

>ms2
78.918900 6241286.500000
91.006500 6681.300000
165.929700 7152.200000
182.932300 9362.300000
193.924700 51719.400000
273.850900 270098.200000

>ms2
78.918900 7442333.000000
113.998500 9955.900000
165.929900 9971.000000
182.932200 14205.400000
193.924500 21997.900000
273.850900 31464.700000

>ms2
78.918900 7599891.000000
86.003500 15839.200000
113.998500 8364.100000
193.924600 8075.200000

