>compound LU10310756
>parentmass 177.0921
>ionization [M-H]-
>formula C11H14O2
>rt 1033.620000
>profile orbitrap
#smiles_iso CC(C)(C)C1=CC=C(C=C1)C(=O)O
#smiles_can CC(C)(C)C1=CC=C(C=C1)C(=O)O
#inchikey KDVYCTOWXSLNNI-UHFFFAOYSA-N
#pubchem_id 7403
#mb_accession LU021851,LU021852,LU021853,LU021854,LU021855,LU021856

>ms2peaks
162.069000 1972.100000
177.092100 1308231.200000

>ms2peaks
161.060800 2872.900000
177.092100 1073031.400000

>ms2peaks
161.060800 14880.500000
162.068300 1956.200000
177.092100 952929.600000

>ms2peaks
121.029700 2328.200000
161.060900 19352.800000
162.068400 2552.100000
177.092200 383403.000000

>ms2peaks
161.061000 14169.700000
177.092200 59959.300000

>ms2peaks
121.029500 1814.900000
161.060700 18901.300000
177.092100 10562.000000

