>compound LU10418829
>parentmass 276.0309
>ionization [M-H]-
>formula C9H7N7O2S
>rt 640.080000
>profile orbitrap
#smiles_iso CN1C=NC(=C1SC2=NC=NC3=C2NC=N3)[N+](=O)[O-]
#smiles_can CN1C=NC(=C1SC2=NC=NC3=C2NC=N3)[N+](=O)[O-]
#inchikey LMEKQMALGUDUQG-UHFFFAOYSA-N
#pubchem_id 2265
#mb_accession LU126251,LU126252,LU126253,LU126254,LU126255,LU126256

>ms2
117.021000 8461.300000
134.023400 17670.800000
138.984500 9636.300000
150.000900 8201.100000
215.014900 16545.200000
229.030200 44426.700000
230.038000 30875.900000
276.030800 6729555.500000

>ms2
57.975600 23434.200000
66.009800 7263.200000
79.017700 2256.800000
81.975700 7523.600000
82.041200 1924.100000
97.994400 4383.300000
107.012700 16313.600000
111.002300 17798.800000
112.015300 7945.600000
117.020700 74663.600000
118.028300 3220.400000
118.041000 4643.000000
119.036400 3822.900000
123.997500 30103.900000
124.010100 3596.600000
124.981300 2176.900000
125.017600 2438.900000
132.044000 20483.200000
133.015200 2980.800000
134.023500 107623.100000
135.997400 13691.600000
136.015000 4334.400000
138.984600 31568.700000
139.992500 6299.700000
143.987400 25900.600000
144.031600 20824.200000
145.052100 4760.700000
147.997300 3645.900000
150.000600 5998.400000
150.042000 2378.600000
151.008500 23252.800000
151.992600 5012.600000
152.028500 4643.300000
158.003000 489807.500000
163.007900 2488.600000
164.034000 3037.000000
170.047400 13578.100000
173.045600 2745.400000
176.016300 7871.400000
183.042600 4762.300000
184.037600 3625.400000
189.011200 3569.000000
197.058000 5927.800000
202.019200 5445.600000
203.026900 18071.600000
214.006500 2436.000000
215.014500 24560.900000
229.030100 71114.300000
230.038000 60750.900000
276.030900 1323689.900000

>ms2
55.030100 9904.900000
57.975700 79391.000000
65.014500 6696.100000
66.009800 27763.400000
69.009400 8176.200000
73.970700 14321.900000
79.017600 7009.000000
81.975700 35631.800000
82.041100 2860.100000
90.009700 27816.900000
92.025400 9512.400000
93.020700 5881.600000
94.004800 7219.000000
96.986700 10779.100000
97.994500 18560.700000
106.028400 7001.300000
107.012600 45492.000000
108.986500 7788.200000
109.981700 8075.500000
111.002300 41597.600000
112.010200 4578.200000
112.015300 10096.000000
112.981400 10449.400000
113.989300 4777.000000
117.020700 385048.400000
118.028300 6501.000000
118.041100 4676.100000
119.036300 5479.400000
121.015500 2622.100000
123.997400 67528.000000
124.010100 7672.800000
124.981700 2876.000000
125.017800 3125.500000
126.984400 14881.600000
128.005100 18888.500000
131.023700 5435.300000
132.044200 53824.400000
133.015400 3307.500000
134.023500 241568.600000
135.997500 26520.400000
136.015100 11210.400000
138.984600 42423.900000
139.992500 7047.700000
142.979400 8349.500000
143.036500 4738.000000
143.987300 50626.400000
144.031500 66823.000000
145.051800 6854.800000
147.997200 6315.200000
148.992400 3877.900000
150.000500 9140.000000
150.042100 6987.000000
151.008300 35777.400000
151.992300 10813.300000
157.039300 4323.400000
158.002900 2015623.900000
163.008500 6881.900000
164.033900 11548.900000
170.047300 17146.300000
172.026400 2417.100000
173.045600 4334.600000
175.008300 2439.900000
176.016100 9328.800000
183.042600 12039.700000
184.037500 5231.000000
189.011300 2811.000000
197.058300 11793.000000
202.019400 8547.000000
203.027000 7720.900000
214.006800 10363.700000
215.014400 21707.200000
229.030100 44823.900000
230.037900 16415.100000
276.030800 53267.800000

>ms2
55.030100 10777.800000
56.980300 2493.600000
57.975700 106258.100000
61.970700 2618.800000
63.962500 4511.300000
65.014500 13379.600000
66.009800 30338.200000
67.030300 3146.600000
69.009500 11856.600000
69.975800 3123.600000
70.983500 2622.300000
73.970600 79354.300000
79.017700 22577.500000
81.975700 51137.600000
82.041100 3231.300000
85.970500 17292.400000
90.009800 114936.600000
92.025300 18118.800000
93.020700 6064.700000
94.004700 6129.800000
95.978700 3011.100000
96.986500 10811.800000
97.994400 24548.000000
106.028600 18977.800000
107.012500 46779.500000
108.986500 6648.600000
109.981900 7508.300000
111.002200 55609.100000
112.010100 52246.900000
112.015100 7469.800000
112.981500 62896.200000
113.989400 8215.900000
114.997300 4019.300000
117.020700 674507.200000
118.028300 4252.000000
118.041400 3998.500000
119.036400 9153.700000
123.997400 45257.300000
126.984700 22800.000000
128.005000 103335.700000
131.023600 4319.100000
132.044100 53521.300000
133.015400 3660.500000
134.023400 219968.800000
135.997300 19488.100000
136.015400 7057.000000
138.984600 16586.600000
142.979400 46023.600000
143.036400 6842.100000
143.987500 25330.200000
144.031500 78425.900000
145.052300 6031.900000
147.997600 3209.700000
148.992400 4009.300000
150.000500 14806.500000
151.008400 29454.900000
151.992400 10365.600000
157.039200 5563.200000
158.002900 2436989.200000
163.008400 6457.100000
164.034000 7656.300000
168.031900 2875.400000
170.047500 9328.000000
172.026800 3678.600000
175.008500 3317.400000
176.016300 6027.300000
182.034500 3406.700000
183.042900 11419.300000
184.037800 3148.400000
195.042400 3864.000000
197.058200 10592.200000
202.019400 6324.300000
214.006900 8408.800000
215.014400 18697.100000
229.030300 26460.400000

>ms2
55.030100 13198.800000
56.980400 3508.100000
57.975700 164637.100000
61.970600 2425.200000
63.962400 15226.400000
64.006700 2664.500000
65.014500 29362.700000
66.009800 40379.200000
67.030200 3640.400000
69.009500 13210.700000
69.975500 2141.700000
70.983500 3748.800000
71.967500 2759.200000
73.970600 153096.400000
79.017600 42030.100000
81.975700 52869.500000
82.017100 3320.200000
82.041200 3978.600000
83.991200 5041.500000
85.970600 78086.400000
90.009800 304605.500000
92.025400 26284.200000
93.020800 5135.500000
94.004700 4627.500000
95.978800 9932.700000
96.986600 8495.000000
97.994400 34073.300000
105.033300 3307.600000
106.028400 27456.300000
107.012500 27538.800000
108.986600 7724.400000
109.981800 11299.300000
111.002200 179826.300000
112.010100 139958.700000
112.981500 161608.400000
113.989400 6558.400000
114.997200 3892.000000
117.020700 865545.400000
118.041000 3412.200000
119.036100 9876.600000
121.015700 2396.500000
122.989600 4308.800000
123.997500 32053.300000
126.984500 22149.300000
128.005000 169335.600000
130.028400 4312.500000
131.023600 4356.900000
131.036400 3781.700000
132.044100 58904.500000
133.015700 6045.900000
134.023400 112832.500000
135.997400 9413.000000
136.014700 3459.000000
138.984500 6258.600000
142.016000 3704.500000
142.979400 78818.000000
143.036200 10186.200000
143.987300 8732.100000
144.031500 79861.800000
147.997200 2780.600000
150.000300 14665.300000
151.008200 18223.700000
151.992000 5024.700000
156.031700 4379.600000
157.039200 6598.200000
158.002900 1505894.400000
163.008300 4290.400000
164.033900 7616.900000
168.031600 3109.700000
170.047200 6595.300000
174.000400 2903.400000
175.008200 5750.100000
182.034400 6010.900000
183.042400 11152.200000
184.038000 2274.600000
195.042700 2838.000000
197.057700 5044.500000
202.019200 7182.500000
214.006300 3890.700000
215.014400 5373.000000
229.030600 10873.900000

>ms2
55.030100 13522.300000
56.980500 9642.500000
57.975700 222733.900000
61.970600 3711.500000
63.962400 20236.300000
64.006700 8554.100000
65.014500 31052.600000
66.009800 45541.300000
67.030100 6166.900000
69.009500 11560.000000
69.975700 3160.500000
70.983600 7019.100000
71.967600 2432.700000
73.970600 147674.500000
79.017600 39980.400000
81.975700 65048.700000
82.017500 4651.000000
83.991400 9486.100000
85.970600 176910.800000
90.009800 541214.100000
92.025400 41706.700000
93.020500 3040.500000
95.978800 21546.100000
96.986700 6990.600000
97.994400 27708.400000
105.033500 3619.500000
106.028600 17482.200000
107.012600 17596.100000
108.986700 5439.800000
109.981900 7219.700000
111.002200 385096.600000
112.010100 176024.400000
112.981500 192740.400000
113.989200 3451.300000
114.997000 2494.900000
117.020700 827196.400000
119.036300 10042.700000
122.989800 3472.200000
123.997500 21883.900000
126.984500 5267.300000
128.005000 136822.600000
130.028700 3898.500000
131.023700 3168.700000
131.036600 4813.200000
132.044000 38646.200000
133.015700 5359.000000
134.023500 49157.900000
135.997300 10534.200000
142.016100 3189.600000
142.979400 65091.100000
143.036400 9715.400000
144.031600 67532.200000
145.052100 3261.300000
150.000400 5345.200000
151.008400 5128.700000
156.031800 6181.500000
157.039700 3328.200000
158.002900 602656.200000
164.034000 8776.000000
168.031300 3948.300000
170.047200 3525.800000
174.000600 3443.900000
175.008500 6128.300000
182.034800 6203.900000
183.042300 3914.600000
195.042900 3858.600000
215.014200 3995.800000
229.030500 2375.500000

