>compound LU10484926
>parentmass 194.00299999999996
>ionization [M-H]-
>formula C7H5N3O2S
>rt 865.060000
>profile orbitrap
#smiles_iso C1=CC2=C(C=C1[N+](=O)[O-])SC(=N2)N
#smiles_can C1=CC2=C(C=C1[N+](=O)[O-])SC(=N2)N
#inchikey GPNAVOJCQIEKQF-UHFFFAOYSA-N
#pubchem_id 22704
#mb_accession LU109851,LU109852,LU109853,LU109854,LU109855,LU109856

>ms2
57.975600 51556.600000
130.017400 13117.800000
147.002100 10591.100000
148.010100 236170.400000
162.030900 145804.700000
162.997000 28157.600000
164.005100 170965.600000
166.992100 65391.800000
177.000400 69540.600000
194.002900 7594539.000000

>ms2
57.975600 96390.200000
60.975400 10658.400000
88.970200 20009.900000
115.029900 7663.100000
130.017300 17120.500000
135.002300 6669.800000
136.010200 10278.400000
136.994000 7321.000000
147.002200 11451.500000
147.019700 10306.900000
148.010100 377003.200000
150.997100 8644.800000
162.030900 240331.700000
162.997200 40765.900000
164.005000 239031.100000
166.992000 91733.500000
177.000200 104445.200000
194.002800 6392093.500000

>ms2
50.003500 3460.500000
57.975600 411127.400000
60.975300 52041.900000
65.014500 7302.700000
65.998600 8288.900000
70.983500 5912.100000
72.975300 4594.300000
77.014500 11465.900000
78.022300 9402.800000
81.975700 14747.600000
83.991300 8233.000000
88.970300 80837.200000
89.014500 6344.500000
91.030200 7712.300000
94.983400 3562.100000
95.991300 6610.500000
107.991400 6834.400000
110.991000 3965.400000
115.030100 42009.200000
119.024900 22600.000000
120.009000 5417.500000
120.999200 35137.400000
121.994300 9191.800000
122.012400 3383.900000
123.986300 8685.100000
124.993900 3700.000000
129.033100 3398.600000
130.017200 61439.000000
131.025100 11116.500000
132.032900 17829.700000
135.002200 15419.000000
135.986200 6424.200000
136.009900 27433.100000
136.994000 17249.600000
145.994200 10169.700000
147.002200 33128.500000
147.020000 52877.100000
148.010100 831352.800000
150.997100 56789.100000
152.976600 4236.400000
153.996800 7941.800000
162.030900 605687.200000
162.997100 127121.200000
164.005000 394569.200000
166.992000 139871.500000
177.000200 260278.500000
192.995500 3552.400000
194.002900 3098903.200000

>ms2
50.003600 8844.000000
56.980300 2738.600000
57.975700 683044.600000
60.975400 73334.600000
61.970600 4464.900000
64.019200 4370.000000
65.014500 9644.500000
65.998500 10642.300000
70.983600 9369.800000
77.014700 5142.900000
78.022400 9706.500000
81.975800 23071.000000
83.991400 8572.700000
88.970300 66401.300000
89.014600 10612.800000
91.030200 15655.000000
94.983600 8339.700000
95.991400 5504.100000
104.037900 5000.700000
106.996100 16616.000000
107.991500 34253.500000
108.975000 2453.500000
115.030200 92381.700000
119.025200 37769.100000
119.991300 7950.800000
120.009100 5609.200000
120.999300 98141.800000
121.994500 7049.100000
122.012600 5973.600000
123.002400 4574.200000
123.986500 14613.100000
124.994000 2736.300000
129.033600 3915.800000
130.017300 66955.100000
131.025100 11621.200000
132.033000 84156.100000
132.986800 2707.800000
135.002400 20596.000000
135.986300 9740.200000
136.010100 16596.800000
136.994400 15026.700000
138.986000 4975.500000
145.994600 7345.800000
147.002400 36776.300000
147.020200 98016.400000
148.010300 628413.700000
149.989500 4450.500000
150.997300 89489.900000
152.976800 4273.900000
153.996900 8310.200000
162.031100 557028.900000
162.997300 116634.400000
164.005200 184376.300000
166.992200 50067.100000
177.000400 165342.800000
178.992400 6873.200000
192.995500 6497.600000
194.003200 667751.700000

>ms2
50.003600 11996.500000
56.980500 7727.800000
57.975700 824588.000000
60.975300 78020.300000
64.019300 5530.100000
65.014500 13488.300000
65.998600 13644.300000
68.014300 3605.500000
70.983500 14237.000000
77.014600 3767.400000
78.022200 3382.300000
81.975700 28173.600000
83.991300 4444.900000
88.970400 34862.300000
89.014400 13738.500000
91.030200 15776.100000
94.983800 11147.100000
95.991500 3428.400000
96.004000 5951.600000
104.038100 12301.100000
106.996100 78255.500000
107.991400 57522.400000
108.975400 5010.200000
115.030200 128140.800000
119.025200 30012.300000
119.991500 13045.900000
120.009100 2462.600000
120.999200 127649.200000
121.994600 3318.900000
122.012300 4025.900000
123.002200 2653.200000
123.986600 11287.000000
124.993800 2811.900000
129.033500 2634.700000
130.017300 45110.000000
131.025200 10307.600000
132.033000 175030.700000
132.987100 2193.800000
135.002400 21392.200000
135.986300 16209.900000
136.010200 7571.000000
138.985900 3409.800000
145.994700 5575.400000
147.002500 28347.000000
147.020200 71143.100000
148.010300 301696.000000
149.989400 5376.000000
150.997200 66725.600000
152.977000 3006.100000
153.997100 6781.900000
162.031100 318862.200000
162.997300 71741.600000
164.005300 48017.500000
166.992200 10372.800000
177.000500 52317.600000
178.992200 5138.000000
192.995200 3675.700000
194.003100 84911.600000

>ms2
50.003500 14003.300000
56.980400 36022.100000
57.975700 916831.800000
60.975400 60039.200000
64.019300 6714.700000
65.014500 11819.000000
65.998500 7808.100000
70.983600 10715.600000
76.019200 2874.300000
80.980400 11316.600000
81.975700 28694.200000
83.991500 3265.600000
88.019400 3885.100000
88.970400 11654.500000
89.014500 7864.600000
91.030300 10902.700000
94.983500 6925.200000
95.991300 3753.200000
96.003800 6392.400000
104.038000 8641.400000
104.980400 8043.000000
105.975700 6058.200000
106.996100 161773.500000
107.991400 45130.500000
115.030100 106867.700000
119.025100 25497.400000
119.991100 7029.300000
120.999200 91746.200000
123.986700 2440.500000
130.017200 18032.700000
131.025200 4317.600000
132.032900 137341.800000
132.986700 2681.900000
135.002300 15737.800000
135.986200 14293.400000
145.994400 6654.200000
147.002300 15012.700000
147.020100 23352.100000
148.010100 76264.600000
150.997200 26995.900000
153.997000 2511.100000
162.030900 93783.200000
162.997300 22335.000000
164.004900 5759.500000
177.000200 7984.200000
178.991500 2265.600000
194.002700 8913.300000

