>compound LU10292628
>parentmass 269.0455
>ionization [M-H]-
>formula C15H10O5
>rt 1190.280000
>profile orbitrap
#smiles_iso CC1=CC2=C(C(=C1)O)C(=O)C3=C(C2=O)C=C(C=C3O)O
#smiles_can CC1=CC2=C(C(=C1)O)C(=O)C3=C(C2=O)C=C(C=C3O)O
#inchikey RHMXXJGYXNZAPX-UHFFFAOYSA-N
#pubchem_id 3220
#mb_accession LU099951,LU099952,LU099953,LU099954,LU099955,LU099956

>ms2peaks
254.021700 46337.600000
269.045400 39745340.000000

>ms2peaks
225.055700 772443.400000
241.050400 207456.700000
269.045500 39938064.000000

>ms2peaks
153.070900 42759.200000
169.065900 57484.800000
180.058200 141936.500000
181.066000 527824.300000
182.037400 83420.800000
185.060600 52068.900000
195.045300 28575.000000
196.053100 29426.100000
197.060800 616839.200000
207.045400 79268.900000
210.032400 332973.400000
213.055600 138158.000000
224.048000 182264.900000
225.055800 9116199.000000
227.035000 336519.800000
240.042400 71607.500000
241.050700 2691048.800000
254.022200 37439.000000
269.045600 26206104.000000

>ms2peaks
65.039500 13752.900000
89.039700 25797.100000
91.019000 31720.600000
105.034500 174263.000000
115.055100 22740.400000
131.050300 13426.600000
133.029600 83096.800000
139.055400 45383.000000
141.071000 35191.000000
143.050200 17386.700000
152.063000 107713.300000
153.071000 333843.100000
154.042500 80445.500000
155.050500 39626.900000
157.065800 110434.200000
158.037700 18950.200000
159.045000 19145.700000
167.050000 18645.300000
168.058200 22550.600000
169.065800 320565.700000
170.037100 14735.300000
171.045200 286060.500000
173.060900 35807.200000
175.040000 20481.700000
179.050200 217152.200000
180.058100 895715.200000
181.065900 1837841.500000
182.037300 1049403.400000
183.045400 73069.100000
184.052900 20263.200000
185.060800 595785.900000
186.032300 34836.700000
187.040100 14269.700000
195.045000 201969.300000
196.053000 376694.500000
197.060700 2268708.800000
198.031500 25603.800000
199.040000 118768.000000
201.055900 81075.700000
207.045200 340753.000000
210.032200 1458971.200000
211.039400 22309.400000
212.048000 51815.100000
213.055600 807775.200000
214.026700 18650.300000
223.040400 75656.800000
224.048000 1134696.000000
225.055700 11568638.000000
226.026200 46727.700000
227.034900 958126.500000
228.042400 47209.500000
240.042800 662395.100000
241.050600 4287660.500000
251.034900 20494.400000
254.022000 25999.300000
256.037600 104879.700000
268.037800 39396.100000
269.045500 6349864.500000

>ms2peaks
63.024100 20022.200000
65.003300 62172.500000
65.039700 19085.200000
77.039700 25869.900000
89.039700 66695.500000
91.018900 84298.400000
103.055400 10927.900000
105.034600 651164.300000
113.039600 32649.800000
115.055300 103790.500000
117.034500 23074.500000
127.055400 30608.500000
129.071100 16272.800000
130.042100 14836.600000
131.050200 36659.100000
132.021500 10286.100000
133.029500 71643.500000
133.066000 25567.700000
135.008800 22188.200000
139.055400 146882.300000
141.071100 71438.400000
143.050200 92823.600000
145.065800 12369.600000
151.055200 21642.500000
152.063200 175456.100000
153.071000 415225.700000
154.042500 280347.200000
155.050200 84764.400000
156.057900 8418.000000
157.065800 352231.000000
158.037200 28190.000000
159.045000 49631.300000
161.060800 56297.300000
166.042400 10417.700000
167.050200 117415.100000
168.058100 140870.700000
169.065900 313829.200000
170.037100 19988.300000
171.045200 989523.000000
172.053300 33657.300000
173.060800 102698.800000
175.040100 80688.400000
178.042300 27731.400000
179.050300 460278.600000
180.058100 976076.600000
181.065900 1087434.800000
182.037400 2309214.500000
183.045200 112568.500000
184.053200 50554.100000
185.060800 1477620.800000
186.032500 43331.400000
187.040000 55336.000000
195.045100 829478.400000
196.053000 897287.400000
197.060800 1776502.000000
198.032400 70185.900000
199.040000 247176.100000
201.019100 11903.600000
201.055800 61940.900000
207.045100 253880.200000
210.032200 1011781.500000
211.040200 43635.800000
212.048100 155933.400000
213.055800 839212.600000
214.027200 26207.200000
223.040200 117660.400000
224.048000 1291738.400000
225.055800 3276246.200000
226.026900 57853.700000
227.035100 527081.800000
228.043000 29887.500000
239.035000 17960.700000
240.042900 1344134.600000
241.050700 1472365.900000
256.037800 152387.600000
268.037700 40877.500000
269.045600 540499.900000

>ms2peaks
63.024000 56976.700000
65.003300 179971.000000
65.039700 32314.400000
77.039700 61542.000000
89.039700 133411.500000
91.019000 98814.900000
103.055200 20802.000000
105.034600 832537.700000
113.039700 47916.800000
115.055300 321795.200000
117.034700 37544.700000
127.055300 68543.800000
129.071000 27306.400000
130.042500 33342.300000
131.050300 100593.900000
132.021400 11907.100000
133.029500 23368.500000
133.065900 98564.600000
135.009200 7295.800000
139.055300 192126.700000
141.071100 70497.900000
143.050300 176483.800000
145.065900 11880.400000
151.055200 32458.000000
152.063200 139324.000000
153.071000 198140.700000
154.042500 424815.300000
155.050300 97055.100000
156.058000 19337.200000
157.065900 451178.600000
158.037200 32227.900000
159.045100 100398.800000
161.060900 96952.000000
166.043000 7428.500000
167.050200 233114.100000
168.058100 163145.900000
169.066000 143692.500000
170.037200 26633.300000
171.045200 958482.200000
172.052900 37453.300000
173.060900 97515.600000
175.040000 103036.100000
178.042400 70257.100000
179.050300 301785.100000
180.058100 393456.200000
181.066000 218316.100000
182.037400 1931414.100000
183.045000 113141.400000
184.053000 113177.200000
185.060800 1309388.800000
186.033000 8298.400000
187.040300 69217.600000
195.045100 1449032.200000
196.052900 668398.100000
197.060800 512071.000000
198.032300 94767.400000
199.040100 165712.300000
201.019500 10543.000000
201.055400 24787.500000
207.045200 68062.000000
210.032300 256085.800000
211.040100 88674.400000
212.048000 193135.000000
213.055700 330858.000000
223.040200 115308.800000
224.047900 623894.400000
225.055800 347805.800000
226.026900 39175.200000
227.035000 114355.100000
228.042300 7997.000000
239.035000 17099.600000
240.042800 980193.100000
241.050800 262323.600000
256.037600 72356.200000
268.038200 12173.500000
269.045900 17419.400000

