>compound LU11717657
>parentmass 352.0607
>ionization [M-H]-
>formula C17H12ClN5O2
>rt 1066.500000
>profile orbitrap
#smiles_iso CC1=C2C(=NN1)NC3=C(C=C(C=C3)[N+](=O)[O-])C(=N2)C4=CC=CC=C4Cl
#smiles_can CC1=C2C(=NN1)NC3=C(C=C(C=C3)[N+](=O)[O-])C(=N2)C4=CC=CC=C4Cl
#inchikey UVLBAPBHAHFJSY-UHFFFAOYSA-N
#pubchem_id 86287525
#mb_accession LU048451,LU048452,LU048453,LU048454,LU048455,LU048456

>ms2
352.060700 197741.200000

>ms2
147.020000 41430.400000
241.060500 8753.700000
244.051600 27917.100000
245.059500 79281.500000
249.054500 10303.000000
254.025700 6447.400000
257.072200 35038.200000
258.092600 18831.500000
265.041300 20845.700000
270.091400 17510.000000
271.062500 10651.700000
273.054200 6134.300000
273.078500 7688.100000
276.064600 19342.200000
279.033200 76891.400000
280.028400 7658.400000
283.015500 7246.200000
284.023100 69315.100000
285.078300 127251.900000
286.086200 41243.500000
287.094300 12529.800000
288.078300 22024.300000
293.049000 11289.700000
294.031600 21151.500000
296.023200 32911.100000
297.043400 73902.100000
299.081300 25914.700000
305.060200 6038.300000
309.032100 17556.800000
310.024500 21314.800000
311.034100 12523.000000
315.075800 27204.200000
316.083800 62288.600000
322.059600 41465.400000
323.046500 8498.600000
324.054200 33137.200000
337.037500 18710.500000
352.060600 5848856.500000

>ms2
65.014600 2872.000000
65.998500 2734.500000
120.009000 3798.900000
143.025100 8168.200000
147.020000 74063.700000
157.053100 4795.200000
165.045700 5833.700000
189.046000 2912.000000
211.062400 13334.100000
212.046400 8162.800000
213.054600 4804.400000
215.061600 6613.500000
216.056700 18586.200000
217.040800 3241.100000
219.056000 26753.100000
221.035600 8602.900000
226.037300 24859.400000
228.056200 7449.400000
229.064500 25777.300000
229.076700 4100.500000
232.051500 5999.900000
240.052700 20350.400000
241.060500 22765.900000
241.076700 9859.200000
242.071800 4909.000000
243.056000 23997.200000
244.051500 127022.600000
245.059400 58560.300000
249.054500 33282.200000
252.021900 8828.700000
253.017600 29301.900000
254.025100 22409.800000
256.064000 7959.500000
257.071800 91037.100000
257.083800 5001.600000
258.092000 35447.400000
261.067000 11362.000000
265.041300 23166.700000
266.025200 3162.700000
269.083200 11216.700000
270.067400 13657.800000
270.091300 18494.200000
271.028500 15626.100000
271.062500 28777.100000
273.054100 7348.200000
273.078600 20404.500000
275.041400 2538.800000
276.064900 16051.900000
279.033000 179219.600000
280.028000 47407.100000
283.015000 24962.200000
284.023300 58310.000000
285.078100 405119.800000
286.085400 26305.800000
287.093800 65443.500000
288.077800 8204.000000
293.048800 23338.800000
294.031700 9085.100000
296.023100 97898.800000
297.043600 69313.200000
299.081300 22756.700000
305.059800 8258.000000
306.067100 4813.900000
309.030900 14192.000000
310.024900 26835.900000
311.033500 3112.000000
315.076400 26508.700000
316.084100 18344.000000
321.053600 3782.800000
322.038600 10094.000000
322.059400 18374.900000
323.046900 2616.500000
324.054100 7548.400000
337.036700 13258.400000
352.060500 571334.100000

>ms2
244.051300 3695.900000
285.078200 5475.200000

>ms2
50.003600 2701.700000
65.014500 3818.900000
65.998500 4094.300000
66.009900 4147.100000
88.019500 3266.200000
92.014200 2990.700000
114.034800 8988.300000
115.030300 5436.800000
120.009100 2819.700000
139.030300 6636.100000
140.050400 2748.200000
142.041500 5847.400000
143.025100 14532.500000
147.020000 4705.400000
154.053400 2964.600000
155.037700 2035.300000
165.045900 6552.700000
170.036200 17642.300000
182.048200 4388.200000
188.050800 3522.700000
189.045900 17882.400000
190.041600 1938.800000
191.061500 17277.100000
194.060700 3523.300000
201.046200 2913.600000
202.053800 13168.900000
205.053100 3971.900000
211.062800 18998.600000
212.046700 3455.300000
213.041900 10807.700000
214.066200 3711.800000
215.061700 17397.700000
216.056700 90133.400000
217.040700 10724.100000
219.056500 25430.400000
225.022600 6677.200000
226.037900 8708.400000
227.048900 3628.500000
228.056900 12763.600000
228.069600 7473.900000
229.053100 4033.100000
229.064600 5139.800000
229.076600 3624.100000
230.048700 19063.400000
232.051500 2294.100000
240.052900 9143.700000
241.077900 4635.700000
242.072400 3281.200000
243.056000 17375.600000
244.051800 90114.500000
249.022700 7669.800000
249.054300 2408.500000
252.022000 3648.200000
253.017700 14397.600000
254.059700 6357.900000
257.070700 8612.500000
257.084200 5235.500000
266.025200 12332.800000
269.084400 4132.000000
275.038700 2153.100000
279.032400 8885.900000
280.028300 5189.300000
285.078300 42050.100000
287.093900 5748.000000
296.023100 8789.600000

>ms2
50.003600 3322.100000
65.014600 2892.300000
65.998700 4648.000000
66.009900 6566.700000
88.019300 9220.100000
92.014000 2482.700000
114.035000 8284.200000
115.030300 13678.300000
139.030300 6418.600000
140.050800 5818.100000
142.041000 9310.700000
143.025000 19126.600000
147.020100 3131.800000
154.053900 2140.900000
155.037800 3792.100000
165.045800 14313.900000
170.036200 7998.200000
182.048500 5662.900000
188.050700 4944.200000
189.045800 35455.500000
190.040700 2262.700000
191.061700 16222.700000
194.060800 2737.300000
201.045500 2257.300000
202.053800 16226.800000
205.053300 1958.000000
213.041900 10168.600000
214.065600 2309.400000
215.061500 13156.200000
216.056700 93029.100000
219.056500 8937.000000
225.022700 6168.300000
227.049100 3134.500000
228.057400 4205.400000
228.069700 6875.100000
229.052900 5100.800000
229.065100 3013.200000
229.077100 1924.300000
230.048000 11848.700000
241.077300 2140.000000
244.051600 34335.700000
249.022200 14074.500000
254.060000 4241.900000
256.064200 27816.200000
257.071100 3307.500000
257.085200 2003.800000
266.026300 1737.500000
285.078400 4093.500000

