>compound LU11145851
>parentmass 322.1197
>ionization [M-H]-
>formula C18H17N3O3
>rt 1015.380000
>profile orbitrap
#smiles_iso CCOC1=NC2=C(C=C1)NC=C(C2=O)C(=O)NCC3=CC=CC=C3
#smiles_can CCOC1=NC2=C(C=C1)NC=C(C2=O)C(=O)NCC3=CC=CC=C3
#inchikey DGFVZQGXKQCQGK-UHFFFAOYSA-N
#pubchem_id 9831581
#mb_accession LU128051,LU128052,LU128053,LU128054,LU128055,LU128056

>ms2peaks
160.028400 39600.300000
293.081000 84479.600000
294.088500 1087735.600000
322.119500 15537321.000000

>ms2peaks
108.032900 33760.400000
119.025100 22634.000000
132.033400 11007.700000
135.020000 16574.600000
148.027700 10161.600000
160.027400 138067.700000
161.035600 546235.900000
176.022800 493782.800000
188.023200 16740.300000
189.067000 126694.600000
250.074800 19225.800000
275.070100 15278.300000
276.077500 15880.700000
293.081000 1338552.100000
294.088500 9830368.000000
322.119700 6009335.000000

>ms2peaks
91.030200 11281.900000
96.009300 16874.900000
106.017200 9681.100000
108.032900 246359.100000
109.017000 38038.200000
119.025100 194842.800000
121.017000 16916.200000
123.020000 23564.500000
132.032800 126445.000000
133.040600 13898.900000
134.024800 17485.500000
135.020000 148012.500000
136.027800 42577.800000
137.012000 17039.600000
145.040900 9330.600000
147.020100 97548.400000
148.027900 38367.600000
160.027900 590342.400000
161.035600 4200095.500000
163.015000 29043.300000
175.014900 24747.600000
176.022700 833776.400000
177.030200 8348.800000
186.031000 10439.000000
187.015000 39927.000000
188.022600 16766.300000
189.030700 76640.000000
189.067000 93373.000000
217.061600 10165.700000
250.074900 47532.800000
275.070400 28402.700000
276.077700 90429.700000
292.073100 11272.800000
293.080800 409417.200000
294.088500 5583877.000000
322.119800 210988.100000

>ms2peaks
65.998500 12187.100000
81.022000 14769.700000
91.030100 57013.600000
93.022000 14058.600000
96.009200 21540.900000
104.038100 20609.100000
106.017200 41394.800000
107.025000 18768.000000
108.032900 372161.500000
109.016800 78438.000000
118.017200 10715.800000
119.025100 419028.400000
121.017000 38476.900000
122.024900 10393.900000
123.019900 27332.000000
132.032900 1583895.900000
133.040700 195911.200000
134.024800 222205.400000
135.020000 306493.300000
136.027800 69249.600000
137.012000 20027.000000
143.025200 14521.500000
145.040700 31673.200000
147.020000 893540.900000
148.027900 97921.300000
159.019700 13930.800000
160.027900 1822499.100000
161.035600 9224541.000000
163.015000 34024.100000
173.035600 9648.000000
175.014900 49653.800000
175.038600 12995.000000
176.022700 441015.700000
177.030500 45977.600000
186.031000 61560.300000
187.014900 66104.300000
188.022300 11017.600000
189.030700 108100.100000
189.066800 19938.000000
249.066700 12944.700000
250.074900 33444.100000
275.069300 25364.800000
276.077600 117864.000000
292.072600 15914.500000
293.080300 17418.500000
294.088600 1241096.100000

>ms2peaks
64.019200 15733.800000
65.998500 40906.500000
78.034900 13895.900000
81.022000 22814.400000
90.034900 13556.200000
91.030200 100377.300000
92.014200 14921.600000
94.029800 8340.800000
96.009000 16180.200000
96.045600 6851.800000
103.030200 6540.800000
104.038100 147044.900000
105.022000 6013.900000
105.045800 14400.600000
106.017300 151410.700000
106.029900 25148.900000
107.025000 26361.800000
108.032900 161043.300000
109.016900 33074.100000
115.030300 8209.200000
118.029800 11716.500000
119.025100 499353.400000
121.016800 10874.000000
122.024800 19324.800000
123.019900 17805.500000
124.040300 19386.600000
131.025000 8896.800000
132.032900 3424681.200000
133.040700 392647.900000
134.024700 364364.900000
135.020000 200188.700000
136.027900 26821.800000
137.011800 9665.600000
143.025000 21515.600000
145.040800 24945.100000
147.020000 1709773.500000
148.027800 92396.900000
159.019900 47609.900000
160.027900 1422951.500000
161.035600 5071877.000000
163.014800 20964.800000
173.035800 5139.600000
175.014700 18450.900000
175.038700 14964.400000
176.022600 132873.600000
177.030500 38844.300000
186.030900 96016.000000
187.014900 13705.100000
189.030500 30780.600000
250.074400 5822.300000
275.069700 8508.900000
276.077700 18399.000000
294.088400 38738.700000

>ms2peaks
64.019300 57104.100000
65.014600 18366.000000
65.998500 149727.400000
68.014200 9362.200000
78.034900 35861.100000
81.022000 50160.700000
90.034800 28755.300000
91.030200 206258.700000
92.014200 51940.800000
94.029800 14789.000000
96.009000 9022.600000
96.045600 30450.400000
103.030200 20432.800000
104.038000 602701.500000
105.022000 29433.100000
105.045800 35306.300000
106.017300 742912.200000
106.029800 49955.600000
107.025100 33878.900000
108.032900 79422.500000
109.017000 18960.300000
115.030000 19460.100000
118.029800 30262.900000
119.025100 813443.900000
122.024800 23703.100000
123.020100 5752.000000
124.040400 22786.700000
131.025100 37028.600000
132.032900 5369837.500000
133.040700 529946.600000
134.024700 382059.800000
135.020000 210025.800000
136.027700 12381.100000
143.025100 33450.000000
145.040800 19973.700000
147.020000 2091329.100000
148.027800 108921.100000
159.020000 103100.500000
160.027900 1087917.400000
161.035600 2877127.200000
163.014800 6495.600000
175.039100 9307.400000
176.022600 48419.000000
177.030500 19513.600000
186.030900 127343.100000
189.030600 12993.100000

