>compound LU12746086
>parentmass 299.1289
>ionization [M-H]-
>formula C18H20O4
>rt 1027.260000
>profile orbitrap
#smiles_iso CCC1OCC(O1)COC2=CC=C(C=C2)OC3=CC=CC=C3
#smiles_can CCC1OCC(O1)COC2=CC=C(C=C2)OC3=CC=CC=C3
#inchikey ZDOOQPFIGYHZFV-UHFFFAOYSA-N
#pubchem_id 4578030
#mb_accession LU053451,LU053452,LU053453,LU053454,LU053455,LU053456

>ms2
109.029500 456156.700000
123.045200 15358.600000
149.060300 1668.800000
177.092300 5208.900000
189.092100 62143.100000
299.129000 119843.300000

>ms2
109.029500 380956.600000
122.037300 7842.100000
123.045200 66871.600000
149.060900 5957.800000
174.068800 2412.900000
175.076800 3060.000000
177.092100 26175.900000
189.092100 26455.500000
299.129000 28892.100000

>ms2
81.034600 1825.700000
108.021700 6645.900000
109.029500 367576.200000
121.029600 7512.100000
122.037400 14306.400000
123.045200 110637.700000
137.024000 3627.300000
148.052900 3396.700000
149.060800 22307.700000
154.027300 6089.200000
162.068300 2472.600000
173.061000 3909.800000
174.068600 5339.000000
175.076300 3881.600000
177.092000 23697.400000
189.092000 14687.900000
299.128700 4770.600000

>ms2
81.034700 2807.600000
91.019000 1927.800000
93.034700 5040.500000
95.050200 6744.300000
108.021600 17009.600000
109.029500 288129.800000
121.029600 8669.300000
122.037300 12582.700000
123.045200 75256.000000
137.024500 3389.100000
148.053200 2049.200000
149.060800 29464.200000
154.027400 3659.400000
162.068800 5029.800000
173.060900 10011.000000
174.068500 2659.700000
175.076300 2597.100000
177.092400 7849.800000
189.092200 2580.600000

>ms2
81.034500 8784.100000
91.018900 5654.500000
93.034700 10494.500000
95.013900 2586.100000
95.050300 9663.700000
108.021700 31779.000000
109.029500 238127.400000
121.029400 6935.200000
122.037500 7077.000000
123.045300 34880.800000
135.045300 3976.500000
148.053100 5000.100000
149.060900 26727.200000
159.045000 2060.700000
173.060900 10283.800000
174.068900 2748.300000
175.076600 2465.300000
177.091900 2320.100000

>ms2
81.034600 8326.400000
91.019000 9930.000000
93.034600 9572.800000
95.013900 2335.700000
95.050200 5789.000000
108.021700 47392.500000
109.029500 117853.900000
121.029400 5413.000000
122.037300 4635.200000
123.045100 12038.100000
135.045300 3188.200000
148.053200 5690.100000
149.060800 14479.700000
159.045400 5096.600000
173.060700 6975.100000

