>compound LU12728242
>parentmass 264.07
>ionization [M-H]-
>formula C13H15NO3S
>rt 996.420000
>profile orbitrap
#smiles_iso CC[C@H](C)[C@@H](C(=O)O)N1C(=O)C2=CC=CC=C2S1
#smiles_can CCC(C)C(C(=O)O)N1C(=O)C2=CC=CC=C2S1
#inchikey FUSYFEXGXRDJNB-KWQFWETISA-N
#pubchem_id 462368
#mb_accession LU085351,LU085352,LU085353,LU085354,LU085355,LU085356

>ms2
108.003900 7262.800000
109.011600 52773.200000
150.001800 122120.900000
152.017500 10393.100000
179.071200 7354.700000
205.057000 7184.800000
220.080000 6679847.000000

>ms2
108.004100 9623.700000
109.011700 727316.600000
120.045400 12919.400000
134.007100 7367.300000
137.006700 42292.000000
150.001900 178146.100000
152.017600 73862.500000
163.009800 6736.700000
179.071700 12762.600000
205.056700 39493.800000
220.080100 5579450.000000

>ms2
63.962500 9593.400000
80.050600 3927.200000
82.066300 7350.000000
106.996200 2810.800000
108.004000 4819.400000
108.021600 3810.100000
109.011700 2303679.500000
110.991100 3534.500000
120.045500 9962.700000
134.007100 26610.700000
137.006600 99577.900000
150.001900 178961.900000
152.017600 97856.100000
163.009900 6543.200000
193.069300 3886.800000
202.070200 5636.300000
205.056600 29385.100000
218.064300 3942.100000
220.080100 1539324.200000
237.046300 3786.700000

>ms2
56.980400 3729.700000
63.962400 34814.400000
80.050600 6242.300000
82.066100 7992.100000
106.996200 14231.600000
108.004000 8320.500000
108.021800 11361.800000
109.011700 2707215.000000
110.990900 12541.900000
123.998900 3353.400000
134.007000 32662.200000
137.006600 76706.300000
138.985700 3938.300000
150.001800 166328.800000
152.017500 44136.200000
163.009600 3040.500000
202.069600 4177.900000
205.056700 9833.900000
211.024800 5141.900000
218.064300 3176.900000
220.080100 220240.700000

>ms2
56.980200 2586.400000
57.975700 3398.800000
63.962400 42077.600000
80.050600 2564.200000
106.996100 12525.800000
108.004000 15191.600000
108.021700 16691.800000
109.011700 1543213.100000
110.991000 21189.000000
123.999000 4062.700000
134.007000 18570.900000
137.006600 28641.300000
138.986100 5149.000000
150.001900 94305.900000
152.017500 10302.300000
220.079900 17651.200000

>ms2
56.980300 4626.300000
57.975700 4087.500000
63.962500 47841.400000
106.996300 15290.100000
108.004000 15128.400000
108.021700 17140.800000
109.011700 775939.800000
110.991000 18316.000000
123.998900 4343.000000
134.007100 16304.600000
137.006500 9325.900000
138.986100 5295.400000
150.001900 43396.600000

