>compound LU12039742
>parentmass 307.0724
>ionization [M-H]-
>formula C17H12N2O4
>rt 1122.600000
>profile orbitrap
#smiles_iso C1=CC=C2C=C(C(=CC2=C1)C(=O)NC3=CC(=CC=C3)[N+](=O)[O-])O
#smiles_can C1=CC=C2C=C(C(=CC2=C1)C(=O)NC3=CC(=CC=C3)[N+](=O)[O-])O
#inchikey YZJSKRBKHCLMQC-UHFFFAOYSA-N
#pubchem_id 67277
#mb_accession LU075651,LU075652,LU075653,LU075654,LU075655,LU075656

>ms2
143.050600 107488.000000
261.078500 59669.600000
307.072300 50517664.000000

>ms2
134.024600 81941.400000
137.035600 1731417.600000
138.019600 328771.600000
143.050200 5242701.500000
159.045300 64432.600000
163.015000 333516.400000
168.045500 503300.900000
248.071600 175080.900000
249.079700 309193.500000
260.071600 134680.500000
261.079400 256043.500000
264.066900 128137.600000
276.066600 194472.500000
289.061800 187799.700000
293.069500 439554.200000
306.065400 58001.300000
307.072400 46528296.000000

>ms2
65.998500 117890.900000
80.026900 31757.900000
90.034900 180279.900000
92.014300 30572.700000
105.022000 97756.300000
107.037700 724252.800000
108.021800 33529.100000
115.055300 298921.900000
122.024800 62679.100000
123.032500 63549.600000
130.042400 80754.300000
133.017000 308895.700000
134.024800 674836.900000
137.035700 10053490.000000
138.019700 754963.200000
141.034800 67563.500000
142.042300 95712.000000
143.050200 24586746.000000
149.011800 25240.100000
158.037400 42592.200000
159.045200 153796.500000
163.015000 784191.100000
168.045500 943847.600000
183.045100 41433.300000
206.061300 120633.800000
206.072800 25239.600000
216.081900 34255.800000
218.061700 30204.100000
231.069000 197213.300000
232.076700 203207.700000
233.060800 441087.800000
234.068800 130999.400000
248.071700 676066.000000
249.079700 455916.400000
258.055500 79913.500000
259.063900 73612.300000
260.071700 507820.500000
261.066800 54998.100000
261.079600 878825.200000
264.066600 272038.400000
276.066800 482135.600000
277.075000 47492.900000
279.077300 35223.100000
289.062000 328080.300000
293.069500 2175453.500000
307.072500 10118411.000000

>ms2
65.998500 79438.300000
80.026800 145769.800000
90.034900 1400745.000000
92.014200 30626.700000
105.022000 143777.700000
107.037700 2615752.000000
108.021700 88650.300000
115.055300 1950628.800000
118.029800 34229.300000
123.032500 33606.100000
130.042500 139128.800000
133.017000 340841.100000
134.024800 1009372.200000
137.035700 9230970.000000
138.019600 335539.400000
141.034800 71215.200000
142.042300 82469.400000
143.050200 26200356.000000
158.037400 39852.900000
159.045400 82755.600000
163.014800 202134.600000
165.070800 43120.900000
168.045500 467870.900000
206.060700 92221.300000
206.073200 34786.800000
217.066100 32084.900000
231.068900 205237.300000
232.076800 372332.200000
233.060700 427241.600000
234.068900 29007.500000
247.063300 33992.100000
248.071700 481787.300000
249.079800 74580.400000
258.055900 186420.700000
259.064100 71328.400000
260.071700 463629.100000
261.079600 386543.100000
264.066200 48164.600000
276.066700 203686.200000
289.061900 49206.000000
293.069500 1056496.600000
307.072400 357080.200000

>ms2
65.998600 60241.300000
80.026800 252232.500000
90.035000 2411362.500000
91.019000 69785.400000
91.042700 22382.800000
105.022000 91079.400000
106.030000 30978.800000
107.037700 2767787.800000
108.021700 71547.100000
115.055300 5081700.500000
117.034500 36826.600000
118.029800 37807.200000
130.042400 97997.200000
131.050000 20276.000000
133.017000 139032.000000
134.024800 689082.300000
137.035700 3608054.500000
138.019700 133746.200000
141.034500 73565.600000
142.042300 42079.300000
143.050200 18032164.000000
145.029300 26756.900000
159.045300 21136.400000
163.014900 27004.000000
165.071000 37318.400000
168.045600 262201.300000
206.061000 46743.900000
216.081700 22646.100000
220.076800 37306.300000
231.069200 89792.800000
232.076700 187747.100000
233.060700 258005.000000
247.064000 84503.200000
248.071800 176814.300000
258.056200 98743.900000
259.063800 22043.300000
260.071500 121339.700000
261.079400 39332.900000
276.066500 65217.300000
293.069700 113059.900000

>ms2
64.019400 12169.800000
65.998500 53416.500000
80.026800 326717.200000
90.035000 2014374.600000
91.019000 91066.100000
91.042800 35573.300000
105.022100 67654.200000
106.029900 20499.600000
107.037700 1792240.100000
108.021700 35818.700000
113.039700 43395.800000
114.047500 28097.900000
115.055300 8476764.000000
117.034600 63678.700000
118.030000 41862.900000
125.039700 36709.400000
130.042500 77986.500000
131.050500 21711.500000
133.016700 56726.500000
134.024800 325133.000000
137.035700 982603.200000
138.019700 41147.700000
141.034600 57163.300000
142.042300 23636.000000
143.050300 10519068.000000
145.029300 36031.400000
165.070900 18480.400000
168.045600 123396.300000
220.076600 33426.400000
231.069200 25923.300000
232.076800 88190.700000
233.061000 126969.900000
247.063700 62551.300000
248.072000 31580.700000
258.056400 23969.900000

