>compound LU12126053
>parentmass 179.1078
>ionization [M-H]-
>formula C11H16O2
>rt 1088.640000
>profile orbitrap
#smiles_iso CC(C)(C)C1=C(C=CC(=C1)OC)O
#smiles_can CC(C)(C)C1=C(C=CC(=C1)OC)O
#inchikey MRBKEAMVRSLQPH-UHFFFAOYSA-N
#pubchem_id 8456
#mb_accession LU091451,LU091452,LU091453,LU091454,LU091455

>ms2
179.107800 191350.600000

>ms2
151.076400 1747.000000
179.107900 187173.800000

>ms2
136.053100 1521.500000
151.076600 3898.600000
163.076400 2673.400000
179.107800 143987.700000

>ms2
136.053100 1735.600000
151.076300 4760.000000
163.076500 2703.500000
179.107800 51725.400000

>ms2
163.076600 4348.800000
179.107900 14539.100000

