>compound LU12212911
>parentmass 251.08260000000004
>ionization [M-H]-
>formula C15H12N2O2
>rt 930.660000
>profile orbitrap
#smiles_iso C1=CC=C(C=C1)C2(C(=O)NC(=O)N2)C3=CC=CC=C3
#smiles_can C1=CC=C(C=C1)C2(C(=O)NC(=O)N2)C3=CC=CC=C3
#inchikey CXOFVDLJLONNDW-UHFFFAOYSA-N
#pubchem_id 1775
#mb_accession LU082751,LU082752,LU082753,LU082754,LU082755,LU082756,LU092051,LU092052,LU092053,LU092054,LU092055,LU092056

>ms2
77.039900 4340.400000
102.034900 245273.900000
146.025000 11048.300000
180.082000 47748.900000
208.076800 461064.600000
224.071900 4363.300000
251.082600 3760993.500000

>ms2
77.039500 2858.800000
102.035000 827649.500000
121.029700 2199.300000
146.024800 41419.900000
180.082000 86590.800000
208.076800 497766.900000
224.071600 6521.400000
251.082600 942769.700000

>ms2
93.034800 2714.800000
102.034900 1519393.400000
105.034600 3919.200000
109.029300 6044.000000
120.045600 4054.500000
121.029400 11085.100000
122.037600 2513.300000
123.044900 2071.600000
146.024700 85789.700000
180.081900 34658.100000
207.068700 7248.900000
208.076800 310306.900000
251.082300 126891.400000

>ms2
93.034700 2504.500000
102.035000 1288270.200000
105.034600 3637.700000
109.029500 3314.200000
120.045600 4047.800000
121.029500 10354.500000
122.037300 5668.500000
123.045200 3555.800000
131.037800 4900.900000
146.024800 74089.100000
180.081700 3939.300000
207.068900 9121.500000
208.076900 49939.000000
251.082700 6867.900000

>ms2
102.034900 790771.300000
105.034400 1925.500000
118.029800 2239.900000
120.045500 3640.700000
121.029500 4060.400000
122.037400 4554.200000
131.037500 3098.600000
146.024700 50005.700000
208.077100 5476.800000

>ms2
93.034800 2455.600000
102.035000 288225.100000
118.029800 1865.300000
146.024800 19547.200000

>ms2
77.039900 4340.400000
102.034900 245273.900000
146.025000 11048.300000
180.082000 47748.900000
208.076800 461064.600000
224.071900 4363.300000
251.082600 3760993.500000

>ms2
77.039500 2858.800000
102.035000 827649.500000
121.029700 2199.300000
146.024800 41419.900000
180.082000 86590.800000
208.076800 497766.900000
224.071600 6521.400000
251.082600 942769.700000

>ms2
93.034800 2714.800000
102.034900 1519393.400000
105.034600 3919.200000
109.029300 6044.000000
120.045600 4054.500000
121.029400 11085.100000
122.037600 2513.300000
123.044900 2071.600000
146.024700 85789.700000
180.081900 34658.100000
207.068700 7248.900000
208.076800 310306.900000
251.082300 126891.400000

>ms2
93.034700 2504.500000
102.035000 1288270.200000
105.034600 3637.700000
109.029500 3314.200000
120.045600 4047.800000
121.029500 10354.500000
122.037300 5668.500000
123.045200 3555.800000
131.037800 4900.900000
146.024800 74089.100000
180.081700 3939.300000
207.068900 9121.500000
208.076900 49939.000000
251.082700 6867.900000

>ms2
102.034900 790771.300000
105.034400 1925.500000
118.029800 2239.900000
120.045500 3640.700000
121.029500 4060.400000
122.037400 4554.200000
131.037500 3098.600000
146.024700 50005.700000
208.077100 5476.800000

>ms2
93.034800 2455.600000
102.035000 288225.100000
118.029800 1865.300000
146.024800 19547.200000

