>compound LU12207009
>parentmass 333.0805
>ionization [M-H]-
>formula C15H12F2N4O3
>rt 982.080000
>profile orbitrap
#smiles_iso C/C(=N\NC(=O)NC1=CC(=CC(=C1)F)F)/C2=C(C=CC=N2)C(=O)O
#smiles_can CC(=NNC(=O)NC1=CC(=CC(=C1)F)F)C2=C(C=CC=N2)C(=O)O
#inchikey IRJQWZWMQCVOLA-DNTJNYDQSA-N
#pubchem_id 6125184
#mb_accession LU103851,LU103852,LU103853,LU103854,LU103855,LU103856

>ms2peaks
104.050600 9152.100000
106.066200 48953.200000
128.031700 519859.400000
132.045500 10251.000000
134.072400 663532.400000
148.040500 80822.000000
150.056100 23442.000000
160.051700 1109163.800000
178.062200 408625.600000
204.041500 236284.800000
284.032000 2478.800000
299.078900 4128.200000

>ms2peaks
79.055300 6307.400000
90.034900 5917.100000
104.050600 78112.500000
106.066200 74404.200000
108.025700 2912.800000
122.061200 4282.400000
128.031800 845235.800000
132.045500 33591.500000
132.056700 13139.600000
134.072400 769999.900000
148.040500 85731.400000
150.056200 7730.100000
151.003800 3460.200000
154.010900 4726.000000
160.051700 786751.700000
178.062300 106384.000000
204.041800 4341.300000
255.029500 13407.900000
256.038300 3043.800000
283.024800 13957.000000
284.032700 11780.200000
299.078500 3334.600000

>ms2peaks
79.055400 29535.800000
88.019200 5627.800000
90.035000 5579.400000
102.034900 4450.700000
103.030100 2352.800000
104.050600 127246.100000
106.066200 64979.100000
108.025500 9896.000000
122.061200 13263.200000
128.031700 922943.900000
132.045500 33569.600000
132.056700 22574.800000
134.072400 308957.500000
148.040500 25063.100000
151.003500 7935.000000
154.011100 3275.800000
160.051700 429433.700000
178.062300 48011.400000
227.035100 3022.600000
255.029900 20148.700000
256.036500 3203.400000
283.024700 2497.200000
284.032100 16720.200000

>ms2peaks
76.019200 2734.000000
79.055300 67916.400000
88.019300 43040.000000
90.034900 7212.800000
93.045800 3001.200000
102.035000 12061.500000
103.030200 6991.700000
104.050600 93658.900000
106.066200 53160.200000
108.025500 80683.900000
122.061200 9724.000000
128.031700 1128185.100000
132.045600 11021.800000
132.056700 40178.100000
134.072400 73871.100000
148.040600 8996.600000
151.003900 5360.800000
160.051700 296273.200000
178.062100 30127.500000
227.035100 3577.100000
255.030100 11190.900000

>ms2peaks
65.003300 4157.200000
65.998600 1939.600000
79.055400 57424.200000
87.011500 5823.100000
88.019300 181342.900000
90.034900 5375.000000
91.030200 4055.100000
93.045900 2539.100000
102.035000 16308.500000
103.030200 7600.000000
104.050600 44853.400000
106.066300 20754.500000
108.025500 209015.900000
122.061300 3041.400000
128.031700 843853.100000
132.056700 35891.700000
134.072400 8595.400000
148.040500 2925.400000
160.051600 127257.500000
178.062400 9816.900000
227.035200 6601.700000
255.029700 3898.600000

>ms2peaks
65.003400 4242.000000
65.998600 2457.200000
76.019200 1992.000000
79.055400 36065.000000
87.011500 21933.500000
88.019300 341197.600000
90.035000 5247.900000
91.030000 3164.500000
93.045900 3124.400000
102.035000 13366.100000
103.030200 9593.600000
104.050600 15395.500000
106.066300 4202.700000
108.025600 260293.800000
128.031800 407560.400000
132.056700 28639.500000
160.051800 37723.000000

