>compound LU12631058
>parentmass 297.186
>ionization [M-H]-
>formula C20H26O2
>rt 1056.780000
>profile orbitrap
#smiles_iso C[C@]12CC[C@H]3[C@H]([C@@H]1CC[C@]2(C#C)O)CCC4=CC(=O)CC[C@H]34
#smiles_can CC12CCC3C(C1CCC2(C#C)O)CCC4=CC(=O)CCC34
#inchikey VIKNJXKGJWUCNN-XGXHKTLJSA-N
#pubchem_id 6230
#mb_accession LU042951,LU042952,LU042953,LU042954,LU042955,LU042956

>ms2
281.154700 3883.900000
297.185900 1194008.400000

>ms2
281.155000 7423.600000
297.185900 1093392.500000

>ms2
223.113000 8010.100000
279.175400 7799.100000
281.154700 90620.100000
297.185900 757954.600000

>ms2
149.097200 2307.500000
223.112800 5784.400000
225.091900 4342.900000
239.107400 5636.500000
263.144000 5417.000000
265.123500 6635.200000
267.139600 3972.100000
279.175500 5514.100000
281.154800 324090.000000
297.186000 116325.300000

>ms2
149.097400 1971.700000
209.060500 4512.200000
225.091700 3550.500000
239.107900 6339.900000
249.128500 3908.400000
263.143800 16983.400000
265.123400 62737.200000
267.139600 4917.400000
281.154700 307896.900000
297.185500 7467.700000

>ms2
209.060700 5355.500000
239.108500 2784.500000
249.128800 4720.000000
263.143500 8829.400000
265.123500 115502.800000
267.139200 3087.600000
281.154800 77035.400000

