>compound LU13118187
>parentmass 137.0244
>ionization [M-H]-
>formula C7H6O3
>rt 896.640000
>profile orbitrap
#smiles_iso C1=CC(=CC=C1C(=O)O)O
#smiles_can C1=CC(=CC=C1C(=O)O)O
#inchikey FJKROLUGYXJWQN-UHFFFAOYSA-N
#pubchem_id 135
#mb_accession LU084851,LU084852,LU084853,LU084854,LU084855,LU084856

>ms2
65.039600 14189.600000
93.034600 3966903.200000
108.021600 6814.200000
137.024400 657881.500000

>ms2
65.039700 18674.600000
93.034600 4940304.000000
108.021800 7389.200000
137.024400 796705.200000

>ms2
65.039700 38955.100000
93.034600 4348051.000000
108.021700 6450.000000
137.024400 294435.100000

>ms2
65.039700 138783.700000
75.024000 6838.800000
93.034600 5080276.500000
108.021600 6501.900000
137.024400 67059.700000

>ms2
65.039700 280261.900000
67.019000 4721.300000
75.024100 16834.400000
93.034600 3928625.800000
108.022000 6846.600000
137.024000 12145.700000

>ms2
65.039700 594987.300000
67.018900 17227.100000
75.024000 48017.400000
93.034600 3736921.000000

