>compound LU13455937
>parentmass 126.99559999999998
>ionization [M-H]-
>formula C6H5ClO
>rt 1035.930000
>profile orbitrap
#smiles_iso C1=CC(=CC=C1O)Cl
#smiles_can C1=CC(=CC=C1O)Cl
#inchikey WXNZTHHGJRFXKQ-UHFFFAOYSA-N
#pubchem_id 4684
#mb_accession LU106451,LU106452,LU106453,LU106454,LU106455,LU106456

>ms2peaks
91.019000 138585.200000
126.995600 4166389.500000

>ms2peaks
91.019000 116683.100000
126.995600 3480486.200000

>ms2peaks
91.018900 163956.600000
126.995600 3445659.800000

>ms2peaks
91.018900 137450.000000
126.995600 1067791.000000

>ms2peaks
91.018900 115900.500000
126.995600 443021.600000

>ms2peaks
91.018900 24575.300000
126.995600 50161.500000

