>compound LU13848066
>parentmass 161.9867
>ionization [M-H]-
>formula C4H5NO4S
>rt 295.440000
>profile orbitrap
#smiles_iso CC1=CC(=O)NS(=O)(=O)O1
#smiles_can CC1=CC(=O)NS(=O)(=O)O1
#inchikey YGCFIWIQZPHFLU-UHFFFAOYSA-N
#pubchem_id 36573
#mb_accession LU096351,LU096352,LU096353,LU096354,LU096355,LU096356

>ms2peaks
65.998400 1871.500000
70.029900 29664.500000
77.965600 74266.300000
82.029900 1703998.400000
98.024800 21733.400000
101.965600 8138.600000
118.980700 3369.000000
119.976200 2904.800000
161.986700 454444.200000

>ms2peaks
70.029900 27135.500000
77.965600 83008.600000
79.957500 3057.400000
82.029900 1803440.400000
98.024800 21074.300000
101.965700 8935.600000
118.980700 3800.400000
119.976100 2145.400000
161.986700 449911.700000

>ms2peaks
55.018800 2241.600000
64.019300 2036.800000
65.998500 2904.300000
70.029900 36236.800000
77.965600 196075.700000
79.957400 4196.900000
82.029900 1659244.500000
98.025000 11589.700000
101.965500 4841.900000
118.980800 3439.300000
161.986700 79252.000000

>ms2peaks
55.018800 2498.600000
64.019300 6608.100000
65.998500 8142.300000
70.029800 19920.900000
77.965600 366497.900000
79.957400 7630.500000
82.029900 1272548.100000
98.024800 4005.200000
161.986700 10146.400000

>ms2peaks
55.019000 3134.500000
63.962400 10236.900000
64.019300 15558.000000
65.998500 17173.300000
70.029900 10267.500000
77.965600 577168.700000
79.957500 10409.600000
82.029900 788364.500000

>ms2peaks
55.018900 2895.500000
63.962400 25259.700000
64.019300 22335.100000
65.998600 26621.000000
70.029800 3788.500000
77.965600 728373.800000
79.957400 11254.000000
82.029900 396301.500000

