>compound LU14446738
>parentmass 393.1719
>ionization [M-H]-
>formula C21H27FO6
>rt 876.540000
>profile orbitrap
#smiles_iso C[C@]12C[C@@H]([C@]3([C@H]([C@@H]1C[C@H]([C@@]2(C(=O)CO)O)O)CCC4=CC(=O)C=C[C@@]43C)F)O
#smiles_can CC12CC(C3(C(C1CC(C2(C(=O)CO)O)O)CCC4=CC(=O)C=CC43C)F)O
#inchikey GFNANZIMVAIWHM-OBYCQNJPSA-N
#pubchem_id 31307
#mb_accession LU023951,LU023952,LU023953,LU023954,LU023955,LU023956

>ms2
295.134000 2367.500000
310.120000 2526.400000
313.144400 11532.600000
325.144700 421816.100000
337.144700 45973.900000
345.150800 1276623.500000
357.151800 4991.200000
375.160800 19808.900000

>ms2
71.014100 3018.100000
121.066000 3324.300000
123.045400 7262.300000
161.060900 2499.700000
165.055500 2122.000000
178.063600 6509.100000
179.071600 4839.000000
190.063900 4356.200000
235.112800 2854.200000
239.108100 2886.800000
241.123900 5768.800000
249.092300 2802.500000
251.107900 3123.700000
265.123800 5943.700000
267.103400 2004.700000
269.155300 1965.700000
274.100400 2120.100000
276.079200 2097.700000
277.086900 5793.600000
277.123500 9010.700000
279.139600 4278.300000
281.118800 8324.400000
283.133400 6193.400000
289.123300 2565.000000
291.102900 6933.700000
292.110500 18794.100000
294.090000 3425.800000
295.133700 3081.200000
297.149700 14491.100000
307.134300 35255.800000
309.113100 18239.000000
310.121200 89883.400000
313.144600 14591.700000
322.120600 12870.500000
325.144600 588079.900000
329.120200 13246.400000
337.144900 44333.500000
345.150700 1148655.500000
357.150400 3322.900000
375.156900 3574.100000

>ms2
71.013900 15773.100000
73.029600 19108.800000
85.029400 5629.300000
93.034500 3522.900000
95.050100 3782.000000
107.050200 14610.700000
111.045000 4668.300000
119.050200 10358.300000
121.029400 4303.100000
121.065900 41378.000000
122.037300 3011.000000
123.045200 35786.900000
131.050100 2999.300000
133.065900 14241.500000
135.045000 8688.800000
137.060400 4836.600000
144.058200 3640.500000
145.029400 2296.200000
145.065700 9783.400000
147.044900 3288.500000
147.081600 3759.100000
148.052900 2621.500000
149.060900 10209.100000
157.065700 6591.200000
158.037100 2818.200000
159.081500 5994.700000
160.052900 5056.900000
161.060900 13283.000000
163.076500 4858.000000
165.055400 6497.000000
171.045200 14704.400000
171.081400 4284.600000
172.052900 6804.000000
173.060500 9713.200000
173.097300 2827.500000
174.032500 26832.600000
175.040000 5595.300000
175.076200 9775.000000
178.063600 34034.400000
179.071400 9307.800000
183.081200 3808.000000
185.060800 10925.700000
186.069200 9344.400000
187.040100 15721.500000
187.075600 3211.900000
188.047800 2834.900000
189.055900 15252.100000
190.063700 29965.800000
191.071900 4829.600000
197.097200 3838.800000
199.076600 3265.600000
201.055400 3473.000000
201.092100 10339.600000
203.071500 6964.200000
209.097000 8877.700000
220.089200 6187.400000
223.113000 6140.700000
224.084300 12035.300000
225.092300 6482.600000
227.107600 7710.800000
232.088900 3182.100000
233.097300 4479.700000
235.112900 17487.500000
237.092400 14697.900000
238.099900 9127.200000
239.107700 13465.500000
241.123500 12974.300000
245.097000 2923.700000
247.113000 2926.400000
249.092400 24032.400000
251.108000 9298.200000
253.123600 9355.900000
259.077000 3589.700000
262.100200 4280.000000
263.107700 7635.900000
264.115000 4443.200000
265.123500 19511.900000
266.095300 6800.600000
267.102400 7152.400000
269.118700 3905.300000
269.155400 2312.900000
273.091600 5310.700000
274.100000 5650.800000
276.079600 14098.900000
277.087200 41524.000000
277.123900 4166.300000
281.118700 25243.400000
282.126300 12279.100000
283.134300 4612.400000
289.123100 9391.600000
291.102700 36155.600000
292.110800 50651.200000
293.118100 4813.600000
294.090200 19220.000000
295.098100 6880.200000
297.149500 15332.800000
307.134100 52561.000000
309.113700 34084.400000
310.121300 146814.000000
313.145000 8413.100000
322.120700 6972.500000
325.144700 386091.200000
329.119600 19607.300000
337.144600 11640.600000
345.150800 209141.200000

>ms2
69.034600 3192.100000
71.013900 17230.600000
73.029500 9206.300000
81.034700 2756.400000
83.050200 3150.200000
85.029500 4168.500000
93.034600 7164.800000
95.050400 4651.300000
107.050200 13370.700000
109.029500 3186.600000
109.065800 2890.200000
111.045200 7240.800000
119.050200 14409.600000
121.029500 6982.900000
121.065900 44082.800000
122.037500 4613.200000
123.045100 26478.800000
130.042300 6851.300000
131.050100 7820.900000
133.065900 20235.700000
134.037700 2309.000000
135.045100 8737.900000
137.060500 3718.100000
143.050300 9133.400000
144.057900 6553.600000
145.029400 2526.200000
145.065800 18958.700000
146.037400 2865.500000
147.045000 8299.500000
147.081400 10859.800000
148.053000 3474.500000
149.060800 14992.000000
157.065800 12366.300000
158.036900 3079.300000
159.045300 6304.900000
159.081600 8878.300000
160.053100 9281.800000
161.060700 17482.400000
163.076800 3937.100000
171.045200 29937.800000
171.081600 4243.800000
172.053000 6056.700000
173.024500 3830.300000
173.060700 16364.000000
173.097500 4000.300000
174.032300 38825.900000
175.040100 16628.000000
175.076400 12488.700000
178.063700 13597.000000
183.081400 4572.200000
185.060600 18311.700000
186.069000 10272.300000
187.040100 11730.600000
187.076300 4562.100000
188.047900 4080.800000
189.055900 23873.600000
190.063700 19082.000000
191.071300 2370.100000
195.081500 5992.100000
197.060800 3232.500000
197.097000 9098.200000
199.076400 2219.900000
201.055800 2991.700000
201.092000 6770.500000
203.071800 2389.200000
207.081400 6788.600000
208.089600 5685.000000
209.097000 13759.900000
211.076400 6467.400000
220.089300 5379.800000
221.097300 6252.800000
223.076800 6167.500000
223.113000 5056.400000
224.084400 12222.100000
225.092200 10732.700000
226.099900 4516.100000
227.108500 10033.900000
232.089000 4160.200000
233.096800 9058.000000
235.076600 2714.700000
235.112800 26390.200000
237.092100 37019.500000
238.100000 6455.600000
239.108000 8511.200000
241.123300 8512.400000
245.097200 2718.500000
247.076500 4165.300000
247.113400 5130.900000
248.084000 3200.000000
249.092200 28921.800000
251.108100 6951.600000
253.123000 5528.700000
259.076600 7587.900000
260.084200 5805.700000
261.091500 5968.900000
263.107500 21377.200000
264.115900 3530.000000
265.087100 5442.500000
265.123400 6832.300000
266.094300 4333.200000
267.102500 10823.300000
269.116500 2678.900000
273.092500 8124.400000
274.099500 5545.200000
275.070900 8801.600000
275.108000 3595.100000
276.079000 23099.400000
277.086900 66579.300000
279.138900 3813.800000
281.117700 16960.900000
282.126000 10956.600000
289.123500 3362.000000
291.102700 30775.300000
292.110400 17408.800000
293.118000 7618.400000
294.089800 10734.600000
295.097700 8756.600000
297.149700 6289.400000
307.134200 4273.100000
309.113000 21083.200000
310.121400 21569.100000
325.144600 54565.200000
345.150800 8033.900000

>ms2
69.034600 3399.400000
71.013900 12546.300000
73.029600 5304.700000
79.055200 2642.500000
81.034600 2018.700000
83.050400 4967.600000
85.029600 2198.000000
93.034700 8017.700000
95.050300 6451.000000
107.050300 18080.500000
108.021800 4573.700000
111.045100 4463.900000
119.050300 14549.300000
121.029500 9523.400000
121.065900 34827.700000
122.037500 7274.000000
123.045200 23498.300000
130.042500 13369.200000
131.050300 11331.600000
133.065900 17803.200000
135.045300 7520.200000
137.060700 3018.900000
143.050100 22786.000000
144.058200 6009.600000
145.029700 4384.900000
145.065900 25623.400000
147.045200 15324.100000
147.081600 10178.900000
148.052900 2639.600000
149.060600 11480.400000
157.065900 20940.300000
159.045100 10100.600000
159.081600 5790.200000
160.053400 5449.500000
161.060800 14967.100000
163.076300 2176.900000
167.050500 2320.800000
169.065800 3774.400000
171.045100 29594.800000
171.081700 6688.800000
172.053200 4586.800000
173.024800 10942.500000
173.060700 24674.300000
173.097200 2270.900000
174.032100 39490.200000
175.040000 15151.100000
175.076400 4222.700000
178.063500 3918.500000
181.065900 3919.500000
182.073500 3090.000000
183.081500 6428.100000
185.060900 23581.300000
186.068700 4164.700000
187.040400 6417.700000
187.075800 4574.300000
188.047600 2774.100000
189.055800 20889.600000
190.063300 3519.900000
193.065800 5721.100000
195.081600 8742.700000
197.061200 4880.000000
197.097500 10712.400000
199.076100 3248.200000
207.081900 9808.600000
208.089600 5155.800000
209.060400 2371.600000
209.097200 16461.800000
210.068600 2624.300000
211.076300 11506.800000
219.081700 6558.700000
220.089200 7894.600000
221.097200 11991.200000
222.068800 5719.400000
223.076500 6639.900000
224.084600 11925.400000
225.092000 11400.900000
226.100400 3344.800000
227.108100 8041.500000
231.082000 4432.000000
232.089600 5190.000000
233.096900 8982.000000
235.076800 7972.100000
235.112600 28878.400000
236.084700 5858.700000
237.092200 27378.900000
238.099500 3301.400000
239.107700 7277.700000
245.097500 5714.100000
247.076500 12136.800000
247.113200 3467.400000
248.084800 8512.900000
249.091800 25257.800000
251.108200 5229.800000
253.123300 2534.400000
258.068800 7380.400000
259.076600 13341.000000
260.084600 15836.300000
261.091900 7460.700000
262.099600 2282.500000
263.107900 20552.200000
265.087600 6808.400000
267.103300 7134.400000
273.092300 8540.700000
275.071400 17056.100000
275.107900 2525.300000
276.079400 24379.900000
277.086900 43395.900000
281.118500 6392.700000
292.110300 3021.100000
293.118300 2866.600000
295.098200 2302.800000
309.112400 9676.600000

>ms2
69.034800 3349.800000
71.013900 6426.600000
79.055300 2185.400000
81.034600 2512.000000
83.050200 3544.500000
93.034500 6621.700000
95.050100 3365.300000
107.050200 9422.100000
108.021600 3046.700000
109.029400 4761.200000
109.065900 1822.000000
119.050200 12192.900000
121.029500 7968.300000
121.065900 15725.600000
122.037300 7631.500000
123.045200 13415.100000
130.042500 14774.100000
131.050300 11408.900000
133.065900 11744.900000
134.037000 3115.500000
135.045200 3601.800000
143.050300 31305.800000
145.029600 9397.000000
145.066100 20389.900000
146.037300 5488.500000
147.045300 15411.000000
147.081900 2699.300000
148.052900 3191.100000
149.060800 5963.900000
157.065800 21486.000000
158.037300 8388.600000
159.045300 10313.600000
159.081800 3639.100000
160.052900 3609.700000
161.060700 7885.200000
167.050100 3836.100000
169.065900 7935.200000
171.045200 24510.000000
171.081400 4321.200000
172.053300 2298.000000
173.024500 20865.700000
173.060500 12428.400000
174.032300 23515.700000
175.040000 5611.900000
181.065700 2241.500000
182.073600 4402.500000
183.081300 5661.000000
185.060900 15058.400000
187.039800 2326.300000
187.076500 3295.000000
189.055800 6515.200000
193.066000 12503.600000
195.081300 8801.800000
197.060700 5262.100000
197.097200 4259.400000
199.076700 2271.000000
207.081600 14304.700000
208.089600 4244.000000
209.060400 4256.900000
209.097400 16884.000000
210.069000 2452.400000
211.076200 8460.900000
219.081800 10133.900000
220.088800 4522.500000
221.096900 11288.100000
222.068800 8492.700000
223.076600 7223.800000
224.084000 6962.500000
225.091900 5329.000000
227.108300 2607.500000
231.081500 10439.800000
232.089100 8115.100000
233.097400 10109.300000
235.076000 5839.500000
235.112800 20848.200000
236.084300 3695.300000
237.092000 11712.700000
238.099200 2033.000000
245.097300 2967.200000
247.076300 14341.400000
248.084200 7478.700000
249.092200 12104.100000
258.069100 11721.100000
259.076900 11584.700000
260.084400 15638.900000
261.091400 4522.000000
263.107600 7167.100000
265.087300 3520.100000
273.092400 3086.100000
275.071200 15055.000000
276.079100 15382.700000
291.102200 2919.100000

