>compound LU14462764
>parentmass 329.0853
>ionization [M-H]-
>formula C18H18O4S
>rt 1023.420000
>profile orbitrap
#smiles_iso C=CCC1=C(C=CC(=C1)S(=O)(=O)C2=CC(=C(C=C2)O)CC=C)O
#smiles_can C=CCC1=C(C=CC(=C1)S(=O)(=O)C2=CC(=C(C=C2)O)CC=C)O
#inchikey MTMKZABGIQJAEX-UHFFFAOYSA-N
#pubchem_id 833466
#mb_accession LU017251,LU017252,LU017253,LU017254,LU017255,LU017256

>ms2
132.058900 61368.500000
197.028600 36032.100000
329.085200 22626298.000000

>ms2
79.957400 289907.900000
121.029500 50589.800000
132.058500 139447.200000
133.065600 31136.500000
135.045100 282633.800000
148.053000 1555829.400000
196.019900 382579.400000
197.027000 100378.500000
224.084400 92474.600000
237.093100 32363.800000
250.099900 240600.700000
264.116500 28716.800000
265.123500 237053.000000
273.022500 95800.900000
288.046000 80580.400000
299.037900 150312.000000
301.054400 43986.900000
313.054500 42821.100000
314.060800 50883.100000
329.085200 25896664.000000

>ms2
63.962400 96015.100000
68.998200 46875.300000
79.957400 519078.900000
81.034600 115733.100000
82.006000 12786.000000
91.055300 19027.800000
93.034600 141921.000000
94.042400 44883.700000
95.013900 246530.400000
98.001000 76136.300000
103.055200 10924.900000
105.034500 23701.900000
106.042300 8995.500000
107.050300 43687.900000
108.021700 67040.600000
109.029500 63906.300000
110.037300 19291.500000
117.034700 31897.900000
119.050100 47227.400000
121.029500 506614.000000
122.037400 27091.300000
123.008800 197699.700000
130.042400 19111.400000
131.050300 64903.400000
132.058000 918524.600000
133.029600 28216.900000
133.065900 493733.400000
134.037300 72765.600000
135.045200 3227152.200000
137.024400 50234.400000
138.032200 40711.800000
145.029400 51985.000000
146.037400 34095.200000
147.045200 117445.700000
148.053000 8938076.000000
149.024300 142523.000000
149.060700 50047.500000
150.068600 30414.400000
156.996200 11853.600000
163.040000 296463.200000
165.002100 11152.700000
166.009500 25360.900000
168.996400 22864.400000
176.048300 10954.800000
179.017600 9309.300000
180.025000 107607.600000
180.996300 30809.500000
183.012100 20705.000000
183.081900 20772.700000
195.012100 63543.300000
195.045600 16954.600000
196.019900 560470.400000
197.027700 435436.700000
207.081500 12762.600000
209.060600 65375.400000
209.097300 36174.200000
221.061000 27346.900000
222.105500 14001.100000
223.076700 25565.500000
224.084400 178377.100000
235.076400 481047.200000
236.084500 24415.800000
237.092200 228939.200000
237.128700 19635.100000
249.092200 151936.500000
250.099900 819908.700000
263.107700 15453.100000
264.115900 101920.000000
265.123400 216433.600000
273.022800 365576.800000
273.058400 36739.200000
287.038300 49754.500000
288.046300 58179.800000
299.038300 1074513.600000
301.054100 67721.600000
311.075400 29488.300000
313.054100 214838.000000
314.062200 43678.500000
329.085300 7230000.000000

>ms2
63.962400 293422.300000
68.998200 71594.800000
79.957400 112447.100000
79.990400 13700.400000
80.998300 18705.800000
81.034600 176436.800000
82.006300 8290.800000
91.019100 15868.400000
91.055300 17283.200000
93.034600 251688.600000
94.042400 76339.100000
95.013900 386010.800000
98.001000 100161.300000
103.055400 18723.900000
105.034500 31440.900000
107.050300 86402.000000
108.021700 117822.100000
109.029500 92590.700000
110.037100 26103.300000
117.034600 131330.800000
118.042300 7095.100000
119.050100 85026.700000
121.029500 784214.700000
122.037400 36342.900000
123.008700 311328.900000
130.042500 41567.600000
131.050300 201023.800000
132.058100 1259474.000000
133.029500 85881.900000
133.065900 784977.900000
134.037300 240320.400000
135.045100 4493408.000000
137.024400 57697.900000
138.032100 41980.800000
145.029500 74072.000000
146.037400 29158.200000
147.045200 183476.300000
148.053000 7016667.000000
149.024300 240548.300000
149.060600 51970.500000
150.068900 8426.300000
153.001300 8812.100000
155.988800 12313.100000
156.996000 8464.500000
157.066000 11161.300000
163.040100 469278.600000
164.030200 13196.700000
165.001500 14017.700000
166.009400 48496.900000
168.996500 16267.100000
176.048000 20845.300000
179.017000 10333.200000
180.025000 52680.100000
180.058700 7377.800000
180.996200 30934.600000
182.004400 26869.100000
183.011800 13356.400000
183.081100 10536.100000
193.066200 13272.000000
195.012000 20937.500000
195.045300 17996.100000
195.081200 7748.500000
196.019900 66022.400000
197.027800 223328.500000
206.073600 7093.900000
207.081500 14664.400000
208.052500 10719.800000
209.060700 84468.400000
209.097000 23351.500000
221.060700 24775.200000
221.096600 11793.800000
222.105400 9683.400000
223.076500 37169.300000
224.083900 36985.100000
233.097400 12218.100000
234.069200 7759.900000
235.076400 710047.600000
237.091900 98129.100000
249.092000 275047.400000
250.099800 158689.100000
263.107900 16369.800000
264.115700 20528.900000
265.123200 16754.500000
273.022800 163872.500000
273.059300 10336.600000
287.038400 45260.000000
299.038200 803238.500000
313.054100 184633.400000
329.085200 295842.200000

>ms2
63.962500 338245.200000
65.003300 6397.200000
65.039700 15074.400000
67.019000 17219.700000
68.998200 38720.000000
79.019200 8341.500000
79.957400 39330.800000
79.990500 6791.700000
80.998300 13465.800000
81.034600 104351.000000
82.006100 5189.400000
91.019100 14257.300000
91.055300 19896.600000
93.034600 167745.400000
94.042500 42390.100000
95.013900 251046.900000
98.000900 69820.400000
102.047400 6427.500000
103.055400 45053.300000
105.034600 20496.300000
106.042400 12316.100000
107.050300 45816.400000
108.021700 150179.100000
109.029400 71740.600000
110.037400 12291.100000
117.034600 253110.900000
118.042400 8743.800000
119.050300 60180.700000
121.029500 562866.000000
122.037300 39036.100000
123.008800 175559.200000
123.045300 16330.200000
130.042600 59763.800000
131.050300 373766.100000
132.058100 827720.700000
133.029500 170005.300000
133.065900 476922.400000
134.037300 333850.700000
135.045200 2820537.800000
137.024500 42352.800000
138.032200 35430.000000
145.029600 50901.000000
146.037300 17817.500000
147.045200 126880.500000
148.053000 2827067.800000
149.024400 154989.400000
149.060800 32352.300000
153.001600 6017.000000
155.988600 7006.000000
157.066000 6981.500000
163.040100 257620.300000
165.001500 15756.300000
166.009300 43129.800000
167.050300 5736.300000
176.048000 9517.000000
180.025200 7079.700000
180.058200 12443.700000
180.996800 14310.800000
181.065700 6731.500000
182.004300 18766.400000
183.011500 6134.500000
193.066000 5653.200000
195.045100 13369.500000
195.081200 9226.600000
196.019500 6117.100000
197.027600 28307.700000
206.073600 22307.200000
207.081500 29052.500000
209.060700 58303.000000
209.097500 10720.900000
221.060400 15187.500000
221.097000 15980.300000
223.077000 28980.800000
231.081200 11434.200000
233.060300 17728.600000
233.096700 6041.100000
234.069200 11483.700000
235.076400 416087.800000
237.092600 7413.700000
248.084500 7778.100000
249.092000 163638.700000
263.107400 10518.800000
273.023500 36188.700000
287.038500 15437.100000
299.038300 145245.800000
313.054400 49246.600000

>ms2
63.962400 338119.800000
65.003300 12018.900000
65.039700 9741.100000
67.018900 11679.800000
68.998100 16354.000000
79.019100 4174.500000
79.957400 5165.300000
80.998200 6782.300000
81.034600 35870.000000
91.019000 25281.900000
91.055300 8778.100000
93.034600 76147.300000
94.042400 13999.800000
95.013900 94438.000000
98.001100 19708.000000
102.047500 5638.700000
103.055300 79340.000000
105.034500 8050.600000
106.042400 14421.600000
107.050200 26862.900000
108.021700 92460.900000
109.029500 26310.900000
110.037100 6469.600000
117.034600 234881.400000
118.042300 4312.100000
119.050300 31957.600000
121.029500 268669.100000
122.037100 18626.700000
123.008700 63665.600000
123.045200 7987.400000
130.042400 73179.100000
131.050200 383959.200000
132.058000 252787.500000
133.029500 145544.800000
133.065900 149257.500000
134.037300 162089.500000
135.045200 927146.900000
137.024400 10623.700000
138.032300 12049.300000
145.029300 19147.600000
146.037100 8963.700000
147.045200 74869.500000
148.053000 697672.900000
149.024400 61253.600000
149.060800 11872.700000
157.066000 3590.800000
163.040100 98387.000000
165.002000 6020.500000
166.009400 10554.000000
167.050500 4948.900000
180.024800 4289.300000
180.058100 15965.200000
180.995700 5136.400000
181.066100 7905.900000
193.066200 9370.300000
195.045400 6083.200000
195.081700 9203.100000
206.073600 44718.800000
207.081900 14434.300000
208.053500 5080.100000
209.061000 27974.800000
221.061100 3836.800000
221.097800 7500.400000
223.077000 10961.600000
231.081700 5376.500000
233.060600 23529.400000
234.068900 13576.400000
235.076600 109893.800000
248.084100 7504.200000
249.091700 28970.600000
299.038400 7732.900000

