>compound LU14973031
>parentmass 243.16019999999997
>ionization [M-H]-
>formula C13H24O4
>rt 1086.660000
>profile orbitrap
#smiles_iso C(CCCCCC(=O)O)CCCCCC(=O)O
#smiles_can C(CCCCCC(=O)O)CCCCCC(=O)O
#inchikey DXNCZXXFRKPEPY-UHFFFAOYSA-N
#pubchem_id 10458
#mb_accession LU042651,LU042652,LU042653,LU042654,LU042655

>ms2peaks
181.159900 985925.200000
199.170600 53212.900000
225.149700 4285180.000000
243.160100 10975237.000000

>ms2peaks
57.034600 8325.300000
153.128600 9444.600000
179.144300 10011.700000
181.159800 2646517.500000
199.170400 111078.300000
225.149600 5724066.000000
243.160000 3967141.200000

>ms2peaks
57.034500 7984.100000
83.050000 1944.500000
153.128400 4345.100000
179.144300 11512.500000
181.159800 605350.100000
199.170400 11553.400000
225.149600 519667.600000
243.160100 129045.100000

>ms2peaks
57.034600 5968.600000
83.050300 1952.900000
153.128800 1984.300000
179.144300 7865.300000
181.159900 113345.400000
199.170000 2045.700000
225.149700 65784.400000
243.160100 12432.100000

>ms2peaks
57.034600 8346.400000
179.144000 8655.200000
181.159900 39365.900000
225.149900 19709.700000

