>compound LU14056993
>parentmass 438.95020000000005
>ionization [M-H]-
>formula C17H11BrClFN2O4
>rt 1120.440000
>profile orbitrap
#smiles_iso C1=CC2=C(C=C1Cl)N(C(=O)N(C2=O)CC3=C(C=C(C=C3)Br)F)CC(=O)O
#smiles_can C1=CC2=C(C=C1Cl)N(C(=O)N(C2=O)CC3=C(C=C(C=C3)Br)F)CC(=O)O
#inchikey SXONDGSPUVNZLO-UHFFFAOYSA-N
#pubchem_id 5724
#mb_accession LU022251,LU022252,LU022253,LU022254,LU022255,LU022256

>ms2
78.918800 3599.600000
166.006600 34531.600000
374.954300 3148.900000
380.944800 263673.800000
394.960300 1234329.000000

>ms2
78.918900 57398.000000
166.006500 93531.300000
179.001700 10697.500000
196.992400 21753.700000
203.002000 4801.900000
346.959000 24490.700000
360.938700 66334.700000
374.954100 8329.600000
380.944800 172866.100000
394.960300 89718.300000

>ms2
78.918900 165725.500000
120.045400 7563.000000
166.006500 47200.100000
179.001800 14220.600000
196.992400 45293.900000
203.001800 7578.800000
226.064000 2776.500000
253.017400 9017.900000
258.053000 3116.800000
346.958100 3443.200000
360.938600 52726.900000
380.943500 11831.100000

>ms2
78.918900 186647.300000
120.045400 9246.700000
166.006400 10673.600000
179.001900 9268.700000
196.992500 37390.900000
203.002000 3862.900000
226.062900 1922.200000
253.017500 22737.000000
258.052800 2853.700000

>ms2
78.918900 188809.500000
120.045300 3339.100000
148.991400 2064.900000
161.015700 2831.500000
179.001700 4517.300000
196.992400 24575.600000
253.017500 5341.200000

>ms2
78.918900 157529.400000
148.990900 2468.100000
161.015800 7239.700000
196.992400 11793.700000

