>compound LU14037060
>parentmass 165.0921
>ionization [M-H]-
>formula C10H14O2
>rt 988.860000
>profile orbitrap
#smiles_iso CCCCCC1=CC=CC(=O)O1
#smiles_can CCCCCC1=CC=CC(=O)O1
#inchikey MAUFTTLGOUBZNA-UHFFFAOYSA-N
#pubchem_id 33960
#mb_accession LU079551,LU079552,LU079553,LU079554,LU079555,LU079556

>ms2
148.053000 289208.100000
149.060700 166118.100000
165.092000 17203756.000000

>ms2
148.053000 292676.300000
149.060700 166376.100000
165.092000 17092088.000000

>ms2
148.053000 1213892.500000
149.060800 769501.000000
165.092000 13961718.000000

>ms2
108.021700 13057.100000
148.053000 1081139.800000
149.060800 1077581.000000
164.084700 8737.000000
165.092100 5630622.500000

>ms2
106.042100 4243.400000
108.021600 15772.500000
121.066100 9441.600000
133.029600 4520.300000
135.045200 8285.800000
148.053100 557274.000000
149.060800 1896381.200000
164.084100 10909.800000
165.092100 1663215.800000

>ms2
106.042300 13380.700000
108.021700 17572.500000
121.066000 22746.200000
133.029500 21401.500000
135.045300 21344.500000
148.053100 230036.700000
149.060800 2826214.000000
164.084100 4191.100000
165.092100 284027.500000

