>compound LU14144035
>parentmass 183.00469999999999
>ionization [M-H]-
>formula C6H4N2O5
>rt 871.680000
>profile orbitrap
#smiles_iso C1=CC(=C(C=C1[N+](=O)[O-])[N+](=O)[O-])O
#smiles_can C1=CC(=C(C=C1[N+](=O)[O-])[N+](=O)[O-])O
#inchikey UFBJCMHMOXMLKC-UHFFFAOYSA-N
#pubchem_id 1493
#mb_accession LU044751,LU044752,LU044753,LU044754,LU044755,LU044756

>ms2peaks
67.019000 20583.600000
68.998300 22255.400000
79.019000 29652.400000
95.013900 182702.400000
109.016600 46467.000000
123.008800 1007900.800000
137.011700 87225.200000
153.006800 1709856.400000
183.004700 15647643.000000

>ms2peaks
64.019300 20951.200000
67.019000 50814.000000
68.014100 21044.400000
68.998200 27639.100000
79.018900 35873.200000
95.013900 317517.400000
108.009200 18905.000000
109.016700 56000.400000
123.008800 1766736.800000
125.012000 25979.600000
137.011700 105923.500000
153.006800 2669148.500000
183.004700 17627696.000000

>ms2peaks
55.018900 28237.600000
64.019300 68320.100000
65.003200 28539.600000
65.998500 30993.400000
66.011100 37129.700000
67.018900 295539.600000
68.014200 86742.100000
68.998200 114044.300000
72.993100 15229.900000
79.018900 123926.900000
83.001300 14018.700000
83.013800 21186.500000
92.014100 8149.400000
92.998300 16213.400000
95.013900 1641992.900000
96.009200 11111.200000
107.013800 11677.300000
108.009000 58666.800000
109.016800 183345.200000
120.009100 35343.800000
123.008800 4553709.000000
125.011800 255266.900000
136.003800 19518.500000
137.011800 325339.300000
139.998900 10517.500000
153.006700 3842236.000000
183.004700 7526927.000000

>ms2peaks
50.003500 5971.200000
51.023800 7592.000000
52.019300 4131.800000
53.003200 25451.000000
55.018900 37435.700000
63.024100 5010.000000
64.019300 90734.300000
65.003200 62067.900000
65.998500 48668.900000
66.011100 96522.900000
67.018900 519778.500000
68.014200 85261.100000
68.998200 218743.100000
72.993200 17938.900000
78.010800 4518.300000
79.018900 146587.000000
80.014300 5625.100000
80.998300 7130.500000
81.022200 5534.600000
82.006000 8155.600000
83.001300 8135.200000
83.013800 15934.000000
91.019100 8045.300000
92.014100 23248.700000
92.998200 47588.300000
94.006000 6813.900000
95.013800 2672670.000000
96.009100 10994.900000
106.005900 8925.200000
107.014000 23154.900000
108.009100 47627.800000
109.016900 315735.600000
120.009100 131345.700000
123.008800 3845236.500000
124.004000 15076.200000
125.011800 713159.700000
136.004100 11452.500000
137.011800 273284.500000
139.999100 10213.400000
153.006700 1733004.500000
183.004600 1624662.900000

>ms2peaks
50.003600 22345.700000
51.024000 18114.800000
52.019200 16364.600000
53.003200 55427.900000
55.018900 66694.500000
62.016100 6804.200000
63.024000 13817.300000
64.019300 115714.000000
65.003300 110458.100000
65.998600 79819.600000
66.011100 169238.000000
67.019000 677158.900000
68.014200 72855.900000
68.998200 361645.100000
72.993100 6712.500000
79.019000 128182.700000
80.998300 10152.700000
82.006000 20902.200000
83.013800 9557.800000
89.998500 7190.200000
90.011200 10101.300000
91.019000 32184.600000
92.014200 56954.500000
92.998200 98283.800000
95.013900 3100977.000000
96.009200 10835.700000
106.006000 13856.100000
107.013900 36768.400000
108.009300 30950.100000
109.016900 468795.000000
120.009100 195676.900000
123.008800 2149846.000000
124.004000 22021.100000
125.011800 1129493.400000
137.011800 145847.400000
139.999100 11205.400000
153.006800 522063.800000
183.004700 252986.500000

>ms2peaks
50.003500 23029.800000
51.023900 24407.000000
52.019200 18161.900000
53.003200 51011.400000
55.018900 39254.800000
62.016200 25428.600000
63.024000 39881.100000
64.019300 141794.100000
65.003300 123164.000000
65.998600 74141.600000
66.011100 153648.100000
67.019000 499349.900000
68.014200 42163.600000
68.998200 371171.900000
72.993100 7787.200000
79.019000 115739.400000
80.014100 5515.600000
80.998100 6655.400000
82.006000 12368.700000
89.998600 6063.700000
90.011200 12093.500000
91.019000 37545.300000
92.014200 91870.500000
92.998200 86134.500000
95.013900 2047305.600000
106.006000 7592.400000
107.013800 20455.100000
108.009200 10402.300000
109.016900 311833.200000
120.009100 85913.500000
123.008800 696214.400000
124.004100 14966.400000
125.011800 940560.800000
137.012000 30940.200000
139.999500 5300.500000
153.006900 76074.700000
183.004500 23404.600000

