>compound LU14791540
>parentmass 381.22960000000006
>ionization [M-H]-
>formula C22H30N4O2
>rt 816.480000
>profile orbitrap
#smiles_iso CC1=NC=C(C=N1)[C@@H](CCCCCCC2=NC3=C(CCCN3)C=C2)CC(=O)O
#smiles_can CC1=NC=C(C=N1)C(CCCCCCC2=NC3=C(CCCN3)C=C2)CC(=O)O
#inchikey NJDBZBVQIMZWPP-SFHVURJKSA-N
#pubchem_id 9951932
#mb_accession LU018951,LU018952,LU018953,LU018954,LU018955,LU018956

>ms2
337.240000 101040.000000
381.229600 3678916.000000

>ms2
68.014100 4807.500000
93.045800 168457.000000
107.061400 8779.500000
109.040700 41910.600000
119.061400 4153.900000
121.077300 2243.700000
135.045100 2676.000000
135.056200 5536.600000
137.035700 7619.100000
137.072000 2306.100000
146.048700 4586.500000
147.092700 30195.600000
159.092900 3314.200000
175.123800 2964.400000
243.186400 7272.900000
296.211800 3405.600000
333.208800 5739.600000
335.224300 147198.200000
337.239800 1632354.200000
381.229600 958855.100000

>ms2
68.014200 4335.800000
81.045700 2551.800000
93.045800 351530.000000
107.061500 14753.800000
109.040700 38154.000000
117.045800 6179.500000
119.061400 10666.000000
121.077400 5756.500000
133.077200 5273.300000
135.045300 6338.000000
135.056400 6458.700000
137.035700 19656.500000
137.072100 7563.100000
143.061400 3326.700000
145.077100 3917.900000
146.049100 2355.900000
147.092900 42778.500000
159.092800 7954.000000
175.124400 3759.200000
243.186800 4065.200000
296.213900 2259.100000
321.208500 4918.700000
333.208700 32714.000000
335.224100 74352.500000
337.239700 132479.900000
381.230600 7893.600000

>ms2
81.045900 2338.400000
93.045800 463234.500000
107.061500 10110.500000
109.040900 12767.800000
117.045800 8932.300000
119.061500 11938.300000
121.077600 2918.200000
133.077200 8152.200000
137.035700 24166.200000
137.072000 3643.400000
143.061500 12137.500000
145.077000 8498.300000
147.092800 19074.400000
157.077000 3579.500000
159.093200 4848.000000
321.208300 4431.600000
333.208100 11455.000000
335.224500 4999.100000

>ms2
81.045800 2454.400000
93.045800 345104.200000
107.061500 6458.000000
109.040800 3952.600000
117.045800 5917.700000
119.061500 4858.300000
133.077200 6210.400000
137.035700 18952.000000
137.071900 2690.200000
143.061500 11683.700000
145.077400 7119.400000
147.092800 4085.500000
157.077300 4182.900000

>ms2
81.045900 4013.500000
93.045800 233265.800000
117.045700 6187.900000
119.061500 4019.200000
133.077100 3441.100000
137.035600 14349.500000
143.061400 10332.100000
145.077100 3382.600000
157.077000 2410.900000

