>compound LU14703480
>parentmass 295.9572
>ionization [M-H]-
>formula C7H8ClN3O4S2
>rt 489.120000
>profile orbitrap
#smiles_iso C1NC2=CC(=C(C=C2S(=O)(=O)N1)S(=O)(=O)N)Cl
#smiles_can C1NC2=CC(=C(C=C2S(=O)(=O)N1)S(=O)(=O)N)Cl
#inchikey JZUFKLXOESDKRF-UHFFFAOYSA-N
#pubchem_id 3639
#mb_accession LU051451,LU051452,LU051453,LU051454,LU051455,LU051456

>ms2peaks
77.965700 6347.800000
204.984400 85904.400000
216.984800 7086.500000
231.995000 31745.500000
268.946400 336875.900000
295.957100 2700758.000000

>ms2peaks
77.965600 95977.800000
78.973400 2155.100000
79.981200 2809.700000
121.040900 1822.300000
126.011600 13729.700000
141.022700 3315.700000
169.008000 7429.600000
189.973100 9403.900000
196.018700 6846.300000
203.976200 3459.800000
204.984400 505570.500000
214.968300 5175.300000
216.984400 19010.500000
219.971000 2587.500000
231.995200 40388.100000
268.946400 953958.800000
295.957100 655014.900000

>ms2peaks
63.962500 6911.500000
76.019100 4850.600000
77.965500 1013803.600000
78.973300 24767.400000
79.981200 9206.600000
90.035000 4101.600000
92.014100 5613.300000
93.960500 13220.600000
104.038100 3468.800000
105.045900 15478.000000
117.045900 8361.100000
119.025200 3870.300000
121.040700 33215.000000
126.011600 236544.700000
132.056600 3909.400000
140.998800 2637.000000
141.022600 6261.100000
148.051900 4160.000000
153.022400 7315.300000
168.000000 2426.600000
169.007600 37854.300000
181.007600 3754.700000
188.965500 2885.600000
189.973600 47003.400000
196.018900 5426.000000
202.968600 10586.500000
203.976400 15491.600000
204.984300 1166289.400000
214.968600 4311.100000
216.965200 5788.200000
216.984100 12190.400000
219.971700 8861.400000
231.994800 15644.400000
268.946300 482512.100000
295.957200 65059.000000

>ms2peaks
61.970600 5948.100000
63.962400 24130.300000
65.998400 2378.800000
76.019200 15420.000000
77.965500 1342066.000000
78.973300 46824.900000
79.981200 20066.700000
80.965000 4510.400000
87.011500 2606.400000
90.034900 21148.900000
92.014200 5376.900000
93.960400 28771.500000
94.029800 16945.800000
104.038000 30984.100000
105.045800 25323.400000
114.951700 3018.300000
115.030200 5373.000000
117.045800 13021.300000
119.025000 4349.100000
121.040700 112294.000000
123.995900 14833.000000
126.011600 393714.600000
131.048900 3326.100000
132.032900 5637.200000
132.056800 2846.100000
140.998500 5189.800000
141.022600 3694.000000
148.051200 2460.600000
153.022200 2668.300000
167.999200 2017.900000
169.007600 31107.000000
178.991800 6796.700000
181.007200 3613.800000
188.965600 4655.600000
189.973500 39126.000000
194.002900 4541.000000
202.968700 33732.700000
203.976400 15251.100000
204.984300 267962.100000
215.957900 3378.200000
216.965800 4847.900000
219.972000 3403.500000
268.946200 27032.700000

>ms2peaks
61.970600 16610.100000
63.962500 32214.300000
65.014600 1774.700000
65.998600 1956.000000
76.019300 17522.300000
77.965500 849303.200000
78.973300 31589.900000
79.981200 19445.600000
80.965200 3090.800000
87.011400 5673.400000
90.034900 37233.000000
92.014200 2707.300000
93.960500 22429.300000
94.029800 51505.500000
104.038100 46132.900000
105.021700 2415.900000
105.045600 8968.000000
114.951700 2414.300000
115.030200 11926.100000
117.046000 9246.900000
119.025200 5839.100000
121.040800 93360.500000
123.995900 52136.900000
126.011600 165388.800000
131.049100 2434.800000
132.033000 3993.100000
140.998700 3897.200000
146.035700 3651.300000
169.008300 5096.400000
178.992000 9808.800000
188.965000 2092.300000
189.973600 9987.600000
194.003300 6036.500000
202.968900 27936.200000
203.977400 3224.400000
204.984600 14547.700000
215.957700 1841.200000
216.965400 2058.300000

>ms2peaks
61.970600 25874.600000
63.962500 46165.000000
65.014600 2860.800000
65.998500 3722.800000
76.019300 16920.900000
77.965600 676721.400000
78.973400 29634.400000
79.981100 22051.900000
80.965400 2417.200000
87.011500 4876.100000
90.035000 38247.400000
93.960500 17755.100000
94.029900 82821.200000
104.038000 43576.800000
105.021900 1829.400000
105.045800 6111.600000
114.951600 5723.000000
115.030200 20696.800000
117.045900 6915.100000
119.025100 4750.500000
121.040800 50037.300000
123.995900 89000.900000
126.011600 40960.200000
132.032800 2684.500000
146.035700 2068.300000
178.992100 17529.100000
188.965200 2114.100000
194.002700 2018.700000
202.968900 9602.900000

