>compound LU14325174
>parentmass 329.1758
>ionization [M-H]-
>formula C20H26O4
>rt 932.520000
>profile orbitrap
#smiles_iso C1CCC(CC1)OC(=O)C2=CC=CC=C2C(=O)OC3CCCCC3
#smiles_can C1CCC(CC1)OC(=O)C2=CC=CC=C2C(=O)OC3CCCCC3
#inchikey VOWAEIGWURALJQ-UHFFFAOYSA-N
#pubchem_id 6777
#mb_accession LU099851,LU099852,LU099853,LU099854,LU099855,LU099856

>ms2
109.065800 45497.300000
123.045200 21311.600000
123.081500 147410.200000
125.060700 161316.300000
135.081500 29717.700000
137.060700 166196.600000
149.061200 37356.700000
179.107800 46026.800000
203.107800 53370.600000
257.154600 63785.800000
257.190400 18165.700000
259.133900 15765.900000
271.133900 27346.300000
301.180800 1161046.200000
311.165300 487842.200000
329.175700 7690926.500000

>ms2
57.034500 94873.900000
59.013800 4037.200000
71.013900 4305.900000
81.034700 8221.600000
83.050300 5373.200000
95.050300 12149.000000
96.021700 4130.100000
97.065900 9217.500000
99.045300 11134.800000
107.050200 17665.500000
107.086700 4614.100000
109.065900 328749.000000
111.045300 6726.900000
121.065800 13485.600000
121.102400 3493.900000
122.037400 37880.500000
123.045200 150360.200000
123.081600 550273.000000
125.060800 175948.600000
135.045100 40145.800000
135.081700 104694.200000
136.053000 207838.500000
137.060800 2587244.000000
138.032300 22360.500000
147.081500 15148.000000
149.060700 202292.200000
150.032200 12764.300000
151.040100 71165.600000
151.076400 5077.000000
161.097200 45933.800000
162.068900 7964.800000
163.076500 37954.300000
165.092100 17243.200000
167.035200 15170.200000
168.042800 39799.100000
175.076600 10584.500000
175.112800 35386.700000
176.083800 15124.100000
177.092300 9276.400000
179.107800 57596.800000
187.076100 3040.600000
191.107900 15135.400000
203.107800 31293.000000
205.123400 20538.600000
227.144300 3264.700000
229.125200 3000.000000
233.118200 10845.400000
243.138800 3481.500000
257.154900 158990.400000
257.189700 18790.000000
259.133900 158995.200000
269.155500 5131.700000
271.134200 120711.600000
283.170500 9579.600000
285.149700 7718.900000
287.166100 4686.500000
296.141700 4512.000000
301.181000 144189.500000
311.165400 1131440.400000
329.175800 2835804.000000

>ms2
57.034600 280207.300000
59.013900 7224.800000
69.034600 6493.900000
71.013900 5091.400000
79.055300 7900.900000
81.034600 18999.700000
83.050200 8816.400000
91.055300 6777.800000
94.042400 4750.000000
95.050200 37956.800000
96.021700 5798.100000
97.066000 37086.400000
99.045200 12723.300000
107.050200 73525.400000
107.086600 16381.100000
108.021700 6599.000000
109.065800 474981.300000
111.045100 8852.600000
111.081400 6408.400000
119.050300 44701.400000
121.065800 42906.600000
121.102200 4563.000000
122.037300 301848.300000
123.045200 239353.000000
123.081500 544441.100000
124.016800 15010.000000
125.024200 11239.300000
125.060800 130390.200000
133.065700 6678.100000
133.102400 5461.800000
135.045200 96137.100000
135.081600 156550.500000
136.053000 425989.600000
137.060700 3851682.800000
138.032100 43458.700000
145.065900 6902.700000
146.074000 5880.200000
147.045300 9207.200000
147.081500 26415.000000
148.053000 15704.900000
149.060700 630518.200000
150.032200 28473.900000
151.040000 144981.400000
151.076200 10933.000000
153.019300 7575.000000
154.027300 43391.900000
159.081100 5826.900000
161.060800 6523.600000
161.097200 80708.500000
162.068600 29098.400000
163.076400 100442.200000
164.084400 5349.300000
165.018700 4072.400000
165.091900 12251.000000
167.035000 30838.100000
168.042800 87946.600000
173.060900 6493.000000
175.076400 19595.400000
175.112800 86553.200000
176.084200 30749.100000
177.091800 11662.400000
179.107900 18215.000000
187.076700 11667.300000
187.112400 6900.500000
189.092600 5432.800000
191.071500 6532.100000
191.107700 9070.600000
201.092000 4665.900000
203.107500 14771.400000
205.123000 7900.000000
229.123900 6089.600000
233.118000 8446.500000
256.109400 4263.400000
257.154800 62930.200000
257.189900 4148.100000
259.133800 62032.600000
269.154500 4470.800000
271.134000 92536.900000
285.149600 10995.400000
287.165100 6046.700000
301.181200 5149.300000
311.165300 155550.600000
329.175800 173719.900000

>ms2
57.034500 298285.400000
59.013900 4693.900000
69.034600 8258.200000
71.013800 4720.900000
73.029400 3019.200000
79.055300 8842.500000
80.026700 4915.400000
81.034600 21261.500000
83.050100 6516.800000
91.055300 15705.100000
93.034500 15672.300000
93.071000 7166.700000
94.042500 16692.300000
95.013900 4710.700000
95.050200 73001.400000
96.021600 3159.800000
97.065900 60471.800000
99.045100 8143.800000
106.042400 3638.000000
107.050300 133341.300000
107.086600 19555.600000
108.021700 22857.600000
109.065900 388145.600000
111.045000 6902.400000
111.081400 8752.100000
119.050200 95038.500000
120.058100 5115.500000
121.029600 7876.100000
121.065900 53946.800000
121.102400 2867.800000
122.037300 654177.800000
123.045200 218551.500000
123.081500 401081.900000
124.016500 35427.800000
125.060800 57775.200000
131.049800 4082.000000
133.065800 10161.000000
133.102300 4346.800000
134.037300 6309.500000
135.045300 86882.600000
135.081600 104491.100000
136.053000 286464.700000
137.060800 2165600.200000
138.032200 23451.400000
145.065800 10474.600000
146.073700 8982.300000
147.045100 31653.400000
147.081400 26423.400000
148.053000 36918.300000
149.060700 951891.700000
150.032300 14725.500000
150.068500 7571.900000
151.040000 76560.900000
151.076500 8831.400000
153.019500 6767.400000
154.027200 87304.700000
159.045100 4719.100000
159.081300 11437.700000
161.061100 11068.500000
161.097200 65192.800000
162.068600 26118.400000
163.076500 55676.400000
164.084200 5047.500000
165.019500 2652.200000
165.093000 2252.100000
167.034800 15920.300000
168.042800 45544.100000
173.060900 3580.100000
173.096900 3976.000000
175.076700 14929.900000
175.112800 42816.900000
176.084200 17817.300000
177.092100 7123.900000
179.107700 2838.200000
187.076500 14222.300000
187.112600 6973.200000
189.092900 4220.300000
191.071300 5528.200000
201.092100 3639.300000
214.099800 5341.600000
229.123700 5763.900000
231.139400 3119.400000
241.124700 4051.800000
242.130900 2667.100000
256.110900 5282.800000
257.154800 8983.900000
259.134000 4114.300000
271.134100 34460.700000
285.149800 5921.600000
311.166500 5234.200000

>ms2
55.018900 5608.400000
57.034600 327412.800000
59.013700 3127.000000
65.039600 6672.300000
67.019000 1858.400000
69.034600 11816.000000
71.013900 3140.600000
73.029500 2132.100000
79.055400 11896.000000
80.026800 9930.500000
81.034600 23725.300000
83.050200 7606.800000
91.055300 19314.300000
93.034600 20503.000000
93.071000 6964.400000
94.042500 25657.500000
95.050300 101602.000000
96.021700 2673.300000
97.065900 49785.300000
99.045100 5209.200000
105.071000 7023.100000
106.042600 13424.400000
107.050300 185635.500000
107.086500 12614.900000
108.021700 39993.800000
109.065900 262532.900000
111.081400 3124.800000
117.034400 2494.400000
119.050200 104537.000000
120.058000 8370.100000
121.029600 16048.200000
121.065900 82553.800000
122.037300 701527.300000
123.045200 183632.500000
123.081500 243629.400000
124.016600 30953.900000
125.024400 2877.000000
125.060900 18134.700000
129.034500 2922.500000
131.050000 7200.000000
133.065900 13446.700000
134.037300 33002.300000
135.045200 72970.700000
135.081600 49880.200000
136.053000 186414.200000
137.024400 66464.700000
137.060800 847072.000000
138.032000 6762.500000
143.050600 4679.100000
145.065900 11915.900000
146.073800 5712.200000
147.045200 56459.500000
147.081400 13975.900000
148.053000 60645.300000
149.060800 1074370.600000
150.032200 5941.500000
150.068500 6237.800000
151.040000 28557.500000
153.019600 7348.500000
154.027200 91153.400000
157.065700 4152.900000
159.045200 7864.400000
159.081700 14376.100000
161.061000 15374.300000
161.097200 36534.900000
162.068800 8270.300000
163.076600 20697.300000
164.084000 2753.300000
167.035000 6437.800000
168.042800 20131.500000
171.081900 4114.500000
173.060700 9646.700000
173.096900 2906.500000
175.076600 11640.100000
175.112800 14215.000000
176.084600 3911.200000
177.092000 4027.700000
187.076500 10089.200000
187.113000 3492.600000
191.071700 2857.300000
199.076700 6068.000000
214.099500 3838.600000
241.122900 2761.200000
271.134200 9035.100000

>ms2
55.018900 6253.200000
57.034600 244368.700000
59.013900 2335.200000
65.039700 10618.100000
67.019000 5386.000000
69.034700 12098.100000
71.013900 3100.100000
79.055400 10035.900000
80.026700 11973.000000
81.034600 18134.300000
83.050200 5727.600000
91.055400 15039.700000
93.034600 25417.400000
93.071000 7223.100000
94.042500 15407.000000
95.013900 4933.800000
95.050300 78965.000000
97.066000 20852.300000
99.045200 2053.200000
105.070900 5864.300000
106.042300 16304.100000
107.050300 145856.500000
108.021700 31507.600000
109.065900 138585.900000
117.035100 2720.700000
119.050200 65136.100000
120.058100 8395.600000
121.029500 23126.500000
121.065900 88410.000000
122.037300 356646.200000
123.045200 109118.500000
123.081500 93535.100000
124.016600 14811.100000
125.060600 5102.000000
129.034600 6639.200000
131.050400 5283.400000
133.066200 11669.900000
134.037400 75783.100000
135.045200 51570.800000
135.081700 10515.700000
136.053000 106956.400000
137.024400 37173.000000
137.060800 194508.600000
138.032100 3214.500000
143.050300 5546.300000
145.066000 19325.200000
147.045200 52423.600000
147.081800 3459.500000
148.053100 79838.400000
149.060800 673479.200000
151.040100 12641.400000
153.019500 3653.900000
154.027200 42378.600000
157.066000 3062.800000
159.045200 11118.400000
159.081400 13130.800000
161.060800 8952.400000
161.097400 15446.100000
163.076300 4631.900000
168.042900 6271.500000
171.081800 2707.600000
173.060800 6464.400000
175.076500 4204.400000
175.112800 3854.700000
187.076600 7504.400000
199.077000 3132.000000

