>compound LU15529192
>parentmass 239.15869999999998
>ionization [M-H]-
>formula C13H24N2S
>rt 1068.200000
>profile orbitrap
#smiles_iso C1CCC(CC1)NC(=S)NC2CCCCC2
#smiles_can C1CCC(CC1)NC(=S)NC2CCCCC2
#inchikey KAJICSGLHKRDLN-UHFFFAOYSA-N
#pubchem_id 727200
#mb_accession LU118851,LU118852,LU118853,LU118854,LU118855,LU118856

>ms2
57.975600 2260.300000
106.066200 8214.200000
123.092500 2169.400000
239.158800 1850318.000000

>ms2
239.158700 381064.600000

>ms2
106.066200 19765.200000
123.092600 2347.400000
239.158500 12035.600000

>ms2
57.975600 2431.500000
106.066200 12155.400000
123.092900 3081.900000

>ms2
57.975800 3550.400000
106.066300 17195.900000
123.092800 2760.000000

>ms2
57.975700 8302.900000
106.066500 4689.000000
123.093000 1795.800000

