>compound LU15829658
>parentmass 167.9858
>ionization [M-H]-
>formula C7H4ClNO2
>rt 945.240000
>profile orbitrap
#smiles_iso C1=CC2=C(C=C1Cl)OC(=O)N2
#smiles_can C1=CC2=C(C=C1Cl)OC(=O)N2
#inchikey MATCZHXABVLZIE-UHFFFAOYSA-N
#pubchem_id 29858
#mb_accession LU025951,LU025952,LU025953,LU025954,LU025955,LU025956

>ms2
76.019300 34790.600000
132.009100 1163615.200000
167.985700 18803218.000000

>ms2
76.019200 43695.700000
132.009100 1238292.900000
167.985700 18403162.000000

>ms2
76.019200 418512.100000
104.014200 10519.000000
132.009000 3523857.800000
167.985600 10256805.000000

>ms2
50.003500 5972.700000
76.019300 1248611.200000
89.003300 12394.000000
96.009100 6801.900000
104.014300 51961.000000
132.009100 4578158.000000
167.985700 4976736.000000

>ms2
50.003500 21925.600000
76.019300 1972882.200000
77.003300 4710.100000
89.003300 57624.100000
96.009100 28564.100000
104.014300 90384.700000
104.998100 6884.200000
132.009100 2773076.500000
167.985700 1161135.200000

>ms2
50.003600 56108.500000
76.019300 1721099.900000
77.003300 11619.800000
89.003300 66446.600000
96.009200 21360.200000
104.014200 69303.700000
104.997900 4723.300000
132.009100 1161975.800000
167.985800 233457.200000

