>compound LU15031653
>parentmass 401.1606
>ionization [M-H]-
>formula C22H26O7
>rt 1150.560000
>profile orbitrap
#smiles_iso CCCC1=C(C=CC(=C1O)C(=O)C)OCCCOC2=CC=C(C=C2)OCC(=O)O
#smiles_can CCCC1=C(C=CC(=C1O)C(=O)C)OCCCOC2=CC=C(C=C2)OCC(=O)O
#inchikey HBBVCKCCQCQCTJ-UHFFFAOYSA-N
#pubchem_id 6603901
#mb_accession LU035351,LU035352,LU035353,LU035354,LU035355,LU035356

>ms2
108.022100 24347.200000
122.037400 78277.000000
163.041500 15392.700000
193.087000 188276.500000
233.118700 27841.600000
343.155100 1956964.500000
357.170700 195582.900000
401.160500 9020801.000000

>ms2
95.013800 7870.000000
108.021700 3385705.000000
109.029400 70656.000000
121.029500 82536.300000
122.037300 480408.800000
123.045200 129873.500000
149.097200 27163.300000
151.076600 16238.500000
163.039800 120768.800000
164.048100 11624.500000
167.034800 18090.100000
177.055600 90745.700000
178.100200 9864.200000
191.071300 51500.100000
191.108000 13144.600000
192.079200 118252.400000
193.086900 4340549.500000
205.087000 178366.400000
233.118300 377269.000000
301.144000 8356.700000
343.154900 5423786.000000
357.170700 317667.900000
401.160400 295535.200000

>ms2
85.029600 12468.200000
93.034600 14295.900000
95.013800 14251.900000
107.086700 15556.100000
108.021600 7547768.500000
109.029400 170414.800000
121.029500 100795.200000
122.037300 347994.600000
123.009400 13796.200000
123.045100 79356.300000
133.066100 14321.500000
149.097100 94361.100000
151.076400 111356.700000
161.097200 9907.400000
163.040000 495960.900000
164.047900 50311.700000
175.076600 8960.700000
177.055700 401305.000000
191.071400 93978.300000
191.108000 13176.300000
192.079300 74012.400000
193.086900 3848369.200000
195.066000 21371.200000
196.037500 10544.000000
205.086900 331165.200000
233.118200 149245.400000
343.154900 164634.900000

>ms2
81.034600 11773.000000
85.029700 14350.000000
91.055300 8531.200000
93.034500 19947.000000
95.013800 18755.100000
95.050200 6931.700000
107.086800 65623.200000
108.021700 6713069.500000
109.029400 167140.400000
119.086700 12327.000000
120.058100 9194.200000
121.029500 154803.700000
122.037300 249268.400000
123.008700 11482.900000
123.045200 45471.300000
133.065900 129307.500000
135.045100 41404.700000
136.052900 30555.100000
149.060900 13077.500000
149.097100 191605.600000
151.040300 18166.300000
151.076400 358029.200000
161.024600 14437.000000
161.097000 21705.400000
163.040100 1109954.600000
164.047900 138305.700000
175.076400 36949.900000
176.048200 12637.300000
177.055700 781419.500000
189.055900 9203.300000
191.071400 127807.500000
192.079000 7479.200000
193.086900 1541855.400000
195.066200 61792.600000
196.037700 24633.300000
205.087000 189293.100000
208.038000 13033.200000
233.118400 24475.600000

>ms2
59.013800 4466.800000
65.039700 10059.600000
67.018900 22404.200000
81.034600 23724.000000
83.013800 6852.900000
83.050200 14193.700000
85.029600 7230.900000
91.055400 46893.000000
93.034600 28636.100000
95.013900 7616.700000
95.050300 11883.400000
105.070900 12447.800000
107.050400 8856.500000
107.086700 94157.400000
108.021700 4254638.500000
109.029400 110032.500000
117.034700 35612.600000
119.086600 14518.000000
120.058000 11604.600000
121.029500 283037.700000
122.037400 110286.300000
123.008900 8777.700000
123.045100 20507.000000
130.042500 6648.400000
131.050300 8562.500000
133.065900 201644.500000
135.045200 125162.700000
136.016500 8050.000000
136.053000 62780.000000
146.037400 6821.600000
147.081700 14094.400000
148.052800 7576.900000
149.024300 8455.900000
149.060900 18321.300000
149.097100 114099.100000
151.076400 246225.900000
159.045200 17697.300000
161.024400 38096.700000
161.097000 8711.000000
163.040100 1141591.000000
164.047900 119900.100000
173.061000 5824.600000
175.040100 16626.500000
175.076500 35116.000000
176.047800 10852.700000
177.055700 558961.800000
187.075800 5597.200000
189.055600 8910.800000
191.071500 70699.500000
193.087000 295112.400000
195.066300 42686.100000
196.037800 13682.900000
205.086900 51693.000000
208.037600 12889.600000
233.118100 5166.300000

>ms2
59.013800 5487.500000
65.039700 24783.300000
67.019000 78448.000000
81.034700 49774.800000
83.050300 34085.200000
91.055400 118419.700000
93.034600 52612.900000
95.013900 9928.600000
95.050400 20300.400000
105.071000 29980.400000
107.050100 8141.600000
107.086700 79005.100000
108.021700 3050922.200000
109.029400 66902.400000
117.034600 94820.000000
119.050300 10956.600000
119.086600 10718.600000
120.058000 8581.900000
121.029500 574283.900000
122.037300 71030.200000
123.009000 13301.100000
123.045300 11022.900000
130.042300 19609.500000
131.050300 14823.600000
133.065900 172929.300000
135.045200 194037.300000
136.016500 30066.200000
136.052900 69501.300000
145.065800 4220.100000
146.037600 5238.500000
147.081600 13040.200000
148.052900 8861.100000
149.024300 16682.600000
149.060800 26070.800000
149.097200 39045.000000
151.076500 103098.800000
159.045200 29965.900000
161.024500 65548.200000
161.096900 3793.900000
163.040100 979928.700000
164.047900 64232.700000
167.035000 6777.500000
173.060600 8217.300000
175.040200 24062.000000
175.076400 11523.800000
176.047800 6807.600000
177.055700 278212.000000
178.027500 4849.900000
179.034800 8698.100000
189.055300 4852.800000
191.071600 33863.200000
193.087000 53408.600000
195.066700 13487.800000
196.037600 8703.200000
205.087000 14849.200000
208.037500 7239.700000

