>compound LU15833423
>parentmass 304.1303
>ionization [M-H]-
>formula C15H19N3O4
>rt 818.580000
>profile orbitrap
#smiles_iso CC(C)C1(C(=O)NC(=N1)C2=C(C=C(C=N2)COC)C(=O)O)C
#smiles_can CC(C)C1(C(=O)NC(=N1)C2=C(C=C(C=N2)COC)C(=O)O)C
#inchikey NUPJIGQFXCQJBK-UHFFFAOYSA-N
#pubchem_id 86137
#mb_accession LU028051,LU028052,LU028053,LU028054,LU028055,LU028056

>ms2
217.085600 91104.200000
219.113700 2174.100000
260.140400 1074032.100000

>ms2
186.067100 28507.800000
204.077600 4114.600000
217.085700 753291.000000
218.093300 11706.400000
219.114200 6396.500000
245.116900 18564.900000
260.140500 437272.300000

>ms2
117.046000 3812.300000
185.059400 1785.900000
186.067200 487860.200000
187.075100 6786.500000
204.077500 6104.000000
214.098800 5932.000000
217.085600 766531.800000
218.093100 5385.000000
230.093200 14980.300000
245.116600 23691.900000
260.140600 26349.100000

>ms2
117.045700 39873.500000
142.041000 5110.100000
156.056700 2243.000000
185.059800 3821.500000
186.067200 1098628.600000
187.075100 7542.700000
198.067000 3138.500000
204.077600 2373.000000
214.098600 17457.600000
216.077700 7047.500000
217.085600 154090.900000
230.093300 25490.500000
245.116800 3610.100000

>ms2
115.030200 4278.700000
117.045900 249970.000000
142.041300 6524.400000
156.056800 3544.200000
184.051300 3148.200000
185.059800 2201.600000
186.067300 778513.600000
187.075200 2145.500000
198.067300 4418.500000
199.075000 4984.800000
216.078000 5570.600000
217.085700 8768.300000
230.093800 8850.800000

>ms2
115.030400 7696.600000
117.045900 586838.100000
142.041000 8329.400000
156.056900 5070.300000
184.052100 2718.200000
186.067300 323575.500000
198.067100 2042.000000
199.075400 5825.900000
214.098500 4066.300000
216.078000 3381.300000

