>compound LU15805349
>parentmass 145.0506
>ionization [M-H]-
>formula C6H10O4
>rt 587.880000
>profile orbitrap
#smiles_iso C(CCC(=O)O)CC(=O)O
#smiles_can C(CCC(=O)O)CC(=O)O
#inchikey WNLRTRBMVRJNCN-UHFFFAOYSA-N
#pubchem_id 196
#mb_accession LU066451,LU066452,LU066453,LU066454,LU066455,LU066456

>ms2
81.034600 5080.100000
83.050300 38586.900000
101.060800 39889.100000
145.050700 8593.000000

>ms2
81.034700 5239.300000
83.050300 38773.600000
101.060800 39977.700000
145.050500 7800.900000

>ms2
81.034600 10423.700000
83.050300 27311.400000
101.060800 23807.500000

>ms2
81.034700 9917.600000
83.050300 12554.400000
101.060700 7550.100000

>ms2
81.034700 13284.800000
83.050300 7954.100000
101.060600 2442.100000

>ms2
81.034600 14548.500000
83.050300 4207.600000

