>compound LU15481133
>parentmass 206.0823
>ionization [M-H]-
>formula C11H13NO3
>rt 777.720000
>profile orbitrap
#smiles_iso CC(=O)CC(=O)NC1=CC=C(C=C1)OC
#smiles_can CC(=O)CC(=O)NC1=CC=C(C=C1)OC
#inchikey SWAJJKROCOJICG-UHFFFAOYSA-N
#pubchem_id 21576
#mb_accession LU038851,LU038852,LU038853,LU038854,LU038855,LU038856

>ms2
57.034600 57585.600000
83.013900 687596.000000
107.037700 103759.800000
122.061200 75739.500000
143.050300 40398.300000
191.059000 18366.400000
206.082300 122396.300000

>ms2
57.034500 49975.100000
83.013900 685228.800000
107.037700 183046.800000
122.061100 74341.100000
143.050200 157527.200000
191.058900 11538.100000
206.082300 36048.800000

>ms2
57.034500 36569.300000
83.013800 558842.800000
107.037600 392774.700000
122.061000 27438.700000
143.050200 759335.000000

>ms2
57.034600 22272.300000
83.013900 467352.000000
107.037700 522990.600000
115.055400 3875.100000
122.061200 6697.800000
143.050200 1056390.200000

>ms2
57.034600 13552.000000
83.013900 220473.700000
107.037700 352603.600000
115.055400 24715.300000
143.050200 1083034.000000

>ms2
57.034600 12387.600000
83.013900 142921.300000
107.037700 278203.600000
115.055300 49466.000000
143.050200 527541.100000

