>compound LU16676875
>parentmass 317.0885
>ionization [M-H]-
>formula C17H19ClN2S
>rt 698.760000
>profile orbitrap
#smiles_iso CN(C)CCCN1C2=CC=CC=C2SC3=C1C=C(C=C3)Cl
#smiles_can CN(C)CCCN1C2=CC=CC=C2SC3=C1C=C(C=C3)Cl
#inchikey ZPEIMTDSQAKGNT-UHFFFAOYSA-N
#pubchem_id 2726
#mb_accession LU077451,LU077452,LU077453,LU077454,LU077455,LU077456

>ms2
178.998600 4805.500000
190.998700 16084.700000
206.993700 12940.800000
208.106200 7303.200000
227.035100 1906.300000

>ms2
178.998500 6585.800000
190.998700 7813.500000
206.993600 6228.400000
208.105200 3881.300000
208.117000 4215.700000
227.035200 5802.600000

>ms2
190.998800 2895.700000
208.105300 3149.500000
208.115800 8120.100000

>ms2
57.034700 2001.700000
65.003300 3943.500000
107.037600 1803.600000

>ms2
57.034700 2958.500000
63.024100 5064.600000
65.003400 7060.000000
107.037700 2395.900000

>ms2
57.034500 2433.300000
63.024100 2876.800000
65.003300 8733.600000

