>compound LU16612154
>parentmass 277.14449999999994
>ionization [M-H]-
>formula C16H22O4
>rt 1144.920000
>profile orbitrap
#smiles_iso CCCCC(CC)COC(=O)C1=CC=CC=C1C(=O)O
#smiles_can CCCCC(CC)COC(=O)C1=CC=CC=C1C(=O)O
#inchikey DJDSLBVSSOQSLW-UHFFFAOYSA-N
#pubchem_id 20393
#mb_accession LU123851,LU123852,LU123853,LU123854,LU123855,LU123856

>ms2peaks
77.039900 20191.100000
93.034700 14516.100000
105.034600 10806.300000
107.050200 339527.400000
121.029500 1281368.500000
125.061100 6333.800000
127.112800 1758432.600000
129.128500 174079.500000
134.037300 4515116.500000
135.045200 111065.900000
147.008800 402518.700000
149.024600 14553.600000
151.040200 7207.900000
155.108000 13227.600000
165.019300 60252.000000
173.118200 10560.600000
203.143800 13676.100000
205.159700 397669.800000
231.138600 24807.900000
233.154700 717585.700000
277.144500 3500774.000000

>ms2peaks
75.024000 8525.500000
77.039500 6407.700000
93.034600 25661.900000
105.034800 7271.100000
107.050200 208632.800000
108.021500 6164.000000
119.013800 9179.200000
121.029500 1090261.500000
125.060800 4917.700000
125.097200 7485.200000
127.112800 1711470.900000
129.128500 110705.900000
134.037300 3651326.000000
135.045100 123216.000000
147.008800 420501.700000
149.024500 6528.900000
151.039900 5058.000000
155.107800 5396.300000
165.019300 74134.100000
173.118400 7279.700000
203.144100 21591.000000
205.159700 63009.500000
231.138900 18121.200000
233.154500 43568.100000
277.144400 119801.700000

>ms2peaks
75.024100 3015.600000
93.034600 4068.500000
107.050400 4892.900000
119.014100 2594.100000
121.029500 47171.100000
125.097600 2512.600000
127.112900 64007.700000
134.037400 73993.400000
135.045600 3097.600000
147.008800 15635.200000
165.019500 5787.000000

>ms2peaks
75.024000 14447.500000
93.034500 5295.700000
103.019000 3950.400000
119.013800 2155.900000
121.029500 24953.900000
125.097200 3098.900000
127.112800 29326.600000
134.037300 11435.300000
147.008600 6976.600000
165.018900 1938.800000

>ms2peaks
75.024100 422906.600000
93.034600 38478.600000
103.019000 40659.100000
108.021900 3318.000000
119.013900 23422.800000
121.029500 178727.100000
125.097200 23125.900000
127.112800 112620.300000
134.037100 15827.600000
135.045300 7495.300000
147.008800 36418.900000
165.019200 6173.100000

>ms2peaks
75.024100 28614.600000
93.034600 2013.100000
121.029400 3830.600000

