>compound LU17360955
>parentmass 406.0998
>ionization [M-H]-
>formula C19H22ClN3O3S
>rt 1073.280000
>profile orbitrap
#smiles_iso CS(=O)(=O)C1=C(C=C(C=C1)[C@@H](CC2CCCC2)C(=O)NC3=NC=CN=C3)Cl
#smiles_can CS(=O)(=O)C1=C(C=C(C=C1)C(CC2CCCC2)C(=O)NC3=NC=CN=C3)Cl
#inchikey QULLOTSYPAOTIW-OAHLLOKOSA-N
#pubchem_id 59086459
#mb_accession LU100451,LU100452,LU100453,LU100454,LU100455,LU100456

>ms2
94.041100 95393.600000
249.095100 13926.500000
285.072000 10911856.000000

>ms2
63.962500 382157.100000
78.986100 6471.500000
94.041100 218827.000000
185.133600 702803.500000
200.978500 20708.000000
229.123200 15494.500000
249.095500 420029.800000
270.048300 21525.100000
285.072200 5285383.500000

>ms2
63.962400 802816.400000
67.030100 4361.300000
78.985900 28865.500000
94.041100 225306.300000
98.931200 3117.400000
137.016300 5215.400000
185.133500 1125546.100000
200.978200 98167.600000
229.123400 36152.600000
249.095400 78459.100000
270.048700 7734.300000
285.072100 258587.800000

>ms2
63.962500 803584.300000
67.030200 8488.900000
78.986000 78820.800000
94.041100 198706.600000
98.931300 6925.700000
137.016400 12026.600000
158.073700 12710.400000
185.133600 403931.200000
200.978400 44681.200000
229.123300 8515.500000

>ms2
63.962400 814060.100000
67.030200 18809.100000
78.986000 112135.600000
94.041100 184240.700000
137.016600 2740.000000
158.073800 3989.000000
185.133500 50995.400000
200.977700 5074.400000

>ms2
63.962500 694145.900000
67.030200 17621.700000
78.986000 87793.500000
94.041100 98467.100000
185.133900 2962.200000

