>compound LU17198694
>parentmass 185.00109999999998
>ionization [M-H]-
>formula C8H7ClO3
>rt 943.470000
>profile orbitrap
#smiles_iso C1=CC(=CC=C1OCC(=O)O)Cl
#smiles_can C1=CC(=CC=C1OCC(=O)O)Cl
#inchikey SODPIMGUZLOIPE-UHFFFAOYSA-N
#pubchem_id 26229
#mb_accession LU119151,LU119152,LU119153,LU119154,LU119155,LU119156

>ms2peaks
111.000700 38562.600000
126.995600 4645249.500000
141.011300 80109.100000
185.001100 134976.100000

>ms2peaks
111.000700 39762.700000
126.995600 4774464.000000
141.011200 65656.600000
185.001100 84812.400000

>ms2peaks
111.000500 28111.900000
126.995500 3644705.800000
141.011200 11875.000000

>ms2peaks
91.019000 28146.600000
111.000700 11729.000000
126.995700 3520576.500000

>ms2peaks
91.019000 68288.800000
111.000800 5013.100000
126.995600 2435269.800000

>ms2peaks
91.019000 70459.000000
111.000700 1966.100000
126.995700 995854.700000

