>compound LU19426005
>parentmass 181.0255
>ionization [M-H]-
>formula C7H6N2O4
>rt 890.040000
>profile orbitrap
#smiles_iso C1=CC(=C(C=C1[N+](=O)[O-])N)C(=O)O
#smiles_can C1=CC(=C(C=C1[N+](=O)[O-])N)C(=O)O
#inchikey UEALKTCRMBVTFN-UHFFFAOYSA-N
#pubchem_id 12076
#mb_accession LU039451,LU039452,LU039453,LU039454,LU039455,LU039456

>ms2
80.026800 9274.400000
107.037700 621417.600000
137.035600 6019599.000000
181.025500 502458.700000

>ms2
80.026600 10970.100000
107.037700 591912.200000
137.035600 4488377.500000
181.025500 263156.500000

>ms2
79.042800 2468.800000
80.026800 58937.000000
90.035000 11413.300000
92.993900 4519.800000
106.029800 2460.200000
107.037600 1249614.800000
122.024900 3371.600000
124.016800 2908.600000
137.035600 2295447.000000
153.030800 2454.800000
181.025500 17475.500000

>ms2
79.042900 3162.100000
80.026800 80095.600000
90.035000 14236.400000
92.993800 4535.900000
106.029900 5482.200000
107.037700 723797.800000
122.024700 1918.900000
137.035700 443760.800000

>ms2
79.042800 1509.000000
80.026800 94179.800000
90.035000 18439.800000
92.993800 2550.100000
106.029900 5043.400000
107.037700 368364.000000
124.016500 11689.600000
137.035700 76831.300000

>ms2
80.026800 66218.900000
90.034900 11190.100000
92.993800 2541.600000
106.029800 3640.900000
107.037700 140386.400000
137.035600 10721.700000

