>compound LU19449721
>parentmass 175.04009999999997
>ionization [M-H]-
>formula C10H8O3
>rt 843.060000
>profile orbitrap
#smiles_iso CC1=CC(=O)OC2=C1C=CC(=C2)O
#smiles_can CC1=CC(=O)OC2=C1C=CC(=C2)O
#inchikey HSHNITRMYYLLCV-UHFFFAOYSA-N
#pubchem_id 5280567
#mb_accession LU020751,LU020752,LU020753,LU020754,LU020755,LU020756,LU096751,LU096752,LU096753,LU096754,LU096755,LU096756

>ms2peaks
131.050200 314195.500000
133.029500 167328.400000
147.045200 121721.600000
175.040000 22119412.000000

>ms2peaks
119.050200 23641.000000
131.050300 416610.500000
133.029500 243751.200000
147.045100 166064.200000
175.040000 23566998.000000

>ms2peaks
65.003300 22370.600000
89.039700 75310.200000
95.050300 43361.200000
103.055300 50629.700000
107.050300 59176.700000
109.029500 43239.900000
119.050200 284843.000000
123.045200 185810.300000
130.042400 131415.600000
131.050200 1937841.500000
133.029500 1852631.800000
135.008900 19027.000000
147.045100 1230785.400000
175.039900 17545426.000000

>ms2peaks
65.003300 144267.000000
65.039700 16358.400000
67.018900 10038.500000
77.039600 34748.400000
89.039700 449752.800000
91.018900 60137.800000
91.055300 26536.000000
93.034500 39461.900000
95.050300 260575.400000
102.047600 47173.900000
103.055300 145651.000000
105.034600 128932.100000
107.050200 95624.700000
109.029400 104252.100000
119.050200 1491993.800000
121.029400 13689.800000
123.045200 814269.100000
130.042400 350315.200000
131.050200 2692371.000000
132.021600 65324.300000
133.029500 3875527.500000
135.008700 43345.000000
145.029300 12896.800000
146.037400 18057.600000
147.045200 2360262.000000
160.016500 15413.500000
174.032200 13514.600000
175.040000 8545273.000000

>ms2peaks
63.024100 7062.800000
65.003300 385991.500000
65.039700 47820.800000
67.018900 14672.900000
77.039700 70870.300000
79.055300 11527.000000
81.034700 10629.100000
89.039700 787067.400000
91.018900 110919.200000
91.055300 59187.700000
93.034600 136258.300000
95.050300 559546.800000
102.047600 62867.900000
103.055300 134599.500000
104.026900 10461.800000
105.034600 233476.800000
107.050300 60279.900000
108.021600 6348.500000
109.029500 63548.500000
117.034700 16818.300000
119.050200 2273678.800000
121.029600 17050.600000
123.045200 999319.100000
130.042500 308568.300000
131.050300 1221447.500000
132.021800 121035.000000
133.029500 2603856.800000
135.008700 36752.000000
145.029600 13248.400000
146.037100 23948.800000
147.045200 1451249.900000
174.032200 8912.000000
175.040100 2032360.900000

>ms2peaks
63.024000 56451.200000
65.003300 898805.700000
65.039700 127313.000000
67.018900 26230.400000
77.039700 172540.200000
79.055300 13632.100000
81.034600 12172.000000
89.039700 1420459.500000
91.019000 259853.200000
91.055400 134027.700000
93.034600 375912.800000
95.050300 939392.100000
102.047500 80914.400000
103.055400 122808.200000
104.026800 42531.500000
105.034600 377947.000000
107.050200 48834.000000
108.021700 8565.500000
109.029500 63128.300000
117.034500 70723.900000
119.050200 3287620.000000
121.029500 28616.000000
123.045200 939532.900000
130.042400 246875.200000
131.050300 622262.000000
132.021700 192382.200000
133.029500 1754591.500000
135.009200 24093.500000
145.029400 26569.500000
146.037500 28663.700000
147.045200 918497.600000
175.040100 566968.500000

>ms2peaks
131.050200 402149.100000
133.029500 264349.700000
147.045100 168230.700000
175.040000 29546744.000000

>ms2peaks
119.050200 30549.000000
130.042300 30380.800000
131.050200 545690.800000
133.029400 333097.300000
147.045100 225177.700000
175.040000 29589268.000000

>ms2peaks
65.003300 24765.900000
89.039700 81534.500000
95.050300 40677.800000
103.055300 59524.400000
105.034400 32372.500000
107.050200 89077.200000
109.029400 76363.600000
119.050200 359138.000000
123.045200 228770.900000
130.042400 176878.500000
131.050200 2550497.800000
133.029500 2373964.800000
147.045100 1515594.100000
175.040000 21408428.000000

>ms2peaks
65.003300 188518.000000
65.039500 11049.000000
77.039700 51151.600000
89.039700 554287.400000
91.019000 58889.600000
91.055400 39411.200000
93.034600 56724.900000
95.050300 318975.900000
102.047500 61752.400000
103.055300 168543.900000
105.034600 163168.200000
107.050300 129507.200000
109.029500 126921.600000
119.050200 1802711.400000
121.029600 11374.500000
123.045200 1090402.800000
130.042500 448566.100000
131.050300 3304765.000000
132.021600 63860.000000
133.029500 4890640.000000
135.008600 70337.600000
145.029400 17083.300000
146.037600 25713.100000
147.045200 3074571.800000
160.016400 16830.100000
174.032200 15727.800000
175.040000 10411993.000000

>ms2peaks
63.024000 18209.600000
65.003300 683572.800000
65.039600 70414.500000
67.018900 25002.200000
77.039700 145539.800000
79.055300 19212.500000
81.034600 15606.600000
89.039700 1446314.600000
91.018900 213039.000000
91.055300 84888.400000
93.034600 215332.200000
95.050300 974574.600000
102.047500 101759.600000
103.055300 195564.300000
104.026800 11816.900000
105.034600 371086.100000
107.050200 115410.200000
109.029400 128969.700000
117.034500 30083.700000
119.050200 3832501.000000
121.029400 28562.100000
123.045100 1670231.600000
130.042400 545282.400000
131.050200 2079658.800000
132.021700 177994.900000
133.029500 4361652.500000
135.008800 67411.000000
145.029500 19408.700000
146.037400 42042.000000
147.045100 2508916.000000
160.016300 12874.500000
174.032100 20373.600000
175.040000 3324815.000000

>ms2peaks
63.024000 60994.100000
65.003300 1052607.800000
65.039600 131168.600000
67.019000 25583.000000
77.039700 230672.900000
79.055300 14913.000000
81.034600 18747.600000
89.039700 1722193.000000
91.019000 296932.900000
91.055400 168317.900000
93.034600 450566.800000
95.050300 1090800.200000
102.047500 103262.300000
103.055400 149532.900000
104.026900 39462.600000
105.034600 427492.200000
107.050400 53850.100000
109.029400 77019.500000
117.034600 78715.500000
119.050200 3908991.500000
121.029500 43040.200000
123.045200 1139546.100000
130.042400 305027.700000
131.050300 689109.300000
132.021700 236332.900000
133.029500 2006690.400000
135.008600 31450.300000
145.029700 34954.200000
146.037500 29265.500000
147.045200 989362.400000
160.016900 13920.200000
175.040000 651326.400000

