>compound LU19780209
>parentmass 166.01929999999996
>ionization [M-H]-
>formula C5H5N5S
>rt 182.940000
>profile orbitrap
#smiles_iso C1=NC2=C(N1)C(=S)N=C(N2)N
#smiles_can C1=NC2=C(N1)C(=S)N=C(N2)N
#inchikey WYWHKKSPHMUBEB-UHFFFAOYSA-N
#pubchem_id 2723601
#mb_accession LU064051,LU064052,LU064053,LU064054,LU064055,LU064056

>ms2
57.975700 23306.900000
66.009800 9597.200000
82.041100 6626.200000
105.020800 3860.400000
107.036400 61722.700000
123.997300 12232.400000
132.031600 626454.100000
148.992600 5723.200000
166.019300 597233.100000

>ms2
57.975700 28831.300000
66.009800 9167.000000
82.041100 9162.500000
105.020800 4664.900000
107.036400 53303.700000
123.997400 12362.400000
132.031600 627939.800000
148.992700 6510.300000
166.019300 588531.400000

>ms2
57.975600 30689.700000
66.009800 49681.200000
78.009900 2595.600000
81.975700 1614.500000
82.041100 16099.000000
96.986600 2736.100000
105.020800 14397.100000
107.036400 64698.500000
123.997400 15506.000000
132.031600 634349.200000
148.992900 6258.200000
166.019300 121186.200000

>ms2
57.975600 32511.900000
66.009800 162520.300000
78.009700 7859.300000
81.975700 5435.700000
82.041100 21070.300000
90.009800 2538.700000
96.986600 7286.500000
105.020700 26574.200000
107.036300 59121.000000
123.997200 10113.300000
132.031600 581228.200000
148.992700 5939.500000
166.019200 28699.200000

>ms2
57.975700 36414.200000
65.014500 1825.700000
66.009800 226121.100000
78.009800 8100.300000
81.975700 9590.600000
82.041100 18171.600000
90.009800 4268.000000
96.986700 5144.000000
105.020700 24155.500000
107.036300 33199.100000
123.997500 3073.100000
132.031600 246412.600000
166.018900 2102.400000

>ms2
57.975700 28825.500000
65.014500 1880.500000
66.009800 258998.900000
78.009800 4817.800000
81.975700 13825.500000
82.041100 15992.300000
90.009700 5954.100000
96.986800 2578.700000
105.020600 13633.400000
107.036300 17689.400000
132.031600 97879.000000

