>compound LU20963372
>parentmass 245.93890000000002
>ionization [M-H]-
>formula C6H6AsNO5
>rt 521.400000
>profile orbitrap
#smiles_iso C1=CC(=CC=C1[N+](=O)[O-])[As](=O)(O)O
#smiles_can C1=CC(=CC=C1[N+](=O)[O-])[As](=O)(O)O
#inchikey FUUFQLXAIUOWML-UHFFFAOYSA-N
#pubchem_id 66826
#mb_accession LU044151,LU044152,LU044153,LU044154,LU044155,LU044156

>ms2peaks
106.912000 4196.700000
108.021600 6566.300000
122.906900 28807.300000
138.019700 177591.000000
245.938900 283835.400000

>ms2peaks
106.912000 12508.000000
108.021800 26285.700000
122.906900 78106.700000
124.922600 5602.700000
138.019700 271961.100000
245.939000 80830.600000

>ms2peaks
106.912000 42569.900000
108.021700 111550.600000
122.906900 127402.700000
124.922600 7361.400000
138.019600 207885.800000
245.939000 5284.700000

>ms2peaks
106.912000 73211.900000
108.021700 123563.500000
122.906900 117697.100000
123.914600 2760.200000
124.922700 5239.100000
138.019700 67770.200000

>ms2peaks
106.912000 131816.600000
108.021700 103261.400000
122.906900 137889.300000
123.914700 2468.900000
124.922600 1921.500000
138.019700 18208.100000

>ms2peaks
106.912000 170061.900000
108.021700 51816.700000
122.906900 132401.800000
138.019500 2990.300000

