>compound LU21970582
>parentmass 597.1805
>ionization [M-H]-
>formula C27H27F9N2O3
>rt 1184.340000
>profile orbitrap
#smiles_iso CC[C@@H]1C[C@@H](C2=C(N1C(=O)OC(C)C)C=CC(=C2)C(F)(F)F)N(CC3=CC(=CC(=C3)C(F)(F)F)C(F)(F)F)C(=O)C
#smiles_can CCC1CC(C2=C(N1C(=O)OC(C)C)C=CC(=C2)C(F)(F)F)N(CC3=CC(=CC(=C3)C(F)(F)F)C(F)(F)F)C(=O)C
#inchikey TUPKOWFPVAXQFP-OFNKIYASSA-N
#pubchem_id 10145345
#mb_accession LU068951,LU068952,LU068953,LU068954,LU068955,LU068956

>ms2peaks
58.029800 5413.300000
213.014600 4233.100000
227.030100 1707600.900000
241.045300 12650.200000
254.079700 79683.800000
271.019600 4883.200000
283.043800 1062778.400000
284.051700 131675.700000
309.085700 23282.800000
310.031100 9480.400000
314.137500 367565.700000
369.143300 84514.300000
415.073000 5304.000000
435.079600 5114.800000
436.074400 6225.200000

>ms2peaks
58.029800 20588.600000
213.014400 25459.200000
224.069500 9971.500000
227.030200 1584548.100000
228.100200 10984.100000
238.084900 4906.700000
253.009300 31900.200000
254.079900 296099.400000
267.075200 32883.100000
271.019900 5461.700000
280.094900 11763.700000
283.043800 815646.800000
284.051800 55032.100000
294.131200 39354.100000
309.085700 17363.200000
310.031100 36792.600000
314.137400 157181.100000
369.144400 3608.300000
375.061100 16877.700000
396.045200 13042.400000
415.073300 14038.700000
435.080000 19190.600000
436.074900 6627.300000

>ms2peaks
57.034500 4541.600000
58.029800 6918.400000
68.995700 4251.700000
197.045500 4844.600000
212.069600 5449.500000
213.014500 52061.200000
224.069300 36695.600000
225.040700 18061.500000
227.030200 915781.800000
228.100400 6194.200000
229.036000 13217.400000
234.073300 4107.700000
241.045800 9479.700000
253.009200 17624.900000
254.079900 124910.100000
262.029300 13845.400000
267.075400 20008.400000
280.095200 3192.800000
294.131300 14531.700000
310.031000 17544.100000
375.061900 13552.100000
435.079600 8859.600000
436.073400 5090.100000

>ms2peaks
57.034600 9480.300000
58.029900 2463.100000
193.008300 3514.100000
197.045100 3406.500000
199.025300 8038.500000
212.069600 4600.600000
213.014600 50949.800000
222.017300 3024.900000
225.040600 12015.000000
227.030200 228613.500000
229.035600 11587.000000
234.073300 3918.700000
238.085100 2244.400000
242.023500 8588.600000
253.009400 8478.800000
254.079600 5529.400000
262.029600 6916.900000
267.075100 5447.400000
375.060700 6042.600000
396.044900 5588.500000
436.073300 2842.300000

>ms2peaks
57.034600 8112.200000
58.029900 2081.600000
167.011700 7451.800000
173.002100 5318.300000
193.008400 7506.500000
199.025100 3166.900000
200.012800 12961.100000
213.014600 24836.100000
222.017300 8086.100000
224.069300 5641.800000
227.030100 22035.500000
242.023700 5704.000000

>ms2peaks
57.034700 8463.700000
58.029800 2145.400000
68.995900 3582.300000
167.011600 12175.100000
173.002000 15511.700000
193.008500 8531.400000
200.012700 10391.900000
213.014100 12224.500000
222.017500 7407.600000

