>compound LU21067657
>parentmass 301.0354
>ionization [M-H]-
>formula C15H10O7
>rt 930.600000
>profile orbitrap
#smiles_iso C1=CC(=C(C=C1C2=C(C(=O)C3=C(C=C(C=C3O2)O)O)O)O)O
#smiles_can C1=CC(=C(C=C1C2=C(C(=O)C3=C(C=C(C=C3O2)O)O)O)O)O
#inchikey REFJWTPEDVJJIY-UHFFFAOYSA-N
#pubchem_id 5280343
#mb_accession LU029851,LU029852,LU029853,LU029854,LU029855,LU029856

>ms2peaks
121.029500 7238.600000
151.003700 58940.500000
178.998600 69413.500000
257.045800 4014.100000
273.040400 6178.700000
301.035400 1080508.600000

>ms2peaks
65.003300 4955.800000
83.013900 6442.000000
107.013900 29358.000000
121.029500 76440.600000
125.024300 3885.700000
149.024300 7569.300000
151.003600 456306.200000
163.003900 3962.700000
163.039900 2074.100000
169.014300 17149.600000
178.998600 252920.700000
192.006800 3917.500000
193.014300 10851.500000
201.056100 2262.700000
211.040100 2709.500000
229.050800 12125.500000
245.045800 5432.800000
255.029500 2473.900000
257.046000 11480.600000
273.040600 43692.100000
299.020400 4127.400000
301.035300 329347.900000

>ms2peaks
63.024000 29683.100000
65.003300 59518.100000
83.013900 48741.200000
93.034700 12994.600000
95.014000 2986.600000
107.013900 156681.000000
108.993100 2603.200000
109.029600 13002.800000
121.029500 133728.200000
124.016300 4234.200000
125.024400 4943.300000
139.040200 10589.700000
147.045500 2472.800000
148.016600 2742.400000
149.024300 19818.400000
151.003600 465809.100000
152.011500 4332.800000
159.045500 2686.000000
161.024300 8345.700000
161.060600 2087.800000
163.003700 11065.800000
163.040000 8198.400000
164.011600 12486.800000
169.014300 26618.500000
171.045700 1867.100000
175.040000 3622.800000
177.055500 2590.000000
178.998600 87512.400000
187.040000 7992.800000
192.007000 3088.400000
193.014600 6179.100000
196.001000 3731.100000
201.055900 6612.400000
203.034800 2938.500000
211.040200 6615.800000
227.035200 4646.300000
229.050800 11075.300000
243.028900 4544.100000
245.045700 16928.600000
255.029200 3465.700000
257.045900 3348.200000
273.040800 14378.100000
299.019200 4401.500000
301.035100 29474.300000

>ms2peaks
63.024000 98405.400000
65.003300 143679.100000
83.013900 91051.300000
93.034600 49824.000000
95.013900 4453.400000
107.013900 193112.500000
108.021700 3823.300000
108.993000 5239.800000
109.029500 21677.800000
121.029500 122754.200000
124.016600 4348.200000
125.024300 4128.900000
135.009000 2621.500000
135.045000 2567.300000
137.024400 2586.200000
139.040100 25701.800000
145.029400 5096.500000
147.008900 2040.400000
147.045000 2515.900000
148.016500 2628.700000
149.024400 18111.100000
151.003700 164211.400000
152.011100 2123.200000
159.045300 9875.300000
161.024400 11698.100000
161.060400 1968.100000
162.032800 2464.200000
163.003500 7362.900000
163.040200 4114.900000
164.011700 12764.400000
169.014300 15316.000000
171.045600 2201.500000
175.040000 4982.200000
177.055700 2810.300000
178.998500 11621.900000
183.044900 4871.400000
187.039800 3980.200000
193.014100 3712.400000
196.001100 3208.600000
199.039900 2466.200000
201.055600 5795.900000
203.034800 4693.800000
211.039900 5035.100000
227.034900 5005.000000
229.050600 1959.600000
243.029900 4807.700000
245.045200 5430.700000
255.030000 2724.300000

>ms2peaks
63.024000 113308.300000
65.003300 198442.500000
83.013900 75430.900000
93.034600 66496.800000
95.013900 6762.200000
107.013800 78128.400000
108.021700 5561.700000
109.029500 16426.100000
117.034400 3851.400000
121.029500 63433.700000
133.029700 5797.900000
135.045300 2839.000000
137.024100 1987.200000
139.040200 14862.400000
145.029700 3573.100000
147.008700 2398.300000
147.044900 2212.600000
148.016400 3321.100000
149.024400 6029.800000
151.003700 35084.600000
159.045100 3830.300000
161.024400 10183.100000
162.032200 2048.600000
163.004100 2285.300000
164.011400 3152.600000
169.013800 3287.800000
175.040000 3068.500000
183.044900 4096.000000
199.039800 2418.100000
211.040200 2146.000000
243.029000 2032.500000

>ms2peaks
63.024000 87083.200000
65.003300 181000.700000
83.013800 39104.400000
93.034600 64117.600000
95.014000 3088.700000
107.013900 24256.200000
108.021700 5426.000000
109.029500 11394.600000
117.034800 3217.200000
121.029500 29606.700000
124.016500 1660.200000
133.029500 9991.400000
135.008800 1750.100000
135.045400 2734.500000
139.040000 7640.700000
145.029800 2686.800000
147.045300 1673.500000
149.024900 2259.700000
151.003800 5216.100000
159.045700 2499.700000
161.024600 4780.700000
163.003900 1996.000000
171.045100 2232.600000
187.039800 2044.600000

