>compound LU22820392
>parentmass 146.0248
>ionization [M-H]-
>formula C8H5NO2
>rt 798.240000
>profile orbitrap
#smiles_iso C1=CC(=CC=C1C#N)C(=O)O
#smiles_can C1=CC(=CC=C1C#N)C(=O)O
#inchikey ADCUEPOHPCPMCE-UHFFFAOYSA-N
#pubchem_id 12087
#mb_accession LU104051,LU104052,LU104053,LU104054,LU104055

>ms2
102.035000 120654.200000
146.024700 7196.800000

>ms2
102.035000 30477.400000
146.024800 2630.500000

>ms2
102.035000 41569.500000
146.025100 2162.400000

>ms2
102.035000 74729.200000
146.024800 4726.000000

>ms2
102.035000 45962.300000
146.025100 2175.800000

