>compound LU22392419
>parentmass 198.9916
>ionization [M-H]-
>formula C7H5ClN2O3
>rt 708.000000
>profile orbitrap
#smiles_iso C1=CC(=C(C=C1[N+](=O)[O-])Cl)C(=O)N
#smiles_can C1=CC(=C(C=C1[N+](=O)[O-])Cl)C(=O)N
#inchikey GFGSZUNNBQXGMK-UHFFFAOYSA-N
#pubchem_id 2075
#mb_accession LU028453,LU028454,LU028455,LU028456

>ms2peaks
122.975500 3943.500000

>ms2peaks
88.006600 5021.500000
122.975600 19906.900000

>ms2peaks
50.003600 3295.900000
88.006800 9636.300000
122.975700 16187.400000

>ms2peaks
50.003600 4388.700000
88.006700 13905.400000
122.975400 8982.900000

