>compound LU23373210
>parentmass 681.016
>ionization [M-H]-
>formula C23H22F7IN2O4S
>rt 1087.020000
>profile orbitrap
#smiles_iso CC1=C(C=CC(=C1)C(C(F)(F)F)(C(F)(F)F)F)NC(=O)C2=C(C(=CC=C2)I)C(=O)NC(C)(C)CS(=O)(=O)C
#smiles_can CC1=C(C=CC(=C1)C(C(F)(F)F)(C(F)(F)F)F)NC(=O)C2=C(C(=CC=C2)I)C(=O)NC(C)(C)CS(=O)(=O)C
#inchikey ZGNITFSDLCMLGI-UHFFFAOYSA-N
#pubchem_id 11193251
#mb_accession LU031451,LU031452,LU031453,LU031454,LU031455,LU031456

>ms2peaks
126.905500 129584.100000
133.032800 44964.600000
254.041000 20199872.000000
271.921600 5424019.500000

>ms2peaks
63.962400 90593.700000
126.904900 328768.200000
133.032900 71399.000000
194.022200 126923.500000
214.028500 1932026.600000
232.039100 92011.900000
234.034700 741129.200000
254.040900 19180228.000000
271.921500 2793332.000000

>ms2peaks
63.962400 161065.600000
64.970300 6770.400000
78.985900 40114.800000
79.957400 28453.000000
92.995600 6021.200000
93.001500 28423.300000
116.995300 7708.300000
126.905000 1903721.900000
133.032900 27846.500000
143.011500 6422.400000
154.010000 8286.300000
174.016000 240803.900000
185.021900 51430.900000
194.022200 2351894.500000
205.028100 162560.000000
214.028400 5794079.500000
234.034600 1137186.900000
238.012000 14985.900000
254.040900 5948014.500000
271.921400 1238571.400000

>ms2peaks
50.003500 4805.500000
63.962500 197376.300000
68.995800 12631.800000
74.003600 4553.300000
76.019300 109689.100000
78.985900 57481.100000
79.957400 59120.200000
92.995800 30985.200000
93.001600 43732.300000
100.019400 8799.800000
116.995800 129657.500000
124.019300 8918.700000
126.905000 2720557.000000
130.009900 11077.500000
143.011400 69668.800000
144.025400 27254.100000
154.009900 70134.500000
158.005000 8338.400000
167.011400 49790.400000
174.016100 1505909.500000
185.022000 47727.100000
187.017600 14950.200000
194.022300 3922984.500000
205.028200 139259.400000
212.032900 61279.100000
214.028600 1585237.100000
232.039100 50053.900000
238.012100 23479.500000
271.921400 173838.000000

>ms2peaks
50.003500 27614.700000
63.962400 282084.100000
68.995800 45620.800000
73.008300 21126.200000
74.003700 14708.000000
76.019300 385032.100000
78.985900 50385.000000
79.957400 64310.400000
92.995800 134596.900000
93.001500 65339.200000
97.008500 20983.500000
98.003700 7252.300000
100.000700 4408.500000
100.019300 36794.300000
116.995800 424614.000000
123.005300 23619.200000
124.000600 11120.000000
124.019300 108994.900000
126.905000 2769109.200000
130.010000 7230.000000
134.003600 110869.200000
142.009900 5483.900000
143.011400 275774.700000
144.025500 48774.900000
147.005100 22783.000000
154.009900 476460.900000
158.004800 9790.700000
167.011400 116563.200000
185.022000 16591.000000
187.017400 22550.300000
188.012900 16730.300000
194.022300 2052713.500000
205.028200 35510.000000
212.033000 19761.700000
214.028500 144500.100000
271.921700 20189.400000

>ms2peaks
50.003600 21449.100000
63.962500 427092.400000
68.995800 121763.000000
73.008400 95291.600000
74.003600 60906.500000
76.019300 583270.500000
78.986000 34095.300000
79.957400 70428.900000
92.995800 242993.300000
93.001100 41300.200000
97.008400 83080.500000
98.003600 33638.400000
100.000600 6507.000000
100.019400 28739.000000
116.995800 589643.600000
123.005300 77930.200000
124.000400 23233.500000
124.019300 201560.600000
126.905000 2580049.500000
134.003700 543457.300000
142.009900 4627.200000
143.011400 343169.500000
144.025400 49468.900000
147.005100 47003.900000
154.009900 952107.600000
167.011400 97827.100000
174.016100 1662744.400000
187.017600 10116.700000
194.022300 461227.600000
214.028900 6918.900000

