>compound LU23068052
>parentmass 193.087
>ionization [M-H]-
>formula C11H14O3
>rt 1054.560000
>profile orbitrap
#smiles_iso CCOC(=O)COC1=CC=C(C=C1)C
#smiles_can CCOC(=O)COC1=CC=C(C=C1)C
#inchikey UMNOIMVMNARUSB-UHFFFAOYSA-N
#pubchem_id 4047281
#mb_accession LU093451,LU093452,LU093453,LU093454,LU093455,LU093456

>ms2peaks
82.006100 24213.400000
92.026500 379620.500000
93.034600 1220322.800000
95.013900 194439.900000
108.021700 162687.900000
119.013800 43820.600000
123.008800 28099.300000
136.016600 3665433.200000
137.024400 4152195.800000
149.097100 28073.800000
193.086900 22499800.000000

>ms2peaks
71.050200 23387.600000
82.005900 19723.100000
91.018900 27972.700000
92.026600 629087.900000
93.034600 1959903.800000
95.013900 366813.900000
108.021700 292091.600000
119.013800 65084.700000
120.021700 23618.500000
121.029400 46125.300000
123.008800 43679.500000
136.016600 5041227.000000
137.024400 4884315.000000
149.097000 45713.100000
193.087000 17646928.000000

>ms2peaks
67.019000 17639.200000
68.998100 50087.000000
69.034700 31388.200000
70.006100 52256.800000
71.013900 24487.100000
71.050200 172659.500000
72.993100 18540.300000
73.065900 27011.900000
78.011100 13312.700000
79.019000 36171.700000
79.990400 20212.300000
80.998300 12534.800000
82.006000 162563.600000
91.019000 168026.600000
92.026800 1755348.000000
93.034600 5830809.000000
95.013800 1628916.200000
97.029600 23040.400000
106.006100 85941.800000
106.042400 20165.700000
107.013800 8784.100000
108.021700 1507672.800000
119.013800 182556.900000
121.029500 137155.000000
123.008700 188636.800000
136.016600 6193587.500000
137.024400 4819204.000000
149.097400 29321.800000
193.087000 4366336.000000

>ms2peaks
65.003300 10908.000000
65.039700 9475.900000
67.018900 17778.800000
68.998300 62522.400000
69.034600 64608.900000
70.006000 51598.400000
71.013900 38278.900000
71.050200 485745.400000
72.993100 24807.000000
73.065800 40434.500000
78.011100 17868.100000
79.018900 52712.200000
79.990300 21652.500000
80.998100 25639.100000
82.006000 257747.900000
83.014000 9264.100000
86.001100 7856.100000
91.019000 409759.800000
92.026800 2204928.500000
93.034500 6776430.500000
95.013800 2470972.000000
97.029600 33575.300000
98.001100 8226.700000
106.006000 137836.600000
106.042400 11491.200000
107.013900 20021.900000
108.021700 2332408.000000
109.029400 19968.500000
119.013800 110996.400000
121.029500 186229.600000
123.008800 327117.800000
136.016500 2090404.400000
137.024400 1552388.100000
193.086900 436760.200000

>ms2peaks
53.003200 18027.800000
55.019000 7824.400000
65.003400 8046.500000
65.039700 45949.900000
66.011100 6892.500000
67.018900 29748.100000
68.998200 58793.700000
69.034600 65355.800000
70.006000 61376.900000
71.013800 45096.100000
71.050300 657728.600000
72.993200 24735.100000
73.065800 29611.800000
78.011300 13675.300000
79.019000 45969.800000
79.990500 29594.400000
80.998300 22233.900000
82.006100 254240.000000
83.014000 7459.900000
86.001100 6506.600000
91.019000 524086.100000
92.026800 2107330.200000
93.034600 6226869.000000
95.013900 2624786.000000
97.029600 32952.300000
98.001100 11031.700000
106.006100 139508.600000
107.013900 22366.400000
108.021700 2567856.500000
109.029700 14043.500000
119.013800 44185.300000
121.029500 184276.600000
123.008800 336215.900000
125.024200 8256.900000
136.016600 390665.200000
137.024400 307343.400000
193.087100 27568.700000

>ms2peaks
53.003200 6912.100000
55.019000 12119.100000
65.003300 18406.200000
65.039700 137468.100000
66.011200 6787.700000
67.019000 23135.900000
68.998300 66103.900000
69.034600 82872.300000
70.006100 56199.200000
71.050300 753955.600000
72.993100 17040.900000
73.065900 12991.300000
78.011300 16047.900000
79.019000 32165.800000
79.990400 24471.900000
80.998200 18864.700000
82.006100 251344.700000
83.014100 6358.200000
86.000900 17208.700000
91.019000 492208.200000
92.026800 1844444.800000
93.034600 5537065.500000
95.013900 2479975.800000
97.029500 34342.000000
98.001200 16763.000000
106.006100 135409.100000
107.014000 14374.000000
108.021700 2329060.500000
109.029400 8788.900000
119.014000 10665.500000
121.029500 159760.100000
123.008800 298392.500000
125.024400 10247.600000
136.016500 86227.300000
137.024500 49125.900000

