>compound LU23873139
>parentmass 169.06590000000003
>ionization [M-H]-
>formula C12H10O
>rt 1069.320000
>profile orbitrap
#smiles_iso C1=CC=C(C=C1)C2=CC=C(C=C2)O
#smiles_can C1=CC=C(C=C1)C2=CC=C(C=C2)O
#inchikey YXVFYQXJAXKLAK-UHFFFAOYSA-N
#pubchem_id 7103
#mb_accession LU115451,LU115452,LU115453,LU115454,LU115455,LU115456

>ms2
93.034600 442054.600000
141.071200 2231.300000
169.065900 334677.800000

>ms2
93.034600 410926.800000
169.065900 349627.500000

>ms2
93.034600 325440.700000
141.070900 6136.900000
169.065900 201783.200000

>ms2
65.039700 4923.600000
93.034600 387327.900000
115.055200 11023.600000
141.071000 28038.800000
169.065900 218206.500000

>ms2
65.039700 9437.100000
93.034600 312385.700000
115.055300 23247.500000
141.071000 31841.800000
169.065900 76133.600000

>ms2
65.039700 21506.300000
93.034600 376681.100000
115.055400 38781.700000
141.071100 23301.300000
169.065900 41077.000000

