>compound LU24334226
>parentmass 317.1394
>ionization [M-H]-
>formula C18H22O5
>rt 1070.760000
>profile orbitrap
#smiles_iso C[C@H]1CCCC(=O)CCC/C=C/C2=C(C(=CC(=C2)O)O)C(=O)O1
#smiles_can CC1CCCC(=O)CCCC=CC2=C(C(=CC(=C2)O)O)C(=O)O1
#inchikey MBMQEIFVQACCCH-QBODLPLBSA-N
#pubchem_id 5281576
#mb_accession LU021151,LU021152,LU021153,LU021154,LU021155,LU021156

>ms2
149.060900 36319.100000
175.040000 57782.800000
193.086900 120051.200000
273.149900 326530.500000
299.129200 100073.000000
317.139300 21159032.000000

>ms2
57.034500 116821.700000
65.039600 11862.000000
69.034500 17486.000000
81.034600 24758.600000
83.050200 18849.200000
93.034400 11890.400000
95.050200 13788.400000
103.055200 14050.100000
105.034500 39146.600000
105.070800 11965.300000
107.050100 59316.500000
111.081500 48371.300000
113.060800 26270.300000
119.050200 28626.700000
123.045100 92446.000000
129.092100 199970.700000
130.042400 35056.400000
131.050200 569562.400000
133.029400 27705.400000
133.066000 24903.600000
135.045000 36243.700000
135.081400 22162.900000
143.050200 38035.200000
145.065900 15399.000000
147.045200 170340.600000
148.052800 25497.000000
149.024400 288482.000000
149.060700 837386.100000
151.040200 10759.800000
155.071300 44224.100000
159.045000 45037.200000
159.081400 89592.500000
160.016600 217180.600000
161.024200 40161.700000
161.060800 473487.300000
163.040100 36031.100000
167.035000 26054.900000
174.032200 86604.100000
175.040000 2139570.500000
177.091900 21225.600000
181.123300 24110.700000
185.060400 16573.300000
187.040000 661335.400000
188.047700 23131.800000
193.050900 37298.300000
193.086900 108528.500000
200.084300 17138.200000
201.092100 11437.400000
201.128400 21950.700000
203.071300 244254.500000
203.107800 34945.400000
206.021600 14271.000000
213.128300 21322.900000
215.107800 22303.700000
220.037000 14346.700000
229.086900 11283.900000
229.123100 25336.600000
231.102600 37597.200000
231.138900 78270.400000
233.118200 19190.600000
245.118500 12445.800000
246.126400 23440.000000
247.097100 15427.800000
247.133900 93637.400000
255.138900 57590.500000
257.081500 16469.500000
257.117300 11367.300000
261.113200 133787.800000
271.134300 40181.700000
273.149600 2317871.200000
275.092600 44042.100000
275.128800 12861.800000
289.144600 255110.500000
299.128800 738913.900000
317.139200 10714909.000000

>ms2
57.034500 742548.600000
59.013800 10543.300000
63.024000 23106.500000
65.003300 18546.600000
65.039600 47175.700000
67.019000 6136.000000
68.998200 28841.500000
69.034600 64863.700000
71.050200 7839.900000
79.055300 29560.200000
81.034600 94794.400000
83.050200 43863.500000
85.065900 66046.600000
89.039600 19617.400000
91.018900 10387.600000
91.055200 22086.100000
93.034500 49676.400000
95.050300 61007.800000
97.066100 9070.500000
102.047400 31484.200000
103.055300 214061.700000
105.034500 158312.800000
105.070900 56038.300000
106.042200 5709.700000
107.013900 28590.900000
107.050200 379401.800000
108.021700 9970.200000
109.029300 19684.400000
109.065900 35033.100000
111.081500 125842.300000
113.060800 53318.000000
115.055200 33160.400000
117.034600 46106.600000
117.071000 48294.300000
119.050200 231190.600000
121.029500 30251.600000
121.065800 38462.100000
122.037300 15372.300000
123.045100 114903.000000
123.081300 13094.700000
127.076200 13875.900000
129.092100 694777.400000
130.042400 691136.300000
131.050200 4179387.200000
132.021600 175332.600000
133.029400 224681.300000
133.065800 115025.200000
134.037500 5391.500000
135.045100 47656.400000
135.081400 50005.800000
137.060700 19265.000000
141.071200 7193.200000
143.050200 390320.900000
144.058100 21384.700000
145.029600 43713.200000
145.065900 44501.600000
146.037300 62966.900000
147.045100 1036348.000000
148.053000 75195.100000
149.024400 316389.700000
149.060700 863833.900000
151.040100 13829.100000
151.076500 21432.300000
155.071400 34342.600000
155.107500 33293.000000
157.065900 52463.900000
158.037500 9655.500000
158.073200 11609.300000
159.045100 210775.600000
159.081500 352948.000000
160.016500 1382372.800000
161.024400 122561.900000
161.060700 560605.000000
162.032200 21973.800000
163.039800 51576.700000
164.047800 9538.000000
167.035000 15733.400000
171.081500 9138.900000
172.052600 5829.600000
173.024200 15480.900000
173.060700 27140.400000
173.097200 14677.700000
174.032200 322218.600000
175.040000 3494096.000000
177.055600 15939.600000
177.091900 34041.800000
181.123300 39048.700000
185.060400 67323.300000
185.097500 11644.700000
186.068300 10251.600000
187.040000 1333092.200000
188.047800 109823.100000
189.055700 14198.500000
189.091900 20106.300000
189.128400 12551.600000
191.035200 13812.400000
193.050600 58754.300000
193.086900 135292.600000
199.076200 24903.300000
200.084300 22470.400000
201.055800 28413.900000
201.092000 26596.500000
201.128500 24102.500000
202.063300 22534.100000
203.071300 230821.000000
203.107500 41547.000000
206.022100 21844.300000
213.091600 12417.400000
213.128300 18261.200000
215.107600 25078.700000
216.079000 12637.700000
217.124200 8979.700000
219.102800 9987.400000
220.037700 41286.000000
226.063500 10678.400000
229.087300 9529.500000
229.123100 23066.600000
230.057800 7502.600000
231.102600 55374.700000
231.138800 45169.000000
233.118300 17495.800000
243.066400 8725.100000
245.118400 19980.700000
246.125900 39884.900000
247.098200 13751.300000
247.134000 86545.900000
255.103000 11012.800000
255.138500 31185.500000
257.082000 17256.100000
257.117800 21701.100000
261.113300 83652.600000
271.134000 42056.900000
273.149600 523552.600000
275.092800 14894.600000
275.128900 9448.900000
289.144400 154325.500000
299.128800 222432.100000
317.139200 1144425.200000

>ms2
57.034600 1416867.100000
63.024000 107794.100000
65.003300 98390.600000
65.039700 84546.100000
67.018900 15746.000000
68.998200 44914.900000
69.034600 86282.900000
71.050100 10990.900000
79.055300 41399.700000
81.034600 118687.400000
83.050200 60106.900000
85.065900 66498.700000
89.039700 133442.700000
91.018900 33392.100000
91.055300 87109.000000
93.034600 90158.900000
95.050200 67269.300000
97.066100 7637.600000
101.039700 13078.100000
102.047500 227915.300000
103.055400 555557.700000
105.034600 171966.900000
105.071000 51902.600000
106.042200 15009.900000
107.013800 24670.600000
107.050300 448654.700000
109.029300 14582.100000
109.065800 21473.400000
111.081500 83404.100000
113.060800 24422.300000
115.055300 121415.500000
117.034600 95396.400000
117.070900 51368.700000
119.050200 495241.800000
121.029600 32136.300000
121.065800 56732.500000
122.037600 19495.000000
123.045200 58587.900000
123.081500 11435.800000
127.076700 11047.600000
129.070900 15748.100000
129.092200 305834.700000
130.042400 2008953.500000
131.050200 4259640.000000
132.021600 761017.600000
133.029500 378507.300000
133.065800 124057.300000
134.037300 12300.900000
135.045200 25609.200000
135.081500 36707.400000
137.060700 59236.700000
141.071100 10441.000000
143.050200 553094.400000
144.058100 26369.200000
145.029500 143228.500000
145.065800 28590.500000
146.037300 193332.200000
147.045200 1047533.800000
147.081200 56563.000000
148.053000 34331.500000
149.024300 73898.100000
149.060700 220020.800000
151.076300 27625.500000
155.107900 14487.600000
157.065900 76050.100000
158.037300 18459.300000
158.073800 8261.800000
159.045100 258839.000000
159.081500 230049.000000
160.016600 1706501.500000
161.024500 85753.300000
161.060800 149423.300000
162.032300 14129.200000
163.040200 16128.200000
164.047600 14096.000000
171.081800 13053.000000
172.052700 11768.200000
173.024300 20741.200000
173.060900 26059.200000
173.097200 14800.800000
174.032200 259806.500000
175.040000 1043189.300000
175.076700 77725.100000
177.055800 12127.200000
177.092300 10650.000000
185.060800 38713.400000
185.097000 11253.600000
186.068200 7377.400000
187.040000 619342.800000
188.047900 65321.700000
189.055600 8042.800000
189.091200 9829.000000
191.034700 10694.700000
193.086800 59110.200000
199.076300 17092.600000
200.084500 7378.200000
201.056100 38218.300000
201.091800 16278.600000
201.128300 7901.100000
202.063800 28456.100000
203.071700 38474.900000
206.021800 7653.100000
213.092600 11070.700000
220.037600 23889.200000
229.086800 7305.200000
229.123500 6875.200000
231.102800 9104.900000
243.064500 8480.100000
245.118600 7153.300000
247.134100 7917.100000
261.114100 18744.300000
273.150800 14128.200000
289.144400 11337.200000
299.128500 9891.500000
317.139300 24601.000000

>ms2
57.034600 1096108.400000
63.024000 185520.000000
65.003300 218607.400000
65.039700 125423.200000
67.018900 24017.600000
68.998200 22328.800000
69.034600 62145.200000
71.050300 6357.600000
77.039700 8760.800000
79.055500 31384.200000
81.034600 80556.200000
83.050300 35984.200000
85.066000 36410.400000
89.039700 157012.400000
91.019100 21510.600000
91.055400 119319.500000
93.034700 71054.500000
95.050300 61038.300000
97.065800 6600.100000
101.039600 20241.200000
102.047600 317195.500000
103.055400 383880.800000
104.026800 10219.800000
105.034600 89103.900000
105.071000 23018.200000
106.042300 5436.700000
107.050300 222314.100000
109.065900 13483.000000
111.081700 24703.000000
113.060900 5141.800000
115.055400 111963.100000
117.034700 78031.100000
117.070900 16640.600000
119.050300 373580.900000
121.029500 19772.600000
121.066000 30130.400000
123.045300 29881.200000
123.081900 5342.500000
129.034500 9367.100000
129.070900 21715.000000
129.092100 32323.200000
130.042400 1460013.000000
131.050300 1381836.900000
132.021700 907323.200000
133.029500 216683.200000
133.065900 67918.200000
135.045200 12173.100000
135.081700 10853.700000
136.053000 6581.400000
137.060700 48478.000000
141.034700 8028.900000
141.071000 8758.100000
143.050300 261906.300000
144.058100 16512.300000
145.029600 286412.800000
146.037400 148760.900000
147.045200 298339.800000
147.081600 18442.100000
149.024400 14660.800000
149.060700 34129.400000
151.076600 11809.700000
157.065900 44085.800000
158.037400 21340.100000
159.045200 149997.300000
159.081400 47583.800000
160.016600 703137.200000
161.024600 48213.200000
161.060900 28828.800000
163.040100 20702.400000
164.047800 6022.100000
171.081800 5517.000000
173.024300 17565.100000
173.060800 20377.400000
174.032300 78790.900000
175.040100 151134.800000
175.076500 19575.700000
185.060800 16758.700000
187.040200 192395.200000
188.048000 7810.300000
193.086700 7630.300000
199.076500 13685.600000
201.055800 26981.200000
203.072300 5643.500000

>ms2
57.034600 1040622.200000
63.024000 232273.900000
65.003300 370698.100000
65.039700 152791.800000
67.019000 32029.900000
68.998200 21498.800000
69.034600 46848.800000
71.050300 7322.800000
77.039600 19088.600000
79.055300 30761.700000
81.034700 42447.200000
83.050300 27327.300000
85.065900 15042.500000
89.039700 162307.300000
91.018900 22781.200000
91.055300 149743.700000
93.034600 68538.900000
95.050300 84924.200000
101.039700 37288.900000
102.047500 259171.500000
103.055400 208432.900000
104.026800 22137.100000
105.034600 67473.200000
105.071000 12658.300000
107.050300 128374.000000
108.021700 10116.500000
109.065700 6732.500000
115.055400 102029.500000
117.034600 117186.000000
117.071000 12037.700000
119.050200 225270.400000
121.029600 14080.700000
121.066000 16537.600000
123.045100 18883.700000
129.034900 8309.300000
129.071000 18050.800000
130.042400 841575.800000
131.050300 437128.400000
132.021700 730173.900000
133.029500 106288.400000
133.065900 29928.700000
135.045200 7252.700000
136.052800 6769.200000
137.061000 21883.200000
141.034500 7505.900000
143.050300 143597.800000
144.058000 8032.300000
145.029500 448773.100000
146.037300 80018.900000
147.045200 89769.600000
147.081200 11498.100000
149.024500 6369.500000
149.060700 8501.300000
151.076700 4748.100000
157.065800 37212.500000
158.037100 22296.700000
159.045200 105136.000000
159.081800 6946.800000
160.016700 224330.200000
161.024400 31720.700000
163.039800 5088.800000
164.047800 6727.400000
171.081800 5925.000000
173.024400 9394.200000
173.060900 14053.600000
174.032200 21831.500000
175.040100 28991.300000
185.060700 10477.300000
187.040200 93342.000000
201.055600 16361.000000

