>compound LU24218865
>parentmass 365.084
>ionization [M-H]-
>formula C15H21Cl2FN2O3
>rt 1168.520000
>profile orbitrap
#smiles_iso CCCCCCC(C)OC(=O)COC1=NC(=C(C(=C1Cl)N)Cl)F
#smiles_can CCCCCCC(C)OC(=O)COC1=NC(=C(C(=C1Cl)N)Cl)F
#inchikey OLZQTUCTGLHFTQ-UHFFFAOYSA-N
#pubchem_id 54745
#mb_accession LU129551,LU129552,LU129553,LU129554,LU129555,LU129556

>ms2
160.976100 2386.800000
193.945400 21217.800000
194.953500 3272.800000
198.971300 1935.100000
365.083900 270103.000000

>ms2
157.968700 2021.400000
160.976300 7541.700000
170.976800 2720.900000
172.992500 5581.500000
193.945600 191836.200000
194.953700 16645.400000
198.971200 9641.600000
365.083800 28298.700000

>ms2
122.999900 2545.000000
132.981200 5817.100000
142.981900 4291.600000
157.968900 38727.200000
160.976100 2794.400000
170.976700 4598.600000
172.992400 3195.600000
193.945600 205834.700000
194.953500 17951.000000
198.971800 2485.400000

>ms2
121.029500 86462.900000

>ms2
95.005100 32649.100000
111.000000 1854.700000
123.000000 17140.100000
131.941500 2265.700000
142.981700 2002.100000
157.968900 42564.500000
183.012300 2368.000000
193.945500 15848.300000

>ms2
95.005200 31909.000000
123.000200 8676.700000
157.968800 11443.400000
183.012000 3515.000000

