>compound LU24550056
>parentmass 649.7828
>ionization [M-H]-
>formula C15H12I3NO4
>rt 976.080000
>profile orbitrap
#smiles_iso C1=CC(=C(C=C1OC2=C(C=C(C=C2I)C[C@@H](C(=O)O)N)I)I)O
#smiles_can C1=CC(=C(C=C1OC2=C(C=C(C=C2I)CC(C(=O)O)N)I)I)O
#inchikey AUYYCJSJGJYCDS-LBPRGKRZSA-N
#pubchem_id 5920
#mb_accession LU070051,LU070052,LU070053,LU070054,LU070055,LU070056

>ms2
72.009100 99360.600000
126.905100 696118.900000
448.854300 37355.700000
505.851200 17397.200000
632.756600 248505.400000

>ms2
72.009200 64225.900000
126.905000 1603142.800000
448.854200 34747.000000
505.852400 9494.400000
632.753500 3139.800000

>ms2
72.009100 38700.400000
126.905000 1844690.100000
448.854100 3501.800000

>ms2
72.009100 26194.100000
126.905000 1829574.200000

>ms2
72.009100 10925.000000
126.905000 1907928.200000

>ms2
72.009300 3421.000000
126.905000 1725522.400000

