>compound LU24551616
>parentmass 215.9972
>ionization [M-H]-
>formula C7H7NO5S
>rt 1054.440000
>profile orbitrap
#smiles_iso CC1=C(C=C(C=C1)[N+](=O)[O-])S(=O)(=O)O
#smiles_can CC1=C(C=C(C=C1)[N+](=O)[O-])S(=O)(=O)O
#inchikey ZDTXQHVBLWYPHS-UHFFFAOYSA-N
#pubchem_id 8458
#mb_accession LU126851,LU126852,LU126853,LU126854,LU126855,LU126856

>ms2peaks
159.972600 9234693.000000
160.956400 42181.500000
215.998700 34373312.000000

>ms2peaks
159.972600 18955130.000000
160.956500 99690.500000
185.952000 40315.200000
215.998700 24441136.000000

>ms2peaks
159.972600 24202546.000000
160.956500 173680.300000
185.952100 69343.800000
215.998800 5860035.000000

>ms2peaks
55.018900 22282.000000
88.019200 65353.600000
124.980000 47688.900000
159.972600 10786516.000000
160.956700 158401.000000
185.952000 42503.000000
199.967500 32699.700000
215.998700 604759.900000

>ms2peaks
55.018900 16677.500000
87.011300 8675.500000
88.019300 185108.700000
124.980000 60392.000000
159.972700 2689426.000000
160.956700 64616.300000
185.951600 12821.700000
199.967200 24687.100000
215.998800 38502.200000

>ms2peaks
55.018900 16630.600000
87.011200 6704.900000
88.019300 190408.000000
124.979700 36182.000000
159.972600 404774.500000
160.956600 21785.000000
199.967500 19267.100000

