>compound LU24287825
>parentmass 141.0113
>ionization [M-H]-
>formula C7H7ClO
>rt 1018.500000
>profile orbitrap
#smiles_iso CC1=C(C=CC(=C1)Cl)O
#smiles_can CC1=C(C=CC(=C1)Cl)O
#inchikey RHPUJHQBPORFGV-UHFFFAOYSA-N
#pubchem_id 14855
#mb_accession LU111951,LU111952,LU111953,LU111954,LU111955

>ms2
105.034600 6269.000000
141.011300 325273.400000

>ms2
105.034500 5457.500000
141.011300 305577.800000

>ms2
105.034600 10183.400000
141.011300 217996.500000

>ms2
105.034500 7332.200000
141.011300 60772.400000

>ms2
105.034700 2606.400000
141.011400 11717.100000

