>compound LU24472041
>parentmass 436.9827
>ionization [M-H]-
>formula C15H10ClF3N2O6S
>rt 1071.780000
>profile orbitrap
#smiles_iso CS(=O)(=O)NC(=O)C1=C(C=CC(=C1)OC2=C(C=C(C=C2)C(F)(F)F)Cl)[N+](=O)[O-]
#smiles_can CS(=O)(=O)NC(=O)C1=C(C=CC(=C1)OC2=C(C=C(C=C2)C(F)(F)F)Cl)[N+](=O)[O-]
#inchikey BGZZWXTVIYUUEY-UHFFFAOYSA-N
#pubchem_id 51556
#mb_accession LU067051,LU067052,LU067053,LU067054,LU067055,LU067056

>ms2peaks
59.013800 192484.200000
72.009100 170335.000000
75.986200 26374.500000
85.029500 61541.800000
101.060800 74832.900000
119.976100 297344.300000
122.000800 10725.200000
315.999200 312849.400000
436.982500 10406998.000000

>ms2peaks
59.013800 128878.000000
61.970600 3292.400000
63.962400 40282.800000
65.998500 16366.700000
69.034700 3838.300000
72.009100 1169696.600000
75.986300 88706.200000
76.970400 4923.000000
80.965200 30504.200000
85.029500 41873.300000
93.997000 3598.900000
95.013900 140036.800000
101.060800 111047.500000
107.013700 3752.000000
111.008800 31878.700000
119.976100 617259.100000
122.000900 224906.800000
123.008800 61806.300000
125.024400 4505.900000
137.011800 300581.700000
138.019800 2747.000000
139.003600 22768.800000
141.070900 10639.800000
194.983000 1778494.100000
198.029800 271403.200000
200.009100 10392.600000
209.021800 32095.500000
210.017400 16450.900000
213.017000 10152.000000
218.982800 4738.800000
222.029800 52143.400000
225.017100 17341.000000
226.024500 27713.100000
235.025200 4973.900000
238.024900 17823.900000
240.040400 23564.500000
244.998500 8523.700000
253.012000 11811.300000
258.006100 15323.100000
263.019800 15621.400000
269.994000 10500.900000
286.001400 96377.000000
315.999200 999538.900000
436.982500 630542.800000

>ms2peaks
59.013800 131615.400000
61.970700 3827.400000
63.962400 105002.300000
65.003400 3703.500000
65.998600 19483.800000
69.034600 25146.900000
72.009100 744382.400000
75.986300 26809.400000
79.018900 7633.200000
80.965200 25804.700000
81.034500 3059.600000
85.029500 27584.400000
95.013900 25194.000000
97.029600 18046.800000
101.060800 133897.000000
107.013900 33617.100000
111.008900 6886.200000
119.976100 90362.000000
122.001000 23595.000000
123.008800 38184.600000
125.024500 45747.400000
133.017100 3301.900000
137.011800 440006.800000
138.019600 5288.400000
141.071000 5325.200000
159.006100 4608.100000
174.976800 31200.300000
194.983000 2933296.200000
198.029800 423223.600000
200.008800 15431.700000
202.023600 3332.500000
209.021900 51205.700000
210.017200 13702.600000
213.017100 4895.800000
218.982900 5072.000000
222.029800 551050.900000
225.017100 28935.900000
226.024900 29059.100000
235.025000 11014.200000
238.024500 25100.800000
240.040400 42139.900000
244.998600 3107.400000
253.011900 16199.300000
258.006200 21479.400000
263.019900 5730.000000
269.994200 8010.100000
284.993500 39331.600000
286.001400 20643.600000
315.999000 36256.300000

>ms2peaks
59.013800 119813.400000
61.970400 2906.000000
63.962500 123252.500000
65.003300 3799.500000
65.998600 8140.000000
69.034600 91935.000000
72.009100 336959.200000
75.986300 8365.200000
79.018900 15025.300000
80.965300 21872.800000
81.034600 5335.200000
85.026800 2949.900000
85.029400 11275.900000
93.997100 2850.400000
95.013800 16624.700000
97.029500 62194.300000
101.060800 129434.200000
107.013800 41765.800000
110.016000 3563.000000
119.976000 10317.300000
123.008900 14815.300000
125.024400 66237.900000
130.022400 3344.600000
133.017000 4566.000000
137.011800 135363.700000
148.019100 3248.100000
158.017200 6456.800000
159.006300 31726.000000
172.981200 5335.900000
174.028600 6381.700000
174.976800 208457.500000
182.017300 14804.800000
194.983000 2826826.800000
195.986200 30331.400000
198.029700 68164.500000
202.023800 23480.100000
206.022000 6333.500000
209.022000 10530.900000
210.017500 3190.800000
222.029800 583318.400000
238.024600 3720.000000
240.040200 7911.700000

>ms2peaks
59.013800 60756.300000
61.970600 3589.900000
63.962500 162842.200000
65.003200 5581.600000
65.998600 12516.700000
69.034600 146395.700000
72.009100 169203.800000
73.008300 8313.700000
76.970300 2910.300000
79.019100 12495.600000
79.957500 2867.100000
80.965200 20767.400000
81.034800 3584.300000
85.029600 2550.500000
89.003300 2418.600000
95.013800 21668.100000
97.029600 88685.300000
101.060800 45997.700000
107.013900 20812.300000
110.016300 20183.900000
121.008500 3544.700000
122.003700 2347.400000
123.008900 12171.400000
125.024400 26700.200000
130.022500 4399.300000
134.016300 31917.400000
137.011700 23047.900000
138.999800 4033.700000
148.019500 3388.200000
154.022500 32837.000000
154.970600 15726.000000
158.017300 7549.300000
159.006300 88967.600000
172.981000 6354.500000
174.028600 13616.100000
174.976800 399385.100000
182.017400 52162.400000
193.027000 4336.700000
194.983000 1736329.100000
195.986200 19686.600000
202.023500 23284.500000
206.022100 2522.400000
222.029900 140302.200000
284.993600 3188.500000

>ms2peaks
59.013800 49605.100000
61.970500 2903.400000
63.962500 156499.700000
65.003300 7886.800000
65.998500 9482.000000
69.034600 107949.500000
72.009100 61460.900000
73.008400 10922.700000
76.970300 2374.300000
79.018900 4014.500000
79.957500 2610.500000
80.965200 11304.700000
89.003200 2585.100000
95.013900 17895.100000
97.029500 65917.000000
101.060800 24650.800000
107.013800 5548.400000
110.016100 28662.900000
121.008100 3195.800000
122.003600 3833.900000
123.008800 3181.200000
125.024600 4775.500000
134.016300 120310.800000
139.000000 15044.200000
154.022500 55761.400000
154.970600 51957.900000
159.006400 109644.300000
172.981000 9001.000000
174.028500 8131.500000
174.976800 282215.900000
182.017400 42503.200000
193.027100 5672.100000
194.983000 596418.400000
195.986200 6655.600000
202.023500 6795.000000
222.029700 19593.600000

