>compound LU24981567
>parentmass 694.2435999999999
>ionization [M-H]-
>formula C36H40ClF2N5O3S
>rt 786.300000
>profile orbitrap
#smiles_iso CC1=NC2=CC=CC=C2N1C3CC4CCC(C3)N4CCC5(CCN(CC5)C(=O)C6=CC(=C(C=C6Cl)F)S(=O)(=O)NC)C7=CC(=CC=C7)F
#smiles_can CC1=NC2=CC=CC=C2N1C3CC4CCC(C3)N4CCC5(CCN(CC5)C(=O)C6=CC(=C(C=C6Cl)F)S(=O)(=O)NC)C7=CC(=CC=C7)F
#inchikey AWXQYTLSBPWDMJ-UHFFFAOYSA-N
#pubchem_id 53257735
#mb_accession LU065851,LU065852,LU065853,LU065854,LU065855,LU065856

>ms2
131.061600 3422.200000
647.226900 69488.900000
674.239000 4368.400000
694.243800 2037775.900000

>ms2
63.962500 7196.600000
64.970300 26396.200000
82.960800 6375.900000
91.981200 23521.900000
93.996800 13267.500000
111.000700 2151.700000
130.053700 5574.800000
131.061500 557262.600000
162.043500 13152.000000
180.022300 12051.400000
207.033000 9085.900000
610.275400 64159.500000
647.226700 157980.400000
674.237800 10209.300000
694.243800 94569.900000

>ms2
63.962500 17600.400000
64.970300 43878.900000
82.960800 8559.400000
91.981100 12734.000000
93.996800 5092.900000
102.034800 3767.200000
130.053600 26929.000000
131.061500 750721.600000
143.025000 6546.900000
162.043500 30851.200000
169.040600 2519.700000
180.022100 11307.000000
207.033000 5146.600000
610.275500 6561.600000

>ms2
63.962500 30139.400000
64.970300 57612.300000
82.960800 6559.700000
91.981100 3686.800000
111.000700 2818.200000
130.053600 32948.800000
131.061400 731323.100000
143.025100 16459.400000
162.043500 50892.800000
169.040700 7755.300000

>ms2
63.962500 36421.100000
64.970300 58911.600000
82.960800 7736.500000
93.996900 3896.900000
102.034800 3020.500000
130.053700 31175.900000
131.061500 621848.400000
143.025100 19808.300000
162.043500 68557.100000
169.040300 6808.400000

>ms2
63.962500 47559.400000
64.970300 53336.200000
82.960900 6280.800000
130.053600 47379.900000
131.061500 438218.700000
143.025100 19379.700000
162.043500 93729.000000
169.040700 4753.400000

