>compound LU24734456
>parentmass 249.1132
>ionization [M-H]-
>formula C14H18O4
>rt 1015.690000
>profile orbitrap
#smiles_iso CCCOC(=O)C1=CC=CC=C1C(=O)OCCC
#smiles_can CCCOC(=O)C1=CC=CC=C1C(=O)OCCC
#inchikey MQHNKCZKNAJROC-UHFFFAOYSA-N
#pubchem_id 8559
#mb_accession LU129351,LU129352,LU129353,LU129354,LU129355,LU129356

>ms2peaks
59.013800 8514.300000
149.097000 4781.000000
177.128700 4812.400000
204.081800 33374.700000
205.085200 443936.500000
221.118300 110567.800000
222.092400 24076.600000
223.095900 253490.900000
249.113000 24870.600000

>ms2peaks
59.013800 368767.900000
97.066100 11273.200000
121.066000 7132.000000
149.097200 117789.200000
161.097400 10384.800000
165.055700 6545.000000
175.113100 3895.100000
177.128600 110741.700000
205.123400 35696.300000
221.118400 596532.400000
249.113400 30222.800000

>ms2peaks
59.013900 276908.000000
97.066000 16783.000000
106.042400 3514.300000
119.050100 2519.400000
121.065800 14945.200000
147.045100 2561.700000
149.097200 98011.500000
161.097400 10963.000000
165.055900 2071.500000
175.113000 7791.500000
177.128600 53160.300000
205.123400 7363.000000
221.118300 48339.600000

>ms2peaks
59.013800 99535.900000
97.066000 14969.700000
106.042600 2434.100000
119.050600 1645.600000
121.065800 7781.500000
147.045600 2136.200000
149.097200 46862.200000
161.097400 6950.100000
175.113000 3270.800000
177.128900 10184.400000

>ms2peaks
59.013800 50810.100000
97.066000 7650.500000
106.042600 2296.400000
119.050400 4356.700000
121.065800 3178.200000
149.097100 20806.200000
161.097200 2606.200000
175.113100 3291.000000

>ms2peaks
59.013900 22047.000000
97.066100 6980.200000
106.042500 1853.700000
119.050300 3789.100000
121.066200 2062.100000
149.097100 7936.000000
175.113000 1740.100000

