>compound LU24593138
>parentmass 351.2078000000001
>ionization [M-H]-
>formula C22H28N2O2
>rt 1093.020000
>profile orbitrap
#smiles_iso CCC1=CC=C(C=C1)C(=O)NN(C(=O)C2=CC(=CC(=C2)C)C)C(C)(C)C
#smiles_can CCC1=CC=C(C=C1)C(=O)NN(C(=O)C2=CC(=CC(=C2)C)C)C(C)(C)C
#inchikey QYPNKSZPJQQLRK-UHFFFAOYSA-N
#pubchem_id 91773
#mb_accession LU127051,LU127052,LU127053,LU127054,LU127055,LU127056

>ms2
149.060700 8133331.500000
204.139200 39956.100000
294.137500 156788.500000
295.145300 177080.300000
351.207600 17748638.000000

>ms2
105.071000 745608.400000
149.060700 28705208.000000
189.067200 98062.200000
204.139300 162015.300000
294.137600 647287.800000
295.145200 559553.900000
351.207800 756606.200000

>ms2
105.071000 2359598.800000
107.050200 16726.000000
121.066000 37460.700000
122.037300 127188.600000
148.077000 72811.200000
149.060700 14223139.000000
189.067000 214942.100000
204.139400 95175.600000
294.137400 69077.300000
295.145200 101818.600000

>ms2
93.034700 6976.000000
94.042400 9885.700000
105.071000 2446984.800000
107.050300 14734.300000
121.065800 37954.500000
122.037300 134954.900000
136.052700 7438.900000
145.077200 27841.900000
148.076900 42930.600000
149.060700 4716009.500000
160.064600 7496.300000
161.072400 6440.500000
189.067000 87418.800000
204.139100 32811.500000

>ms2
94.042300 5828.600000
105.071000 823722.100000
107.050200 5544.400000
121.065800 15323.000000
122.037300 47082.100000
145.077300 8940.600000
148.076800 8290.400000
149.060800 730305.300000
160.064400 8339.100000
189.067500 8874.300000

>ms2
105.071000 130140.000000
121.065700 6737.100000
122.037300 9602.900000
149.060800 72514.600000
160.064500 3330.200000

