>compound LU25888056
>parentmass 155.0462
>ionization [M-H]-
>formula C6H8N2O3
>rt 1040.580000
>profile orbitrap
#smiles_iso CC1(C(=O)NC(=O)NC1=O)C
#smiles_can CC1(C(=O)NC(=O)NC1=O)C
#inchikey LAOZSCRCYVBSJA-UHFFFAOYSA-N
#pubchem_id 90509
#mb_accession LU024951,LU024952,LU024953,LU024954,LU024955,LU024956

>ms2peaks
54.034900 42160.500000
64.006700 83913.000000
65.014500 32468.900000
65.998600 1600185.400000
79.030200 1287743.200000
80.001600 4537.900000
87.056400 90381.200000
97.017000 88802.200000
98.024800 46776.000000
109.004300 35494.100000
110.012200 26356.600000
123.020100 56622.000000
125.035700 444644.900000
140.022800 647480.400000
141.030700 13844.800000
155.046300 3561719.500000

>ms2peaks
54.034900 44459.000000
64.006700 85759.100000
65.014500 37606.400000
65.998600 1632528.600000
75.008800 5846.400000
77.014500 4715.400000
79.030200 1307374.900000
87.056400 93952.300000
97.017000 93307.800000
98.024800 47762.100000
109.004300 30210.800000
110.012200 24068.700000
123.020000 59953.000000
125.035700 417394.300000
140.022800 613669.400000
141.030700 9508.600000
155.046200 3538276.000000

>ms2peaks
54.034900 40293.100000
64.006700 179308.900000
65.014500 94671.800000
65.998500 2527518.800000
75.008600 3200.400000
77.014500 7110.500000
79.030200 1276491.800000
80.001600 7922.000000
87.056300 66117.800000
96.009100 3701.800000
97.016900 144261.900000
98.024800 32829.000000
109.004300 74392.600000
110.012100 67585.200000
123.020000 42833.100000
125.035600 368107.000000
140.022700 502098.100000
141.030800 24292.700000
155.046200 1285308.000000

>ms2peaks
54.034900 14651.000000
64.006700 171741.700000
65.014500 123259.000000
65.998600 2173536.500000
77.014500 5058.800000
79.030200 515371.200000
80.001700 8016.500000
87.056400 18866.000000
96.009200 2734.100000
97.017000 79327.600000
98.024700 4626.400000
109.004400 60594.800000
110.012200 67415.700000
123.020000 14508.400000
125.035700 125921.500000
140.022800 143612.800000
141.030600 26162.700000
155.046300 179840.800000

>ms2peaks
54.034800 7536.900000
64.006700 187946.500000
65.014500 163021.000000
65.998500 2272225.500000
77.014500 2953.000000
79.030200 244834.000000
80.001600 11753.900000
87.056500 4469.800000
97.016900 38860.200000
98.024800 2987.400000
109.004300 42319.600000
110.012100 55062.100000
123.020100 4426.700000
125.035600 40996.500000
140.022700 38935.800000
141.030600 21097.500000
155.046200 29633.300000

>ms2peaks
54.034900 3176.600000
64.006700 214678.100000
65.014500 206243.400000
65.998600 2151401.200000
79.030200 90082.600000
80.001600 8760.600000
97.017000 10748.900000
109.004300 16704.400000
110.012100 28927.300000
125.035700 8623.600000
140.022600 6923.700000
141.030600 9094.400000
155.046400 2947.800000

