>compound LU25232327
>parentmass 313.0578
>ionization [M-H]-
>formula C14H10N4O5
>rt 928.020000
>profile orbitrap
#smiles_iso C1C(=O)NC(=O)N1N=CC2=CC=C(O2)C3=CC=C(C=C3)[N+](=O)[O-]
#smiles_can C1C(=O)NC(=O)N1N=CC2=CC=C(O2)C3=CC=C(C=C3)[N+](=O)[O-]
#inchikey OZOMQRBLCMDCEG-UHFFFAOYSA-N
#pubchem_id 2952
#mb_accession LU099251,LU099252,LU099253,LU099254,LU099255,LU099256

>ms2peaks
99.020100 82267.600000
200.035300 75153.000000
202.051100 11034.900000
214.051000 202431.900000
228.041500 818352.800000
243.041500 4732.900000
270.052100 624710.200000
313.057900 3458326.200000

>ms2peaks
91.018900 3312.100000
99.020100 66970.200000
122.024500 3092.000000
145.029700 3506.400000
146.024800 27337.500000
155.050300 8731.100000
156.057500 2620.500000
170.037200 6622.300000
172.040600 11564.800000
183.045100 8347.900000
184.040400 5621.200000
188.035100 3846.000000
200.035400 739438.500000
202.050500 12421.000000
214.051000 217267.900000
215.046200 18688.500000
228.041500 345303.500000
243.040700 5255.700000
270.052100 78427.800000
313.057900 73219.500000

>ms2peaks
91.018900 27620.500000
99.020000 32441.900000
117.034500 4784.300000
122.024700 8095.500000
142.042400 6460.400000
145.029400 14907.100000
146.024700 180308.900000
155.050300 21741.300000
156.058200 3638.900000
158.036900 3563.800000
169.029300 2421.800000
170.037400 12550.200000
172.040400 17796.700000
183.032600 3968.700000
183.045000 13500.200000
184.040300 7157.800000
188.034900 4868.700000
192.030000 3559.500000
200.035300 439037.100000
202.051300 2886.400000
214.051000 36067.100000
215.046300 6515.400000
228.041100 11215.700000

>ms2peaks
91.019000 31368.900000
99.020100 15055.000000
116.026900 2823.200000
117.034600 2598.500000
122.024800 15638.000000
141.034500 3150.300000
142.042300 3283.100000
145.029600 7831.000000
146.024800 226215.700000
155.050300 10881.700000
158.036900 2115.700000
169.029400 2987.200000
170.037200 6049.000000
172.040600 5390.900000
183.033000 3957.900000
183.045200 6711.900000
184.040400 3592.800000
192.029900 2682.400000
200.035400 61416.000000
214.051400 3876.100000
215.046500 2264.400000

>ms2peaks
63.024100 2902.700000
88.031900 1941.900000
91.018900 18243.100000
99.020100 4274.900000
113.039800 5992.000000
116.026900 17230.500000
122.024700 8590.500000
141.034800 4547.700000
145.029300 1865.900000
146.024800 147561.700000
155.050800 2847.900000
169.029400 2830.900000
200.035500 4454.800000

>ms2peaks
63.024100 6952.600000
88.031800 3899.400000
91.018900 11755.500000
99.020200 1843.900000
113.039800 6255.500000
116.026900 33983.300000
122.024700 5477.600000
141.034600 5815.500000
146.024800 76594.800000
169.029600 2317.500000

