>compound LU25501701
>parentmass 141.0113
>ionization [M-H]-
>formula C7H7ClO
>rt 1018.500000
>profile orbitrap
#smiles_iso CC1=C(C=CC(=C1)O)Cl
#smiles_can CC1=C(C=CC(=C1)O)Cl
#inchikey CFKMVGJGLGKFKI-UHFFFAOYSA-N
#pubchem_id 1732
#mb_accession LU098651,LU098652,LU098653,LU098654,LU098655

>ms2peaks
105.034600 6269.000000
141.011300 325273.400000

>ms2peaks
105.034500 5457.500000
141.011300 305577.800000

>ms2peaks
105.034600 10183.400000
141.011300 217996.500000

>ms2peaks
105.034500 7332.200000
141.011300 60772.400000

>ms2peaks
105.034700 2606.400000
141.011400 11717.100000

