>compound LU25366527
>parentmass 207.01209999999995
>ionization [M-H]-
>formula C10H8O3S
>rt 808.380000
>profile orbitrap
#smiles_iso C1=CC=C2C=C(C=CC2=C1)S(=O)(=O)O
#smiles_can C1=CC=C2C=C(C=CC2=C1)S(=O)(=O)O
#inchikey KVBGVZZKJNLNJU-UHFFFAOYSA-N
#pubchem_id 8420
#mb_accession LU062651,LU062652,LU062653,LU062654,LU062655,LU062656,LU127351,LU127352,LU127353,LU127354,LU127355,LU127356

>ms2
79.957500 51123.500000
143.050200 159471.800000
207.012100 7600946.500000

>ms2
79.957400 82683.100000
143.050200 462295.400000
207.012000 6925506.000000

>ms2
79.957300 669039.800000
80.965000 13059.600000
107.013900 5471.200000
143.050200 2585900.500000
207.012100 4587930.000000

>ms2
63.024100 5813.300000
65.003300 4115.500000
79.957400 2329420.000000
80.965200 48386.100000
83.013800 4260.300000
107.013900 8456.400000
115.055300 74314.000000
143.050200 3889154.500000
207.012100 1435135.900000

>ms2
63.024100 10813.100000
79.957400 3383091.800000
80.965200 78746.900000
83.013900 4486.600000
107.013800 3590.400000
115.055300 367834.800000
117.034600 3400.300000
143.050200 3198752.000000
207.012100 292671.900000

>ms2
63.024100 10511.900000
65.003300 9040.300000
79.957300 3648909.500000
80.965100 80273.900000
115.055300 628681.000000
143.050200 1625174.000000
207.012100 34038.600000

>ms2
79.957400 88114.900000
143.050200 267501.100000
207.012100 11987198.000000

>ms2
79.957000 148185.400000
143.050200 812819.800000
207.012000 11792449.000000

>ms2
79.957400 1080452.900000
80.965200 21911.800000
115.055300 11442.100000
143.050200 4132099.800000
207.012100 6820009.500000

>ms2
79.957400 5118758.500000
80.965200 115416.000000
115.055300 182076.800000
143.050100 8358515.500000
207.012100 3021275.500000

>ms2
79.957400 5467865.000000
80.965100 136234.400000
115.055300 602190.900000
143.050200 5241927.000000
207.012100 475493.400000

>ms2
79.957400 6896718.000000
80.965100 173492.700000
115.055300 1214064.200000
143.050200 2998783.000000
207.012100 61372.200000

