>compound LU25158075
>parentmass 205.1598
>ionization [M-H]-
>formula C14H22O
>rt 1180.440000
>profile orbitrap
#smiles_iso CCC(C)C1=C(C(=CC=C1)C(C)CC)O
#smiles_can CCC(C)C1=C(C(=CC=C1)C(C)CC)O
#inchikey FHTGJZOULSYEOB-UHFFFAOYSA-N
#pubchem_id 21685
#mb_accession LU105751,LU105752,LU105753,LU105754,LU105755,LU105756

>ms2peaks
189.128200 19426.700000
205.159600 14910686.000000

>ms2peaks
189.128300 41910.400000
205.159700 16356007.000000

>ms2peaks
149.097500 14647.900000
189.128500 247764.700000
205.159700 12225192.000000

>ms2peaks
149.097200 38804.800000
189.128500 576375.100000
205.159700 5130506.000000

>ms2peaks
133.065800 12996.600000
149.097100 25929.000000
173.097100 8539.600000
175.112800 5363.900000
189.128600 572315.200000
205.159800 1040305.300000

>ms2peaks
133.065800 12309.700000
149.097000 6922.000000
173.097100 17325.800000
175.112900 4827.300000
189.128600 358036.300000
205.159800 103844.900000

