>compound LU26861732
>parentmass 275.0649
>ionization [M-H]-
>formula C11H11F3N2O3
>rt 1050.540000
>profile orbitrap
#smiles_iso CC(C)C(=O)NC1=CC(=C(C=C1)[N+](=O)[O-])C(F)(F)F
#smiles_can CC(C)C(=O)NC1=CC(=C(C=C1)[N+](=O)[O-])C(F)(F)F
#inchikey MKXKFYHWDHIYRV-UHFFFAOYSA-N
#pubchem_id 3397
#mb_accession LU016151,LU016152,LU016153,LU016154,LU016155,LU016156

>ms2peaks
202.012100 530792.600000
205.023000 756130.600000
232.010800 188236.600000
259.032100 120292.200000
275.064900 83106120.000000

>ms2peaks
160.038100 97386.800000
173.009200 174548.100000
174.017500 99264.600000
182.005900 66654.200000
186.017400 69965.600000
190.012300 142803.200000
191.020100 85318.600000
202.012200 9385497.000000
205.023000 7060607.000000
206.007000 385302.900000
229.071900 266608.000000
232.010100 1441863.600000
245.067100 74409.200000
259.031800 89279.500000
275.064900 63617492.000000

>ms2peaks
65.998500 185717.800000
70.993900 38104.700000
74.003700 72041.000000
77.014500 78278.300000
86.988800 185597.100000
91.018800 53130.700000
92.014200 80044.000000
93.009400 65668.600000
101.014400 79186.700000
119.024900 50134.300000
126.016100 77292.000000
135.012600 66262.700000
136.020600 34492.600000
146.022200 81141.400000
151.007400 54338.700000
154.010900 369986.800000
155.018900 87102.800000
159.030200 62567.700000
160.038000 3319113.000000
161.999700 103343.300000
165.010700 128476.700000
171.013800 360324.600000
173.009400 187130.300000
174.017100 336647.400000
175.025100 830041.400000
176.009100 85867.800000
182.006000 2268139.800000
186.017200 904335.400000
190.012200 726091.200000
191.020200 410676.000000
198.001200 116349.400000
201.053900 46659.600000
202.012200 33846548.000000
204.015100 34097.500000
205.023000 16097333.000000
206.007000 1171871.500000
229.071900 1447352.200000
232.010100 1318026.800000
232.058600 66334.500000
235.045200 45153.400000
245.066600 87918.200000
259.033900 158621.400000
275.065000 17496872.000000

>ms2peaks
50.003600 46941.600000
63.011400 20174.100000
65.014500 21090.700000
65.998500 549781.400000
68.014300 32184.100000
70.993900 121189.900000
74.003700 137198.400000
77.014600 117717.200000
86.988800 282282.700000
87.011400 43226.800000
89.014700 40299.100000
89.998600 64288.100000
91.019000 41560.300000
92.014200 59436.300000
93.009500 89672.700000
94.009900 40412.100000
101.014600 84585.800000
103.006400 36758.400000
106.009800 85212.800000
107.017700 61239.300000
110.004700 19921.200000
111.000100 36950.900000
113.998400 101844.200000
114.016100 33325.900000
115.006500 52405.500000
116.014000 20916.400000
118.009900 144126.600000
119.025100 33175.800000
123.012300 39175.500000
126.016100 405502.700000
134.004700 475072.700000
135.012700 97308.400000
136.020600 110263.500000
137.999800 26164.200000
138.015800 31172.600000
139.000300 32276.100000
143.011600 77883.100000
146.022300 192613.600000
151.007500 53683.400000
154.011000 1303233.900000
155.018900 232677.700000
159.030100 222766.500000
160.037900 8645030.000000
161.999700 608837.400000
162.017000 58077.000000
165.010600 182339.800000
166.010900 63596.700000
171.013600 139860.000000
173.009500 21113.500000
174.017100 238737.200000
175.025000 1616061.800000
176.009100 230590.700000
182.005900 7483990.500000
185.058200 119621.900000
186.017200 2685947.500000
187.037300 32595.600000
190.012100 327259.100000
191.020100 128888.700000
198.000800 29392.500000
201.053600 23855.900000
202.012200 18782876.000000
204.015000 42653.100000
205.022900 5886342.500000
206.007000 542403.400000
229.071900 532686.200000
230.006700 36072.600000
232.009800 110318.200000
232.059800 37870.100000
259.033600 209505.900000
275.064900 984439.500000

>ms2peaks
50.003500 118734.600000
62.988800 48102.100000
63.011400 24199.700000
65.014600 43334.200000
65.998500 769336.600000
68.014400 17256.400000
68.995800 25781.400000
70.993900 175603.900000
74.003600 157804.600000
76.019300 62459.600000
77.014500 22642.300000
86.003700 47723.700000
86.988900 154979.500000
87.011400 142302.900000
89.014600 25830.400000
89.998500 101513.000000
91.019100 25296.700000
92.014000 25784.200000
92.995700 35298.700000
93.009600 68070.100000
94.009900 80157.400000
98.003800 81630.800000
101.014500 44542.100000
103.006400 38680.100000
106.009900 335398.600000
107.017800 110546.300000
110.004900 20989.900000
110.988300 24156.700000
111.000100 54272.300000
111.005400 17729.300000
113.998500 423463.300000
114.016100 111861.200000
115.006400 62089.100000
116.014100 79905.300000
118.009900 342774.700000
121.020600 18395.700000
123.012700 84222.300000
126.016100 851948.100000
134.004800 1233529.500000
135.012600 69625.700000
136.020500 93373.500000
138.016000 123523.800000
139.023800 36583.900000
140.031700 40797.900000
143.011400 325443.600000
146.005200 19291.400000
146.022400 152626.900000
151.007600 21718.900000
154.011000 1522932.100000
155.018900 246518.800000
156.026900 31250.600000
159.030100 276429.400000
160.037900 7113126.000000
161.999700 998138.800000
162.017000 52949.600000
165.010300 96102.200000
166.011000 164781.300000
174.016900 83800.900000
175.025100 968963.200000
176.009100 233687.200000
182.005900 5998153.500000
185.058300 56468.000000
186.017200 2307757.800000
190.012100 52217.700000
202.012200 4942066.500000
205.023000 1011758.500000
206.007100 142101.200000
214.011900 20433.600000
229.036000 40139.300000
229.071800 64739.900000
230.007000 62593.200000
244.010600 27492.000000
259.033900 143641.800000
275.064700 30090.900000

>ms2peaks
50.003600 109413.700000
62.988800 53470.300000
63.011500 22943.700000
65.014500 32610.900000
65.998600 853701.600000
68.014400 15595.800000
68.995800 67204.300000
70.993900 170085.200000
74.003600 187684.100000
76.019300 198816.100000
86.003700 189269.100000
86.988800 71087.200000
87.011500 321202.700000
89.014900 18794.400000
89.998600 128037.900000
91.019100 16840.800000
92.014300 18205.800000
92.995800 235137.100000
93.009500 45445.900000
94.009800 141803.200000
98.003700 277823.600000
103.006300 21727.600000
106.009900 874136.900000
107.017800 90514.400000
110.005100 21738.500000
110.988800 44240.900000
111.000500 27475.300000
111.005200 33395.200000
113.998500 759976.900000
114.016100 125825.700000
115.006200 33713.300000
116.014200 118645.300000
116.996000 16752.500000
118.009900 548907.600000
123.012600 81538.600000
126.016100 1129399.200000
134.004800 1463632.800000
135.012900 24783.700000
136.020500 44857.600000
137.999600 19281.200000
138.016000 174614.300000
139.000000 62074.600000
139.023900 30168.400000
140.031700 45649.200000
143.011400 620277.000000
146.004800 52681.100000
146.022400 67765.400000
154.011000 1083092.800000
155.018800 93241.800000
159.030200 161530.600000
160.038000 2927361.800000
161.999700 877747.900000
162.016900 45433.700000
165.010500 20229.700000
166.011100 178399.800000
174.017600 35296.800000
175.025100 355224.800000
176.009300 106461.200000
182.006000 2374017.800000
185.058800 18696.300000
186.017200 975872.500000
202.012200 895044.100000
205.023300 124210.300000
214.012000 43330.400000
229.035700 17626.600000
230.006400 15576.800000
244.010200 33407.300000
259.033300 35156.300000

