>compound LU26289381
>parentmass 122.02479999999998
>ionization [M-H]-
>formula C6H5NO2
>rt 146.880000
>profile orbitrap
#smiles_iso C1=CC(=CN=C1)C(=O)O
#smiles_can C1=CC(=CN=C1)C(=O)O
#inchikey PVNIIMVLHYAWGP-UHFFFAOYSA-N
#pubchem_id 938
#mb_accession LU048851,LU048852,LU048853

>ms2
78.034900 2984.200000
122.024800 7887.200000

>ms2
78.034900 3840.300000
122.024900 8731.100000

>ms2
78.034900 3615.800000
122.024800 5737.100000

