>compound LU26212064
>parentmass 275.0263
>ionization [M-H]-
>formula C10H13ClN2O3S
>rt 943.200000
>profile orbitrap
#smiles_iso CCCNC(=O)NS(=O)(=O)C1=CC=C(C=C1)Cl
#smiles_can CCCNC(=O)NS(=O)(=O)C1=CC=C(C=C1)Cl
#inchikey RKWGIWYCVPQPMF-UHFFFAOYSA-N
#pubchem_id 2727
#mb_accession LU042051,LU042052,LU042053,LU042054,LU042055,LU042056

>ms2peaks
78.973500 19785.900000
79.981300 10119.000000
126.011500 35820.300000
189.973500 9566224.000000
275.026400 3958196.200000

>ms2peaks
77.965600 15574.800000
78.973500 37692.900000
79.981200 28652.800000
126.011600 705656.300000
189.973400 15309944.000000
275.026400 396047.100000

>ms2peaks
61.970400 18643.700000
77.965500 45511.000000
78.973400 28906.000000
79.981100 122046.200000
126.011500 3139072.800000
126.995400 63877.500000
189.973400 8524588.000000

>ms2peaks
61.970600 123221.900000
63.962400 36136.200000
77.965500 218611.400000
78.973300 129323.600000
79.981200 590096.100000
80.965200 9072.100000
93.960500 57042.200000
111.000400 4693.800000
126.011600 3778969.800000
126.995500 179996.500000
189.973500 3558076.000000

>ms2peaks
61.970600 608939.200000
63.962400 199970.300000
77.965500 681014.800000
78.973400 448761.900000
79.981200 1476764.900000
80.965200 23539.000000
91.018900 9835.200000
93.960400 176282.800000
111.000600 12760.400000
126.011600 2322438.500000
126.995600 230517.200000
189.973500 994811.200000

>ms2peaks
61.970600 1334545.800000
63.962500 516754.500000
77.965600 1012055.400000
78.973400 766506.300000
79.981200 1631268.400000
80.965200 35313.700000
91.019000 17171.100000
93.960500 254804.200000
111.000800 10528.400000
126.011600 631413.800000
126.995600 142719.800000
189.973600 151259.900000

