>compound LU26235945
>parentmass 291.10269999999997
>ionization [M-H]-
>formula C19H16O3
>rt 1090.620000
>profile orbitrap
#smiles_iso C1CC(C2=CC=CC=C2C1)C3=C(C4=CC=CC=C4OC3=O)O
#smiles_can C1CC(C2=CC=CC=C2C1)C3=C(C4=CC=CC=C4OC3=O)O
#inchikey ULSLJYXHZDTLQK-UHFFFAOYSA-N
#pubchem_id 54678504
#mb_accession LU071051,LU071052,LU071053,LU071054,LU071055,LU071056

>ms2
143.050900 69045.400000
247.113000 160143.000000
290.092900 40853.400000
291.102700 36377120.000000

>ms2
93.034500 92477.900000
106.042400 846252.900000
119.050300 274442.800000
135.045200 606598.200000
138.032200 121912.000000
141.071000 2143559.200000
143.050800 85303.500000
187.040100 532659.000000
219.081500 475694.800000
245.097300 89166.100000
247.112900 3909721.500000
263.107700 359105.200000
291.102700 34832956.000000

>ms2
59.013800 23656.200000
93.034600 746924.800000
106.042400 3790617.200000
108.021600 65626.800000
115.055300 30655.800000
117.034500 83508.200000
119.050200 1083004.100000
121.029500 54711.200000
129.071200 49330.300000
133.029500 28708.800000
135.045200 2636562.800000
138.032200 778561.200000
141.071000 11497533.000000
143.050100 702774.400000
153.071000 26858.900000
161.024300 40189.400000
167.086500 134968.600000
169.065900 21737.300000
171.081700 11767.700000
185.060500 26644.500000
187.040000 1596242.000000
191.086600 12784.100000
217.066300 17222.900000
219.081500 1589690.500000
229.102300 30257.500000
232.088900 55497.300000
243.081300 36108.800000
245.097200 891482.400000
246.105300 11969.800000
247.112800 4766605.000000
263.071600 26793.300000
263.107700 368240.600000
291.102700 8379882.000000

>ms2
59.013800 113808.500000
65.039700 34756.500000
67.019000 38817.300000
91.055300 27794.600000
93.034600 2622338.800000
106.042400 3324286.500000
107.050200 18891.100000
108.021600 60923.200000
115.055200 107494.400000
117.034600 358763.200000
119.050200 1638729.200000
121.029700 55865.000000
129.071100 127991.200000
130.042300 12331.600000
133.029300 41312.900000
135.045200 2567454.200000
138.032300 664495.700000
141.071000 11590257.000000
143.050200 3564187.000000
153.070700 21488.000000
161.024200 37534.400000
165.071100 26107.900000
167.086600 221487.900000
169.066100 42024.500000
171.081600 18520.200000
185.061000 46754.300000
187.040100 1268852.000000
191.086700 76405.000000
203.086000 14625.800000
217.066000 53011.800000
217.102500 14663.600000
218.073800 27651.100000
218.109800 17514.300000
219.081500 1264795.100000
229.102400 34834.700000
230.073600 19828.100000
231.081400 49550.500000
232.089400 63308.000000
243.081500 242042.100000
245.097100 2007560.600000
246.104900 40112.500000
247.112700 1089869.500000
263.108100 57810.400000
291.102800 714080.600000

>ms2
59.013800 160245.200000
65.039700 107095.300000
67.019000 101166.800000
91.055300 54693.600000
92.026900 11959.300000
93.034600 3158504.000000
95.014000 20343.200000
106.042400 867786.800000
107.050500 8684.400000
108.021700 62543.500000
115.055300 367641.000000
117.034600 567964.200000
119.050200 1199034.900000
121.029500 12521.400000
129.071000 178591.000000
130.042500 10811.600000
133.029600 14179.900000
135.045200 788179.300000
138.032200 183383.800000
139.055400 29587.100000
141.071000 4111351.800000
143.050200 5701982.500000
161.024400 15933.200000
165.070800 75397.600000
167.050300 11073.700000
167.086500 118078.800000
169.065900 53248.500000
171.081800 10494.900000
185.060300 9462.400000
187.040100 330138.400000
191.086600 130993.000000
203.086300 11470.700000
215.086200 15546.600000
217.065900 96378.500000
217.102100 31973.800000
218.074200 45330.300000
218.110100 11155.900000
219.081500 601832.400000
229.101800 15291.200000
230.073600 54270.300000
231.081400 75308.100000
232.089000 22629.000000
243.081400 492083.200000
244.089600 23713.800000
245.097100 1581587.800000
246.104700 14782.700000
247.112600 90850.700000
263.070800 9519.500000
291.103100 18450.900000

>ms2
59.013900 157629.900000
65.039700 232389.400000
67.019000 142153.700000
91.055300 59311.800000
92.026900 12580.400000
93.034600 3337734.000000
95.013900 28340.500000
106.042400 207539.300000
107.050300 15875.600000
108.021800 52342.800000
115.055300 1062408.100000
117.034600 640983.500000
119.050200 721872.000000
129.071000 133700.900000
130.042100 11998.700000
133.029300 11671.200000
135.045200 181962.200000
138.032300 23119.600000
139.055200 63884.200000
141.071000 1789923.500000
143.050200 6337704.500000
165.071000 94427.400000
167.050200 23693.700000
167.086700 35367.300000
169.065800 59506.600000
187.040300 50084.100000
191.086700 123258.200000
203.086300 15249.900000
215.086700 38577.200000
217.066000 117007.400000
217.102100 41044.300000
218.073800 32096.400000
219.081600 198497.800000
230.073400 50285.900000
231.080800 40231.300000
232.088200 9214.000000
243.081500 500364.600000
244.089300 10473.600000
245.097200 748557.900000

