>compound LU26790136
>parentmass 272.0154
>ionization [M-H]-
>formula C11H12ClNO3S
>rt 857.220000
>profile orbitrap
#smiles_iso CN1C(S(=O)(=O)CCC1=O)C2=CC=C(C=C2)Cl
#smiles_can CN1C(S(=O)(=O)CCC1=O)C2=CC=C(C=C2)Cl
#inchikey WEQAYVWKMWHEJO-UHFFFAOYSA-N
#pubchem_id 2717
#mb_accession LU125151,LU125152,LU125153,LU125154

>ms2peaks
71.050300 4548.000000
151.032300 2280.300000
152.027000 4296.100000
178.007100 1893.100000
180.022200 63355.600000
208.053400 69174.600000

>ms2peaks
70.029900 2613.100000
71.050200 22090.500000
151.032200 7481.300000
152.027500 9845.500000
178.005900 1938.400000
180.022200 50078.200000
208.053500 21555.900000

>ms2peaks
63.962400 3729.600000
70.029900 2511.600000
71.050300 20949.900000
151.032200 3425.400000
152.027400 3310.400000
180.022100 18027.000000

>ms2peaks
63.962500 2922.200000
71.050300 11892.600000

