>compound LU26038837
>parentmass 210.0044
>ionization [M-H]-
>formula C8H5NO6
>rt 858.960000
>profile orbitrap
#smiles_iso C1=C(C=C(C=C1C(=O)O)[N+](=O)[O-])C(=O)O
#smiles_can C1=C(C=C(C=C1C(=O)O)[N+](=O)[O-])C(=O)O
#inchikey NBDAHKQJXVLAID-UHFFFAOYSA-N
#pubchem_id 12069
#mb_accession LU067851,LU067852,LU067853,LU067854,LU067855,LU067856

>ms2peaks
63.024000 7005.200000
65.003300 5116.400000
107.013800 10247.200000
119.013800 95783.100000
122.024700 12618.000000
123.008700 19779.800000
136.016800 2234.100000
166.014600 729172.400000
210.004400 30270.900000

>ms2peaks
63.024000 19047.700000
65.003300 9353.600000
75.024100 3513.200000
107.013900 23733.000000
108.021700 5188.500000
119.013900 228717.700000
122.024800 8396.800000
123.008800 33431.700000
136.016600 4252.400000
166.014600 623587.700000
210.004500 8691.800000

>ms2peaks
62.016100 1724.300000
63.024000 35160.700000
65.003300 21115.100000
75.024100 21493.400000
91.019100 10224.000000
95.013800 3178.800000
107.013900 17199.000000
108.021700 8751.600000
119.013900 371320.200000
123.008900 21565.500000
136.016600 3001.500000
166.014600 118675.400000

>ms2peaks
62.016300 4266.400000
63.024000 15681.400000
65.003400 6603.400000
75.024000 46746.200000
91.018900 22675.300000
95.014100 1814.300000
108.021800 3717.800000
119.013800 139428.700000
123.009100 2706.300000
166.014600 5882.900000

>ms2peaks
62.016200 7331.100000
63.024000 24376.100000
65.003300 3846.200000
75.024000 108287.000000
91.018900 67996.400000
119.013800 88473.500000

>ms2peaks
62.016200 6804.700000
63.024000 24353.400000
65.003400 2106.300000
75.024100 72385.600000
91.018900 50157.600000
119.013700 18632.800000

