>compound LU26355889
>parentmass 309.0248000000001
>ionization [M-H]-
>formula C14H9ClF2N2O2
>rt 1102.140000
>profile orbitrap
#smiles_iso C1=CC(=C(C(=C1)F)C(=O)NC(=O)NC2=CC=C(C=C2)Cl)F
#smiles_can C1=CC(=C(C(=C1)F)C(=O)NC(=O)NC2=CC=C(C=C2)Cl)F
#inchikey QQQYTWIFVNKMRW-UHFFFAOYSA-N
#pubchem_id 37123
#mb_accession LU049251,LU049252,LU049253,LU049254,LU049255,LU049256

>ms2
113.020800 31322.800000
126.011600 13893.800000
151.006900 208419.300000
156.026700 1065735.000000
169.009400 94564.700000
184.986800 17244.000000
246.013100 6135.900000
289.018700 749200.500000

>ms2
93.014600 8646.800000
113.020900 151213.300000
126.011600 81305.800000
140.978100 12481.900000
151.006900 229384.800000
156.026700 82499.000000
169.009400 78998.000000
184.986500 18454.600000
246.012700 6945.200000
289.018700 40845.500000

>ms2
93.014600 70971.600000
113.020900 343014.700000
122.975700 2876.200000
126.011600 161889.500000
140.978200 24430.300000
151.006800 189057.900000
156.026700 4176.900000
169.009400 28532.800000
184.986400 7120.700000

>ms2
73.008300 13344.800000
93.014600 323857.100000
113.020800 420532.200000
115.030000 5207.800000
122.975300 3035.900000
126.011600 160080.500000
140.978300 15485.800000
151.006800 158510.600000
169.009400 6368.600000

>ms2
73.008400 42971.600000
93.014600 753082.400000
113.020800 312276.900000
115.030300 22565.100000
126.011600 100705.500000
151.006800 91065.400000

>ms2
73.008400 129577.600000
93.014600 905564.300000
113.020900 135697.200000
115.030100 20650.300000
126.011600 35030.700000
151.006800 32100.100000

