>compound LU26227093
>parentmass 538.7498
>ionization [M-H]-
>formula C15H12Br4O2
>rt 1163.400000
>profile orbitrap
#smiles_iso CC(C)(C1=CC(=C(C(=C1)Br)O)Br)C2=CC(=C(C(=C2)Br)O)Br
#smiles_can CC(C)(C1=CC(=C(C(=C1)Br)O)Br)C2=CC(=C(C(=C2)Br)O)Br
#inchikey VEORPZCZECFIRK-UHFFFAOYSA-N
#pubchem_id 6618
#mb_accession LU049551,LU049552,LU049553,LU049554,LU049555,LU049556

>ms2
78.918800 5479.700000
523.725500 2363.300000
538.749700 1532420.000000

>ms2
78.918900 431391.200000
248.856300 5487.000000
288.887100 78035.600000
299.878400 3106.100000
339.873900 13552.400000
351.873300 2923.800000
415.806800 2480.000000
431.799800 6399.600000
443.800100 16133.100000
444.807600 10747.400000
523.726400 23853.100000
538.749900 354478.700000

>ms2
78.918900 974565.600000
168.929400 12907.800000
248.855800 4912.900000
288.887000 81393.300000
299.879100 7807.900000
339.874000 13106.500000
351.874300 2533.300000
415.804600 9747.000000
431.800000 9209.500000
443.800800 6651.800000
444.808300 13908.800000
538.750100 3683.300000

>ms2
78.918900 1185265.000000
168.929800 10227.300000
288.887100 13364.800000

>ms2
78.918900 1219928.200000
168.929500 3933.500000

>ms2
78.918900 1477830.000000
168.929600 2072.800000

