>compound LU27200666
>parentmass 314.0605
>ionization [M-H]-
>formula C15H13N3O3S
>rt 868.080000
>profile orbitrap
#smiles_iso COC(=O)NC1=NC2=C(N1)C=C(C=C2)S(=O)C3=CC=CC=C3
#smiles_can COC(=O)NC1=NC2=C(N1)C=C(C=C2)S(=O)C3=CC=CC=C3
#inchikey BEZZFPOZAYTVHN-UHFFFAOYSA-N
#pubchem_id 40854
#mb_accession LU043851,LU043852,LU043853,LU043854,LU043855,LU043856

>ms2peaks
204.995300 6570.200000
237.021300 8369.900000
282.034400 118335.600000
314.060700 233507.900000

>ms2peaks
204.995200 125474.500000
209.082400 5322.000000
237.021400 49813.400000
282.034400 152966.900000
314.060900 20521.600000

>ms2peaks
173.023000 6214.100000
204.995100 339644.300000
237.021300 21502.700000
282.034400 16433.200000

>ms2peaks
106.017200 2519.200000
144.020000 3283.500000
145.028300 2804.000000
149.005300 3301.300000
149.022800 1932.300000
157.028200 1754.800000
160.014800 2430.700000
173.023000 47440.800000
177.000000 4648.700000
203.987300 2180.300000
204.995100 204963.600000

>ms2peaks
65.014700 1906.200000
65.998600 1928.600000
95.025100 3672.500000
106.017300 6837.200000
121.994700 2488.300000
129.033100 1758.400000
133.028100 4792.700000
144.020500 5798.200000
145.028100 12242.900000
149.005200 4587.600000
149.023300 5834.000000
157.028500 1749.000000
160.015700 7497.200000
173.023100 88859.600000
177.000000 4143.800000
203.987300 3511.300000
204.995100 82928.600000

>ms2peaks
65.014600 6118.800000
65.998700 1933.600000
95.025200 3636.600000
106.017400 6905.500000
121.994500 2978.700000
129.033200 8689.900000
133.028200 5600.500000
144.020200 8044.900000
145.028200 24666.700000
149.023200 7893.600000
157.028100 3568.700000
160.015400 9489.500000
173.023100 68919.500000
203.987300 2978.500000
204.995300 18575.200000
209.077600 5928.900000

