>compound LU27128060
>parentmass 408.19419999999997
>ionization [M-H]-
>formula C24H23N7
>rt 1001.160000
>profile orbitrap
#smiles_iso CCCCC1=NC2=C(N1CC3=CC=C(C=C3)C4=CC=CC=C4C5=NNN=N5)N=CC=C2
#smiles_can CCCCC1=NC2=C(N1CC3=CC=C(C=C3)C4=CC=CC=C4C5=NNN=N5)N=CC=C2
#inchikey YILJWHUIUCRKEU-UHFFFAOYSA-N
#pubchem_id 9801627
#mb_accession LU123351,LU123352,LU123353,LU123354,LU123355,LU123356

>ms2peaks
131.049000 12559.600000
144.056700 231349.000000
165.071000 12392.100000
172.088200 20321.200000
173.095700 62352.500000
174.103600 4073626.200000
177.071000 11368.800000
179.086500 10153.400000
186.103900 16485.100000
195.081500 37475.600000
295.111800 9123.600000
309.127500 12197.300000
352.181800 140414.000000
380.188100 1035182.200000
408.194100 7442130.000000

>ms2peaks
131.048600 84316.000000
144.056700 789186.600000
165.070800 25592.100000
172.088400 26764.200000
173.096200 24181.000000
174.103600 13133346.000000
177.071000 32918.800000
179.086500 17653.000000
186.104000 29398.200000
195.081400 110552.900000
309.127200 16338.300000
352.181700 34394.800000
380.188000 64245.000000
408.194200 96481.000000

>ms2peaks
118.041000 15048.400000
131.048900 856478.100000
132.056700 95653.200000
144.056700 586534.700000
172.088500 30062.900000
174.103600 11786927.000000
177.071000 24186.800000
195.081300 53473.100000

>ms2peaks
118.041000 35775.500000
131.048900 2881905.200000
132.056700 238304.700000
144.056700 547214.200000
145.064900 16446.700000
146.035800 11597.200000
160.051500 10786.300000
172.088400 49919.500000
174.103600 7618549.500000
195.080700 13322.200000

>ms2peaks
91.030000 5015.400000
118.041100 53346.000000
131.048800 4607781.000000
132.056600 321933.200000
133.028300 5446.700000
144.056700 621654.100000
145.064700 19917.000000
146.035800 8887.300000
157.064700 13426.100000
158.072500 6351.500000
160.051900 13033.300000
172.088200 67721.700000
174.103600 3469089.800000

>ms2peaks
91.030100 7121.900000
116.025700 13798.100000
118.041100 92711.800000
131.048900 4748187.500000
132.056700 300755.700000
144.056700 794152.400000
145.064800 8052.200000
146.036000 6120.100000
157.064600 14347.700000
160.051900 8363.700000
172.088100 47870.900000
174.103600 1204379.500000

