>compound LU27309568
>parentmass 211.0612
>ionization [M-H]-
>formula C10H12O5
>rt 848.940000
>profile orbitrap
#smiles_iso CCCOC(=O)C1=CC(=C(C(=C1)O)O)O
#smiles_can CCCOC(=O)C1=CC(=C(C(=C1)O)O)O
#inchikey ZTHYODDOHIVTJV-UHFFFAOYSA-N
#pubchem_id 4947
#mb_accession LU032351,LU032352,LU032353,LU032354,LU032355,LU032356

>ms2
111.008800 75686.900000
124.016900 154437.000000
125.024400 325690.200000
127.003800 28932.500000
136.987900 45023.000000
139.003700 78282.700000
140.011600 106032.200000
151.003500 21256.400000
168.006500 669356.900000
169.014300 1409567.800000
211.061100 15909860.000000

>ms2
65.003300 18312.100000
67.019000 24330.200000
68.998300 17134.600000
71.013900 20512.900000
72.993200 21107.700000
82.006000 15945.300000
83.013800 27829.500000
87.008800 16121.900000
95.013800 13300.200000
110.001100 36213.700000
111.008800 210635.500000
123.008900 24676.100000
124.016300 272129.800000
125.024400 933346.200000
127.003700 92620.500000
136.988100 143501.500000
139.003700 219407.100000
140.011600 344206.500000
151.003600 49699.900000
154.998900 25124.400000
167.071200 14105.900000
168.006500 1272194.900000
169.014300 2516313.200000
211.061100 12317709.000000

>ms2
55.018900 20803.600000
57.034500 7923.900000
58.006000 7797.200000
59.013800 13449.700000
60.993100 6533.200000
65.003300 70229.800000
66.011200 4189.500000
67.018900 79769.300000
68.998200 63403.400000
69.034600 30988.600000
71.013800 75790.400000
72.993100 84457.700000
78.011100 5960.000000
79.018800 6684.500000
81.034500 21808.700000
82.006100 56453.200000
83.013900 130434.900000
84.993100 15676.600000
86.000900 17729.100000
87.008800 47920.000000
95.013800 36964.300000
96.993100 30272.300000
97.029600 39776.400000
99.008800 31649.000000
100.016500 3641.100000
100.988000 7046.900000
106.005900 8512.200000
107.014000 9125.700000
108.992700 4393.100000
110.000900 135191.300000
111.008800 749755.600000
112.988100 17873.000000
123.008800 110115.700000
124.016500 601845.100000
125.024400 2976839.200000
127.003600 323499.100000
136.988000 535282.200000
138.032400 11145.000000
139.003700 776860.400000
140.011500 1229284.400000
141.019100 6675.000000
141.990700 6615.800000
151.003600 88464.400000
153.019300 12592.100000
154.998600 107530.800000
167.071400 19325.400000
168.006400 1090773.100000
169.014200 2402917.200000
211.061200 2922545.500000

>ms2
53.003200 9223.200000
55.018900 27290.700000
57.034500 17357.800000
58.006000 9341.700000
59.013900 17543.100000
60.993200 11039.000000
65.003300 104804.400000
66.011100 4154.300000
67.019000 121439.900000
68.998200 84482.500000
69.034600 119631.400000
71.013900 107988.800000
72.993100 123647.100000
78.011100 28720.100000
79.019000 28751.300000
80.026800 5961.400000
81.034600 44122.100000
82.006100 64616.700000
83.013900 157911.500000
84.993100 21410.700000
86.000900 25592.400000
87.008800 59745.800000
95.013800 94352.500000
96.993100 44973.500000
97.029500 112798.800000
99.008800 38626.200000
100.016700 4110.600000
100.988000 6529.000000
106.006000 78330.500000
107.013800 19446.100000
108.992900 5231.500000
110.000900 176285.600000
111.008800 955013.900000
112.988100 17638.500000
123.008800 250080.500000
124.016600 613980.400000
125.024400 2821836.500000
127.003700 412011.200000
136.988000 663248.700000
138.032500 4469.200000
139.003700 985018.600000
140.011500 1568205.100000
141.020100 6435.200000
141.990700 10877.500000
151.003600 38055.000000
153.019200 13685.100000
154.998600 132008.400000
168.006500 191570.700000
169.014300 591676.600000
211.061200 226223.400000

>ms2
53.003200 21353.500000
55.018900 32375.300000
57.034500 39760.700000
58.006000 6240.200000
59.013800 15624.500000
60.993200 7274.900000
65.003300 102945.200000
67.018900 143248.800000
68.998200 69210.200000
69.034600 193235.700000
71.013800 88124.400000
72.993200 92430.200000
78.011100 86523.200000
79.018900 45690.700000
80.026600 4266.800000
81.034600 43956.500000
82.006100 49761.500000
83.013900 133872.300000
84.993200 14225.700000
85.029700 7238.500000
86.001000 21909.400000
87.008800 48608.500000
95.013900 115623.300000
96.993100 34558.000000
97.029600 146612.300000
99.008800 38700.600000
100.988200 7849.000000
106.006000 192318.800000
107.013900 24033.300000
108.021700 7077.200000
108.993300 5253.800000
110.000900 139360.600000
111.008800 789844.100000
112.988200 16812.400000
123.008800 322148.800000
124.016600 515142.500000
125.024400 1619012.600000
127.003700 326889.900000
136.988000 577329.000000
138.031800 3277.200000
139.003700 853871.100000
140.011500 1328562.800000
141.990900 8829.100000
151.003500 6897.400000
153.019200 9579.800000
154.998600 126516.100000
168.006600 17202.700000
169.014100 83034.300000
211.061300 13359.500000

>ms2
53.003200 50408.900000
55.018900 19950.600000
57.034600 48267.300000
58.006100 3699.200000
59.013800 8461.300000
60.993400 3195.300000
65.003300 88357.700000
67.019000 128049.500000
68.998200 44480.800000
69.034600 208289.400000
71.013900 54164.200000
72.993100 49902.800000
78.011100 82074.600000
79.019000 52619.200000
80.026800 6733.800000
81.034600 28922.300000
82.006100 23199.400000
83.013900 83595.500000
84.993100 9181.300000
85.029500 3670.000000
86.001000 9160.900000
87.008800 28266.000000
95.013900 139949.100000
96.993200 21577.500000
97.029600 129776.700000
99.008900 21886.400000
100.016900 3927.800000
106.006000 224212.700000
107.013800 16280.300000
108.021700 13014.900000
110.000900 75349.400000
111.008800 445077.200000
112.988000 8920.500000
123.008800 325127.300000
124.016600 298351.500000
125.024400 677425.600000
127.003700 189383.300000
136.988000 293007.600000
139.003700 490106.300000
140.011500 735857.800000
141.990800 4190.400000
152.011800 4610.300000
154.998600 61318.500000
169.014200 10879.600000

