>compound LU27911743
>parentmass 118.04110000000001
>ionization [M-H]-
>formula C6H5N3
>rt 717.300000
>profile orbitrap
#smiles_iso C1=CC2=NNN=C2C=C1
#smiles_can C1=CC2=NNN=C2C=C1
#inchikey QRUDEWIWKLJBPS-UHFFFAOYSA-N
#pubchem_id 7220
#mb_accession LU063451,LU063452,LU063453,LU063454,LU063455,LU063456

>ms2
50.003500 16927.700000
90.034900 245051.100000
118.041100 1169344.100000

>ms2
50.003500 15237.200000
64.019200 9530.900000
90.034900 742000.100000
118.041100 3433957.800000

>ms2
50.003600 20266.200000
64.019200 10052.800000
90.034900 799553.100000
118.041100 3160932.500000

>ms2
50.003600 64129.900000
64.019300 19038.200000
90.034900 869818.100000
118.041100 1971640.800000

>ms2
50.003500 150946.500000
64.019300 30468.600000
90.034900 653981.900000
118.041100 934384.900000

>ms2
50.003600 255667.500000
64.019300 35972.600000
90.034900 386042.400000
118.041100 396000.000000

