>compound LU28161959
>parentmass 302.0313
>ionization [M-H]-
>formula C12H9ClF3N3O
>rt 996.540000
>profile orbitrap
#smiles_iso CNC1=C(C(=O)N(N=C1)C2=CC=CC(=C2)C(F)(F)F)Cl
#smiles_can CNC1=C(C(=O)N(N=C1)C2=CC=CC(=C2)C(F)(F)F)Cl
#inchikey NVGOPFQZYCNLDU-UHFFFAOYSA-N
#pubchem_id 33775
#mb_accession LU020651,LU020652,LU020653,LU020654,LU020655

>ms2peaks
74.964400 6460.900000
79.030200 33614.200000
87.995900 38364.800000
115.006900 51840.500000
185.033100 40601.200000
217.998900 550022.000000
224.020500 7086.600000
252.038500 13810.100000
275.020700 44551.700000
302.031300 5032855.000000

>ms2peaks
52.019300 3686.700000
64.006600 20467.600000
65.014500 10503.400000
65.998500 3876.000000
72.972600 5253.300000
74.964300 31267.700000
79.030200 103073.300000
87.996000 274304.900000
101.975400 5261.100000
115.006800 60611.600000
128.986100 10071.700000
160.037900 4769.400000
169.020800 3630.200000
177.986600 6530.600000
185.033200 136627.800000
195.996800 4245.300000
197.992800 13090.100000
209.033200 55678.400000
211.049200 6047.200000
216.003300 4096.900000
217.998900 1712674.900000
224.020300 39080.600000
239.043500 17048.500000
245.010100 16580.600000
251.031100 6468.200000
252.038900 43154.300000
275.020400 20007.100000
286.000000 7630.700000
302.031300 1068299.600000

>ms2peaks
52.019200 9069.000000
64.006700 49134.000000
65.014500 56740.700000
65.998500 14754.200000
72.972600 8984.300000
73.980300 18121.400000
74.964300 62417.200000
79.030200 75470.900000
80.001500 3386.400000
87.996000 440062.200000
101.975200 10254.600000
115.006800 8843.300000
128.986100 10361.000000
145.020700 3884.300000
160.038000 61381.200000
165.026800 3149.700000
169.020600 23576.000000
177.986600 161744.100000
182.022500 9181.100000
185.033200 212670.400000
189.026800 4160.900000
195.997100 70650.200000
197.992800 113118.400000
209.033200 104646.300000
211.048900 9532.300000
212.044600 4567.800000
216.003300 39885.700000
217.998900 1497551.000000
224.020300 90622.900000
239.044200 4984.800000
245.010000 11082.200000
251.031400 8992.100000
252.038900 40014.800000
258.989200 3537.000000
286.000100 18483.500000
302.031400 65237.100000

>ms2peaks
50.003600 4606.500000
52.019200 19038.600000
60.972500 4279.700000
64.006700 62445.200000
65.014500 79824.200000
65.998500 23662.400000
70.969500 6407.800000
72.972400 9702.600000
73.980300 69566.700000
74.964300 74809.600000
79.030200 23906.000000
80.001700 2397.500000
87.996000 235006.700000
100.991200 5351.000000
101.975300 7188.500000
120.025400 4325.100000
122.003300 2470.500000
138.016200 3541.500000
142.009700 3155.700000
145.020800 24735.700000
145.027100 13111.400000
149.014700 5594.000000
157.980300 6550.700000
158.022500 7942.700000
160.038000 172504.800000
161.021100 3114.200000
162.016200 8200.100000
165.027100 5626.400000
169.020800 34073.800000
177.986600 342429.000000
182.022100 9126.400000
185.033200 169954.500000
189.027100 4336.600000
195.997100 89871.000000
197.992800 96478.500000
204.014300 9443.600000
209.033200 35031.100000
211.049400 3031.900000
212.044400 1928.900000
216.003300 38547.400000
217.999000 382864.700000
224.020400 72524.100000
230.994500 5731.900000
245.010300 2301.200000
251.030800 2291.500000
252.039500 17417.100000
258.988800 5723.400000
286.000200 6581.700000

>ms2peaks
50.003600 11530.000000
52.019200 22292.600000
60.972500 7547.800000
64.006700 50273.100000
65.014500 68018.600000
65.998500 19947.100000
70.969500 4898.200000
72.972600 7017.400000
73.980300 77170.400000
74.964300 60668.800000
79.030300 7145.500000
80.001600 2290.900000
87.996000 86632.000000
100.991100 4192.600000
101.975300 2759.500000
120.025500 10303.400000
122.003800 6930.800000
138.016400 3041.000000
142.010000 5911.900000
145.020900 43843.600000
145.027300 19060.400000
149.014700 11502.700000
157.980400 27688.500000
158.022400 6027.900000
160.038000 182700.200000
161.020900 3055.300000
162.016100 6112.800000
165.027200 5428.700000
169.020900 16056.900000
177.986600 207159.800000
182.022200 3544.700000
185.033200 82687.600000
195.997200 35498.100000
197.992900 26789.700000
204.014100 12614.700000
209.033400 6906.500000
216.003700 7641.400000
217.998900 39936.800000
224.020300 25051.200000
230.994800 5462.800000
252.039200 2303.100000

