>compound LU28560376
>parentmass 266.0605
>ionization [M-H]-
>formula C11H13N3O3S
>rt 746.580000
>profile orbitrap
#smiles_iso CC1=C(ON=C1C)NS(=O)(=O)C2=CC=C(C=C2)N
#smiles_can CC1=C(ON=C1C)NS(=O)(=O)C2=CC=C(C=C2)N
#inchikey NHUHCSRWZMLRLA-UHFFFAOYSA-N
#pubchem_id 5344
#mb_accession LU063651,LU063652,LU063653,LU063654,LU063655,LU063656

>ms2
63.962300 17340.700000
66.034900 56015.600000
77.965600 10975.200000
78.973300 7639.000000
79.957300 6976.500000
82.029800 8658.500000
92.050500 7111.400000
105.960500 6604.700000
107.037700 17958.500000
108.045600 12994.700000
109.040700 54136.500000
110.048700 10362.800000
133.040600 5592.900000
144.069400 10388.500000
155.004600 53231.700000
156.012500 427868.400000
171.023400 1559268.200000
183.023200 14437.300000
197.002800 8891.000000
239.049600 1038257.200000
248.049600 8984.800000
266.060500 4771613.500000

>ms2
61.970600 2277.900000
63.962400 56859.500000
66.034900 37099.800000
77.965500 26132.400000
78.973300 13665.100000
79.957400 8414.100000
79.981000 3285.000000
82.030000 14883.400000
92.050500 30564.900000
93.960400 3972.600000
94.030000 2693.800000
95.025100 12456.100000
105.960500 4683.700000
107.037700 41196.600000
108.045600 40372.000000
109.040700 48742.900000
110.048500 7230.900000
111.056400 3199.100000
117.045800 4400.100000
119.061200 3158.100000
133.040700 11304.300000
140.017600 5832.000000
144.069400 15850.300000
155.004600 54299.000000
156.012500 547964.600000
157.076700 4806.100000
171.023400 1750729.000000
172.007500 6156.800000
183.023300 12983.500000
197.002600 8585.500000
197.038500 2648.700000
221.039000 14041.700000
239.049600 1015854.400000
248.050100 6195.900000
266.060500 636923.400000

>ms2
63.962400 39134.900000
66.034900 4984.700000
77.965500 8195.200000
78.973300 5887.000000
79.981100 8794.900000
82.030000 2502.500000
84.045400 2082.800000
91.042600 1973.200000
92.050600 18773.700000
93.960100 1988.000000
95.025100 3982.000000
107.037600 17874.100000
108.045500 32549.700000
109.040600 5528.000000
119.061300 3007.500000
133.040900 2731.300000
144.069400 2162.500000
155.004600 9730.400000
156.012500 125563.900000
157.077000 5420.300000
171.023400 324231.900000
172.007300 4061.800000
221.039100 10112.400000
239.049600 139139.300000
266.060500 7423.200000

>ms2
55.018900 20240.000000
61.970600 54188.300000
63.962500 683961.000000
65.998600 3504.300000
66.034900 13594.700000
70.030000 3527.900000
77.965500 61044.000000
78.035000 3363.500000
78.973300 103949.200000
79.957400 21852.700000
79.981200 284941.500000
80.965200 5126.600000
82.029900 34076.000000
84.045500 59115.700000
85.029500 8542.700000
90.034700 2913.000000
91.042800 20830.300000
92.050600 245454.700000
93.960500 49820.500000
94.029800 9875.900000
95.025000 8735.800000
107.037700 167198.000000
107.061600 9796.700000
108.045500 281452.600000
109.040700 27776.500000
110.048500 2764.300000
117.045800 7911.600000
119.061500 12005.900000
122.025000 2404.200000
133.040700 14073.200000
140.017300 3484.300000
144.069300 5490.500000
155.004700 42782.800000
156.012500 707987.800000
157.077100 36906.600000
171.023400 1524988.100000
172.007400 44290.800000
183.023700 11398.300000
221.039000 57146.300000
239.049600 234815.800000

>ms2
55.018900 17376.500000
61.970600 132795.300000
63.962400 942250.200000
65.998600 4708.700000
66.034900 4348.400000
70.029700 4121.100000
77.965600 73586.900000
78.035000 4080.000000
78.973400 192644.700000
79.981200 479047.100000
80.965100 16133.500000
82.029900 20524.800000
84.045500 48425.000000
85.029500 4615.700000
90.034900 4470.600000
91.042700 32700.400000
92.050600 215276.900000
93.034500 3394.400000
93.960400 109426.400000
94.029800 8341.600000
95.025000 3267.500000
107.037700 123428.600000
107.061400 8075.200000
108.045500 138819.200000
109.040700 13952.700000
117.045600 5027.600000
119.061500 5802.200000
133.040700 5989.100000
155.004600 11993.400000
156.012500 287858.000000
157.077200 11874.500000
171.023400 521818.700000
172.007400 27032.400000
221.038900 8291.700000
239.049400 19073.000000

>ms2
55.018900 9828.700000
61.970600 164367.900000
63.962400 691680.800000
65.998500 4241.700000
70.029800 1785.400000
77.965500 61345.800000
78.973400 179864.700000
79.957400 15649.000000
79.981200 285510.900000
80.965300 14271.100000
82.029900 5655.900000
84.045400 19701.500000
90.035000 3705.500000
91.042700 17438.300000
92.050600 61029.500000
93.034500 2635.300000
93.960400 92976.900000
107.037700 57031.900000
108.045500 32513.700000
109.040700 3155.900000
122.024700 1858.600000
156.012500 46539.200000
157.077600 2130.600000
171.023400 83520.800000
172.007600 6088.400000

