>compound LU28688876
>parentmass 775.6794
>ionization [M-H]-
>formula C15H11I4NO4
>rt 1021.440000
>profile orbitrap
#smiles_iso C1=C(C=C(C(=C1I)OC2=CC(=C(C(=C2)I)O)I)I)C[C@@H](C(=O)O)N
#smiles_can C1=C(C=C(C(=C1I)OC2=CC(=C(C(=C2)I)O)I)I)CC(C(=O)O)N
#inchikey XUIIKFGFIJCVMT-LBPRGKRZSA-N
#pubchem_id 5819
#mb_accession LU069951,LU069952,LU069953,LU069954,LU069955,LU069956

>ms2peaks
72.009100 22008.800000
126.905100 429779.400000
476.873400 6289.100000
574.751200 38459.600000
588.767600 4192.400000

>ms2peaks
72.009200 25110.600000
126.905000 1387962.400000
476.874400 3966.500000
574.751200 24316.800000
588.766500 5781.900000

>ms2peaks
72.009100 18075.900000
126.905000 1583919.500000

>ms2peaks
72.009100 7291.000000
126.905000 1595544.900000

>ms2peaks
72.009100 4120.600000
126.905000 1657390.900000

>ms2peaks
126.905000 1534968.000000

