>compound LU28628037
>parentmass 203.02690000000004
>ionization [M-H]-
>formula C12H9ClO
>rt 1099.740000
>profile orbitrap
#smiles_iso C1=CC=C(C=C1)C2=C(C=C(C=C2)O)Cl
#smiles_can C1=CC=C(C=C1)C2=C(C=C(C=C2)O)Cl
#inchikey MXORDJXBRHNWBE-UHFFFAOYSA-N
#pubchem_id 79688
#mb_accession LU104851,LU104852,LU104853,LU104854,LU104855,LU104856

>ms2
167.050300 25285.800000
203.027000 2442354.800000

>ms2
167.050300 42457.200000
203.027000 1993351.400000

>ms2
65.003400 3856.600000
139.055400 5034.100000
141.034700 2970.000000
167.050200 89127.700000
203.027000 580600.200000

>ms2
65.003300 15406.000000
139.055500 14385.400000
141.034700 10516.400000
167.050300 61174.900000
203.027000 83734.400000

>ms2
65.003300 16964.500000
139.055400 18332.600000
141.034700 18101.100000
167.050300 17841.800000
203.026700 5363.900000

>ms2
65.003300 15017.500000
139.055400 8789.200000
141.034700 18781.300000
167.050400 3125.400000

