>compound LU28082180
>parentmass 305.0968
>ionization [M-H]-
>formula C13H12F2N6O
>rt 779.160000
>profile orbitrap
#smiles_iso C1=CC(=C(C=C1F)F)C(CN2C=NC=N2)(CN3C=NC=N3)O
#smiles_can C1=CC(=C(C=C1F)F)C(CN2C=NC=N2)(CN3C=NC=N3)O
#inchikey RFHAOTPXVQNOHP-UHFFFAOYSA-N
#pubchem_id 3365
#mb_accession LU054251,LU054252,LU054253,LU054254,LU054255,LU054256

>ms2
68.025400 180204.600000
94.041100 3540.300000
108.020400 8561.300000
122.036100 20739.600000
149.058300 3209.200000
191.068700 2986738.800000
222.048500 38251.300000

>ms2
65.998300 2569.400000
67.030300 2321.600000
68.025400 894366.400000
82.041100 4472.300000
94.029800 15064.200000
94.041100 63669.100000
95.025200 4715.400000
108.020400 108486.100000
113.020500 3946.000000
122.036000 149080.300000
136.051600 5584.100000
149.047000 6094.800000
149.058000 28995.600000
164.057800 13724.500000
191.068700 2270025.200000
222.048300 31952.800000

>ms2
55.030300 2087.000000
65.014600 6320.500000
65.998500 10672.700000
66.009900 2563.200000
67.030200 9797.500000
68.025400 1988868.500000
81.022100 6488.100000
82.041200 9539.000000
93.014600 4269.400000
94.029800 18992.600000
94.041100 129551.200000
95.025100 12472.100000
108.020300 160992.800000
113.020800 8849.000000
122.036000 137058.700000
136.051800 4425.100000
137.047000 4001.300000
149.046700 8930.000000
149.058000 15422.500000
164.057700 12480.000000
191.068700 505397.900000
202.042500 12196.900000
222.048500 5922.100000

>ms2
55.030100 4333.700000
65.014400 4304.300000
65.998500 18328.200000
66.009800 4145.600000
67.030200 15882.300000
68.025400 2447216.000000
80.025300 2871.800000
81.021900 4920.300000
82.041200 11383.600000
93.014600 19621.100000
94.029900 13971.000000
94.041000 112027.800000
95.025200 12432.600000
108.020300 106433.900000
113.020800 16457.700000
122.036000 48004.000000
137.047000 2566.700000
149.057800 3166.900000
191.068700 56948.000000
202.042500 5999.800000

>ms2
55.030100 4068.500000
65.014600 3643.000000
65.998500 21368.000000
66.009900 4699.900000
67.030200 16311.800000
68.025400 2356011.000000
73.008400 2385.500000
80.025500 4330.200000
81.022000 4303.800000
82.017400 2533.300000
82.041100 8244.900000
93.014600 46092.300000
94.029800 8535.100000
94.041100 78728.500000
95.025100 8533.100000
108.020300 51722.300000
113.020900 12920.100000
119.030200 4513.400000
122.036100 11757.500000
191.068700 2977.800000

>ms2
55.030100 5771.000000
65.014600 5755.000000
65.998600 28445.600000
66.009800 9707.600000
67.030300 14890.800000
68.025400 2613527.800000
73.008400 13427.500000
80.025600 2624.100000
82.041100 4774.200000
93.014600 91044.600000
94.029800 5516.000000
94.041100 46569.800000
95.024900 2700.000000
108.020300 25174.600000
113.020900 7409.400000
119.030200 4239.700000

