>compound LU29914665
>parentmass 194.0459
>ionization [M-H]-
>formula C9H9NO4
>rt 682.740000
>profile orbitrap
#smiles_iso C1=CC=C(C=C1)C(=O)NOCC(=O)O
#smiles_can C1=CC=C(C=C1)C(=O)NOCC(=O)O
#inchikey WDRGQGLIUAMOOC-UHFFFAOYSA-N
#pubchem_id 21322
#mb_accession LU038251,LU038252,LU038253,LU038254,LU038255,LU038256

>ms2
75.008800 40310.400000
102.034900 23342.800000
120.045500 348084.800000
194.045800 9596.000000

>ms2
75.008800 51970.200000
102.035000 31182.100000
120.045500 345332.900000
194.046100 2030.000000

>ms2
75.008800 42205.400000
102.034900 35513.900000
120.045500 115143.200000

>ms2
75.008800 33243.300000
102.034900 23724.700000
120.045500 36378.600000

>ms2
75.008800 26458.600000
102.034900 12105.100000
120.045500 7204.700000

>ms2
75.008800 15257.000000
102.034800 6522.000000
120.045900 1893.300000

