>compound LU29654833
>parentmass 165.01929999999996
>ionization [M-H]-
>formula C8H6O4
>rt 796.980000
>profile orbitrap
#smiles_iso C1=CC(=CC(=C1)C(=O)O)C(=O)O
#smiles_can C1=CC(=CC(=C1)C(=O)O)C(=O)O
#inchikey QQVIHTHCMHWDBS-UHFFFAOYSA-N
#pubchem_id 8496
#mb_accession LU084351,LU084352,LU084353,LU084354,LU084355,LU084356

>ms2peaks
77.039600 5979.700000
121.029500 3243389.000000
165.019300 261578.000000

>ms2peaks
77.039500 4166.800000
121.029500 3262240.000000
165.019400 275197.700000

>ms2peaks
77.039500 3675.100000
93.034600 3363.900000
120.021100 2230.300000
121.029500 1983261.100000
165.019300 29467.800000

>ms2peaks
75.023900 3217.300000
77.039400 1998.400000
93.034600 4076.700000
108.021700 2600.500000
121.029500 733285.400000
165.019000 4864.900000

>ms2peaks
75.024100 9083.300000
93.034800 3366.000000
108.022200 1766.000000
121.029500 184333.900000

>ms2peaks
75.024000 14481.400000
93.034800 2972.200000
108.021700 2689.600000
121.029500 34970.500000

