>compound LU30889521
>parentmass 453.1104
>ionization [M-H]-
>formula C23H19FN2O7
>rt 1003.980000
>profile orbitrap
#smiles_iso C[C@H](C(=O)O)OC1=CC(=C(C=C1)CNC(=O)C2=C(N=CC=C2)OC3=CC4=C(C=C3)OCO4)F
#smiles_can CC(C(=O)O)OC1=CC(=C(C=C1)CNC(=O)C2=C(N=CC=C2)OC3=CC4=C(C=C3)OCO4)F
#inchikey CNIGFESSDPOCKS-CYBMUJFWSA-N
#pubchem_id 9955578
#mb_accession LU036151,LU036152,LU036153,LU036154,LU036155,LU036156

>ms2peaks
71.013900 34694.900000
94.030200 6615.100000
229.062100 7663.600000
257.056800 5180910.000000
299.067300 234417.000000
317.058100 13057.700000
381.089300 4759407.500000

>ms2peaks
71.013900 47619.100000
94.029700 69721.700000
108.045400 36995.000000
118.029900 10124.400000
119.025300 11623.600000
134.024700 47271.400000
136.040300 218076.200000
162.019700 23404.300000
185.072100 39812.100000
211.051200 429460.600000
213.066400 14463.400000
228.054100 221561.900000
229.061800 1072556.500000
239.046100 199478.400000
243.041400 16659.200000
255.077500 22514.700000
256.049400 10051.100000
257.056700 9783327.000000
299.067400 33765.000000
381.089100 22151.000000

>ms2peaks
65.998600 2456.000000
66.034900 8238.300000
68.014200 3017.200000
71.013800 27491.800000
78.034900 7619.800000
81.021900 15826.400000
91.030200 9700.900000
92.014300 10446.900000
93.034600 2904.500000
94.029800 679773.300000
106.029700 21748.200000
107.037600 171149.700000
108.045500 426081.800000
109.016700 5643.700000
109.029300 4673.800000
117.045800 3409.900000
118.029800 342271.200000
119.024900 43199.300000
120.009000 4601.500000
122.024600 23263.700000
134.024700 568291.700000
135.032500 20913.400000
136.040300 811713.600000
137.035200 2702.900000
146.024700 13834.400000
152.035200 3302.700000
155.061400 3981.800000
158.060900 16796.800000
162.019700 73249.600000
170.048500 3842.900000
183.056300 75856.700000
184.040400 5973.200000
184.064300 21718.600000
185.072000 250118.600000
186.056500 13362.800000
195.056100 14766.600000
199.051400 7552.900000
210.043400 6120.900000
211.051200 1907165.200000
213.067000 26318.700000
227.046300 69369.100000
228.054100 912653.300000
229.061700 1832035.500000
239.046200 250175.100000
243.040500 7621.600000
255.041700 14540.000000
255.077600 5537.500000
256.049400 23735.200000
257.056800 1577788.100000

>ms2peaks
65.039700 3392.500000
65.998600 30425.700000
66.034900 65328.100000
67.018900 14790.600000
68.014200 25960.700000
69.034400 3112.000000
71.013900 24751.500000
76.019400 5075.900000
78.034900 50198.100000
81.022100 43722.700000
90.034900 12233.700000
91.019100 15516.200000
91.030200 54104.600000
92.014200 43460.500000
93.034700 10310.800000
93.046100 6329.600000
94.029900 1613081.500000
95.013800 19152.000000
96.009200 7546.800000
106.029800 105027.500000
107.037700 1045913.600000
108.045500 999509.100000
109.016800 27385.800000
109.029500 7870.700000
116.050500 3376.300000
117.046000 17644.700000
118.029900 1442358.100000
119.025000 178756.200000
120.009100 6524.000000
121.029900 3072.800000
122.024800 27185.000000
132.009300 8869.300000
134.024800 912189.400000
135.032600 47042.600000
136.040400 691934.400000
137.035400 4746.900000
142.066100 4150.600000
143.061400 4950.900000
144.045300 8194.500000
146.024800 31767.400000
152.035500 29402.100000
154.053500 2655.300000
155.061300 13142.100000
157.053200 10511.600000
158.061100 53406.200000
162.019700 43957.000000
167.061400 5691.300000
168.045400 7148.900000
170.048500 4686.700000
171.056600 7834.100000
172.040800 3192.400000
182.048500 15089.000000
183.056300 151246.600000
184.040200 10423.400000
184.064100 46855.100000
185.072000 172831.100000
186.056200 16040.600000
195.056700 7792.700000
198.043200 4094.200000
199.051100 8746.900000
210.043600 13997.500000
211.051300 1194740.500000
213.067000 7732.400000
227.046300 42976.200000
228.054100 490326.400000
229.061800 408781.700000
239.046300 38862.900000
255.041900 5235.400000
256.048300 5817.100000
257.056800 79627.400000

>ms2peaks
50.003500 3037.200000
65.003300 4641.900000
65.039700 8941.100000
65.998500 67520.200000
66.034900 133501.800000
67.018900 41726.900000
68.014200 31371.400000
68.998300 3147.200000
69.034700 7607.700000
71.013800 18031.800000
76.019400 16402.500000
78.034900 99734.600000
80.050800 3073.000000
81.022000 13381.200000
81.034600 4211.900000
90.035000 44955.700000
91.019000 22333.400000
91.030200 80573.100000
92.014200 61590.700000
93.034600 21787.000000
93.045900 9722.100000
94.029900 1368515.000000
95.013800 48710.000000
96.009200 8679.800000
102.035200 3019.900000
106.029900 124282.100000
107.037700 1177145.500000
108.045500 794186.600000
109.016900 36315.600000
109.029500 6825.500000
117.045800 26363.000000
118.029900 1432109.900000
119.025000 287725.600000
121.029700 4929.900000
122.024800 22045.600000
134.024800 484498.200000
135.032600 34930.300000
136.040400 225109.600000
137.035900 3606.200000
142.066100 3050.500000
143.061800 4471.100000
144.045400 11489.800000
146.024700 32519.800000
152.035400 26937.400000
154.054000 4189.000000
155.061600 15171.800000
157.053300 9977.600000
158.061100 24757.300000
162.019700 7678.200000
167.061700 4083.100000
168.045400 5114.200000
171.056400 7265.900000
172.040900 3109.400000
182.048500 24497.700000
183.056400 85349.900000
184.040500 4618.900000
184.064100 22730.300000
185.071900 26747.100000
198.043400 4279.300000
199.051000 5405.300000
210.043500 11946.400000
211.051300 189611.600000
227.046200 9914.800000
228.054100 56954.100000
229.061700 30936.900000

>ms2peaks
50.003600 4588.700000
65.003300 15110.500000
65.039700 12174.600000
65.998600 116666.500000
66.035000 214711.500000
67.019000 73142.000000
68.014200 31803.800000
68.998200 3240.700000
69.034600 12325.400000
71.013900 9195.700000
76.019300 32881.700000
78.034900 176387.300000
80.050700 2794.900000
81.022200 5147.400000
81.034800 5049.700000
90.035000 102449.900000
91.019000 21700.300000
91.030200 102316.800000
92.014200 107187.200000
93.034700 24273.300000
93.045600 15513.600000
94.029900 1101471.600000
95.013800 51789.800000
96.009100 8630.900000
102.035000 8314.700000
106.029900 98993.900000
107.037700 1005321.700000
108.045500 541902.800000
109.016900 21824.400000
116.050800 3429.400000
117.045800 16302.800000
118.029900 1317840.400000
119.025100 361551.600000
121.029500 3049.800000
122.024700 10653.600000
132.008500 2437.300000
134.024800 214454.500000
135.032700 29914.800000
136.040400 62159.300000
137.036000 3950.400000
142.065800 2915.100000
143.061400 2841.100000
144.045500 7093.900000
146.024700 17020.400000
152.035300 19919.300000
154.053800 8394.600000
155.061300 9268.400000
157.053600 6226.300000
158.061200 5313.900000
168.045300 4856.000000
171.056900 6191.300000
182.048500 27948.400000
183.056400 46973.600000
184.040200 5803.900000
184.064400 5272.500000
185.071600 3159.100000
198.043700 3108.200000
210.043000 7172.300000
211.051300 22901.300000
228.053800 3791.600000

