>compound LU30177306
>parentmass 280.0591
>ionization [M-H]-
>formula C14H10F3NO2
>rt 1155.420000
>profile orbitrap
#smiles_iso C1=CC=C(C(=C1)C(=O)O)NC2=CC=CC(=C2)C(F)(F)F
#smiles_can C1=CC=C(C(=C1)C(=O)O)NC2=CC=CC(=C2)C(F)(F)F
#inchikey LPEPZBJOKDYZAD-UHFFFAOYSA-N
#pubchem_id 3371
#mb_accession LU036751,LU036752,LU036753,LU036754,LU036755,LU036756

>ms2
196.056900 30628.400000
216.063000 772978.100000
234.053400 124749.700000
236.069300 17877298.000000
248.052700 172500.000000
280.059100 20206820.000000

>ms2
176.050600 335511.500000
179.037600 34781.100000
196.056900 339261.600000
199.043800 75039.500000
207.032300 41764.300000
215.054800 62428.700000
216.063000 1634683.000000
227.038800 114891.700000
234.053900 481601.000000
236.069200 31546402.000000
248.052900 279133.800000
280.059100 2617395.200000

>ms2
62.988800 205947.500000
68.995700 154898.300000
155.037600 20580.500000
160.037600 57365.300000
166.066100 255548.700000
171.048900 17623.100000
176.050500 3198984.800000
179.037700 175060.600000
181.053300 314285.000000
183.032900 18443.600000
183.048900 21597.800000
196.056700 1016309.200000
199.043800 406783.200000
200.051700 116765.200000
207.032400 251332.400000
215.055100 292724.700000
216.062900 1566007.500000
217.053900 20022.400000
227.038800 845697.200000
234.053600 2166918.000000
236.069100 16382833.000000
248.052600 137422.600000
280.058800 29459.000000

>ms2
62.988800 350140.900000
68.995800 230102.000000
73.008500 31713.300000
92.050500 99134.400000
133.027300 21179.500000
139.042800 22279.200000
155.037800 31688.300000
160.038000 596400.000000
166.066200 663424.700000
167.038000 16277.600000
168.045600 25832.000000
170.040700 10533.000000
171.049100 34818.400000
175.042500 9188.000000
176.050600 8314287.000000
179.037700 374100.800000
180.045800 9499.000000
181.053400 698072.800000
183.032900 52653.200000
183.049000 38712.200000
186.035900 11505.700000
194.041000 256989.200000
194.061200 68538.500000
196.056800 1011508.000000
199.043900 851183.300000
200.051700 245480.400000
207.032600 557558.900000
214.047500 123984.000000
214.066600 44138.700000
215.055300 581311.800000
216.063000 882362.100000
217.054300 34790.900000
227.038900 1745973.500000
234.053600 4726115.500000
236.069200 5026303.000000
246.037900 11606.200000
248.052600 56551.300000

>ms2
62.988800 206499.700000
65.039700 11952.500000
68.995800 277799.400000
73.008400 173771.200000
74.003600 22754.500000
90.035000 21346.000000
92.050600 495432.800000
100.019300 18295.500000
101.039800 12268.800000
102.034900 24328.100000
116.050700 18405.800000
119.017800 10302.900000
120.025400 109860.100000
126.034800 12578.800000
133.027200 28069.700000
139.042600 10629.300000
140.031600 27484.800000
140.050700 30429.500000
150.034700 13741.500000
152.050800 18279.900000
155.037700 25647.200000
160.038000 1735391.500000
166.066200 710011.000000
167.037700 12647.700000
168.045300 38241.900000
170.041000 33037.400000
171.048900 25272.400000
174.035000 159039.900000
175.042900 13821.200000
176.050600 8171963.000000
179.037600 274713.000000
181.053300 376994.900000
183.032600 41097.900000
183.049000 28475.900000
186.036400 14690.400000
190.047600 33098.000000
194.041100 1445420.400000
195.048900 13541.600000
196.056800 353956.200000
198.036100 13748.600000
199.043900 587837.000000
200.051800 146749.900000
207.032600 368218.700000
210.019700 14209.000000
212.051700 17000.000000
214.047500 306775.000000
214.066300 15460.000000
215.055200 347877.400000
216.063000 193219.900000
217.054200 19361.300000
226.031000 13741.300000
227.038900 1182461.400000
234.053600 3517275.800000
236.069300 509461.400000
246.036800 11655.000000
248.054000 11864.800000

>ms2
62.988800 81767.800000
65.039700 32584.100000
68.995800 243782.200000
73.008400 297006.300000
74.003600 65780.900000
90.034900 52368.000000
92.050600 912368.600000
100.019300 105348.800000
101.039700 39135.500000
102.035000 46626.000000
116.050500 26867.600000
119.017700 14432.300000
120.025500 412680.000000
126.034800 43678.200000
133.026900 38948.400000
140.031800 60223.300000
140.050400 59925.400000
150.034900 34441.400000
152.050500 16647.100000
155.037800 11262.200000
160.038000 2254176.500000
166.066200 527779.500000
168.045500 57047.700000
170.041400 28532.800000
174.034900 771361.000000
175.042800 15300.000000
176.050600 4469794.000000
179.037700 103677.200000
181.053400 114057.200000
183.032600 31847.300000
190.047400 31511.200000
194.041100 1983135.000000
195.049200 25195.200000
196.056800 63956.400000
198.036100 15427.400000
199.043800 144564.600000
200.052000 53063.700000
207.032400 117679.500000
210.020100 12667.300000
212.051800 33670.300000
214.047500 184181.000000
215.055200 96749.700000
216.062700 19383.600000
226.030900 26290.600000
227.038800 396123.600000
234.053600 1242899.600000
236.069200 33173.000000

