>compound LU30658055
>parentmass 290.9541
>ionization [M-H]-
>formula C9H10BrClN2O2
>rt 1057.080000
>profile orbitrap
#smiles_iso CN(C(=O)NC1=CC(=C(C=C1)Br)Cl)OC
#smiles_can CN(C(=O)NC1=CC(=C(C=C1)Br)Cl)OC
#inchikey NLYNUTMZTCLNOO-UHFFFAOYSA-N
#pubchem_id 25912
#mb_accession LU131851,LU131852,LU131853,LU131854,LU131855,LU131856

>ms2peaks
78.918900 100386.700000
203.922100 909403.500000
229.901700 13921.400000
258.927600 33152.100000
275.930700 65026.600000
290.954300 118344.400000

>ms2peaks
78.918900 423392.100000
202.914300 4284.500000
203.922100 524298.800000
229.901600 9335.100000
258.927900 40587.300000
275.930600 37207.900000
290.954600 3701.200000

>ms2peaks
78.918900 819820.800000
202.914600 5296.500000
203.922100 150515.300000
229.901400 3500.300000
258.928000 37649.600000
275.931100 3363.900000

>ms2peaks
78.918900 966234.400000
203.922200 20939.500000
243.905300 1759.800000
258.927800 18412.700000

>ms2peaks
78.918900 870731.700000
203.922100 2944.100000
243.905100 2033.600000
258.928000 3495.100000

>ms2peaks
78.918900 808259.600000

