>compound LU31727768
>parentmass 324.0577
>ionization [M-H]-
>formula C12H9F6N3O
>rt 944.880000
>profile orbitrap
#smiles_iso C1=CC(=C(C=C1N(CC(=O)N)CC(F)(F)F)C(F)(F)F)C#N
#smiles_can C1=CC(=C(C=C1N(CC(=O)N)CC(F)(F)F)C(F)(F)F)C#N
#inchikey ZDYGKWOTFUOWOA-UHFFFAOYSA-N
#pubchem_id 11472813
#mb_accession LU081951,LU081952,LU081953,LU081954,LU081955,LU081956

>ms2peaks
113.015600 11076.600000
209.032900 3844.300000
236.043800 8548.300000
237.027600 4585.100000
264.038900 117445.300000
284.045200 1471772.000000

>ms2peaks
86.999900 3935.800000
93.009300 4073.200000
113.015700 148921.700000
170.022400 16162.900000
185.033400 9139.000000
195.017300 14522.900000
196.025500 5621.900000
199.031300 5053.500000
209.033200 48162.100000
210.017000 4521.100000
221.033200 4468.900000
224.020100 5939.400000
236.044100 23548.300000
237.028200 72982.100000
257.033900 8968.700000
264.039100 342121.200000
282.029600 2668.700000
284.045400 616682.200000

>ms2peaks
65.014600 6244.100000
65.998600 6949.400000
86.999900 2756.700000
93.009400 9377.500000
113.015700 141063.400000
169.020900 3337.600000
170.022400 28876.000000
185.033300 20955.500000
189.027200 6280.700000
194.022200 4424.500000
195.017600 39704.100000
196.025100 16244.500000
199.031500 6464.000000
209.033200 86357.700000
210.017300 20144.300000
211.012200 3172.700000
217.021900 12385.100000
221.033200 4358.700000
224.020500 7088.400000
236.044100 25050.500000
237.028200 109912.100000
257.034600 3212.100000
264.039100 182866.600000
282.029100 3106.400000
284.045300 42772.700000

>ms2peaks
65.014500 12784.900000
65.998500 8926.200000
68.995700 2606.200000
87.000100 2575.500000
93.009500 13961.900000
113.015700 88784.500000
149.014400 2892.700000
150.015900 5029.500000
168.026600 2206.000000
169.020700 24964.400000
170.022300 31013.700000
175.011300 8491.500000
176.018900 2378.100000
185.033200 27017.100000
189.026900 16147.900000
194.022100 6298.800000
195.017600 40942.600000
196.025000 8431.200000
199.031500 2479.600000
209.033200 71468.600000
210.017200 34873.700000
211.013000 2696.100000
217.021700 12518.800000
224.020100 3315.300000
236.044200 10631.800000
237.028100 41349.300000
264.039300 29750.500000
282.030300 3228.800000

>ms2peaks
65.014500 17372.800000
65.998500 14949.900000
68.995800 3551.700000
93.009500 11971.100000
100.019300 1651.600000
112.006800 2796.500000
113.015700 49399.400000
122.003700 7377.800000
130.009900 4151.500000
139.030400 3230.500000
149.014400 10832.100000
150.015700 10198.400000
162.016000 5214.100000
168.007100 2992.300000
168.026600 2815.000000
169.020700 38097.100000
170.022200 18112.300000
175.011200 18930.700000
176.019100 5680.400000
185.033300 30627.100000
189.027000 14904.900000
190.011800 2630.800000
194.022200 3941.500000
195.017800 14911.900000
196.025500 1990.400000
209.033300 31449.300000
210.017300 23588.900000
217.022000 4714.900000
236.044200 4668.400000
237.028300 9554.500000

>ms2peaks
65.014600 13811.900000
65.998600 17505.200000
93.009400 8819.100000
100.019500 2747.100000
112.006800 4625.200000
113.015700 16805.700000
122.003700 14621.500000
130.009900 8382.000000
139.030400 5484.800000
150.016100 6442.500000
162.016500 6665.000000
168.006700 1730.600000
169.020700 24189.700000
170.022300 4111.100000
175.011400 10614.700000
176.018800 3027.900000
185.033300 15149.700000
189.027300 3105.700000
190.011300 1827.800000
195.017600 1894.500000
209.033200 7381.400000
210.017600 5324.800000

