>compound LU31706858
>parentmass 384.8168
>ionization [M-H]-
>formula C9H4Cl6O4
>rt 1098.300000
>profile orbitrap
#smiles_iso C1(C(C2(C(=C(C1(C2(Cl)Cl)Cl)Cl)Cl)Cl)C(=O)O)C(=O)O
#smiles_can C1(C(C2(C(=C(C1(C2(Cl)Cl)Cl)Cl)Cl)Cl)C(=O)O)C(=O)O
#inchikey DJKGDNKYTKCJKD-UHFFFAOYSA-N
#pubchem_id 8266
#mb_accession LU024751,LU024752,LU024753,LU024754,LU024755

>ms2
248.892300 9414.500000
276.886800 31447.200000

>ms2
204.901600 3192.200000
232.896700 8939.900000
248.891800 13250.600000
276.886800 6033.500000

>ms2
176.907000 5699.800000
204.901900 5949.800000
232.896900 2694.300000
248.891900 2575.200000

>ms2
176.907100 8381.500000
204.901800 2214.200000

>ms2
176.907200 2765.900000

