>compound LU31090403
>parentmass 317.0819000000001
>ionization [M-H]-
>formula C20H14O4
>rt 919.740000
>profile orbitrap
#smiles_iso C1=CC=C(C=C1)OC(=O)C2=CC(=CC=C2)C(=O)OC3=CC=CC=C3
#smiles_can C1=CC=C(C=C1)OC(=O)C2=CC(=CC=C2)C(=O)OC3=CC=CC=C3
#inchikey FHESUNXRPBHDQM-UHFFFAOYSA-N
#pubchem_id 69779
#mb_accession LU118251,LU118252,LU118253,LU118254,LU118255,LU118256

>ms2peaks
93.034600 4432218.500000
209.042000 8887.200000
224.047900 62745.700000
272.084500 38311.500000
273.092200 305245.600000

>ms2peaks
93.034600 3581658.800000
180.058200 73587.500000
195.045400 6746.500000
197.061500 11603.800000
205.066100 7059.200000
223.040200 15191.900000
224.048000 59608.000000
227.086900 7701.800000
243.081400 31325.600000
245.097100 28084.100000
271.076300 12578.300000
272.084500 403635.900000
273.092300 554095.800000

>ms2peaks
65.039700 9596.400000
93.034600 2990618.500000
180.058000 140286.700000
195.044900 25795.000000
197.060800 44611.800000
205.065900 23710.900000
223.040100 38528.100000
224.048000 11409.800000
227.086900 6584.200000
230.073900 4762.000000
231.081600 6471.100000
243.081500 52977.000000
244.089200 16990.200000
245.097100 44602.600000
271.076400 41937.800000
272.084300 424934.400000
273.092200 97085.900000

>ms2peaks
65.039700 22636.500000
93.034600 2550914.800000
151.055500 6657.600000
169.066100 6430.700000
180.058200 40676.000000
195.045100 46877.400000
197.060800 32173.100000
204.058700 4116.900000
205.065900 17831.200000
223.040100 34917.000000
230.073300 3049.200000
243.081300 59673.300000
244.089600 10881.700000
245.096800 9865.100000
271.076500 80611.400000
272.084300 59013.900000
273.091700 4108.300000

>ms2peaks
65.039700 39025.900000
75.024000 2197.600000
93.034600 2143496.500000
151.055600 5864.100000
169.065700 2889.800000
180.058200 5085.600000
195.045100 58185.500000
197.060700 15380.700000
204.058200 5917.400000
205.066000 3716.000000
209.038200 4190.500000
215.086900 5585.500000
223.040300 19324.500000
230.073800 3243.000000
241.066300 3773.400000
243.081800 41407.000000
271.076600 85065.300000
272.084000 3619.900000

>ms2peaks
65.039700 63248.300000
75.024100 4123.700000
93.034600 1300735.800000
151.055700 2635.000000
169.065900 2209.200000
195.045100 39313.100000
197.061200 3825.300000
215.086600 6876.600000
223.040000 6379.400000
241.066200 3561.300000
243.081700 21529.700000
271.076700 33562.000000

