>compound LU31084524
>parentmass 369.8231
>ionization [M-H]-
>formula C7H3I2NO
>rt 1032.120000
>profile orbitrap
#smiles_iso C1=C(C=C(C(=C1I)O)I)C#N
#smiles_can C1=C(C=C(C(=C1I)O)I)C#N
#inchikey NRXQIUSYPAHGNM-UHFFFAOYSA-N
#pubchem_id 15530
#mb_accession LU069651,LU069652,LU069653,LU069654,LU069655,LU069656

>ms2
126.904900 2578825.500000
214.924600 47123.100000
242.919100 43375.900000
369.822900 40018328.000000

>ms2
64.019200 31278.400000
65.998600 31849.300000
76.019300 161285.600000
92.014200 115238.300000
104.014200 233167.500000
116.014200 169927.900000
126.905000 24685672.000000
214.923700 137379.100000
230.918600 169594.300000
241.910900 62295.900000
242.918500 199833.800000
369.823000 15885006.000000

>ms2
64.019300 92891.000000
65.998500 89135.400000
76.019200 87206.300000
91.006400 47871.900000
92.014100 106597.100000
104.014200 136438.300000
116.014200 640376.800000
126.905000 39382844.000000
214.923800 259961.800000
230.918600 402777.700000
241.910900 68398.300000
242.918800 70602.400000
369.823100 2398910.500000

>ms2
64.019200 71041.900000
65.003300 87069.500000
65.998500 107279.000000
88.019200 104667.700000
89.003200 93321.200000
92.014200 65914.600000
116.014200 1090180.600000
126.904900 49608264.000000
214.923900 212285.000000
230.918600 364791.300000
369.823100 269068.300000

>ms2
65.003300 162935.100000
65.998500 121934.800000
88.019300 262928.600000
89.003300 222424.300000
89.998500 61166.400000
116.014200 879409.700000
126.905000 44416268.000000
214.923700 65066.800000
230.918600 126358.800000

>ms2
65.003300 227724.100000
65.998500 157729.000000
88.019300 392385.300000
89.003300 367510.900000
89.998600 104020.700000
116.014100 529202.700000
126.905000 42454984.000000
230.918700 49261.000000

