>compound LU31959981
>parentmass 137.0357
>ionization [M-H]-
>formula C6H6N2O2
>rt 697.560000
>profile orbitrap
#smiles_iso C1=CC(=CC=C1N)[N+](=O)[O-]
#smiles_can C1=CC(=CC=C1N)[N+](=O)[O-]
#inchikey TYMLOMAKGOJONV-UHFFFAOYSA-N
#pubchem_id 7475
#mb_accession LU134051,LU134052,LU134053,LU134054,LU134055,LU134056

>ms2
93.034500 2332.200000
107.037600 117093.300000
108.021700 3542.300000
109.029400 5931.900000
137.035600 404075.200000

>ms2
93.034600 3349.200000
107.037700 52131.200000
108.021600 4110.400000
109.029600 4579.500000
137.035700 171231.200000

>ms2
93.034400 2452.600000
107.037700 20566.000000
137.035700 51925.600000

>ms2
93.034600 3149.900000
107.037700 24205.500000
137.035600 27225.400000

>ms2
93.034500 2611.200000
107.037600 13321.100000
137.035500 7069.300000

>ms2
93.034500 2660.200000
107.037700 2916.000000

