>compound LU31178321
>parentmass 429.07920000000007
>ionization [M-H]-
>formula C18H12F6N4O2
>rt 1066.350000
>profile orbitrap
#smiles_iso C1=CC(=CC(=C1)C2=NNC(=N2)C(=O)N)C3=C(C=CC(=C3)F)OCC(C(F)(F)F)(F)F
#smiles_can C1=CC(=CC(=C1)C2=NNC(=N2)C(=O)N)C3=C(C=CC(=C3)F)OCC(C(F)(F)F)(F)F
#inchikey OWSLGPREZQMVQP-UHFFFAOYSA-N
#pubchem_id 11270356
#mb_accession LU034251,LU034252,LU034253,LU034254,LU034255,LU034256

>ms2
326.054200 33078.000000
346.060900 196182.500000
366.067100 231318.600000
389.066900 141509.300000
409.073100 678137.900000
429.079100 4164640.000000

>ms2
68.995700 32433.800000
252.058300 2662.500000
276.057700 22761.300000
295.064300 3884.200000
326.054600 650373.100000
346.060800 334906.300000
366.067000 282306.200000
386.074100 5190.900000
389.066900 88017.500000
409.073000 104293.300000
429.079100 67895.700000

>ms2
68.995800 129915.900000
83.005200 2639.100000
92.025500 7856.900000
92.995800 17512.600000
108.990600 43844.600000
128.996800 10269.800000
208.057000 3809.200000
212.051400 7094.500000
224.051400 4279.600000
226.067400 4005.400000
230.041100 21795.200000
231.036300 8301.900000
233.052200 4513.600000
236.051200 4110.000000
236.063200 36350.600000
248.051500 8854.800000
254.073400 42638.800000
256.052000 7978.500000
258.033700 19273.500000
259.030900 11796.300000
260.062900 12535.600000
266.036200 2492.300000
269.041900 3666.700000
276.057600 84218.200000
279.037500 16934.400000
286.042000 35905.100000
295.021600 6245.100000
304.038900 8688.100000
306.048400 339269.200000
320.045000 15277.600000
326.054500 1763338.200000
346.060700 151823.200000
366.066700 39779.600000
389.065500 3744.800000

>ms2
68.995800 46820.800000
92.025400 3626.500000
92.995800 15612.800000
108.990700 61007.400000
128.996800 7423.000000
212.051400 11984.200000
223.036000 12225.900000
224.051300 3041.500000
226.067300 5341.100000
230.041100 64686.700000
231.036700 13152.800000
233.052200 2615.800000
236.063300 15985.500000
238.041600 4738.900000
248.051600 7410.500000
250.047300 37298.300000
251.031400 455358.000000
252.058000 50467.400000
256.051900 6013.200000
258.034400 26136.000000
259.031200 14057.700000
260.062900 8164.800000
269.042100 6200.000000
276.058300 14524.600000
278.040700 48688.700000
279.037200 6987.600000
286.042000 13132.100000
304.038900 13502.700000
306.048600 112759.900000
320.045400 4701.600000
326.054700 151392.400000
346.060200 8558.500000

>ms2
66.010000 3804.900000
68.995800 95941.700000
80.995800 19213.100000
83.005200 2198.700000
92.025700 9122.500000
92.995800 46999.000000
108.990700 214936.000000
128.997200 7025.700000
183.024100 7096.700000
203.030300 99661.800000
208.056800 9728.400000
210.034900 47106.900000
211.019200 4615.700000
224.051700 13067.000000
226.067500 5203.000000
229.033100 6534.500000
230.041200 147995.200000
231.025200 407878.400000
231.036400 42917.000000
236.051500 2765.700000
236.063200 9426.800000
238.041300 26749.600000
248.051600 6537.400000
250.047700 30633.500000
251.031400 759957.900000
252.057900 112468.100000
254.073200 6588.200000
266.036400 4391.200000
269.042300 6039.800000
276.057400 2985.900000
278.040100 16699.700000
279.037300 5905.500000
295.021200 23175.700000
306.048000 16427.200000
326.054700 12558.900000

>ms2
66.009800 3408.200000
68.995800 20853.900000
80.995800 8504.000000
92.025400 2455.300000
92.995800 13103.300000
108.990600 55722.800000
183.024000 12476.300000
203.030300 60617.500000
210.035000 17391.400000
211.019300 4935.100000
212.051500 13069.600000
223.036300 11054.700000
224.052100 3805.400000
229.033100 2468.100000
230.041200 18201.300000
231.025100 98893.900000
231.036200 7156.900000
238.041200 2580.900000
251.031400 50755.000000
252.058100 12448.500000

