>compound LU32168596
>parentmass 290.08559999999994
>ionization [M-H]-
>formula C15H17NO3S
>rt 673.760000
>profile orbitrap
#smiles_iso CCN(CC1=CC(=CC=C1)S(=O)(=O)O)C2=CC=CC=C2
#smiles_can CCN(CC1=CC(=CC=C1)S(=O)(=O)O)C2=CC=CC=C2
#inchikey BQGRVFPPZJPWPB-UHFFFAOYSA-N
#pubchem_id 66858
#mb_accession LU087951,LU087952,LU087953,LU087954,LU087955,LU087956

>ms2
79.957500 4829.900000
170.004100 229275.000000
201.994200 62037.200000
290.085700 3744009.800000

>ms2
79.957400 18734.200000
170.004300 2113438.200000
171.012200 21276.000000
201.994200 485224.500000
260.039100 6124.500000
290.085800 1913113.100000

>ms2
79.957000 49945.400000
121.029600 8261.500000
170.004300 2836844.200000
171.012200 11802.900000
201.994200 1055013.000000
260.038700 16932.500000
290.085700 140635.100000

>ms2
63.962400 2779.700000
79.957300 343128.600000
80.965000 3193.100000
95.013900 4530.100000
106.042400 8434.300000
107.050200 3103.700000
108.021700 13470.500000
121.029500 105647.900000
136.016800 2771.800000
137.024200 5704.800000
170.004300 2574243.000000
171.011800 6034.900000
201.994100 1077030.000000
260.038600 28535.900000
290.084900 2874.500000

>ms2
63.962500 5548.400000
79.957400 1101702.600000
80.965100 4745.100000
92.026800 8435.600000
95.013800 11029.700000
106.042400 21031.200000
107.050400 3050.800000
108.021700 25919.100000
109.029600 3678.400000
121.029500 215581.800000
136.016700 3538.000000
137.024500 11349.100000
155.988400 2899.500000
170.004300 1710810.200000
171.012500 3105.500000
196.077100 4907.600000
201.994200 417490.400000
260.038700 23807.400000

>ms2
63.962400 5248.300000
79.957400 2150649.200000
80.965100 15807.300000
95.013700 9826.100000
106.042300 11878.000000
107.050200 2465.000000
108.021700 23060.600000
121.029500 212216.500000
136.016400 4486.200000
137.024300 14160.400000
170.004300 644563.200000
196.076600 7384.300000
201.994200 249389.300000
260.039000 11164.000000

