>compound LU32952616
>parentmass 253.21729999999994
>ionization [M-H]-
>formula C16H30O2
>rt 1283.400000
>profile orbitrap
#smiles_iso CCCCCC/C=C\CCCCCCCC(=O)O
#smiles_can CCCCCCC=CCCCCCCCC(=O)O
#inchikey SECPZKHBENQXJG-FPLPWBNLSA-N
#pubchem_id 445638
#mb_accession LU105251,LU105252,LU105253,LU105254,LU105255,LU105256,LU138251,LU138252,LU138253,LU138254,LU138255,LU138256

>ms2peaks
253.217300 2531637.000000

>ms2peaks
253.217300 1662540.900000

>ms2peaks
143.050100 2393.000000
253.217400 111383.400000

>ms2peaks
63.024000 5949.800000
65.003300 3782.700000
143.050400 5180.800000

>ms2peaks
63.024100 8083.500000
65.003400 3340.600000
101.039900 1813.900000

>ms2peaks
63.024100 6704.800000
65.003300 3782.700000
101.039600 1465.500000

>ms2peaks
253.217300 2531637.000000

>ms2peaks
253.217500 618645.300000

>ms2peaks
253.217300 202409.300000

>ms2peaks
63.024000 5949.800000
65.003300 3782.700000
143.050400 5180.800000

>ms2peaks
63.024100 8083.500000
65.003400 3340.600000
101.039900 1813.900000

>ms2peaks
63.024100 6704.800000
65.003300 3782.700000
101.039600 1465.500000

