>compound LU32686959
>parentmass 239.06729999999996
>ionization [M-H]-
>formula C10H12N2O5
>rt 1130.520000
>profile orbitrap
#smiles_iso CCC(C)C1=C(C(=CC(=C1)[N+](=O)[O-])[N+](=O)[O-])O
#smiles_can CCC(C)C1=C(C(=CC(=C1)[N+](=O)[O-])[N+](=O)[O-])O
#inchikey OWZPCEFYPSAJFR-UHFFFAOYSA-N
#pubchem_id 6950
#mb_accession LU083851,LU083852,LU083853,LU083854,LU083855,LU083856

>ms2
193.025000 157858.900000
194.045800 762930.700000
209.069100 129214.400000
210.027600 106115.500000
221.056400 105961.300000
222.064700 134789.600000
239.067200 52778928.000000

>ms2
151.076200 102200.300000
179.071200 270806.700000
193.074200 77840.500000
194.045800 250174.700000
207.041100 1098651.600000
208.061400 68298.600000
209.069400 560603.900000
224.043800 275451.800000
239.067300 56987064.000000

>ms2
64.019200 86354.100000
65.014500 72840.000000
65.998500 111850.600000
67.019000 32265.800000
68.014200 20702.300000
77.039700 44567.100000
79.055400 61184.500000
80.050500 16860.500000
81.034600 19370.800000
94.029800 32837.300000
95.013800 33490.800000
105.070900 53448.100000
107.050200 14394.800000
107.086600 106447.000000
108.045600 16167.300000
109.016900 25492.800000
109.029700 13155.200000
121.029500 31053.000000
121.040700 36485.500000
122.024800 29968.700000
122.037300 61429.800000
123.032700 25106.700000
123.045300 26348.700000
130.066200 28577.300000
132.032900 127656.200000
132.045400 56241.500000
134.024500 61192.500000
135.081100 14477.400000
136.040300 218933.800000
137.011800 23639.200000
137.024700 14032.700000
138.019800 18009.800000
145.066300 15606.400000
146.048600 28312.700000
146.061300 25372.600000
147.044900 22904.100000
148.076800 16830.300000
149.035500 70909.000000
149.060700 43269.400000
150.032000 44947.900000
150.055800 30263.400000
151.076400 713277.800000
152.035400 78399.500000
160.040300 34553.100000
162.019600 41953.300000
162.055600 14125.300000
162.068700 34036.800000
163.027700 98760.400000
164.035500 163631.000000
164.047800 137302.300000
165.055600 34543.100000
166.014500 15029.300000
172.040300 17143.300000
174.055900 92882.900000
175.063500 18197.500000
176.035300 967174.200000
177.043200 195471.100000
177.055800 40338.800000
178.050900 423077.100000
179.071400 930928.800000
180.030200 681710.100000
181.037900 36727.000000
190.051100 124324.100000
191.058700 84587.700000
192.066700 2786709.800000
193.025400 8133370.000000
194.045800 11335331.000000
203.046200 35126.800000
204.053800 42261.500000
205.061700 41345.400000
206.032900 19771.600000
207.041100 1326041.900000
208.061400 497767.600000
209.020300 639544.100000
209.069300 756293.400000
210.028200 796402.400000
221.056800 774166.200000
222.064600 2121111.800000
224.044000 105858.700000
239.067300 12836898.000000

>ms2
55.018900 61966.200000
65.039700 56445.200000
65.998500 48310.200000
67.019000 29210.400000
80.026800 58017.400000
81.034600 56198.700000
81.071000 50974.900000
91.055300 350032.100000
93.034600 26854.700000
95.013800 39902.800000
95.050200 32128.300000
107.050200 68830.500000
107.086600 740228.800000
108.021600 35407.600000
109.029500 73533.000000
121.029600 32838.400000
123.008900 125674.000000
123.032500 782826.300000
123.045400 49896.400000
134.024900 30444.600000
135.045100 198417.400000
135.081600 54801.900000
136.053000 320763.800000
139.027600 45022.300000
147.045000 64828.400000
148.040100 85991.900000
149.048100 262434.900000
150.056000 1181810.000000
151.027500 485896.300000
151.076400 3146721.800000
155.022300 31169.500000
162.019700 147850.200000
162.068700 30068.200000
163.039900 102863.100000
164.035700 170692.000000
164.047500 96263.400000
164.071700 1218034.100000
165.079600 44388.700000
166.014600 226685.600000
166.051000 380684.100000
176.035300 981242.600000
177.043200 917222.600000
178.051000 1551703.000000
179.071300 1866079.400000
183.017400 50088.300000
192.030800 28039.100000
192.066700 262308.600000
193.025500 329380.300000
193.036400 30524.300000
193.074500 166491.500000
194.045800 1747921.600000
206.033500 53178.200000
207.041100 23515562.000000
208.061400 826925.800000
209.069200 952878.100000
223.036100 162574.700000
224.043900 492337.700000
239.067300 7017276.500000

>ms2
55.018900 233497.500000
64.019300 20344.000000
65.003300 16640.400000
65.039600 163750.800000
65.998400 75780.800000
66.035000 42774.400000
67.018900 50629.400000
68.998200 53931.800000
77.039700 38712.100000
79.055300 57039.400000
80.026800 96693.900000
81.034600 63712.300000
81.071100 89468.000000
91.055300 945556.700000
93.034800 68617.700000
95.013900 52061.400000
95.050400 99587.900000
107.050200 197722.200000
107.086600 445349.800000
108.021700 128049.800000
108.045500 68354.700000
109.016900 34724.900000
109.029600 71660.800000
119.050200 46436.100000
121.029500 147857.300000
122.037400 24974.800000
123.008900 88386.900000
123.032600 817278.300000
123.045200 80618.300000
128.050500 19471.100000
131.050300 16092.200000
134.024700 242053.600000
135.045200 572737.800000
135.081600 28661.700000
136.053000 822048.300000
139.027500 96417.000000
146.025000 38778.400000
146.037500 29663.800000
147.045100 85838.900000
147.081800 14802.400000
148.040500 358548.000000
149.048200 2092235.400000
150.056000 2084581.600000
151.027600 324677.800000
151.076400 2372580.500000
155.022400 51019.100000
160.040200 95720.200000
162.019700 1154671.100000
163.027500 37833.000000
163.040100 307009.500000
164.035500 926699.700000
164.047200 160473.700000
164.071700 2043107.600000
166.014800 83949.000000
166.051000 168948.400000
168.043100 51599.000000
176.035300 4905338.500000
177.043100 2200723.500000
178.051000 1589764.900000
179.071400 494344.500000
180.030100 30155.800000
183.017100 37897.300000
192.030100 15940.900000
192.066800 232831.700000
193.025900 150168.300000
193.037200 122189.700000
193.074500 35387.700000
194.045900 836437.600000
207.041100 13837946.000000
208.061500 377934.200000
209.019700 19803.300000
209.069200 99111.000000
223.036300 120431.600000
224.043500 41538.000000
239.067400 533625.900000

>ms2
55.019000 15320.200000
64.019300 69133.500000
65.003200 44498.300000
65.014600 13800.300000
65.039700 89943.100000
65.998500 164664.400000
67.018900 55740.800000
68.014300 18858.200000
68.998200 84249.500000
75.024000 35189.100000
76.019300 30809.800000
77.039700 1017354.600000
78.035100 17245.300000
79.018900 22051.800000
79.055300 36810.900000
81.034600 78601.000000
81.071000 56390.500000
83.050200 19269.600000
90.035000 27502.100000
91.055300 89655.200000
92.026700 37725.100000
93.034600 329754.900000
94.030000 57319.200000
95.013800 25613.900000
95.050100 20440.600000
103.055300 126528.900000
104.027000 48068.000000
104.050600 14581.300000
105.022000 22761.000000
105.034600 81012.400000
107.050200 29303.300000
108.021800 73007.800000
109.029400 37414.200000
110.024700 25452.900000
114.034900 37880.300000
118.029800 34291.200000
119.050200 32533.300000
121.029500 852544.500000
122.024800 61294.500000
122.037300 423403.100000
123.045100 109353.100000
125.011800 21212.200000
131.037700 19409.100000
132.021600 62418.200000
132.045200 56310.400000
133.029600 81160.700000
134.024800 10526021.000000
135.032600 510453.900000
135.045000 267627.200000
136.040300 656012.300000
136.052600 63294.100000
137.024400 36349.200000
138.019600 390179.800000
140.035500 66293.700000
145.029600 160587.900000
145.065900 24723.500000
146.024800 128203.100000
146.037300 255996.400000
147.045200 250113.000000
148.040500 468362.200000
148.052800 86276.000000
149.024400 430206.800000
149.048000 64847.500000
150.032100 80561.900000
150.056100 154392.700000
151.027500 213157.100000
151.039700 27915.400000
151.076400 229512.900000
152.035400 14870.800000
154.027100 29962.900000
159.032200 61757.400000
159.045200 12040.300000
160.040400 170672.700000
162.019700 1311562.600000
163.027600 515801.300000
163.039800 216545.800000
164.035500 246548.300000
164.047800 324587.300000
166.014400 24550.100000
174.056000 34872.100000
175.028000 26876.500000
176.035300 1043798.000000
177.043200 368696.600000
178.051000 650202.100000
179.022400 272253.100000
179.071100 15253.600000
180.030300 71084.000000
190.051200 55862.100000
192.066700 210643.500000
193.025500 1161294.200000
194.045900 637064.700000
207.041300 121491.900000
208.061600 37395.500000
209.020400 585838.000000

