>compound LU32277040
>parentmass 136.0404
>ionization [M-H]-
>formula C7H7NO2
>rt 729.060000
>profile orbitrap
#smiles_iso C1=CC=C(C=C1)C(=O)NO
#smiles_can C1=CC=C(C=C1)C(=O)NO
#inchikey VDEUYMSGMPQMIK-UHFFFAOYSA-N
#pubchem_id 10313
#mb_accession LU090851,LU090852,LU090853,LU090854,LU090855,LU090856

>ms2
92.050600 79382.100000
93.034500 1540.500000
136.040500 7509.600000

>ms2
92.050600 82039.000000
136.040200 6815.900000

>ms2
92.050600 82486.000000
136.040600 2217.500000

>ms2
92.050600 55592.700000

>ms2
92.050600 50174.500000
93.034500 1615.600000

>ms2
92.050600 30333.300000
93.034500 1496.200000

