>compound LU32458643
>parentmass 373.1194
>ionization [M-H]-
>formula C22H18N2O4
>rt 1114.500000
>profile orbitrap
#smiles_iso CC1(C(=O)N(C(=O)O1)NC2=CC=CC=C2)C3=CC=C(C=C3)OC4=CC=CC=C4
#smiles_can CC1(C(=O)N(C(=O)O1)NC2=CC=CC=C2)C3=CC=C(C=C3)OC4=CC=CC=C4
#inchikey PCCSBWNGDMYFCW-UHFFFAOYSA-N
#pubchem_id 213032
#mb_accession LU040351,LU040352,LU040353,LU040354

>ms2
133.040800 14490.400000
282.077300 114519.500000
329.129700 80219.900000
373.119500 535125.100000

>ms2
92.050500 2336.100000
93.034500 2342.200000
105.034600 3105.200000
117.045900 12856.100000
121.029400 6754.000000
123.045200 3477.500000
133.040800 38030.700000
195.081400 5789.900000
224.084400 5886.500000
282.077300 236961.800000
329.129500 31687.000000
373.119200 9578.900000

>ms2
59.013900 6010.300000
92.050700 4993.500000
93.034700 2057.000000
105.034500 3829.400000
117.046000 13574.400000
121.029600 9846.000000
123.044600 1714.900000
133.041000 14889.500000
195.082000 4027.700000
224.084300 2381.800000
282.077300 49008.500000

>ms2
59.013900 4892.600000
92.050500 3334.400000
93.034700 2068.600000
117.045900 7500.200000
121.029200 2266.800000
282.076500 1720.500000

