>compound LU32578350
>parentmass 222.1136
>ionization [M-H]-
>formula C12H17NO3
>rt 863.100000
>profile orbitrap
#smiles_iso CCOC1=CC=C(C=C1)NC(=O)CC(C)O
#smiles_can CCOC1=CC=C(C=C1)NC(=O)CC(C)O
#inchikey LIAWQASKBFCRNR-UHFFFAOYSA-N
#pubchem_id 14130
#mb_accession LU077051,LU077052,LU077053,LU077054,LU077055,LU077056

>ms2
83.013800 6224.300000
85.018100 4405.600000
107.037600 53207.100000
136.076700 156401.800000
178.087300 71506.000000
180.066600 3169.000000

>ms2
83.013900 8925.500000
85.018100 5695.100000
107.037700 156434.200000
136.076800 160684.800000
178.087200 11714.500000
180.066700 2441.400000

>ms2
83.013900 9327.000000
85.018100 4969.200000
107.037700 469259.400000
136.076800 68386.000000

>ms2
83.013900 5027.400000
85.018100 3680.500000
107.037700 570150.400000
136.076900 7631.400000

>ms2
83.013800 3438.500000
107.037700 587444.200000

>ms2
107.037700 438551.700000

