>compound LU32402295
>parentmass 206.0493
>ionization [M-H]-
>formula C7H13NO4S
>rt 352.360000
>profile orbitrap
#smiles_iso CC(C)(CS(=O)(=O)O)NC(=O)C=C
#smiles_can CC(C)(CS(=O)(=O)O)NC(=O)C=C
#inchikey XHZPRMZZQOIPDS-UHFFFAOYSA-N
#pubchem_id 65360
#mb_accession LU087851,LU087852,LU087853,LU087854,LU087855,LU087856

>ms2peaks
70.029800 33536.200000
79.957000 51690.000000
80.965100 17418.600000
94.980800 4038.900000
135.012200 511860.100000
142.087300 6256.500000
206.049200 3240374.000000

>ms2peaks
70.029800 72845.000000
79.957200 93633.600000
80.965200 29088.000000
94.980900 7469.100000
135.012200 861861.400000
140.071600 2883.300000
142.087300 9127.300000
206.049300 2290531.000000

>ms2peaks
70.029900 212010.900000
77.965500 4357.700000
79.957400 559792.000000
80.965200 68845.300000
94.980900 10973.500000
96.960100 13620.800000
135.012200 1609725.800000
140.071700 4076.300000
142.087200 9287.100000
206.049200 670208.300000

>ms2peaks
64.970200 3410.100000
70.029800 447207.100000
77.965600 7172.000000
79.957300 2138622.800000
80.965200 139763.100000
94.980800 13504.600000
96.960100 33164.400000
135.012100 1584040.800000
140.071700 8468.900000
142.087200 4715.000000
206.049200 112061.400000

>ms2peaks
64.970200 2677.000000
70.029900 257598.800000
77.965500 4361.300000
79.957400 2015544.000000
80.965200 79107.100000
94.980800 3780.000000
96.960100 20836.200000
135.012200 401569.400000
206.049300 6061.300000

>ms2peaks
70.029800 199035.700000
77.965600 8728.900000
79.957400 2933524.800000
80.965200 90206.100000
94.981000 3448.300000
96.960100 29214.400000
135.012200 122572.000000

