>compound LU33382291
>parentmass 409.08750000000003
>ionization [M-H]-
>formula C18H19FN2O6S
>rt 956.400000
>profile orbitrap
#smiles_iso C1COCCC1(C(=O)NO)NS(=O)(=O)C2=CC=C(C=C2)OC3=CC=C(C=C3)F
#smiles_can C1COCCC1(C(=O)NO)NS(=O)(=O)C2=CC=C(C=C2)OC3=CC=C(C=C3)F
#inchikey ZBRHTUMWSDPCMI-UHFFFAOYSA-N
#pubchem_id 9866250
#mb_accession LU041651,LU041652,LU041653,LU041654,LU041655,LU041656

>ms2
78.973500 5563.600000
111.025200 4787.100000
112.040500 25180.300000
142.051000 187916.500000
144.066500 10915.200000
201.072000 4620.100000
251.018300 226878.300000
266.029300 4588550.000000
318.060400 64159.900000
409.087500 4111517.000000

>ms2
57.993300 10646.300000
63.962400 5509.200000
78.973300 3330.700000
79.981300 5019.800000
106.029900 3619.100000
107.037600 7342.900000
111.025200 3065.800000
112.040400 80532.500000
142.050900 69788.500000
144.066500 4112.000000
187.056600 9290.600000
201.072200 10862.500000
251.018300 109471.400000
266.029300 3007304.200000
318.060500 21960.200000
409.086900 15463.200000

>ms2
57.993400 21070.200000
61.970600 7892.900000
63.962400 10749.600000
77.965400 15002.900000
78.035000 38245.600000
78.973400 6054.100000
79.981200 63662.900000
93.034500 3278.300000
94.029900 13799.200000
95.030300 22293.000000
106.029800 86807.600000
107.037600 335469.100000
108.021700 10697.300000
110.024800 3148.600000
111.024800 11364.800000
112.040400 130705.100000
121.045700 2932.800000
142.051000 13026.700000
144.066400 5037.300000
147.061900 2966.600000
160.056900 14488.500000
161.040800 4584.600000
170.999600 7342.900000
172.007400 10173.800000
174.072400 6789.800000
175.056400 16496.100000
187.056400 57779.600000
200.051600 3649.800000
201.059600 13923.100000
201.072100 23261.400000
202.067300 167435.600000
231.046500 4974.300000
251.018300 37037.200000
266.029200 2918142.200000
318.060900 5881.600000

>ms2
57.993400 15961.700000
61.970600 50129.000000
63.962400 27199.300000
77.965500 63295.300000
78.035000 84941.000000
78.973400 21126.300000
79.981200 206897.800000
93.034600 2656.500000
93.960500 18465.600000
94.029900 10544.500000
95.030300 42564.500000
106.029800 69295.200000
107.037700 692517.800000
108.021700 38185.700000
110.024800 5888.400000
111.025100 43193.600000
112.040400 38315.900000
121.046000 6610.800000
147.061500 5853.400000
159.061700 2993.800000
160.056600 14420.600000
161.040900 4964.900000
170.999200 11812.200000
172.007300 13589.900000
174.072800 5965.900000
175.056500 18426.100000
187.056600 27193.300000
200.051800 3369.900000
201.059500 18762.600000
202.067400 79190.400000
203.051200 13003.700000
231.046100 2398.000000
266.029300 480952.800000

>ms2
57.993400 22881.900000
61.970600 195226.500000
63.962500 75826.300000
77.965600 146127.400000
78.034900 96851.200000
78.973400 66177.900000
79.981200 363569.600000
80.965200 6617.900000
93.034600 7801.400000
93.960500 42409.700000
94.029800 10342.600000
95.030300 44184.800000
106.029900 24591.800000
107.037700 773970.000000
108.021700 74830.800000
110.024700 2508.900000
111.025200 107533.800000
112.040400 17151.000000
121.046200 3940.200000
147.061400 5732.200000
159.061700 2382.800000
160.057100 9979.000000
161.040900 4833.000000
170.999800 7537.200000
172.007400 3897.900000
174.072500 2936.700000
175.056500 8075.300000
187.056500 8763.800000
201.059600 13679.400000
202.067300 11849.300000
203.051300 4918.800000
266.029300 50528.100000

>ms2
57.993400 15656.600000
61.970600 296371.900000
63.962500 119743.600000
77.965600 161759.700000
78.035000 45524.100000
78.973400 76044.900000
79.981200 263612.000000
80.965200 4506.700000
93.034700 7118.400000
93.960500 46552.800000
94.030000 3792.200000
95.030300 20878.400000
107.037700 352546.600000
108.021700 58190.500000
111.025200 121331.900000
112.040500 4718.900000
147.061800 2556.600000
266.030300 2589.400000

