>compound LU33419698
>parentmass 269.0543
>ionization [M-H]-
>formula C12H9F3N2O2
>rt 1057.990000
>profile orbitrap
#smiles_iso CC1=C(C=NO1)C(=O)NC2=CC=C(C=C2)C(F)(F)F
#smiles_can CC1=C(C=NO1)C(=O)NC2=CC=C(C=C2)C(F)(F)F
#inchikey VHOGYURTWQBHIL-UHFFFAOYSA-N
#pubchem_id 3899
#mb_accession LU136651,LU136652,LU136653,LU136654,LU136655,LU136656

>ms2
65.998500 921615.900000
82.029800 38947256.000000
107.025000 56463.800000
108.009000 82173.200000
160.037900 3489856.500000
227.043700 77245.600000
269.054400 22823776.000000

>ms2
64.019300 45454.200000
65.998500 1630936.900000
82.029800 44790540.000000
107.025000 67640.000000
108.009000 73045.800000
160.037900 8028170.000000
227.043700 74745.700000
269.054400 5668632.500000

>ms2
64.019200 110408.700000
65.998600 2638254.500000
82.029800 39769060.000000
100.019300 42962.500000
120.025600 62157.200000
138.036200 182857.000000
140.031800 82394.900000
160.038000 12635535.000000
185.033000 50083.200000
269.054400 268734.500000

>ms2
64.019200 241533.700000
65.998600 2997252.500000
82.029800 23854554.000000
90.034900 26418.500000
100.019400 225442.900000
107.024900 39089.100000
120.025500 263602.800000
138.036000 356964.000000
140.031700 211935.800000
160.037900 7635952.000000
185.033100 56230.700000

>ms2
50.003500 17948.400000
64.019300 426537.300000
65.014600 32273.100000
65.998500 3205777.500000
74.003700 23143.500000
82.029800 12071861.000000
100.019300 552165.800000
107.024900 24707.200000
120.025500 465036.400000
138.036100 247456.600000
140.031600 172437.800000
145.020600 39118.900000
160.037900 2445674.200000

>ms2
64.019300 507792.700000
65.003300 7381.400000
65.014600 36338.000000
65.998500 3033901.200000
74.003600 92676.900000
82.029800 4985939.500000
83.014200 8552.400000
100.019400 824398.400000
107.025400 7228.700000
117.034600 38702.500000
120.025500 472706.400000
138.036100 109036.600000
140.031700 74748.600000
145.021000 26728.800000
160.038000 507362.900000

