>compound LU33093415
>parentmass 492.1365
>ionization [M-H]-
>formula C23H28ClN3O5S
>rt 1069.500000
>profile orbitrap
#smiles_iso COC1=C(C=C(C=C1)Cl)C(=O)NCCC2=CC=C(C=C2)S(=O)(=O)NC(=O)NC3CCCCC3
#smiles_can COC1=C(C=C(C=C1)Cl)C(=O)NCCC2=CC=C(C=C2)S(=O)(=O)NC(=O)NC3CCCCC3
#inchikey ZNNLBTZKUZBEKO-UHFFFAOYSA-N
#pubchem_id 3488
#mb_accession LU121151,LU121152,LU121153,LU121154,LU121155,LU121156

>ms2peaks
170.001500 939995.400000
196.007700 5746.700000
196.044000 7519.400000
367.052400 2954833.200000
378.032100 205746.800000
460.110500 771955.100000
492.136600 5161704.500000

>ms2peaks
64.970300 11896.700000
78.973400 12418.300000
107.976100 12609.500000
126.995600 246027.600000
151.990900 76218.400000
170.001400 8641495.000000
184.043700 77410.300000
196.043800 74362.000000
207.023600 17798.900000
224.049800 96172.100000
225.033900 30787.300000
250.029500 10945.100000
367.052400 703917.600000
378.032100 570806.600000
460.110200 99515.000000
492.136700 42383.700000

>ms2peaks
63.962400 53803.300000
64.970300 39272.600000
78.973400 121817.900000
79.957400 8709.600000
80.965200 40534.100000
93.960500 62759.900000
107.976100 171700.100000
111.000700 13892.900000
116.014200 62182.500000
126.995600 1967019.500000
130.053700 8343.700000
132.081900 41499.600000
151.990900 524321.700000
154.009400 120115.900000
169.020400 20528.100000
170.001400 6526600.000000
182.001400 60414.200000
182.028100 9423.000000
184.043700 181323.800000
185.999200 40195.600000
196.007700 10511.100000
196.043800 40260.000000
201.010200 9094.700000
207.023500 23285.800000
224.049900 276451.200000
225.034000 88706.300000

>ms2peaks
61.970600 26228.500000
63.962400 181752.000000
64.970300 41476.000000
74.003600 12715.300000
77.965500 6749.900000
78.973400 241381.600000
79.957300 10992.300000
79.981200 25271.700000
80.965200 58847.200000
91.019000 17224.500000
92.989000 8075.100000
93.960500 134322.700000
103.968800 4181.800000
106.042500 24951.000000
107.976100 183396.600000
111.000600 12257.600000
116.014200 170864.800000
118.066200 16129.500000
121.029300 2678.800000
123.092800 9306.900000
126.995600 2483712.000000
130.053600 6897.200000
132.081800 30626.000000
138.032400 3119.600000
151.990900 554817.600000
154.009400 292158.300000
154.990500 3572.300000
169.020300 87361.600000
170.001400 1560143.400000
182.001400 19030.300000
182.028200 9285.300000
184.043800 35220.300000
185.999200 81846.100000
194.015500 33197.000000
201.010200 29748.900000
207.023400 11029.800000
224.049800 119435.600000
225.034000 50482.800000
226.005300 8088.100000
250.029200 2714.300000

>ms2peaks
61.970600 73279.100000
63.962400 502507.000000
64.970300 51387.100000
65.998500 7487.700000
74.003600 46507.200000
77.965500 23855.200000
78.973400 326365.900000
79.957400 5309.500000
79.981200 56130.000000
80.965200 51828.900000
88.019200 5614.700000
91.019000 50817.900000
92.989100 3245.600000
93.034600 3456.200000
93.960500 178451.600000
103.968500 7356.500000
106.042400 48574.900000
107.976100 90353.700000
108.021700 19058.800000
111.000700 8926.100000
116.014200 261893.700000
118.066200 32473.000000
121.029300 12097.300000
123.092700 13278.500000
126.995600 2025239.000000
130.053500 9423.100000
132.081600 13868.900000
138.032200 6955.000000
151.990800 434984.600000
154.009400 275498.900000
169.020300 100131.100000
170.001400 279921.400000
182.001300 3427.800000
184.043600 3197.500000
185.999200 85504.600000
194.015400 69939.100000
201.010100 28647.200000
207.022800 4054.700000
224.050000 31599.800000
225.034200 10559.000000
226.005200 8561.400000

>ms2peaks
61.970600 111265.800000
63.962500 609399.400000
64.970300 33786.400000
65.998500 19461.100000
74.003700 83629.100000
77.965500 22640.000000
78.973400 204203.700000
79.957400 2880.400000
79.981200 54973.800000
80.965200 23308.300000
88.019300 12035.000000
91.018900 48435.600000
93.034700 4180.100000
93.960500 131730.000000
103.968800 2947.400000
106.042400 20741.100000
107.976100 23968.600000
108.021800 9673.500000
111.000900 4171.000000
116.014200 154556.700000
118.066100 16620.600000
121.029600 14965.100000
123.092800 10848.200000
126.995600 629933.500000
130.053600 5937.300000
138.032000 3766.300000
151.990900 180209.900000
154.009500 64229.300000
169.020400 27302.000000
170.001300 23099.300000
185.999200 23982.900000
194.015400 31006.000000
201.010200 10495.300000
226.005600 6384.200000

