>compound LU33276939
>parentmass 267.0663
>ionization [M-H]-
>formula C16H12O4
>rt 1011.540000
>profile orbitrap
#smiles_iso COC1=CC=C(C=C1)C2=COC3=C(C2=O)C=CC(=C3)O
#smiles_can COC1=CC=C(C=C1)C2=COC3=C(C2=O)C=CC(=C3)O
#inchikey HKQYGTCOTHHOMP-UHFFFAOYSA-N
#pubchem_id 5280378
#mb_accession LU030151,LU030152,LU030153,LU030154,LU030155,LU030156

>ms2peaks
252.042800 2088753.100000
267.066300 20548230.000000

>ms2peaks
132.021200 36764.700000
135.009300 14748.000000
195.045500 15977.500000
208.053500 29019.200000
223.039800 46052.700000
224.047900 26421.900000
251.035100 59475.100000
252.042800 10919323.000000
267.066300 10004497.000000

>ms2peaks
91.018600 30723.500000
108.021500 35811.100000
132.021600 841422.400000
135.008700 204457.600000
153.019300 70386.300000
167.050200 21667.900000
180.057200 25018.100000
195.044900 339288.200000
196.052900 69619.600000
208.052900 488766.100000
223.040000 1694382.200000
224.047800 702254.100000
239.035300 27612.600000
251.035000 1458994.500000
252.042600 16978292.000000
267.066100 1107384.400000

>ms2peaks
65.003300 7563.400000
91.019000 333901.900000
104.026800 44796.000000
108.021700 90358.700000
117.034600 17807.600000
132.021700 2122791.800000
135.008800 872338.400000
153.019400 242499.900000
167.050300 121776.700000
168.058200 16984.300000
171.045300 26375.900000
180.058100 124219.300000
182.036800 6251.800000
183.045400 5614.400000
195.045200 1781381.800000
196.053100 134815.200000
198.032100 6372.000000
207.045300 17910.800000
208.053000 852662.700000
210.032600 18475.500000
223.040100 4717687.000000
224.048000 1107476.100000
239.035300 28151.200000
250.028500 8225.200000
251.035100 2862378.200000
252.042900 5003099.000000
267.066300 34329.300000

>ms2peaks
65.003300 27224.200000
67.018900 6344.600000
91.019000 1578863.400000
95.013800 9224.300000
104.026800 146734.000000
107.013800 12235.900000
108.021700 88667.300000
116.026800 19379.200000
117.034600 31458.800000
132.021700 2310371.000000
135.008800 1164777.400000
151.055500 12969.000000
153.019300 282265.200000
167.050200 382333.900000
168.058000 13445.100000
169.066100 12970.600000
171.045800 7170.700000
179.050200 31145.300000
180.058100 274296.700000
182.037000 9393.900000
183.045400 7942.700000
195.045100 3982505.500000
196.053100 79865.800000
197.060700 10691.200000
198.032400 10381.800000
206.037200 19502.300000
207.045200 35969.800000
208.053000 466210.200000
223.040100 4996228.000000
224.047900 427330.400000
250.027200 20726.500000
251.035000 2226561.200000
252.042800 649101.200000

>ms2peaks
65.003300 148580.700000
67.018900 17524.200000
91.019000 2804281.200000
95.013900 13683.900000
104.026800 175630.400000
107.013700 25894.900000
108.021700 45675.100000
116.026800 45240.700000
117.034600 62142.500000
132.021700 1322679.100000
135.008800 670205.400000
151.055400 35141.500000
153.019400 149549.300000
167.050300 1002191.300000
169.065900 36153.600000
171.045500 5181.800000
179.050400 56812.500000
180.058100 189167.100000
182.037200 21282.700000
183.045300 7291.900000
195.045100 4908917.000000
196.052800 20425.100000
197.060400 12966.400000
198.032100 5672.100000
206.037400 64614.900000
207.045400 36672.400000
208.053100 143205.300000
223.040100 2854052.500000
224.047900 59128.800000
250.027500 29204.000000
251.035000 946612.800000
252.043200 33154.900000

