>compound LU34040772
>parentmass 199.0167
>ionization [M-H]-
>formula C9H9ClO3
>rt 1027.260000
>profile orbitrap
#smiles_iso CC1=C(C=CC(=C1)Cl)OCC(=O)O
#smiles_can CC1=C(C=CC(=C1)Cl)OCC(=O)O
#inchikey WHKUVVPPKQRRBV-UHFFFAOYSA-N
#pubchem_id 7204
#mb_accession LU057951,LU057952,LU057953,LU057954,LU057955,LU057956

>ms2peaks
125.016300 45314.700000
140.003500 13461.700000
141.011300 6332875.500000
155.027000 75254.700000
199.016800 197523.500000

>ms2peaks
125.016300 46610.200000
140.003400 12395.000000
141.011300 6868239.500000
155.027000 58050.500000
199.016800 77073.000000

>ms2peaks
105.034600 8138.800000
121.029400 23279.500000
125.016200 35602.600000
140.003400 12106.300000
141.011300 6321909.000000
155.027100 12578.400000

>ms2peaks
105.034500 45764.800000
121.029500 71737.300000
125.016300 11872.200000
141.011300 4896747.500000

>ms2peaks
55.018900 3183.800000
77.039700 5140.800000
95.050300 5673.700000
105.034600 75291.300000
121.029500 113137.200000
123.045200 5972.700000
141.011300 2483703.800000

>ms2peaks
55.018900 8143.300000
77.039700 8751.900000
95.050200 6360.300000
105.034600 53382.000000
121.029500 76144.600000
123.045300 5969.500000
141.011300 667661.700000

