>compound LU34262261
>parentmass 210.06729999999996
>ionization [M-H]-
>formula C12H9N3O
>rt 183.720000
>profile orbitrap
#smiles_iso CC1=C(C=C(C(=O)N1)C#N)C2=CC=NC=C2
#smiles_can CC1=C(C=C(C(=O)N1)C#N)C2=CC=NC=C2
#inchikey PZRHRDRVRGEVNW-UHFFFAOYSA-N
#pubchem_id 4197
#mb_accession LU112251,LU112252,LU112253,LU112254,LU112255,LU112256

>ms2
143.061400 3981.900000
166.041100 5084.800000
167.061700 5492.700000
210.067200 3144119.500000

>ms2
65.998500 3353.000000
143.061600 16142.800000
166.041100 6282.300000
167.061500 21060.100000
168.056600 3294.100000
183.056600 3181.500000
194.036100 3944.700000
210.067300 2832121.000000

>ms2
65.014500 12573.900000
65.998500 25267.100000
90.034800 2817.300000
91.030100 2078.600000
93.009500 4014.100000
107.025100 23766.900000
116.050500 4842.600000
117.045800 13786.200000
118.029700 11539.700000
141.045900 22482.500000
143.061500 95110.500000
159.056600 5867.900000
166.041000 39869.600000
167.061500 151341.500000
168.056700 23111.500000
169.041000 2998.400000
182.072300 8336.500000
183.056300 13610.100000
194.035900 14618.200000
208.051400 5854.800000
210.067300 1522046.000000

>ms2
50.003600 3637.500000
64.019300 5276.600000
65.014500 73152.900000
65.998500 64525.000000
90.034900 20561.500000
91.030100 6290.200000
92.050600 2836.400000
93.009500 7950.400000
102.035000 4626.600000
107.025100 50309.200000
116.050600 44360.400000
117.045800 58923.200000
118.029800 29215.300000
133.040500 2620.600000
140.050400 4022.600000
141.045900 80178.500000
143.061400 147553.800000
159.056500 10788.100000
166.041100 185322.500000
167.061400 307477.500000
168.056700 58785.700000
169.040900 5114.600000
182.072400 19182.700000
183.056400 22417.000000
194.036000 36972.800000
208.051600 11539.900000
210.067300 651030.600000

>ms2
50.003500 2951.900000
64.019200 19088.100000
65.014500 95562.300000
65.998600 62470.900000
90.035000 52219.600000
91.030300 7128.500000
92.050500 9844.600000
93.009400 5807.000000
102.035300 2355.500000
107.025100 30133.800000
116.050600 73671.700000
117.045800 79188.800000
118.029900 31925.300000
140.037700 2453.600000
140.050700 6526.400000
141.045800 99217.000000
143.061500 71507.900000
159.056400 5067.100000
165.045800 3847.100000
166.041100 299492.900000
167.061500 220443.200000
168.056700 35559.800000
169.040500 5109.400000
180.056700 3430.600000
182.072000 13703.900000
183.056400 11932.500000
194.036000 41025.800000
208.051900 13101.300000
210.067300 121607.000000

>ms2
50.003500 9263.400000
64.019300 32999.000000
65.014500 121577.400000
65.998500 74947.300000
90.034900 108012.800000
91.030100 4862.200000
92.050600 11716.200000
93.009300 6471.500000
102.034900 5140.900000
107.025100 14987.900000
116.050600 98238.700000
117.045800 97665.700000
118.029800 27594.200000
133.040800 3187.500000
140.038000 4226.000000
140.050600 10996.900000
141.045800 109651.800000
143.061400 25768.400000
165.045600 8280.800000
166.041000 476711.800000
167.061400 118436.400000
168.056900 14906.800000
169.040900 2443.500000
180.056700 8853.500000
182.072100 6309.800000
183.056400 4743.100000
194.035900 38435.500000
208.051900 12078.700000
210.067300 23378.800000

