>compound LU34852009
>parentmass 440.1324
>ionization [M-H]-
>formula C19H19N7O6
>rt 660.240000
>profile orbitrap
#smiles_iso C1=CC(=CC=C1C(=O)N[C@@H](CCC(=O)O)C(=O)O)NCC2=CN=C3C(=N2)C(=O)N=C(N3)N
#smiles_can C1=CC(=CC=C1C(=O)NC(CCC(=O)O)C(=O)O)NCC2=CN=C3C(=N2)C(=O)N=C(N3)N
#inchikey OVBPIULPVIDEAO-LBPRGKRZSA-N
#pubchem_id 6037
#mb_accession LU045251,LU045252,LU045253,LU045254,LU045255,LU045256

>ms2
311.089800 45866.900000
396.143300 7785.000000
422.122100 16171.800000
440.132300 507153.900000

>ms2
128.035300 23562.000000
132.044400 3521.200000
136.040300 3809.700000
146.045900 6068.600000
162.042000 5679.300000
174.042300 3923.300000
175.050000 25626.100000
176.057700 6327.900000
177.103600 2285.300000
203.082700 2359.600000
207.039400 9612.200000
221.093600 10230.600000
267.099800 7286.200000
268.084400 6139.800000
293.079500 29607.200000
309.146300 2079.900000
310.106500 3400.300000
311.089900 135987.600000
334.142300 5283.900000
353.137000 16878.400000
378.132000 25556.600000
396.142400 87725.200000
422.121900 12360.700000
440.132500 41334.900000

>ms2
84.045500 3546.400000
92.050600 11239.700000
102.055900 7457.700000
119.036100 7311.000000
128.035400 20102.200000
132.044200 48902.300000
135.056600 15330.300000
136.040500 16098.800000
146.045900 7366.300000
147.056300 6001.300000
162.042200 9334.000000
164.033700 5312.200000
174.042000 5166.200000
175.050000 101296.200000
176.057700 7410.600000
177.103400 15163.400000
203.082800 10414.200000
207.039800 33301.200000
221.093500 18277.800000
267.100100 5929.000000
268.083900 4671.300000
293.079000 8197.300000
309.147500 2640.600000
310.105900 2821.200000
311.090000 24044.300000
334.142800 2054.400000
353.136300 6694.300000
378.130900 6839.500000
396.143200 3128.800000

>ms2
66.009800 7508.800000
84.045600 4978.700000
92.050600 26236.700000
102.056100 7469.800000
117.045800 4060.200000
119.036400 8503.200000
128.035400 7711.600000
132.044200 105750.300000
133.052000 6201.200000
135.056500 12745.600000
136.040500 10415.600000
146.045600 2345.200000
147.056400 4517.200000
162.042200 4659.800000
164.034100 13041.300000
175.050000 45111.500000
177.103400 7972.700000
203.083200 1887.900000
207.039700 13737.800000

>ms2
65.014600 2111.900000
66.009800 27417.400000
84.045500 2828.500000
92.050700 26554.000000
102.056000 8687.100000
105.033200 5890.300000
117.046000 4169.500000
119.036300 6276.000000
128.035500 3515.100000
132.044200 84461.600000
133.052100 4091.900000
136.040600 2598.300000
147.056700 2025.100000
164.033900 11120.500000
175.050000 7822.500000

>ms2
65.014600 2633.300000
66.009800 46806.000000
92.050600 23729.700000
102.056100 5342.500000
105.033200 4471.100000
117.045700 3678.900000
119.036300 4087.400000
132.044200 37554.800000
133.052100 3465.600000
135.056600 1858.000000
164.034000 2666.200000

