>compound LU35600733
>parentmass 214.0734
>ionization [M-H]-
>formula C10H9N5O
>rt 674.220000
>profile orbitrap
#smiles_iso C1=COC(=C1)CNC2=NC=NC3=C2NC=N3
#smiles_can C1=COC(=C1)CNC2=NC=NC3=C2NC=N3
#inchikey QANMHLXAZMSUEX-UHFFFAOYSA-N
#pubchem_id 3830
#mb_accession LU078151,LU078152,LU078153,LU078154,LU078155,LU078156

>ms2peaks
92.025400 3372.500000
107.036400 4693.200000
117.020200 14551.200000
121.040600 4392.600000
132.031900 5388.300000
133.039400 799995.700000
134.047200 855429.200000
144.031400 3506.800000
146.047100 8401.700000
158.047300 24927.300000
160.026500 6679.200000
160.062800 11638.600000
169.051800 6977.500000
170.047300 89785.400000
172.062500 7068.500000
173.034300 20398.100000
186.078600 82532.100000
187.062700 21019.600000
196.062900 423639.300000
199.049900 8520.100000
214.073500 3086542.800000

>ms2peaks
69.034600 5905.200000
92.025500 9609.000000
106.028400 4335.200000
107.036400 10826.400000
117.020500 26369.500000
119.036300 2676.500000
121.040900 5992.900000
132.031700 8066.200000
133.039400 1350661.500000
134.047200 1299360.000000
142.041200 5955.100000
144.031700 5386.800000
146.047300 19353.800000
158.047200 36312.000000
160.026300 13360.000000
160.063000 19464.200000
169.052200 15287.500000
170.047300 130302.900000
171.054600 2711.000000
171.067700 3082.900000
172.062900 13020.900000
173.034400 27144.900000
186.078500 110042.600000
187.062600 51366.600000
196.062900 493443.800000
198.055500 2246.100000
199.050000 8743.500000
212.058100 2463.900000
214.073500 1697144.800000

>ms2peaks
64.006500 2844.100000
65.014500 5490.700000
69.034600 14170.800000
79.017400 3081.600000
90.009600 3691.400000
92.025500 36475.300000
106.028500 28984.800000
107.012500 4860.000000
107.036300 54138.900000
117.020600 56595.400000
119.036100 5573.700000
121.040700 11774.100000
132.031600 78122.300000
133.039400 2153115.500000
134.047200 1425637.600000
142.041000 35739.500000
143.036100 5784.400000
144.031400 15933.700000
146.047200 28360.200000
158.047200 36904.600000
159.067300 3910.500000
160.026300 18402.100000
160.062800 27108.200000
169.051900 40231.600000
170.047300 118993.500000
171.054900 4038.400000
171.067600 2378.300000
172.062900 24063.300000
173.034200 15603.300000
184.063000 3985.100000
186.078500 86851.600000
187.062500 49575.100000
195.055000 3942.300000
196.062800 238935.100000
198.055000 3350.700000
199.050200 5439.200000
212.057500 3625.300000
214.073500 227409.200000

>ms2peaks
64.006500 4047.200000
65.014500 11778.500000
66.009700 15308.500000
69.034600 19487.600000
79.017700 18920.200000
90.009700 13984.700000
92.025400 98361.500000
93.045800 2648.300000
106.028500 145519.700000
107.012800 14935.200000
107.036300 206645.000000
117.020700 128715.800000
119.036200 12690.700000
121.040600 12468.900000
132.031600 430563.200000
133.039400 2233626.800000
134.047200 1161850.000000
142.041000 49378.200000
143.036300 9837.700000
144.031600 35728.100000
146.047200 28427.600000
157.039100 3057.600000
158.047300 19099.600000
159.067900 6062.600000
160.026500 15489.600000
160.062800 22232.700000
169.051900 33749.900000
170.047200 75340.500000
171.055500 3576.200000
172.063000 9977.600000
173.034100 6683.200000
184.062800 9359.800000
186.078500 33699.700000
187.062400 14888.800000
195.055500 6412.300000
196.062900 70637.800000
198.055300 2825.100000
199.049400 2252.500000
214.073700 18383.600000

>ms2peaks
64.006600 5099.300000
65.014500 37357.900000
66.009800 62944.100000
67.019000 2627.900000
68.025600 3646.200000
69.034600 10589.600000
78.009800 2050.900000
79.017600 66624.400000
80.025500 4739.400000
90.009800 29223.400000
91.030200 4618.100000
92.025400 175440.500000
93.045700 2880.200000
105.020800 9581.200000
106.028500 301124.500000
107.036300 387955.900000
115.030300 3308.700000
117.020700 273097.000000
119.036400 23884.500000
121.040700 7503.400000
132.031600 1027491.800000
133.039400 1625455.900000
134.047200 779863.900000
142.041100 41501.400000
143.036500 22112.000000
144.031500 41527.200000
146.047200 30121.300000
158.047000 12383.900000
159.068100 2601.900000
160.026500 10296.500000
160.062800 12417.400000
169.052200 14113.900000
170.047300 32918.800000
172.062700 3117.300000
184.063200 14782.800000
186.078800 8285.100000
187.062700 3300.500000
195.054900 3375.200000
196.063000 10686.900000

>ms2peaks
64.006700 9063.100000
65.014500 59090.200000
66.009800 207964.200000
67.019000 3105.200000
68.025400 10217.400000
69.034600 9607.400000
78.009800 9814.400000
79.017600 92785.000000
80.025400 8906.600000
90.009800 58616.000000
91.030200 4711.400000
92.025400 184184.700000
105.020600 32488.100000
106.028500 306474.400000
107.036300 347321.800000
115.030300 3967.300000
117.020700 314090.700000
119.036300 26959.200000
121.040700 4540.200000
132.031600 1110603.400000
133.039400 767870.700000
134.047200 325970.800000
142.041000 21986.000000
143.036300 16942.800000
144.031600 37370.100000
146.047200 19297.100000
157.039200 2641.500000
158.047200 6893.600000
160.063000 5476.100000
169.052200 6357.300000
170.047000 14115.200000
184.063200 11713.900000

