>compound LU35106525
>parentmass 231.07749999999996
>ionization [M-H]-
>formula C12H12N2O3
>rt 952.560000
>profile orbitrap
#smiles_iso CCOC(=O)C1=NN(C(=O)C1)C2=CC=CC=C2
#smiles_can CCOC(=O)C1=NN(C(=O)C1)C2=CC=CC=C2
#inchikey WBFXQKNQVZMOSQ-UHFFFAOYSA-N
#pubchem_id 66636
#mb_accession LU088451,LU088452,LU088453,LU088454,LU088455,LU088456

>ms2peaks
65.998500 59119.600000
116.050500 36498.900000
117.045700 31146.800000
157.040600 56842.100000
159.056400 131712.600000
203.046100 19079.100000
231.077400 2505908.800000

>ms2peaks
65.998500 45363.900000
116.050600 40587.300000
117.045800 39003.800000
157.040700 59179.400000
159.056300 51405.100000
203.045900 4556.100000
231.077500 443655.800000

>ms2peaks
65.998500 227358.900000
92.050600 7556.600000
112.040400 6363.700000
116.050600 236502.700000
117.045800 225595.100000
157.040700 449578.000000
159.056300 49366.400000
174.043500 7064.900000
231.077400 162846.400000

>ms2peaks
65.998500 267022.100000
92.050600 16090.500000
101.039800 3317.300000
112.040400 18819.300000
116.050600 262553.300000
117.045800 273019.800000
157.040700 586734.200000
159.056200 5579.900000
174.043600 3921.800000
231.077700 10302.900000

>ms2peaks
65.998600 190018.600000
92.050600 7733.600000
101.039700 3699.000000
112.040300 6176.400000
116.050600 93925.500000
117.045900 146023.900000
156.032900 1918.900000
157.040800 231140.300000

>ms2peaks
65.998500 313847.900000
92.050600 15255.900000
101.039700 2973.900000
112.040300 8309.100000
116.050600 71038.200000
117.045800 192085.600000
156.032900 5117.800000
157.040700 165082.900000

