>compound LU35699853
>parentmass 402.8426
>ionization [M-H]-
>formula C13H6Cl6O2
>rt 1252.020000
>profile orbitrap
#smiles_iso C1=C(C(=C(C(=C1Cl)Cl)CC2=C(C(=CC(=C2Cl)Cl)Cl)O)O)Cl
#smiles_can C1=C(C(=C(C(=C1Cl)Cl)CC2=C(C(=CC(=C2Cl)Cl)Cl)O)O)Cl
#inchikey ACGUYXCXAPNIKK-UHFFFAOYSA-N
#pubchem_id 3598
#mb_accession LU130751,LU130752,LU130753,LU130754,LU130755,LU130756

>ms2
194.917600 84700.800000
366.865900 134229.800000
402.842700 404175.200000

>ms2
194.917700 323708.600000
302.894700 12934.900000
366.866000 114879.500000
402.842000 12781.500000

>ms2
158.941100 21701.300000
194.917700 273243.200000
302.894300 23054.400000
366.865600 4135.400000

>ms2
132.961900 2290.300000
158.941000 89057.500000
194.917700 130025.700000
302.894100 7193.200000

>ms2
122.964300 3905.200000
132.961400 2568.400000
158.941000 93214.100000
194.917600 38354.800000

>ms2
122.964400 5281.400000
158.940900 41635.100000
194.917900 5134.200000

