>compound LU35522932
>parentmass 197.0608
>ionization [M-H]-
>formula C13H10O2
>rt 970.920000
>profile orbitrap
#smiles_iso C1=CC=C(C=C1)C(=O)C2=CC=CC=C2O
#smiles_can C1=CC=C(C=C1)C(=O)C2=CC=CC=C2O
#inchikey HJIAMFHSAAEUKR-UHFFFAOYSA-N
#pubchem_id 8348
#mb_accession LU113451,LU113452,LU113453,LU113454,LU113455,LU113456

>ms2peaks
197.060900 216461.600000

>ms2peaks
197.060800 230323.600000

>ms2peaks
91.018800 3015.600000
108.021600 2203.900000
197.060800 204157.200000

>ms2peaks
91.019000 9577.700000
95.013900 3587.700000
108.021700 8194.800000
169.066200 5322.200000
195.045200 2685.500000
197.061000 113681.000000

>ms2peaks
91.019000 10579.100000
95.014000 5857.000000
108.021800 9815.800000
169.066000 4710.100000
195.045100 2305.100000
197.060900 31144.000000

>ms2peaks
91.018900 9050.600000
92.026800 1717.400000
95.013700 10365.500000
108.021800 13312.000000
195.045000 2149.600000
197.061200 8041.400000

