>compound LU36810830
>parentmass 454.0787
>ionization [M-H]-
>formula C20H17ClF3N3O4
>rt 1102.140000
>profile orbitrap
#smiles_iso C1CN(CCC1C(=O)O)C2=C(C=C(C=C2)F)NC(=O)NC(=O)C3=CC(=C(C=C3Cl)F)F
#smiles_can C1CN(CCC1C(=O)O)C2=C(C=C(C=C2)F)NC(=O)NC(=O)C3=CC(=C(C=C3Cl)F)F
#inchikey KAJJGOCSAXKXBD-UHFFFAOYSA-N
#pubchem_id 12148754
#mb_accession LU063251,LU063252,LU063253,LU063254,LU063255,LU063256

>ms2
112.985400 4411.400000
135.036800 2378.800000
189.987800 218215.000000
219.093900 2342588.200000
263.083800 842039.100000

>ms2
92.050500 7325.700000
112.985800 18184.000000
113.989000 5019.100000
135.036500 9732.100000
151.031300 199272.400000
189.987800 46823.700000
219.093900 2601133.800000
263.083600 6109.300000

>ms2
92.050500 5379.300000
112.985600 9990.900000
113.989100 3556.800000
125.052100 3490.000000
135.036400 89825.200000
150.023600 21950.600000
151.031300 501525.000000
161.051800 3124.900000
163.031300 6174.300000
165.046600 5902.400000
176.039000 2795.200000
177.083300 2810.900000
189.083400 3504.100000
191.098800 5404.400000
199.068100 3881.400000
199.087700 7602.400000
201.083400 12973.000000
219.093900 1978258.800000

>ms2
69.034600 2915.100000
92.050700 2392.600000
103.030100 3095.700000
110.041300 4577.900000
112.985600 2719.400000
124.044000 12176.100000
125.052000 8928.500000
131.025000 18782.500000
134.041200 4120.700000
135.036400 244020.200000
148.044300 5628.700000
149.051700 10049.300000
150.023500 88581.000000
151.031300 613618.200000
161.052300 11673.100000
163.031400 18560.400000
165.046900 17431.900000
175.067500 2601.100000
176.039200 20987.800000
177.083400 4416.900000
180.034300 9932.700000
189.083200 13504.200000
191.099100 6258.800000
199.087700 7692.900000
201.083400 11361.600000
219.093900 822696.700000

>ms2
50.003600 4776.500000
69.034600 2401.400000
76.019300 4104.300000
92.050600 2879.500000
102.022300 4188.900000
103.030200 8465.000000
110.041000 6049.900000
115.030000 2482.800000
124.044300 14947.500000
125.052100 9483.500000
131.025100 52722.900000
134.041400 3045.600000
135.036400 271034.900000
147.019900 4294.400000
148.044400 9395.400000
149.035900 2931.800000
149.052000 17819.600000
150.023500 151971.200000
151.031300 485515.000000
161.052000 12382.100000
163.031300 22822.400000
165.046900 14077.700000
175.067500 4206.500000
176.038800 11777.500000
180.034100 18725.700000
189.083300 9446.800000
191.098600 3270.400000
199.068100 4889.900000
199.087500 6602.400000
201.083000 4660.300000
219.093900 155353.000000

>ms2
50.003700 5710.900000
76.019300 8694.700000
102.022400 15377.200000
103.030100 10402.600000
110.041200 3032.700000
115.030300 9123.500000
124.044300 7269.200000
125.052200 6581.800000
131.025100 53755.200000
134.041200 3519.900000
135.036400 202582.700000
147.020100 2563.000000
148.044400 7191.000000
149.036100 4551.900000
149.052000 14465.800000
150.023500 132119.300000
151.031300 234755.100000
161.052000 12570.400000
163.031400 23740.100000
176.039300 2167.100000
180.034000 11338.400000
189.083900 2751.000000
219.094000 15328.000000

