>compound LU37291882
>parentmass 208.1455
>ionization [M-H]-
>formula C11H19N3O
>rt 792.780000
>profile orbitrap
#smiles_iso CCCCC1=C(N=C(NC1=O)NCC)C
#smiles_can CCCCC1=C(N=C(NC1=O)NCC)C
#inchikey BBXXLROWFHWFQY-UHFFFAOYSA-N
#pubchem_id 135424354
#mb_accession LU035651,LU035652,LU035653,LU035654,LU035655,LU035656

>ms2
69.045800 758513.800000
165.090800 15072.100000
180.114300 631992.600000
206.130200 12296.000000
208.145500 6233099.500000

>ms2
69.045800 1675209.900000
137.108400 18747.000000
165.090700 25885.000000
180.114300 1177158.900000
192.113800 10621.900000
206.129500 23084.900000
208.145500 5124354.500000

>ms2
67.030100 16458.400000
69.045800 3401826.000000
136.051500 18325.700000
137.059600 3868.400000
137.108400 63146.500000
150.067300 10142.800000
165.090700 58207.400000
180.114200 1197210.000000
192.114100 16947.700000
206.129700 43633.900000
208.145500 1108500.200000

>ms2
67.030200 43360.100000
69.045800 3356957.800000
82.041000 5264.600000
93.045900 17911.200000
121.077000 3741.600000
136.051600 78805.200000
137.059600 5920.400000
137.108400 75666.300000
150.067300 25459.200000
165.090900 18048.800000
180.114300 355907.900000
192.114400 14452.700000
206.129800 16660.500000
208.145600 89838.900000

>ms2
67.030200 76680.300000
69.045800 2783203.500000
82.041000 5562.700000
93.045900 90672.300000
97.066000 3944.800000
107.061500 6279.000000
121.077000 9526.300000
136.051600 128334.800000
137.059400 10710.400000
137.108400 61819.900000
143.049900 3387.700000
149.059100 5324.700000
150.067300 31116.200000
162.103700 6523.000000
164.083200 5116.800000
165.090700 11709.700000
180.114300 74529.800000
192.114500 3628.100000
206.129500 4136.000000
208.145500 5988.700000

>ms2
67.030200 75822.900000
69.045800 1808628.400000
82.029800 6008.700000
82.041000 4201.800000
93.045900 119453.600000
97.065900 2483.500000
107.061500 10728.100000
121.077200 7117.800000
123.056800 2218.000000
136.051600 79189.000000
137.059400 5667.900000
137.108400 25033.400000
148.051700 3642.200000
149.059700 3652.200000
150.067300 26928.300000
162.103800 3189.300000
164.083100 4397.800000
180.114300 6835.600000

