>compound LU37479098
>parentmass 472.1588
>ionization [M-H]-
>formula C28H27NO4S
>rt 855.360000
>profile orbitrap
#smiles_iso C1CCN(CC1)CCOC2=CC=C(C=C2)C(=O)C3=C(SC4=C3C=CC(=C4)O)C5=CC=C(C=C5)O
#smiles_can C1CCN(CC1)CCOC2=CC=C(C=C2)C(=O)C3=C(SC4=C3C=CC(=C4)O)C5=CC=C(C=C5)O
#inchikey GZUITABIAKMVPG-UHFFFAOYSA-N
#pubchem_id 5035
#mb_accession LU023651,LU023652,LU023653,LU023654,LU023655,LU023656

>ms2
360.046900 10874.200000
361.054300 94189.600000
472.158600 7476291.500000

>ms2
93.034600 12575.200000
239.017200 140933.100000
240.024700 7998.600000
241.032900 48623.000000
266.004100 7216.200000
267.012000 72425.400000
350.121500 18385.400000
352.138200 8973.600000
359.038400 20723.100000
360.046200 1444506.000000
361.054000 1694078.000000
387.070000 23591.300000
472.158400 3602242.200000

>ms2
93.034600 108775.700000
183.027000 5789.600000
211.022200 51046.800000
212.030200 36480.400000
215.018900 3381.700000
227.017400 4267.500000
229.032200 3148.100000
238.009700 8973.800000
239.017200 1023040.300000
240.025000 400204.600000
241.032800 443438.900000
243.012600 3316.700000
253.032800 13885.800000
254.040500 7887.100000
265.033100 8012.700000
266.004500 31286.900000
266.040700 9376.000000
267.012100 320450.100000
278.039900 2910.000000
284.015300 4971.500000
299.071400 2999.500000
303.048500 7272.700000
305.027600 6588.400000
315.049500 8432.400000
316.056000 26464.400000
317.026100 4063.000000
319.042900 4951.000000
327.065600 4612.800000
331.043800 44187.300000
332.051100 112423.000000
333.058300 9643.500000
342.035800 6713.700000
343.043200 76338.600000
350.122000 9049.700000
352.138000 8846.900000
359.038200 80443.100000
360.046100 2566586.800000
361.053900 562527.800000
387.070000 10394.300000
472.158500 87404.100000

>ms2
56.980400 4788.000000
91.019000 3981.400000
93.034600 138226.300000
123.998700 3406.300000
147.999100 8108.300000
180.057800 8020.300000
181.065800 33154.900000
183.027400 62127.600000
184.029900 4320.400000
195.044700 3726.700000
199.022100 7785.300000
201.037900 6254.900000
208.053100 11542.900000
210.013700 4880.900000
211.022400 310166.100000
212.030200 531012.600000
213.037600 5702.200000
215.017300 4701.200000
223.022900 3304.300000
225.037100 3220.700000
227.017300 9128.700000
229.032700 15755.100000
238.009700 39052.500000
239.017300 1103885.400000
240.025000 991907.100000
241.032900 490305.200000
243.012700 3622.400000
253.032900 9861.300000
254.040700 8581.000000
266.004300 53853.000000
266.040400 5039.500000
267.012200 199672.400000
271.075900 5883.600000
275.053100 3211.800000
278.039600 3031.200000
284.015100 15062.700000
287.053900 25598.100000
289.033000 13148.600000
290.040000 3412.000000
298.063000 11692.500000
299.070900 15439.000000
302.040500 9560.500000
303.048600 44380.100000
304.055400 12970.800000
305.027700 8386.100000
313.032500 3626.500000
314.040200 4324.300000
315.048400 29862.800000
316.056000 47687.600000
319.042700 2857.700000
327.064900 5057.800000
330.035300 23358.400000
331.043500 142975.400000
332.051200 168764.500000
333.058600 4153.200000
341.026700 4041.500000
343.043200 132101.300000
359.038500 107707.200000
360.046300 358315.600000
361.054100 22118.500000

>ms2
56.980300 17445.600000
91.019100 3809.400000
93.034600 112012.800000
117.034800 3288.000000
123.998700 3582.900000
147.998800 14780.800000
149.006600 3182.600000
167.050300 4177.900000
179.050100 4542.300000
180.058000 38477.700000
181.065900 50599.700000
183.027300 144263.200000
184.031200 8827.700000
195.045300 9494.700000
199.022200 12687.600000
201.037700 6290.600000
207.045600 4950.300000
208.052800 16430.600000
209.060600 4970.400000
210.014600 38258.200000
211.022300 443069.100000
212.030100 751489.900000
213.037800 7356.200000
214.009500 4847.900000
215.016800 4439.700000
223.021500 3416.800000
225.038100 7482.300000
227.017600 4196.900000
229.032800 8007.500000
238.009400 102659.400000
239.017200 813832.900000
240.025000 427125.400000
241.032900 154917.500000
243.081800 2321.400000
253.032700 7561.400000
261.036800 2230.800000
265.033500 4008.800000
266.004200 63946.300000
266.040200 5576.000000
267.012100 60531.900000
269.060000 4470.600000
270.068900 9688.600000
271.076300 11955.400000
275.053800 7147.900000
286.045500 12641.600000
287.053900 23621.700000
288.025100 6755.700000
289.032400 9838.300000
290.041300 2771.300000
297.055200 5061.600000
298.063500 12919.900000
299.070900 8069.300000
301.033000 3324.100000
302.040500 30654.200000
303.048700 61275.200000
304.020500 5568.400000
304.055600 6288.500000
305.028000 2395.900000
313.032800 4876.700000
314.040800 16264.100000
315.048500 36993.800000
316.056200 6393.200000
317.026900 8360.600000
327.066500 3096.600000
330.035600 44791.000000
331.043500 78003.100000
332.051300 24760.500000
341.027000 4064.900000
342.035600 15411.200000
343.043200 44229.600000
358.030000 6723.100000
359.038400 25611.400000

>ms2
56.980400 42385.400000
91.019000 3089.300000
93.034600 83137.900000
117.034500 5874.700000
147.998800 26216.800000
149.005900 2463.100000
167.049900 4345.100000
179.050300 5393.400000
180.058100 59468.000000
181.065900 20522.600000
183.027300 125164.500000
184.030700 6438.800000
195.045100 8698.600000
199.022300 3987.900000
201.037500 3761.900000
207.044900 3715.700000
208.052900 7700.100000
209.060400 4189.000000
210.014500 72417.000000
211.022400 260436.300000
212.030100 227192.200000
213.037900 2555.700000
214.008900 3277.700000
223.022200 2851.800000
225.039300 2070.800000
238.009400 145830.200000
239.017200 349890.500000
240.025100 91657.000000
241.032800 22767.200000
243.081900 4085.700000
261.037500 2557.200000
266.004400 31675.400000
267.012400 7836.200000
269.061300 5391.900000
270.068800 9428.300000
271.075300 2471.200000
275.054200 6841.200000
286.046200 18820.500000
287.053800 8742.100000
288.025300 7422.800000
289.032500 6993.700000
297.055900 4723.700000
298.063500 8418.100000
301.032800 10458.400000
302.040300 36835.000000
303.048300 19226.100000
304.020500 4418.700000
313.033100 4989.300000
314.040600 11332.800000
315.048600 8569.100000
330.035700 18015.800000
331.043800 7605.000000
342.036400 3186.200000
358.029700 3721.900000

