>compound LU37108321
>parentmass 230.1299
>ionization [M-H]-
>formula C13H17N3O
>rt 815.580000
>profile orbitrap
#smiles_iso CC1=C(C(=O)N(N1C)C2=CC=CC=C2)N(C)C
#smiles_can CC1=C(C(=O)N(N1C)C2=CC=CC=C2)N(C)C
#inchikey RMMXTBMQSGEXHJ-UHFFFAOYSA-N
#pubchem_id 6009
#mb_accession LU066351,LU066352,LU066353,LU066354,LU066355,LU066356

>ms2peaks
186.067400 4312.900000
187.075100 1605545.600000
188.083100 33092.600000
189.103100 19961.800000
200.082900 4925.300000
215.106100 34885.800000
230.129800 2798520.200000

>ms2peaks
147.056700 3290.500000
186.067400 9435.700000
187.075100 2970528.800000
188.083000 55310.900000
189.103100 18238.800000
200.082900 5736.500000
215.106300 71585.600000
230.129800 1216545.900000

>ms2peaks
147.056400 6149.000000
172.051500 2950.500000
186.067300 83080.800000
187.075100 2834282.200000
188.082900 28891.800000
189.102700 3833.500000
200.083000 73384.600000
215.106400 60824.400000
230.129800 74102.200000

>ms2peaks
117.045700 4334.200000
119.061100 2710.300000
147.056200 9098.800000
172.051400 8678.200000
186.067300 395458.800000
187.075100 1566528.500000
188.083000 10085.200000
200.082900 163577.500000
215.106300 21572.900000
230.130000 3147.300000

>ms2peaks
117.045800 7000.500000
119.061200 4403.500000
147.056600 9703.800000
159.056400 1950.000000
172.051800 6538.000000
186.067300 558273.800000
187.075100 340030.700000
200.083000 102600.000000

>ms2peaks
117.045900 12016.100000
119.061400 3753.100000
147.056400 6076.500000
159.056100 2713.700000
172.051800 2259.800000
186.067300 301956.500000
187.075100 41376.700000
200.083000 29542.400000

