>compound LU37939465
>parentmass 369.0697
>ionization [M-H]-
>formula C14H18N4O4S2
>rt 990.540000
>profile orbitrap
#smiles_iso CCOC(=O)NC(=S)NC1=CC=CC=C1NC(=S)NC(=O)OCC
#smiles_can CCOC(=O)NC(=S)NC1=CC=CC=C1NC(=S)NC(=O)OCC
#inchikey YFNCATAIYKQPOO-UHFFFAOYSA-N
#pubchem_id 3032792
#mb_accession LU125551,LU125552,LU125553,LU125554,LU125555,LU125556

>ms2peaks
57.975800 4250.100000
132.056700 23174.600000
149.017900 210245.500000
158.036000 83941.100000
174.013000 4112.400000
204.077800 117274.300000

>ms2peaks
132.056800 40104.800000
149.017900 285444.500000
158.036000 106973.700000
174.013200 5598.900000
204.077900 63833.500000

>ms2peaks
57.975600 2455.100000
117.045900 11053.900000
132.056700 41563.500000
149.017900 265166.200000
158.036000 138625.800000
174.013400 3667.000000
204.077900 7473.000000

>ms2peaks
57.975700 3910.000000
117.045800 56429.900000
132.056700 28725.600000
149.017900 211542.200000
158.036000 122108.700000
174.013000 3559.600000

>ms2peaks
57.975600 10946.100000
117.045800 100077.300000
132.056500 11765.600000
148.009900 2840.700000
149.017800 109626.500000
158.036000 87009.000000

>ms2peaks
57.975700 28373.400000
117.045900 142285.500000
132.056800 8842.400000
148.010000 5106.100000
149.017800 54379.500000
158.036000 59704.300000

