>compound LU38212558
>parentmass 755.3484
>ionization [M-H]-
>formula C42H52N4O7S
>rt 941.460000
>profile orbitrap
#smiles_iso C[C@@H]1CCC[C@@H](N1CC2=CC=C(C=C2)C[C@H](C(=O)N(C)C(C)C)NC(=O)C[C@H](C3=CC4=C(C=C3)OCO4)NS(=O)(=O)C5=CC6=C(C=C5)C=C(C=C6)OC)C
#smiles_can CC1CCCC(N1CC2=CC=C(C=C2)CC(C(=O)N(C)C(C)C)NC(=O)CC(C3=CC4=C(C=C3)OCO4)NS(=O)(=O)C5=CC6=C(C=C5)C=C(C=C6)OC)C
#inchikey QGWIQIAWOCJRPI-WSCVWKGISA-N
#pubchem_id 9853583
#mb_accession LU026751,LU026752,LU026753,LU026754,LU026755,LU026756

>ms2peaks
58.029900 6224.500000
221.027900 383396.400000
236.038600 5663.900000
283.181600 4075.500000
313.192200 84895.700000
327.171300 7287.200000
483.240400 4759.100000
755.349000 3452480.000000

>ms2peaks
58.029800 199206.200000
63.962400 6696.800000
96.009200 5760.500000
97.017000 35315.400000
108.081900 11273.300000
110.097800 2819.200000
121.066000 5122.200000
127.055500 4866.700000
143.050300 38683.800000
157.065800 70833.000000
158.037200 7122.600000
173.060700 29030.300000
201.055500 6851.700000
221.027800 1215540.500000
236.038800 108517.600000
243.186600 6141.600000
283.181700 43401.300000
285.197500 20345.900000
313.192300 1674136.800000
327.171500 85865.200000
354.080500 22573.400000
483.240200 3571.900000
755.349700 15313.200000

>ms2peaks
58.029800 188138.000000
63.962400 24134.100000
96.009100 197391.100000
97.016900 113458.400000
108.081800 43993.100000
110.024600 8398.600000
110.097400 6397.500000
121.065700 12789.900000
127.055100 13757.400000
129.006300 4606.200000
133.053200 5474.800000
143.050200 118616.300000
145.029400 5900.600000
157.065800 192237.200000
158.037300 37373.800000
173.060600 31635.800000
201.056300 18659.200000
201.079400 106842.500000
221.015500 19220.000000
221.027600 237904.600000
233.069200 44892.300000
236.038700 61192.100000
243.186500 7355.300000
270.186600 44891.800000
283.181600 3387.100000
285.197400 11796.900000
313.192200 826904.600000
327.171400 7521.300000
354.081800 4889.500000

>ms2peaks
58.029800 172649.800000
63.962500 31475.200000
68.998200 3380.400000
83.050200 4282.800000
96.009100 486191.500000
97.016900 171353.300000
100.077000 7355.500000
108.081900 45983.000000
110.024800 12204.700000
110.097500 5270.200000
121.066000 11187.500000
127.055000 3186.900000
129.006800 7580.200000
132.045700 3984.100000
133.053600 3456.600000
143.050200 42472.100000
145.029700 10515.400000
157.053400 97404.500000
157.065600 80490.800000
158.037400 34613.800000
173.060700 8392.400000
173.084500 9220.000000
201.055600 8415.500000
201.079600 66273.400000
221.015100 9939.100000
221.027800 12759.200000
233.069600 16679.500000
236.039100 8728.100000
270.186300 18289.600000
313.192300 111144.000000

>ms2peaks
58.029800 112083.400000
63.962500 25964.400000
68.998200 6600.100000
83.050200 2279.100000
96.009200 307512.000000
97.017000 105312.400000
100.076800 3864.000000
108.081900 30583.800000
110.024800 12371.700000
110.097800 4579.900000
121.065900 5200.200000
129.006600 5707.600000
132.045400 4358.400000
143.050000 12394.100000
145.029500 23349.200000
157.053400 68470.200000
158.037200 34869.200000
173.024300 2977.900000
173.084500 2509.700000
201.079600 5373.600000
233.069700 2937.600000
313.191900 4730.400000

>ms2peaks
58.029800 79070.400000
63.962400 31975.400000
68.998300 9109.800000
96.009100 120113.600000
97.017000 39248.300000
108.081900 16751.000000
110.024900 8570.000000
143.050600 3906.200000
145.029500 25389.100000
157.053200 23990.300000
157.065900 7533.400000
158.037400 15919.200000
173.024700 3525.300000

