>compound LU38730127
>parentmass 143.0502
>ionization [M-H]-
>formula C10H8O
>rt 1055.820000
>profile orbitrap
#smiles_iso C1=CC=C2C=C(C=CC2=C1)O
#smiles_can C1=CC=C2C=C(C=CC2=C1)O
#inchikey JWAZRIHNYRIHIV-UHFFFAOYSA-N
#pubchem_id 8663
#mb_accession LU087751,LU087752,LU087753,LU087754,LU087755,LU087756

>ms2peaks
115.055300 38660.100000
143.050200 882860.100000

>ms2peaks
115.055300 34321.500000
143.050200 722381.700000

>ms2peaks
115.055300 23491.000000
143.050200 222288.300000

>ms2peaks
115.055300 131215.300000
143.050200 403086.200000

>ms2peaks
115.055300 256289.500000
143.050200 292447.800000

>ms2peaks
115.055300 147825.700000
143.050300 73347.300000

