>compound LU39230092
>parentmass 213.03240000000002
>ionization [M-H]-
>formula C10H11ClO3
>rt 1033.960000
>profile orbitrap
#smiles_iso CC(C)(C(=O)O)OC1=CC=C(C=C1)Cl
#smiles_can CC(C)(C(=O)O)OC1=CC=C(C=C1)Cl
#inchikey TXCGAZHTZHNUAI-UHFFFAOYSA-N
#pubchem_id 2797
#mb_accession LU107651,LU107652,LU107653,LU107654,LU107655,LU107656

>ms2
85.029500 669143.000000
126.995600 2867131.800000
169.042500 4307.200000
213.032400 34803.200000

>ms2
85.029500 502557.200000
93.034600 222251.000000
126.995600 2727569.800000
169.042500 6506.000000
213.032200 5729.500000

>ms2
85.029500 314739.900000
91.019100 6109.400000
93.034600 218594.700000
126.995500 2901075.000000

>ms2
85.029500 133302.400000
91.018900 17826.700000
93.034600 235061.800000
126.995600 2203408.000000

>ms2
85.029500 54122.000000
91.018900 42015.000000
126.995600 1405203.100000

>ms2
65.039700 7026.700000
85.029500 14240.700000
91.019000 45554.500000
93.034600 235950.500000
126.995600 561524.300000

