>compound LU39641795
>parentmass 223.0724
>ionization [M-H]-
>formula C10H12N2O4
>rt 537.240000
>profile orbitrap
#smiles_iso CC1=CN(C(=O)NC1=O)[C@H]2C=C[C@H](O2)CO
#smiles_can CC1=CN(C(=O)NC1=O)C2C=CC(O2)CO
#inchikey XNKLLVCARDGLGL-JGVFFNPUSA-N
#pubchem_id 18283
#mb_accession LU106651,LU106652,LU106653,LU106654,LU106655,LU106656

>ms2
122.061200 3638.500000
125.035900 4802.000000
150.056000 9938.500000
193.062200 9427.200000
223.072200 22439.700000

>ms2
122.061100 7879.200000
125.035600 2914.500000
150.056000 7175.300000
193.061700 2686.400000
223.072700 4212.300000

>ms2
122.061100 4834.000000
158.037600 1915.000000
159.045300 8527.500000

>ms2
122.061100 5120.300000
158.037400 10605.400000
159.045200 11618.700000

>ms2
122.060900 2665.100000
158.037400 13555.000000
159.045100 3299.300000

>ms2
158.037500 8277.400000

