>compound LU39559364
>parentmass 255.0299
>ionization [M-H]-
>formula C14H8O5
>rt 1141.920000
>profile orbitrap
#smiles_iso C1=CC=C2C(=C1)C(=O)C3=C(C2=O)C(=C(C=C3O)O)O
#smiles_can C1=CC=C2C(=C1)C(=O)C3=C(C2=O)C(=C(C=C3O)O)O
#inchikey BBNQQADTFFCFGB-UHFFFAOYSA-N
#pubchem_id 6683
#mb_accession LU076051,LU076052,LU076053,LU076054,LU076055,LU076056

>ms2peaks
255.030000 221468.800000

>ms2peaks
227.035100 10157.700000
255.030000 247852.000000

>ms2peaks
159.045400 3061.800000
171.045100 3939.600000
175.040300 1783.800000
183.044900 9368.300000
226.027400 2120.100000
227.035100 90034.200000
255.030000 144890.100000

>ms2peaks
143.050300 7450.700000
147.045200 12197.700000
157.029600 3281.800000
159.045100 4713.600000
171.045200 18933.600000
175.040300 5084.300000
183.045000 14939.300000
226.027300 6994.100000
227.035100 110182.100000
255.030000 28280.100000

>ms2peaks
101.039900 7066.100000
129.034900 2933.900000
143.050400 8498.100000
147.045200 35018.000000
157.029800 2754.200000
158.037500 5272.000000
159.045400 2666.000000
171.045300 19802.400000
175.040500 2473.400000
182.037400 3141.600000
183.045400 7602.100000
226.026900 9849.900000
227.035200 43208.600000
255.030000 3101.900000

>ms2peaks
101.039700 23499.100000
129.034800 2995.000000
143.050100 4535.700000
147.045200 33236.800000
158.037300 2324.000000
171.045100 7679.800000
175.040500 1821.600000
182.037000 2190.500000
183.044900 2482.800000
226.027700 4767.100000
227.035500 7359.100000

