>compound LU39392066
>parentmass 137.0357
>ionization [M-H]-
>formula C6H6N2O2
>rt 896.100000
>profile orbitrap
#smiles_iso C1=CC=C(C(=C1)N)[N+](=O)[O-]
#smiles_can C1=CC=C(C(=C1)N)[N+](=O)[O-]
#inchikey DPJCXCZTLWNFOH-UHFFFAOYSA-N
#pubchem_id 6946
#mb_accession LU080651,LU080652,LU080653,LU080654,LU080655,LU080656

>ms2
65.039600 19962.000000
80.026600 4842.700000
93.034600 4128921.800000
107.037700 72978.800000
137.034900 73330.600000

>ms2
65.039700 23218.400000
80.026700 12623.100000
93.034600 4987584.500000
107.037700 151376.000000
137.035200 163138.300000

>ms2
65.039700 35643.800000
80.026800 7373.900000
93.034600 4387104.500000
107.037600 53511.300000
137.035000 36558.200000

>ms2
65.039700 167131.300000
75.024100 6184.700000
80.026800 10059.300000
93.034600 5399202.000000
107.037700 51175.300000
137.035400 13574.500000

>ms2
65.039700 314608.500000
67.019000 6085.400000
75.024100 18633.500000
80.026700 5593.300000
93.034600 4136606.200000
107.037700 13442.800000

>ms2
65.039700 623852.900000
67.019000 12030.100000
75.024100 49895.100000
80.026900 6259.700000
93.034600 3869249.800000
107.037800 6054.300000

