>compound LU39832853
>parentmass 151.04009999999997
>ionization [M-H]-
>formula C8H8O3
>rt 850.200000
>profile orbitrap
#smiles_iso COC(=O)C1=CC=C(C=C1)O
#smiles_can COC(=O)C1=CC=C(C=C1)O
#inchikey LXCFILQKKLGQFO-UHFFFAOYSA-N
#pubchem_id 7456
#mb_accession LU110651,LU110652,LU110653,LU110654,LU110655,LU110656

>ms2
68.998200 7451.700000
69.034400 7373.900000
82.006100 30989.000000
91.018800 24234.200000
92.026600 247056.700000
95.013900 358439.600000
106.006100 20783.100000
107.050200 12005.700000
108.021700 336921.500000
119.013800 58156.800000
121.029400 20228.900000
123.008800 45191.300000
136.016500 3999877.800000
151.040000 6564333.500000

>ms2
68.998200 8008.200000
69.034600 6763.300000
70.006100 7236.200000
71.013900 6487.900000
82.006100 26572.000000
91.018900 24357.100000
92.026700 258773.600000
95.013900 359782.300000
106.006100 19537.200000
107.050200 14193.400000
108.021700 339359.800000
119.013900 54366.900000
121.029700 15928.400000
123.008800 42236.900000
136.016600 3679782.200000
151.040000 6086191.500000

>ms2
65.003300 4875.900000
67.018900 5948.200000
68.998200 21301.000000
69.034600 17392.600000
70.006100 11845.900000
71.013900 15282.000000
72.993100 5213.100000
79.018900 10799.400000
79.990300 10127.400000
80.998300 6369.600000
82.006000 66158.500000
91.018900 77642.600000
92.026700 472887.100000
93.034600 7099.700000
95.013900 831568.100000
97.029500 6740.000000
98.000800 3648.400000
106.006100 42283.400000
107.014000 6331.500000
107.050200 19184.700000
108.021700 783405.600000
109.029300 5555.000000
119.013800 83269.000000
121.029600 32236.700000
123.008800 100158.000000
125.024200 3801.000000
136.016500 3555246.500000
151.040000 2855616.200000

>ms2
53.003300 5371.800000
67.019000 10450.100000
68.998200 30431.600000
69.034600 26256.400000
70.006100 12663.900000
71.013900 21748.400000
72.993100 11079.700000
78.011000 4674.800000
79.018900 10529.200000
79.990300 15507.100000
80.998200 10424.700000
82.006000 105781.900000
91.018900 170719.800000
92.026700 576026.700000
93.034600 14534.000000
95.013800 1197796.500000
97.029600 16791.800000
98.001000 3782.800000
106.006000 61300.400000
107.013800 7902.700000
107.050200 13541.500000
108.021700 1115378.600000
109.029200 5370.100000
119.013900 60853.100000
121.029500 51974.900000
123.008800 149377.900000
136.016500 1453177.400000
151.040000 637148.100000

>ms2
53.003300 7582.100000
65.003300 3834.200000
67.018900 13926.700000
68.998200 38213.200000
69.034600 34737.500000
70.006000 13759.800000
71.013900 23470.500000
72.993200 17993.000000
78.011200 4506.300000
79.018900 13882.200000
79.990400 17131.900000
80.998300 10015.500000
82.006100 112220.200000
91.019000 269825.700000
92.026800 581529.400000
93.034700 20911.400000
95.013900 1394253.000000
97.029600 23463.600000
98.000900 7320.800000
106.006100 73422.700000
107.013900 9670.200000
107.050100 12694.500000
108.021700 1353031.500000
109.029200 5378.600000
119.013800 26658.900000
121.029500 72338.200000
123.008800 167184.200000
125.024300 5134.900000
136.016600 443734.700000
151.040100 120330.300000

>ms2
67.019000 1810.300000
68.998300 5710.100000
69.034700 5739.400000
70.006200 1810.800000
71.013900 4660.400000
72.993200 2482.400000
79.990600 2431.200000
82.006100 13881.400000
91.019000 41995.800000
92.026800 55816.200000
93.034600 4447.400000
95.013900 211315.100000
97.029400 3311.700000
106.006100 11007.500000
108.021700 215952.800000
121.029600 11875.300000
123.008800 26972.600000
136.016600 17447.400000
151.040200 2805.600000

