>compound LU39374334
>parentmass 307.03940000000006
>ionization [M-H]-
>formula C13H12N2O5S
>rt 1002.060000
>profile orbitrap
#smiles_iso CS(=O)(=O)NC1=C(C=C(C=C1)[N+](=O)[O-])OC2=CC=CC=C2
#smiles_can CS(=O)(=O)NC1=C(C=C(C=C1)[N+](=O)[O-])OC2=CC=CC=C2
#inchikey HYWYRSMBCFDLJT-UHFFFAOYSA-N
#pubchem_id 4495
#mb_accession LU056151,LU056152,LU056153,LU056154,LU056155,LU056156

>ms2
63.962500 31710.400000
78.985900 658544.600000
198.056200 10862.400000
213.080600 9863.700000
228.054300 1220556.600000
229.061800 8867258.000000
243.076800 9239.400000
261.046300 68763.000000
307.039500 5606167.500000

>ms2
63.962500 310499.800000
78.986000 2273974.000000
122.024400 33620.700000
198.056100 334547.000000
199.064000 33725.800000
213.080000 13193.400000
227.046500 144073.300000
228.054300 3389091.200000
229.061800 10257829.000000
261.046300 45615.200000
307.039500 262625.200000

>ms2
63.962400 860661.600000
69.034600 35947.600000
76.019200 16223.000000
78.985900 2452599.000000
92.050600 13124.600000
95.013600 15820.600000
96.021600 9849.900000
97.029600 17539.300000
111.008700 22389.000000
118.029800 9525.900000
120.009100 7962.500000
121.017000 20290.100000
122.024700 721780.800000
128.011500 12075.800000
136.040400 11883.600000
142.066200 209057.100000
152.022700 41197.300000
154.066300 21908.000000
156.058000 12822.600000
169.053000 6083.600000
170.061100 271844.800000
172.077300 7308.900000
182.061000 31569.400000
186.056000 15013.900000
197.048300 33436.400000
198.056000 1845042.400000
199.063800 370332.700000
211.051500 42428.900000
227.046300 640992.600000
228.054100 1541231.100000
229.061700 5792708.000000
261.047100 6851.700000

>ms2
63.962400 1670585.200000
65.998600 8223.700000
66.034900 5227.400000
69.034600 122252.000000
76.019200 61014.700000
78.985900 1943211.900000
80.014200 6598.000000
91.018900 16060.100000
92.050500 16427.400000
93.034400 32395.200000
94.029800 31625.700000
95.013800 65800.800000
96.021600 10765.600000
97.029500 77559.900000
111.009000 28724.900000
116.050400 21850.100000
118.029800 24802.900000
120.008900 20046.800000
121.016900 44309.700000
122.024700 2340906.200000
128.011600 17208.800000
128.050700 17063.400000
130.065900 8410.700000
136.004100 5410.700000
136.040400 14083.600000
140.050600 12585.900000
142.066100 951771.800000
144.045500 12350.600000
146.061100 4619.700000
152.022700 95375.400000
153.030400 13145.600000
153.058500 19054.900000
154.066300 37881.600000
156.045500 15220.000000
156.058000 15011.300000
168.045500 24091.600000
169.053300 16446.200000
170.061100 771949.600000
172.076700 15030.400000
180.045400 8581.500000
181.053200 17657.000000
182.061000 43463.800000
183.045100 6561.000000
183.056800 4370.000000
186.056000 51534.300000
196.041000 4821.400000
197.048200 127457.500000
198.056000 1334202.900000
199.063800 304296.600000
211.051200 31624.900000
227.046200 551990.300000
228.054000 180039.900000
229.061700 1561365.500000

>ms2
63.962500 2331316.800000
65.003300 9028.000000
65.998500 11432.900000
66.034900 24755.400000
67.018900 5216.700000
69.034600 147598.200000
76.019300 82020.600000
78.985900 1189387.400000
80.014200 24953.900000
91.019000 69033.500000
92.050600 15146.700000
93.034700 51098.400000
94.029900 86295.700000
95.013900 91234.500000
96.021600 5017.700000
97.029600 94314.200000
111.008800 8808.800000
116.050600 93156.300000
118.029900 35906.900000
120.009100 16980.300000
121.017000 16190.200000
122.024800 2342071.800000
128.011800 4497.800000
128.050600 39565.300000
130.066200 9690.100000
136.040400 6701.300000
140.050600 50598.400000
142.066200 1260467.200000
144.045400 14738.200000
146.061200 9141.700000
152.022700 49792.400000
152.050700 6830.900000
153.030400 10435.800000
153.058400 23603.600000
154.066400 16315.900000
156.045500 9366.700000
156.057700 3603.000000
168.045400 17466.000000
169.053300 7669.500000
170.061200 598582.900000
172.076900 4194.500000
180.045700 9728.300000
181.053500 14800.300000
182.061100 14929.300000
183.045300 5650.000000
186.055900 27918.900000
196.041000 18158.500000
197.048200 125879.400000
198.056000 278679.900000
199.063800 57076.200000
211.051200 10083.300000
227.046300 154311.200000
228.054600 6183.200000
229.061800 127946.400000

>ms2
63.962500 2882085.200000
65.003200 30226.700000
65.998600 10933.000000
66.034900 63178.900000
67.019000 5274.100000
69.034600 92363.000000
76.019300 75346.000000
78.985900 646492.900000
80.014200 45959.500000
91.018900 109057.100000
92.050600 13381.800000
93.034600 54420.800000
94.029800 156465.800000
95.013900 109319.100000
97.029600 42139.500000
116.050600 232929.700000
118.029800 24337.100000
120.009300 20389.700000
121.017100 9852.000000
122.024800 1543574.100000
128.050600 49011.000000
140.050600 123858.900000
142.066200 882164.700000
144.045200 28930.700000
146.061300 6110.100000
152.022800 10327.700000
152.050700 12110.200000
153.030600 8043.500000
153.058500 12867.600000
154.066000 5163.300000
156.045300 4004.900000
168.045900 18840.400000
170.061200 243292.300000
180.045900 9537.800000
181.054300 5088.700000
183.045500 4550.900000
186.056100 6110.200000
196.040400 13020.400000
197.048500 41674.000000
198.056100 40182.800000
227.046500 23689.000000

