>compound LU40307752
>parentmass 478.19840000000005
>ionization [M-H]-
>formula C26H29N3O6
>rt 892.920000
>profile orbitrap
#smiles_iso CC1=C(C(C(=C(N1)C)C(=O)OCCN(C)CC2=CC=CC=C2)C3=CC(=CC=C3)[N+](=O)[O-])C(=O)OC
#smiles_can CC1=C(C(C(=C(N1)C)C(=O)OCCN(C)CC2=CC=CC=C2)C3=CC(=CC=C3)[N+](=O)[O-])C(=O)OC
#inchikey ZBBHBTPTTSWHBA-UHFFFAOYSA-N
#pubchem_id 4474
#mb_accession LU044251,LU044252,LU044253,LU044254,LU044255,LU044256

>ms2
92.026800 48622.700000
95.013900 10942.200000
108.021700 25408.900000
122.024700 1532279.000000
140.035400 52559.000000
166.014500 59340.100000
208.061500 79589.500000
221.069600 8694.000000
224.071800 131378.300000
237.066400 13605.300000
251.058600 40618.200000
268.061500 203143.100000
282.077300 28150.400000
295.072200 129113.600000
298.059400 29383.700000
313.083000 541850.600000
341.150300 9588.200000
355.166300 683699.900000
428.161000 39778.700000
431.147500 24432.900000
446.172200 238603.200000
478.198100 6776638.000000

>ms2
67.019000 6911.300000
68.998200 4499.300000
82.006000 36011.700000
92.026800 178672.800000
93.034500 5110.500000
95.013900 189239.500000
106.066300 5407.800000
108.021700 362692.100000
120.045600 4324.700000
122.024700 3420185.000000
123.008700 16904.500000
123.031800 4092.500000
138.019500 7898.800000
140.035300 150899.700000
149.048300 8521.600000
150.056000 115340.000000
160.077100 4538.200000
162.056200 6126.500000
164.071700 151080.200000
166.014500 168751.400000
181.038500 3970.200000
188.095300 6130.200000
190.051100 17770.100000
192.030400 3562.600000
192.066900 9067.300000
207.053800 41578.800000
208.061500 216074.900000
209.071700 12430.800000
210.056000 6110.400000
213.042600 13442.300000
221.036200 5959.900000
221.069300 35021.200000
224.071700 419567.600000
228.067600 3780.700000
234.077400 4885.300000
235.108900 4963.600000
237.067100 27055.300000
238.050700 8657.500000
239.045800 33267.700000
239.082800 4756.300000
242.082300 9822.200000
244.061500 5371.800000
250.074800 8499.000000
251.058400 16939.400000
253.061700 14971.900000
253.075000 6485.200000
254.045600 3471.500000
254.069100 11997.400000
255.077300 10635.100000
257.057200 4311.300000
264.053400 13305.900000
265.061900 7336.500000
265.075500 4817.500000
268.061400 112172.300000
271.072500 7533.400000
272.056400 4319.100000
281.056500 10190.000000
282.077800 5651.500000
283.035800 20109.700000
283.085700 3743.900000
295.072300 185637.800000
296.080600 9821.300000
297.161000 9835.800000
298.059300 88543.500000
313.083000 130848.600000
341.151100 6117.800000
355.166300 705035.300000
401.150900 34561.800000
428.161400 73001.200000
429.168400 5494.900000
430.154400 5914.600000
431.148500 65372.700000
446.171900 39082.500000
478.198300 42117.200000

>ms2
67.019000 8711.400000
68.998300 3058.700000
69.034600 4642.500000
79.019100 4399.900000
82.006100 34818.400000
83.014000 2512.400000
92.026800 69971.200000
92.050600 4176.700000
93.034700 2509.800000
94.030000 3401.500000
95.013900 221772.200000
97.029500 3398.900000
104.050500 3615.800000
106.066200 31018.200000
108.021700 438033.600000
118.066200 5504.000000
120.045500 19263.900000
122.024700 960580.200000
123.008800 20471.800000
132.045200 2751.600000
134.061200 5179.800000
136.040400 17709.400000
138.019700 8334.400000
140.035400 44391.200000
148.040300 12606.800000
149.048200 40902.400000
150.056000 124575.400000
160.077000 2774.700000
162.056100 18144.000000
163.064100 6747.700000
164.035600 18388.200000
164.071700 208682.300000
166.014500 41584.200000
181.038100 12990.300000
182.061100 2704.100000
188.095400 7253.100000
190.050800 23186.400000
192.030500 4125.400000
192.066400 6387.600000
196.040300 9409.400000
196.076900 4540.500000
199.027500 6399.900000
206.061400 3024.900000
207.053800 31386.500000
207.069900 2719.800000
208.061400 36148.300000
208.076700 4274.800000
209.048600 5419.000000
209.071800 4341.800000
210.056200 15610.000000
213.043500 6723.100000
221.035800 8930.600000
221.069300 7003.900000
223.063600 18330.300000
224.071700 304994.400000
225.066400 3898.400000
236.059400 4740.600000
237.067100 19700.900000
238.051500 11652.100000
239.046200 90426.500000
240.066800 4975.800000
241.061500 2535.300000
242.082400 9236.300000
244.061400 3999.100000
249.066700 3319.500000
250.075900 2893.600000
253.061800 27551.400000
253.074700 7036.800000
254.046200 4058.700000
254.069400 6129.600000
255.077500 10753.500000
257.056700 7624.500000
264.054100 8335.500000
265.061500 4816.700000
265.075300 6637.000000
268.061500 92115.500000
271.072700 7071.200000
272.055700 2948.200000
281.055300 5229.800000
282.077900 4671.000000
283.036400 5389.500000
295.072800 13478.900000
296.080500 4589.800000
298.059200 17088.700000
313.083300 15860.400000
355.166300 32576.000000
401.151300 26813.500000
430.153700 5551.300000

>ms2
65.998600 3680.000000
67.019100 4533.700000
68.998400 2814.300000
69.034700 2790.900000
79.019000 18314.200000
82.006100 19634.900000
92.014000 2693.500000
92.026800 14396.700000
92.050800 4299.600000
94.030000 4869.000000
95.013900 128513.000000
97.029500 2679.900000
104.050500 20360.900000
105.058400 3269.400000
106.066200 36232.500000
108.021700 247039.500000
118.066300 9704.800000
120.045500 21448.600000
122.024700 149020.000000
123.008900 7367.500000
132.045600 8905.800000
134.061100 7075.000000
136.040400 13862.100000
138.019900 2722.000000
140.035200 5390.100000
148.040400 30226.800000
149.048200 37516.900000
150.056100 44296.400000
162.056100 30753.700000
164.035600 6625.400000
164.071700 75882.900000
166.014600 5282.400000
181.037900 11730.400000
181.053600 7743.400000
182.037100 2564.600000
182.061300 9437.300000
190.050900 10915.100000
193.041000 2942.700000
194.061200 4099.800000
195.068600 2954.500000
196.040400 23398.300000
196.076800 6680.000000
197.048200 5859.700000
199.027600 13678.600000
205.053000 3249.100000
206.061200 5555.800000
207.056100 2835.900000
207.069100 5537.900000
208.040400 8927.500000
208.063400 2147.600000
208.076800 5468.500000
209.048400 24014.600000
209.071500 5019.000000
210.055800 12066.000000
211.063500 6067.000000
212.035400 5836.700000
221.035500 9369.600000
222.056200 6384.100000
223.063900 15986.500000
224.071700 195629.600000
225.068000 2547.800000
227.058700 2872.900000
228.067100 2478.900000
237.067500 11337.700000
238.050800 4587.100000
239.046300 47088.000000
240.066800 4790.400000
241.062200 2541.900000
249.067000 2448.900000
253.062000 14162.800000
253.074800 3245.600000
255.077400 3089.600000
257.056500 3101.400000
265.062000 3053.700000
268.061200 27058.700000

>ms2
65.998600 5557.100000
79.019000 29059.300000
82.005900 9252.600000
92.014300 2356.700000
92.026900 6611.300000
94.029900 2018.200000
95.013900 50717.700000
103.043000 2552.300000
104.050700 28341.900000
105.058500 3903.200000
106.066200 25178.500000
108.021700 113471.200000
108.045400 15384.700000
118.066400 3829.200000
120.045500 16957.600000
122.024900 16665.600000
123.008900 3918.900000
132.045700 3450.300000
134.061400 5103.900000
136.040700 3480.900000
148.040400 18458.500000
149.048200 14359.100000
150.056300 10976.700000
162.019800 3432.800000
162.056100 34436.600000
164.071500 12778.200000
181.038900 3822.900000
181.053600 8163.400000
182.037600 7294.700000
182.061100 4836.800000
183.045200 3600.100000
193.041000 5775.800000
194.061400 5044.100000
196.040600 12234.800000
196.076600 14443.500000
197.048400 2838.200000
199.027700 8310.700000
205.053400 10552.300000
206.061200 7284.000000
207.056900 5394.700000
207.068600 4814.600000
208.040400 19114.000000
208.065900 2120.500000
208.076500 3474.100000
209.048300 20730.500000
209.072400 3306.900000
210.056500 8063.700000
211.064000 2607.000000
212.035200 3613.700000
221.035700 3735.400000
222.056300 6867.900000
223.063500 14905.600000
224.071800 76381.100000
227.059200 3090.400000
239.046700 6126.900000
253.061600 3347.200000
268.062500 3590.200000

>ms2
65.998600 8114.100000
79.019000 21687.400000
82.006000 2310.600000
95.013900 18138.900000
103.042800 3885.500000
104.050700 19532.300000
106.066300 12009.200000
108.021800 39303.800000
108.045600 13350.400000
118.066200 1994.200000
120.045500 14529.400000
123.008700 2374.400000
132.045700 5211.400000
136.040300 3054.000000
148.040300 6436.600000
149.047600 2061.700000
162.019700 3950.700000
162.056300 22094.800000
181.053200 6727.700000
182.037500 10318.000000
183.045100 2355.800000
193.040500 3123.900000
194.061300 4932.700000
195.069000 3271.700000
196.040400 5126.100000
196.076400 8730.700000
205.053100 8447.400000
206.061200 4050.100000
208.040500 17778.800000
209.048000 8829.200000
221.036100 2482.100000
222.055900 6072.300000
223.063900 7067.800000
224.071800 19006.900000

