>compound LU40705155
>parentmass 199.0765
>ionization [M-H]-
>formula C13H12O2
>rt 1004.760000
>profile orbitrap
#smiles_iso C1=CC=C(C(=C1)CC2=CC=C(C=C2)O)O
#smiles_can C1=CC=C(C(=C1)CC2=CC=C(C=C2)O)O
#inchikey LVLNPXCISNPHLE-UHFFFAOYSA-N
#pubchem_id 75576
#mb_accession LU097651,LU097652,LU097653,LU097654,LU097655,LU097656

>ms2peaks
93.034600 10497012.000000
199.076400 7104968.500000

>ms2peaks
93.034600 16768164.000000
199.076500 5624098.500000

>ms2peaks
93.034500 20119328.000000
199.076400 611209.900000

>ms2peaks
65.039700 73891.800000
93.034600 25226426.000000
199.076300 42385.500000

>ms2peaks
65.039700 216345.600000
93.034500 22196990.000000

>ms2peaks
65.039700 546997.900000
75.024200 42280.200000
93.034600 22267132.000000

