>compound LU40236948
>parentmass 204.1241
>ionization [M-H]-
>formula C9H19NO4
>rt 489.090000
>profile orbitrap
#smiles_iso CC(C)(CO)C(C(=O)NCCCO)O
#smiles_can CC(C)(CO)C(C(=O)NCCCO)O
#inchikey SNPLKNRPJHDVJA-UHFFFAOYSA-N
#pubchem_id 4678
#mb_accession LU085151,LU085152,LU085153,LU085154,LU085155,LU085156

>ms2peaks
71.050300 347157.800000
72.045500 33667.600000
74.061200 99503.700000
99.045200 91536.500000
100.040500 9688.400000
102.056100 575128.900000
108.081600 2040.400000
118.051000 4206.400000
126.092400 43563.400000
129.055800 57963.600000
130.050900 28155.000000
132.066800 3048.300000
146.082100 11291.700000
156.103000 44118.400000
172.098000 6167.000000
174.113800 15425.700000
204.124100 1374307.600000

>ms2peaks
55.018900 8888.000000
71.050300 633787.300000
72.045500 98297.200000
74.061200 272800.300000
99.045200 167933.000000
100.040500 19618.600000
102.056100 999898.700000
108.082000 6863.000000
118.050900 8948.600000
126.092400 82347.300000
129.055800 51588.500000
130.050900 54910.200000
146.082300 20439.900000
156.103000 61837.700000
172.097900 18195.800000
204.124100 1136987.600000

>ms2peaks
55.018900 21243.600000
71.050300 415427.200000
72.045500 214753.900000
74.061200 329584.500000
92.071500 2645.000000
99.045300 106723.100000
100.040500 24020.300000
102.056100 445403.900000
108.082100 7579.700000
118.051100 10153.300000
124.076400 1853.100000
126.092500 58550.300000
129.055700 6904.400000
130.051000 29469.700000
146.082300 10756.400000
156.103000 10009.400000
172.097800 8310.900000
174.113500 6005.600000
204.124100 70746.300000

>ms2peaks
55.018900 59038.700000
71.050300 490208.200000
72.045500 423382.000000
74.061200 331217.300000
99.045200 93022.800000
100.040400 26277.900000
102.056100 175021.700000
108.081800 8525.700000
118.051000 11394.200000
126.092400 38391.700000
130.050900 13313.600000
146.082200 2390.700000
156.102700 1821.600000
172.098300 3660.800000
204.124700 2333.700000

>ms2peaks
55.018900 26490.100000
71.050300 106142.700000
72.045600 114647.300000
74.061200 42787.000000
99.045300 11536.400000
102.056000 9879.500000
108.082300 1860.600000
126.092500 3838.200000

>ms2peaks
55.018900 115921.300000
71.050300 165423.200000
72.045500 246676.500000
74.061200 47213.900000
99.045200 14493.100000
100.040400 2194.700000
102.056300 8229.300000
108.082100 3509.800000
118.050800 2410.300000

