>compound LU41374273
>parentmass 275.0229
>ionization [M-H]-
>formula C13H9ClN2O3
>rt 988.350000
>profile orbitrap
#smiles_iso C1=CC=C(C=C1)NC(=O)C2=C(C=CC(=C2)[N+](=O)[O-])Cl
#smiles_can C1=CC=C(C=C1)NC(=O)C2=C(C=CC(=C2)[N+](=O)[O-])Cl
#inchikey DNTSIBUQMRRYIU-UHFFFAOYSA-N
#pubchem_id 644213
#mb_accession LU092951,LU092952,LU092953,LU092954

>ms2peaks
125.987700 34561.500000
155.985800 8025666.500000
173.996000 28593.800000
199.975700 120898.500000
239.046400 37293.100000
275.023000 1240810.100000

>ms2peaks
155.985800 2958971.800000
173.996400 16800.600000
199.975700 72472.600000
239.046300 13266.900000
275.023100 34445.300000

>ms2peaks
155.985900 441796.700000
173.996800 4344.100000
199.976100 7978.200000
239.045500 4923.100000

>ms2peaks
67.019000 2720.200000
148.016500 2048.200000
155.985700 17321.900000

