>compound LU41912978
>parentmass 216.9941
>ionization [M-H]-
>formula C8H8Cl2N2O
>rt 1005.540000
>profile orbitrap
#smiles_iso CNC(=O)NC1=CC(=C(C=C1)Cl)Cl
#smiles_can CNC(=O)NC1=CC(=C(C=C1)Cl)Cl
#inchikey IDQHRQQSSQDLTR-UHFFFAOYSA-N
#pubchem_id 19113
#mb_accession LU018751,LU018752,LU018753,LU018754

>ms2
123.995900 27996.600000
159.972500 12978158.000000
216.994100 265037.200000

>ms2
123.995900 90051.500000
159.972600 11912037.000000
216.994200 44837.400000

>ms2
88.019300 8651.200000
123.995900 368528.300000
159.972600 7869010.500000

>ms2
88.019300 48234.100000
123.995900 362954.700000
159.972600 2586888.200000

