>compound LU41618595
>parentmass 232.97780000000003
>ionization [M-H]-
>formula C9H8Cl2O3
>rt 1040.580000
>profile orbitrap
#smiles_iso COC(=O)COC1=C(C=C(C=C1)Cl)Cl
#smiles_can COC(=O)COC1=C(C=C(C=C1)Cl)Cl
#inchikey HWIGZMADSFQMOI-UHFFFAOYSA-N
#pubchem_id 1488
#mb_accession LU035451,LU035452,LU035453,LU035454,LU035455,LU035456

>ms2peaks
160.956700 1025231.100000
164.950600 32891.700000
181.977100 1863.400000
197.000900 8584.400000

>ms2peaks
124.979700 2272.400000
160.956700 1050888.100000
164.950700 30099.600000
181.977700 4628.000000
197.001400 4491.500000

>ms2peaks
99.000800 2032.000000
124.979900 34183.400000
160.956600 830858.300000
164.950500 20439.300000
181.977700 6275.300000

>ms2peaks
89.003500 2118.200000
99.000700 5005.600000
124.980100 75993.800000
160.956700 448767.400000
164.951000 9858.400000
181.977500 2793.400000

>ms2peaks
89.003300 6204.900000
99.000800 4261.400000
124.980000 68974.000000
160.956700 135340.600000
164.950900 1964.000000

>ms2peaks
89.003300 14199.400000
99.001200 1791.700000
124.980000 42745.400000
160.956800 30561.100000

