>compound LU41875779
>parentmass 271.0823
>ionization [M-H]-
>formula C12H16O7
>rt 178.380000
>profile orbitrap
#smiles_iso C1=CC(=CC=C1O)O[C@H]2[C@@H]([C@H]([C@@H]([C@H](O2)CO)O)O)O
#smiles_can C1=CC(=CC=C1O)OC2C(C(C(C(O2)CO)O)O)O
#inchikey BJRNKVDFDLYUGJ-RMPHRYRLSA-N
#pubchem_id 440936
#mb_accession LU133551,LU133552,LU133553,LU133554,LU133555,LU133556

>ms2
59.013800 2678.500000
71.013900 41547.600000
73.029500 11035.300000
83.013800 2646.600000
85.029600 8891.900000
95.013800 4623.200000
99.008900 6776.300000
101.024500 31359.200000
108.021700 139305.000000
109.029500 54754.100000
113.024500 30391.800000
121.029500 3560.900000
123.008800 2798.400000
123.045000 3388.900000
133.029900 2237.400000
151.040100 31604.300000
159.030200 8280.800000
161.045600 44196.200000
163.040200 8551.200000

>ms2
59.013900 4462.900000
71.013900 28362.700000
73.029600 7484.700000
83.013900 2549.400000
85.029600 15520.800000
95.014000 5284.000000
99.008900 4711.100000
101.024400 12345.700000
108.021700 307043.100000
109.029500 37303.000000
113.024400 14671.400000
121.029700 2946.400000
123.009000 3983.700000
123.045400 8502.300000
133.029800 6033.000000
135.044800 1957.400000
151.040200 13279.900000
159.029700 3270.100000
161.045800 3426.300000
163.040300 6876.700000

>ms2
59.013800 2147.700000
71.013800 17275.100000
73.029500 6508.500000
83.013900 3715.000000
85.029600 13831.400000
95.013800 2173.600000
101.024300 3974.000000
108.021700 410409.200000
109.029500 32082.600000
113.024400 3224.100000
121.029500 3257.100000
123.045100 6421.600000
133.029600 5840.000000
135.045200 3705.500000
151.040100 2240.600000
163.040700 2663.600000

>ms2
59.013900 1571.800000
71.013900 5825.900000
73.029500 2349.800000
85.029500 4301.400000
95.013700 2364.300000
108.021700 340385.700000
109.029400 15981.000000
113.024500 1799.600000
133.029600 1906.100000

>ms2
71.013900 3116.700000
85.029500 2020.300000
108.021700 298227.300000
109.029500 8296.900000

>ms2
108.021700 178009.100000
109.029300 2584.100000

