>compound LU41333025
>parentmass 174.0561
>ionization [M-H]-
>formula C10H9NO2
>rt 842.760000
>profile orbitrap
#smiles_iso C1=CC=C2C(=C1)C(=CN2)CC(=O)O
#smiles_can C1=CC=C2C(=C1)C(=CN2)CC(=O)O
#inchikey SEOVTRFCIGRIMH-UHFFFAOYSA-N
#pubchem_id 802
#mb_accession LU019051,LU019052,LU019053,LU019054,LU019055,LU019056

>ms2
130.066200 12456.900000
131.050200 28968.000000
133.029500 16779.300000
147.045100 12969.500000

>ms2
130.066100 17614.400000
131.050200 46843.500000
133.029400 21574.900000
147.045100 14857.600000

>ms2
89.039700 5183.800000
95.050200 4133.000000
103.055200 5762.300000
105.034500 2881.000000
107.050200 6143.900000
109.029500 7560.100000
119.050300 28546.000000
123.045200 22092.700000
130.042300 12462.000000
130.066200 8032.800000
131.050200 250573.700000
133.029500 222970.400000
147.045200 143006.300000

>ms2
65.003200 17940.100000
77.039800 2078.800000
89.039700 44798.300000
91.018900 6505.200000
91.055300 2905.700000
93.034500 3455.100000
95.050200 29405.100000
102.047500 4782.400000
103.055400 13626.000000
105.034600 14471.900000
107.050300 11415.800000
109.029500 10756.000000
119.050200 150659.200000
123.045200 86203.900000
130.042400 41592.500000
130.066200 2254.800000
131.050300 306039.600000
132.021800 5988.100000
133.029600 431494.700000
146.037500 2108.500000
147.045200 271911.600000

>ms2
65.003300 56059.400000
65.039700 7169.200000
67.019000 2545.400000
77.039800 10039.800000
89.039700 117291.400000
91.019000 16453.300000
91.055300 7390.500000
93.034600 18537.300000
95.050300 87886.300000
102.047600 10588.200000
103.055400 20422.200000
105.034600 39861.800000
107.050400 11600.400000
109.029500 12184.900000
119.050300 358123.300000
121.029400 3168.100000
123.045200 159183.600000
130.042400 50513.700000
131.050300 191598.500000
132.021600 14998.500000
133.029600 411026.800000
145.029400 3124.800000
146.037200 2775.600000
147.045200 242491.000000

>ms2
65.003300 103280.100000
65.039600 10350.400000
67.019000 3573.700000
77.039700 15761.200000
89.039700 158911.800000
91.019000 30052.000000
91.055400 15798.200000
93.034600 45864.400000
95.050300 109681.400000
102.047500 8397.000000
103.055300 14279.000000
105.034600 44418.100000
107.050300 7306.100000
109.029500 7332.400000
119.050200 390881.700000
121.029600 3311.100000
123.045200 117205.100000
130.042400 31354.400000
131.050300 70276.100000
132.021700 25770.900000
133.029600 219318.400000
145.029500 3977.000000
146.037300 2567.900000
147.045200 109006.200000

