>compound LU41570588
>parentmass 444.1711
>ionization [M-H]-
>formula C21H27N5O4S
>rt 979.980000
>profile orbitrap
#smiles_iso CC1=CN=C(C=N1)C(=O)NCCC2=CC=C(C=C2)S(=O)(=O)NC(=O)NC3CCCCC3
#smiles_can CC1=CN=C(C=N1)C(=O)NCCC2=CC=C(C=C2)S(=O)(=O)NC(=O)NC3CCCCC3
#inchikey ZJJXGWJIGJFDTL-UHFFFAOYSA-N
#pubchem_id 3478
#mb_accession LU046751,LU046752,LU046753,LU046754,LU046755,LU046756

>ms2
170.028200 23723.400000
196.007600 14698.900000
319.087000 1619185.000000
345.066100 28072.500000
444.171000 4890333.500000

>ms2
63.962400 11416.600000
64.970200 14280.800000
78.973300 56525.400000
79.981400 8368.600000
80.965200 5154.900000
93.960400 28239.400000
136.051600 22165.400000
154.009400 5704.600000
170.028100 2560511.200000
182.028100 72620.300000
196.007400 94462.600000
225.034000 26356.200000
255.125300 7524.000000
319.086900 4041976.500000
345.066800 11463.600000
444.171100 172211.700000

>ms2
61.970500 14825.900000
63.962400 86852.400000
64.970300 118585.800000
77.965400 6810.100000
78.973400 884353.100000
79.957300 11014.500000
79.981200 24317.900000
80.965200 67328.600000
93.045900 20931.200000
93.960500 514427.200000
118.066300 19439.200000
136.051600 94125.200000
152.017500 14982.000000
154.009400 72150.100000
169.020500 12642.700000
170.028100 3843810.000000
182.028200 104004.000000
185.999300 16223.100000
196.007300 16767.300000
199.054500 17898.500000
225.033800 65834.400000
255.124700 15301.400000
319.087000 298356.700000

>ms2
61.970600 81215.800000
63.962400 227001.900000
64.970300 149208.900000
77.965600 26678.900000
78.973300 1987535.800000
79.957400 10980.500000
79.981100 81147.100000
80.965100 145145.900000
93.045800 97359.200000
93.960400 1107314.900000
106.042400 5845.600000
109.040800 5263.100000
118.041000 6843.100000
118.066200 63758.400000
135.093000 5451.600000
136.051500 136787.400000
138.031900 2719.500000
152.017400 11052.000000
154.009300 324691.600000
169.020200 58594.500000
170.028000 1072754.500000
182.027900 43717.600000
185.999100 95213.000000
199.054500 26850.400000
201.010200 16156.000000
225.033800 57033.600000

>ms2
61.970600 188794.500000
63.962500 427519.000000
64.970300 84480.600000
77.965600 52768.000000
78.973400 1736512.800000
79.981200 144626.000000
80.965200 140609.700000
93.045900 113494.400000
93.960500 1026606.600000
106.042400 40628.000000
108.021700 14860.800000
109.040400 2942.700000
118.041200 8879.200000
118.066300 68163.500000
121.029600 10624.600000
135.092700 4493.100000
136.051700 49115.100000
138.032300 8705.000000
154.009400 381202.800000
169.020400 60734.100000
170.028200 109221.500000
182.028300 10085.700000
185.999200 114252.300000
201.010200 17538.700000
225.034100 17034.600000

>ms2
61.970600 321877.200000
63.962400 588551.700000
64.970300 41597.600000
77.965500 65243.100000
78.973300 1142157.200000
79.981200 157422.000000
80.965200 98162.100000
93.045800 80006.100000
93.960400 675361.400000
106.042400 39660.400000
108.021700 15204.400000
118.041000 8147.900000
118.066200 39910.800000
121.029400 15925.700000
135.092600 3052.800000
136.051700 8728.600000
138.032400 6261.900000
154.009400 177659.400000
169.020500 20761.500000
170.028400 7458.100000
185.999200 63864.100000
201.010400 6205.200000

