>compound LU41331109
>parentmass 440.1537
>ionization [M-H]-
>formula C24H27NO5S
>rt 1124.460000
>profile orbitrap
#smiles_iso CC1=C(C2=C(CCC(O2)(C)COC3=CC=C(C=C3)CC4C(=O)NC(=O)S4)C(=C1O)C)C
#smiles_can CC1=C(C2=C(CCC(O2)(C)COC3=CC=C(C=C3)CC4C(=O)NC(=O)S4)C(=C1O)C)C
#inchikey GXPHKUHSUJUWKP-UHFFFAOYSA-N
#pubchem_id 5591
#mb_accession LU070151,LU070152,LU070153,LU070154,LU070155,LU070156

>ms2peaks
114.973400 6838.000000
221.015300 8115.400000
397.147900 106706.000000
440.153600 6283803.500000

>ms2peaks
96.960200 76745.800000
114.973400 38442.300000
115.981300 8476.700000
119.050100 12196.800000
137.006800 5306.400000
145.029600 113725.900000
150.014400 42348.900000
151.022400 35464.300000
162.056300 5711.700000
163.076600 8939.100000
167.001700 2705.200000
178.009400 58510.900000
179.017300 60435.500000
193.020200 4327.100000
221.015900 2718.800000
369.152900 63221.500000
397.148000 452140.800000
440.153900 629618.900000

>ms2peaks
71.967600 3539.900000
72.975400 4859.800000
96.960100 50085.700000
114.973300 22892.100000
115.981200 6723.900000
117.034700 5836.200000
119.050200 37693.200000
137.006700 12411.300000
145.029500 244215.200000
149.006500 2190.700000
150.014500 126940.300000
151.022300 107686.200000
162.056300 3833.100000
163.076500 26935.900000
167.002100 2779.400000
177.001100 2024.200000
178.009400 90615.800000
179.017300 38344.700000
193.020600 6984.400000
369.152700 4856.700000
397.147300 22875.500000
440.156000 3254.700000

>ms2peaks
71.967700 7453.500000
72.975400 6388.100000
96.960200 68000.000000
114.973500 5830.400000
117.034600 48722.900000
119.050200 48272.200000
121.029700 5903.100000
137.006600 14413.600000
145.029500 222624.700000
149.006600 15939.900000
150.014500 129514.700000
151.022300 75498.100000
163.076500 22991.700000
167.002000 4253.400000
178.009400 19978.500000
179.017500 6065.500000
193.021000 2385.600000
207.981600 8815.500000

>ms2peaks
56.980400 2002.300000
60.975300 1894.700000
71.967600 5620.600000
72.975400 7959.900000
79.957400 6861.300000
93.034800 2593.700000
95.952300 5496.000000
96.960100 65678.100000
116.027100 1985.000000
117.034600 121651.500000
119.050200 51193.100000
121.029600 2811.000000
123.045400 2055.000000
137.006600 10858.600000
145.029500 125919.200000
149.006600 30133.600000
150.014500 86422.500000
151.022300 30201.800000
163.076300 10033.100000
177.001800 3172.200000
178.009400 3137.300000

>ms2peaks
56.980400 2936.500000
60.975400 3177.800000
71.967600 4212.300000
72.975500 5315.300000
79.957300 13156.700000
93.034600 6194.500000
95.952400 5423.800000
96.960100 54913.900000
116.026900 5271.200000
117.034600 198631.300000
119.050200 53809.400000
123.045100 2954.400000
137.006600 7359.100000
145.029500 49071.100000
149.006700 35172.300000
150.014500 49613.400000
151.022100 9295.400000
163.076400 3224.800000
207.979700 7546.300000

