>compound LU42872854
>parentmass 470.0513
>ionization [M-H]-
>formula C21H17F4NO3S2
>rt 1206.960000
>profile orbitrap
#smiles_iso CC1=C(C=CC(=C1)SCC2=C(N=C(S2)C3=CC(=C(C=C3)C(F)(F)F)F)C)OCC(=O)O
#smiles_can CC1=C(C=CC(=C1)SCC2=C(N=C(S2)C3=CC(=C(C=C3)C(F)(F)F)F)C)OCC(=O)O
#inchikey HWVNEWGKWRGSRK-UHFFFAOYSA-N
#pubchem_id 9934458
#mb_accession LU137251,LU137252,LU137253,LU137254,LU137255,LU137256

>ms2
123.027300 33566.300000
129.975500 3666.700000
138.014400 2059237.100000
139.022400 13928.100000
151.022400 16886.100000
152.030100 30860.400000
196.019800 60087.100000
412.045900 1972368.100000

>ms2
123.027400 92101.300000
138.014500 4487555.500000
139.022400 12522.400000
151.022200 59553.300000
152.030200 37884.900000
196.019800 5930.800000
274.032100 13481.200000
412.045700 14452.500000

>ms2
123.027400 150556.100000
137.006600 8119.900000
138.014500 4846992.000000
139.022300 5706.900000
151.022300 111501.600000
152.030200 38485.100000
274.032300 8398.400000

>ms2
123.027400 171346.600000
123.998700 5146.700000
137.006700 21402.200000
138.014500 4339156.500000
151.022300 139683.500000
152.030000 17283.600000

>ms2
61.988400 5177.400000
123.027400 190179.600000
123.998800 6875.900000
137.006700 73785.900000
138.014500 2577082.500000
151.022300 153377.700000
152.030200 7107.600000

>ms2
61.988500 4281.200000
123.027400 157216.700000
123.998900 4087.900000
137.006700 151301.400000
138.014500 1112180.100000
151.022300 144745.200000

