>compound LU42583039
>parentmass 252.92319999999998
>ionization [M-H]-
>formula C8H5Cl3O3
>rt 1083.780000
>profile orbitrap
#smiles_iso C1=C(C(=CC(=C1Cl)Cl)Cl)OCC(=O)O
#smiles_can C1=C(C(=CC(=C1Cl)Cl)Cl)OCC(=O)O
#inchikey SMYMJHWAQXWPDB-UHFFFAOYSA-N
#pubchem_id 1480
#mb_accession LU032551,LU032552,LU032553,LU032554,LU032555,LU032556

>ms2peaks
194.917700 1373767.000000

>ms2peaks
158.940900 13598.000000
194.917700 1255136.500000

>ms2peaks
132.961800 4894.300000
158.941000 180231.000000
194.917600 1085365.400000

>ms2peaks
122.964400 5068.000000
132.961500 8213.100000
158.941000 394410.000000
194.917600 428295.500000

>ms2peaks
94.969600 1905.400000
122.964400 13903.800000
132.961800 7222.200000
158.941000 322876.900000
194.917600 82335.900000

>ms2peaks
94.969400 9422.700000
122.964300 22731.100000
132.961900 2739.300000
158.941000 132721.900000
194.917600 12850.400000

