>compound LU42829433
>parentmass 151.0335
>ionization [M-H]-
>formula C7H8N2S
>rt 619.300000
>profile orbitrap
#smiles_iso C1=CC=C(C=C1)NC(=S)N
#smiles_can C1=CC=C(C=C1)NC(=S)N
#inchikey FULZLIGZKMKICU-UHFFFAOYSA-N
#pubchem_id 676454
#mb_accession LU093551,LU093552,LU093553,LU093554,LU093555,LU093556

>ms2peaks
57.975700 31386.900000
92.050700 2762.700000
117.045800 102886.700000

>ms2peaks
57.975700 31312.700000
92.050700 4054.100000
117.045900 110745.500000

>ms2peaks
57.975700 27304.900000
92.050600 5098.700000
117.045800 97407.700000

>ms2peaks
57.975600 19175.400000
92.050600 5875.800000
117.045800 66889.300000

>ms2peaks
57.975700 23022.300000
92.050400 11110.700000
117.045900 65171.000000

>ms2peaks
57.975600 27366.500000
92.050600 7049.400000
117.045800 38802.800000

