>compound LU43782786
>parentmass 350.17619999999994
>ionization [M-H]-
>formula C22H25NO3
>rt 1161.180000
>profile orbitrap
#smiles_iso CC1(CCC(C2=C1C=CC(=C2)C(=O)NC3=CC=C(C=C3)C(=O)O)(C)C)C
#smiles_can CC1(CCC(C2=C1C=CC(=C2)C(=O)NC3=CC=C(C=C3)C(=O)O)(C)C)C
#inchikey SZWKGOZKRMMLAJ-UHFFFAOYSA-N
#pubchem_id 2126
#mb_accession LU033351,LU033352,LU033353,LU033354,LU033355,LU033356

>ms2
306.186400 328468.200000
334.144400 13472.400000
350.176100 12016201.000000

>ms2
92.050600 20633.700000
118.029900 14927.300000
162.019600 9002.100000
231.139200 70537.900000
238.123800 16016.100000
278.191500 8998.000000
290.155200 28676.800000
306.186400 3410927.500000
334.144700 15709.900000
335.153300 9669.600000
350.176200 8983439.000000

>ms2
75.023900 5561.900000
92.050600 164282.800000
93.034500 12819.400000
118.029800 204503.900000
119.013700 35510.600000
137.024500 17435.400000
162.019700 97902.000000
231.138600 5138.700000
236.107900 24802.900000
237.116000 8912.300000
238.123800 29092.100000
248.107800 5922.300000
249.114700 4499.600000
263.131500 4496.600000
269.105900 25666.600000
276.139300 91624.600000
278.082500 4940.800000
278.191600 34655.900000
281.105600 4636.800000
290.155100 179884.900000
291.162900 63942.000000
292.097700 18183.400000
293.105200 4090.600000
295.120700 4497.600000
304.170100 14050.800000
306.186300 3243127.800000
307.121100 6908.600000
320.129100 175590.800000
323.152600 77635.200000
334.144800 248033.300000
335.152600 62779.400000
350.176100 2824608.500000

>ms2
75.024000 39246.100000
92.050600 282738.100000
93.034500 45505.400000
118.029800 269997.400000
119.013800 82926.600000
137.024400 16011.800000
155.086300 3003.400000
157.102300 6318.700000
162.019600 94273.000000
171.117700 8234.700000
175.017800 4430.400000
222.092000 3053.400000
223.099500 4219.200000
234.092300 12247.500000
236.108000 38128.900000
248.108100 65803.000000
249.115700 4542.800000
260.107400 3392.200000
261.117300 3540.800000
262.123600 22801.200000
263.131000 6380.500000
269.105300 10482.700000
274.123600 18736.500000
276.139200 434285.200000
278.082200 13476.500000
278.191100 33758.200000
280.098200 5380.400000
281.106200 13416.700000
290.155100 783438.400000
291.162800 51805.000000
292.097800 123164.000000
293.105100 7266.800000
295.120300 7171.900000
304.096900 3989.400000
304.170500 13740.400000
305.106100 5124.400000
306.186300 959366.500000
307.120300 6377.500000
318.113100 16308.800000
320.129000 546257.800000
323.152600 79805.000000
334.144900 969905.900000
335.153000 20404.000000
350.176200 247882.600000

>ms2
75.024000 76330.900000
90.034900 3981.700000
92.050600 248558.300000
93.034600 60277.500000
115.055400 3911.700000
118.029900 167160.700000
119.013800 47764.000000
122.024800 6162.000000
129.071000 22934.300000
136.040500 7026.100000
137.024600 5880.300000
141.071100 6837.100000
143.086300 4988.800000
155.086600 14036.400000
157.102300 26435.400000
159.081700 11573.500000
162.019700 54541.900000
171.118000 34942.000000
173.097200 4733.100000
185.097200 7466.000000
222.092000 5471.800000
223.100300 2789.100000
234.092500 13961.400000
236.108100 23832.200000
246.092800 7230.700000
247.100400 3687.200000
248.108100 91750.100000
260.108400 25359.200000
261.115800 16827.800000
262.123600 37861.600000
262.160400 9015.400000
266.082500 3748.100000
274.123900 91352.100000
275.132400 3823.600000
276.139400 380445.200000
278.082200 11527.700000
278.191700 3955.700000
280.098100 7292.200000
288.139000 8225.500000
290.155200 762209.500000
291.090900 2803.300000
291.163400 3861.000000
292.098100 87638.100000
304.097700 32930.700000
305.106100 15508.800000
306.113500 39585.800000
306.186300 40549.600000
318.113500 109747.800000
320.129100 199372.800000
323.152400 5336.400000
334.144900 426336.800000
350.177500 5086.200000

>ms2
75.024100 100537.400000
90.035000 4886.400000
92.050600 229267.600000
93.034600 70074.800000
115.055400 10194.700000
118.029900 117293.100000
119.013900 34129.800000
122.025000 5475.600000
129.070900 42572.900000
136.040600 5656.600000
137.024700 3233.700000
141.071100 13712.100000
143.086700 10173.700000
155.086700 34943.300000
157.102200 15052.500000
159.081800 6519.900000
162.019700 42432.900000
171.118000 24296.000000
173.097200 2819.900000
185.097500 5263.900000
222.091900 4215.600000
234.092500 4798.400000
236.108200 7550.800000
238.123700 3663.900000
246.092500 15628.900000
247.100500 4652.300000
248.108300 44990.500000
260.108200 54287.300000
261.116200 13468.500000
262.124000 21992.800000
262.160200 6396.200000
266.082800 2646.700000
274.123900 162815.400000
275.132500 2399.400000
276.139400 84593.100000
288.139900 6105.000000
290.155200 215813.300000
291.090300 5063.800000
292.098500 18044.100000
304.097800 48141.700000
305.106200 7343.500000
306.114300 6311.100000
318.113600 129922.700000
320.129200 23190.600000
334.144900 49183.000000

