>compound LU44096922
>parentmass 212.0717
>ionization [M-H]-
>formula C13H11NO2
>rt 1014.900000
>profile orbitrap
#smiles_iso C1=CC=C(C=C1)NC(=O)C2=CC=CC=C2O
#smiles_can C1=CC=C(C=C1)NC(=O)C2=CC=CC=C2O
#inchikey WKEDVNSFRWHDNR-UHFFFAOYSA-N
#pubchem_id 6872
#mb_accession LU115551,LU115552,LU115553,LU115554,LU115555,LU115556

>ms2
92.050400 786601.400000
93.034600 1993638.400000
118.029900 66331.300000
194.061500 68883.300000
212.071600 39150632.000000

>ms2
92.050500 2530079.500000
93.034600 5973060.500000
118.029800 118236.900000
194.061200 201648.300000
212.071600 35685980.000000

>ms2
65.039700 62718.500000
91.019000 109324.900000
92.050600 13693519.000000
93.034500 16751640.000000
118.029800 185743.400000
119.014000 51855.100000
136.040200 25334.300000
169.065900 106629.500000
194.061100 454662.600000
211.063200 18702.300000
212.071700 13039431.000000

>ms2
65.039700 254661.000000
91.019100 203581.000000
92.050600 23436424.000000
93.034500 16391616.000000
118.029800 127931.600000
136.040300 32064.800000
169.065800 83346.600000
194.061200 294306.100000
212.071700 1855801.400000

>ms2
65.039700 583777.400000
75.024100 38202.700000
91.019100 216089.500000
92.050600 25359574.000000
93.034500 12846949.000000
118.030000 46216.000000
169.066000 41035.800000
194.061100 169313.700000
212.071800 174217.800000

>ms2
65.039700 1159150.400000
75.024000 81041.300000
91.019000 175445.500000
92.050600 23921460.000000
93.034500 9928072.000000
118.029900 37692.500000
194.061100 102056.400000

