>compound LU44732110
>parentmass 166.0146
>ionization [M-H]-
>formula C7H5NO4
>rt 874.830000
>profile orbitrap
#smiles_iso C1=CC(=CC(=C1)[N+](=O)[O-])C(=O)O
#smiles_can C1=CC(=CC(=C1)[N+](=O)[O-])C(=O)O
#inchikey AFPHTEQTJZKQAQ-UHFFFAOYSA-N
#pubchem_id 8497
#mb_accession LU047351,LU047352,LU047353,LU047354,LU047355,LU047356,LU074051,LU074052,LU074053,LU074054,LU074055,LU074056

>ms2peaks
63.024100 11060.400000
65.003400 5030.800000
67.019000 2484.900000
75.024100 41526.600000
82.006100 7116.800000
91.019000 4672.000000
92.026800 64850.200000
95.013900 43054.700000
108.021700 91884.900000
119.013900 122227.300000
122.024800 1463926.200000
123.008900 7009.400000
138.019100 2120.200000
166.014600 164238.900000

>ms2peaks
63.024100 6117.500000
65.003300 5109.800000
67.019000 2549.400000
75.024100 42783.500000
82.005900 10357.600000
91.019000 4830.700000
92.026800 73107.900000
95.013900 45096.900000
108.021700 96372.800000
119.013900 115534.300000
122.024800 1470391.200000
123.008800 8438.400000
138.019700 5907.400000
166.014600 164726.500000

>ms2peaks
63.024000 6676.500000
65.003300 2201.400000
75.024000 64057.700000
82.006100 10965.700000
91.019000 16720.400000
92.026900 14168.200000
95.013900 45962.600000
108.021700 96854.600000
119.013800 50437.700000
122.024800 481407.900000
123.008900 4446.100000
138.019500 3410.400000
166.014700 21758.000000

>ms2peaks
63.023900 7601.100000
67.019000 2094.400000
75.024000 60887.100000
82.006100 8535.000000
91.019000 17950.000000
92.026600 7589.900000
95.013900 33056.500000
108.021700 63872.800000
119.013800 15228.000000
122.024800 86025.100000
123.008800 2299.600000
166.014300 5831.400000

>ms2peaks
63.024000 6883.900000
75.024100 39204.000000
82.006100 2747.700000
91.019000 15924.900000
92.026700 1750.000000
95.014000 14337.900000
108.021700 27001.500000
119.013900 2578.800000
122.024900 13509.500000

>ms2peaks
63.024100 3263.600000
75.024000 22872.500000
91.019000 7977.700000
95.014000 5209.600000
108.021700 11088.700000

>ms2peaks
92.026800 93652.700000
95.013900 10264.900000
108.021600 14267.800000
122.024700 2301149.800000
138.019600 17302.800000
166.014600 190071.300000

>ms2peaks
92.026800 107347.400000
95.013800 12663.900000
108.021600 18480.600000
122.024800 2686917.800000
138.019700 21523.400000
166.014600 228704.200000

>ms2peaks
92.026700 22492.400000
95.013900 17529.900000
108.021700 22897.700000
122.024800 1544452.200000
123.008700 2375.100000
138.019600 13594.400000
166.014600 63959.300000

>ms2peaks
92.026800 39748.400000
95.013800 30662.700000
108.021700 35696.900000
122.024800 864303.400000
123.008900 2170.600000
138.019600 10258.800000
166.014700 30765.000000

>ms2peaks
92.026800 5072.300000
95.013800 15741.400000
108.021700 17552.600000
122.024800 206846.500000
123.008900 2216.500000
138.019700 2509.300000
166.014700 8676.100000

>ms2peaks
92.026800 4549.800000
95.013800 9062.500000
108.021800 12180.700000
122.024800 52729.800000

