>compound LU44716806
>parentmass 322.1449
>ionization [M-H]-
>formula C20H21NO3
>rt 1121.340000
>profile orbitrap
#smiles_iso CC(C)C1=C(C(=CC=C1)C(C)C)N2C(=O)C3=C(C2=O)C=C(C=C3)O
#smiles_can CC(C)C1=C(C(=CC=C1)C(C)C)N2C(=O)C3=C(C2=O)C=C(C=C3)O
#inchikey LAKWINYVWJPHQW-UHFFFAOYSA-N
#pubchem_id 11723708
#mb_accession LU024251,LU024252,LU024253,LU024254,LU024255,LU024256

>ms2
306.111900 197913.100000
307.122200 61374.100000
322.144700 53941740.000000

>ms2
306.112900 379961.700000
307.121500 354384.800000
322.144700 55847496.000000

>ms2
91.018900 38026.900000
93.034500 57345.600000
108.021800 117645.700000
160.016400 62846.700000
161.011800 695573.400000
174.055800 60852.200000
187.100200 60609.900000
223.063900 142955.300000
235.100100 248964.700000
236.071200 118242.200000
239.095300 236034.000000
248.107900 639079.600000
251.095100 882238.400000
262.123700 681822.800000
263.107000 46347.000000
263.131600 730147.600000
264.067600 77015.000000
264.101900 110875.300000
264.116500 112751.500000
267.089900 91493.500000
278.118500 76894.300000
278.154500 53123.700000
279.126400 47761.100000
280.097600 45956.100000
290.081900 47955.000000
290.119000 77509.500000
292.097700 47367.400000
306.113500 11236143.000000
307.121300 3707536.200000
322.144700 37317804.000000

>ms2
91.019000 213615.800000
93.034600 151230.500000
95.013800 42837.200000
108.021700 247651.300000
118.029800 73386.600000
119.013800 38529.100000
122.000900 34418.300000
123.008900 71075.400000
133.017000 82135.200000
158.061100 33201.200000
158.097600 158534.400000
160.016600 158371.400000
161.011800 1092017.000000
162.019500 48481.400000
173.024500 119280.800000
173.084500 101515.400000
174.056100 111616.800000
176.071600 38131.300000
177.128100 33323.400000
186.092500 31539.600000
187.100400 98742.200000
202.123600 26968.200000
220.076600 30164.100000
220.113600 26220.600000
221.084800 134575.600000
223.063900 257607.000000
223.100200 34332.800000
224.071600 84467.500000
233.084600 120537.400000
234.092500 234530.900000
234.128700 34301.100000
235.063500 34728.300000
235.100400 496513.600000
235.112400 28159.700000
235.136100 69649.600000
236.071700 674181.900000
236.108000 84156.600000
236.120700 43783.900000
239.095200 498672.200000
246.092400 45762.900000
247.100100 58965.300000
248.108100 2590646.200000
249.092900 47898.700000
250.087600 110411.600000
250.123700 41768.900000
251.095200 805628.500000
252.103200 37507.200000
254.082300 37151.100000
260.108700 74455.500000
262.123700 2648735.000000
263.109300 59360.300000
263.131500 389057.300000
264.066400 148109.000000
264.102800 510463.700000
264.115100 34762.100000
267.090000 153602.900000
276.138900 33829.300000
278.082300 33516.200000
278.118700 257873.900000
279.127000 25455.600000
280.098400 94840.300000
288.102700 40222.200000
290.082100 236996.000000
290.118600 115667.900000
291.088800 211354.500000
291.103500 40242.400000
292.097900 155449.100000
293.106300 34844.400000
306.113600 24563576.000000
307.121200 893198.700000
322.144800 4606328.500000

>ms2
91.019000 475147.700000
92.026600 23107.200000
93.034600 238522.900000
95.013800 107277.900000
105.022000 21339.900000
108.021700 234906.900000
117.022000 26235.100000
118.029900 198642.900000
119.013900 31085.100000
119.050100 36493.200000
121.029400 22722.000000
122.000900 19387.400000
123.008700 58513.700000
132.021800 25487.000000
133.016900 134589.000000
135.008800 21456.000000
142.066300 42346.700000
144.081900 62060.900000
145.029400 37668.700000
156.081800 35468.500000
157.053200 22107.200000
158.061000 80107.300000
158.097500 315582.600000
160.016600 165051.300000
160.040600 19794.600000
161.011800 947481.900000
162.019700 42156.800000
172.076600 49940.100000
173.024400 114418.400000
173.084600 53905.100000
174.056000 38227.300000
180.081800 127417.300000
186.092500 57608.300000
187.100400 28258.500000
188.108300 40688.300000
192.082000 21183.400000
194.097500 34284.800000
195.068500 45936.100000
205.089700 193516.400000
206.060800 22053.800000
206.097300 43081.300000
207.069100 26308.800000
208.076800 80038.400000
218.060600 44109.300000
219.069300 61972.400000
219.105100 38570.500000
220.076900 192805.700000
220.088600 20030.300000
220.113200 105608.400000
221.084500 97590.500000
222.056300 17604.500000
222.092400 55189.100000
223.063800 196816.800000
224.071700 47375.200000
232.076700 72508.300000
233.084600 880597.600000
234.056000 95738.200000
234.092300 310448.800000
234.129100 107242.200000
235.064000 142355.000000
235.076800 19066.600000
235.100500 154310.600000
235.112700 32228.500000
235.135800 19514.700000
236.071700 841114.100000
236.108200 118713.100000
239.095100 282546.900000
245.085100 21624.600000
246.092400 655961.800000
247.078900 55374.200000
247.100200 579985.100000
248.108100 2584834.500000
249.043800 53270.000000
249.079300 70980.400000
249.092400 25893.100000
250.087500 177891.300000
250.101200 19678.300000
250.123700 68459.200000
251.095000 195728.800000
252.103000 39531.100000
260.108100 384113.800000
261.115700 121244.600000
262.123700 2910502.800000
263.095000 89019.000000
263.108300 25726.400000
263.130800 44826.300000
264.066800 107704.300000
264.103000 458094.500000
267.089900 51908.700000
272.072600 22035.200000
273.079400 18333.000000
274.087900 63461.000000
276.067100 113205.100000
276.102800 29075.300000
278.081000 17825.100000
278.118500 223887.500000
279.089200 46692.100000
280.098100 60688.500000
288.102500 78694.000000
290.082400 3407610.200000
291.090000 1069334.000000
292.098500 48325.200000
305.105700 19380.000000
306.113600 16960552.000000
307.121200 42965.400000
322.144800 143469.700000

>ms2
91.019000 630636.200000
92.026800 24679.600000
93.034600 239566.400000
95.013900 129340.500000
105.022100 37762.100000
108.021700 197094.800000
117.022000 35889.000000
118.029900 345616.600000
119.013900 36683.300000
119.050200 60582.300000
123.008800 48256.800000
129.058500 11572.100000
131.037200 10525.000000
132.021600 49664.600000
133.017000 133146.300000
142.066200 140763.000000
144.045500 25936.600000
144.081900 35002.600000
145.029500 55131.100000
156.081600 81870.100000
157.053100 51528.700000
158.061100 102506.200000
158.097500 248932.200000
160.016700 115121.100000
160.040400 26972.100000
161.011900 680220.200000
162.019800 31600.900000
170.061200 16610.800000
172.076500 64065.400000
173.024400 79697.200000
173.085000 15888.000000
180.081900 256461.800000
186.092400 68236.600000
187.100100 10442.900000
188.108200 24674.700000
192.081600 43420.800000
193.090100 16566.900000
194.097700 61875.000000
195.068700 58933.700000
204.081600 39685.200000
205.089600 628908.800000
206.061200 57384.100000
206.097300 65721.300000
207.069300 71116.400000
208.076800 219361.900000
208.113300 15661.600000
209.048200 9974.600000
210.056500 12695.200000
218.061200 99532.400000
219.069100 85409.500000
219.080800 21179.800000
219.105200 119978.500000
220.077100 177586.800000
220.088800 12976.600000
220.113100 84389.300000
221.048000 23307.100000
221.084500 48116.700000
222.056200 16721.900000
222.092400 112234.900000
223.063900 68510.100000
224.071500 16538.800000
232.076800 319759.600000
232.113000 25419.800000
233.084600 1078007.800000
234.056100 253997.300000
234.092400 158825.700000
234.128900 107392.400000
235.064100 188573.000000
235.076700 17779.600000
235.100700 24244.600000
235.113000 13422.800000
236.071700 513130.300000
236.108500 65858.800000
237.080100 17270.400000
238.051500 25309.900000
239.095300 33600.100000
244.076900 97386.100000
245.084500 140518.900000
246.092500 2042125.500000
247.076700 92982.100000
247.100200 540016.900000
248.108100 824657.100000
249.043300 48080.200000
249.079500 73891.200000
250.087300 116868.800000
250.123700 32038.300000
251.095000 37238.300000
252.103500 16549.900000
260.108100 391394.200000
261.115900 127162.800000
262.123700 952049.200000
263.095300 83719.900000
264.066600 80808.200000
264.103100 115173.300000
265.074300 26399.600000
272.072200 50288.900000
273.079900 14414.500000
274.087300 99209.800000
275.073900 13714.000000
275.095300 19630.200000
276.066700 139322.200000
276.103400 34274.700000
278.119000 64523.200000
279.090300 21035.300000
280.098700 16113.900000
288.103400 26959.300000
290.082400 7201513.500000
291.090000 463022.000000
306.113600 3478944.800000

