>compound LU44532292
>parentmass 235.06440000000003
>ionization [M-H]-
>formula C12H13ClN2O
>rt 993.000000
>profile orbitrap
#smiles_iso CC(C#C)N(C)C(=O)NC1=CC=C(C=C1)Cl
#smiles_can CC(C#C)N(C)C(=O)NC1=CC=C(C=C1)Cl
#inchikey BYYMILHAKOURNM-UHFFFAOYSA-N
#pubchem_id 19587
#mb_accession LU019651,LU019652,LU019653,LU019654,LU019655

>ms2peaks
82.066200 28353.500000
96.045500 14947.800000
108.045400 9026.100000
126.011600 148874.300000
151.990800 5636.900000
153.022400 3811.800000
166.042900 8577.600000
178.042900 5210.000000
194.037800 3332.300000
220.041000 4811.700000
235.064400 126528.800000

>ms2peaks
82.066200 17933.400000
96.045500 14969.900000
108.045500 5839.200000
123.056500 3054.900000
126.011600 162296.300000
137.016500 3064.800000
151.991000 3516.900000
153.022400 4716.300000
166.042800 12247.700000
178.042700 3174.000000
194.037700 3177.300000
220.041100 6021.800000
235.064300 32114.300000

>ms2peaks
81.021900 1952.300000
82.066200 6665.700000
96.045400 7306.300000
123.056400 2422.100000
126.011600 122408.000000
137.016200 2809.200000
151.990700 2312.600000
153.022500 4565.100000
166.042800 5301.900000

>ms2peaks
81.021900 2196.900000
96.045400 2766.900000
123.056500 1919.300000
126.011600 59332.200000

>ms2peaks
126.011600 16628.800000

