>compound LU45355426
>parentmass 205.1598
>ionization [M-H]-
>formula C14H22O
>rt 1180.380000
>profile orbitrap
#smiles_iso CCCCCCCCC1=CC=C(C=C1)O
#smiles_can CCCCCCCCC1=CC=C(C=C1)O
#inchikey NTDQQZYCCIDJRK-UHFFFAOYSA-N
#pubchem_id 15730
#mb_accession LU093851,LU093852,LU093853,LU093854,LU093855,LU093856

>ms2peaks
189.128200 19426.700000
205.159600 14910686.000000

>ms2peaks
189.128300 41910.400000
205.159700 16356007.000000

>ms2peaks
149.097200 15633.800000
189.128500 288184.900000
205.159700 13583515.000000

>ms2peaks
133.065600 7016.500000
149.097100 39139.800000
189.128500 665367.700000
205.159700 6045109.000000

>ms2peaks
133.065800 12996.600000
149.097100 25929.000000
173.097100 8539.600000
175.112800 5363.900000
189.128600 572315.200000
205.159800 1040305.300000

>ms2peaks
133.065700 12965.500000
149.097300 8402.700000
173.097000 17826.100000
189.128500 373154.100000
205.159700 93579.200000

