>compound LU45861515
>parentmass 186.023
>ionization [M-H]-
>formula C7H9NO3S
>rt 375.720000
>profile orbitrap
#smiles_iso CC1=CC(=C(C=C1)N)S(=O)(=O)O
#smiles_can CC1=CC(=C(C=C1)N)S(=O)(=O)O
#inchikey LTPSRQRIPCVMKQ-UHFFFAOYSA-N
#pubchem_id 6934
#mb_accession LU132951,LU132952,LU132953,LU132954,LU132955,LU132956

>ms2
79.957200 116604.600000
122.061200 38667.100000
186.023000 3759980.200000

>ms2
79.957300 165945.800000
80.965000 4629.400000
122.061100 55579.200000
186.023000 3297470.000000

>ms2
79.957400 784110.300000
80.965200 5296.700000
107.037700 2590.100000
121.053500 4565.700000
122.061100 221885.100000
186.023100 1955909.500000

>ms2
79.957400 1905642.100000
80.965100 10384.200000
105.034800 2007.100000
107.037700 9827.600000
121.053300 35946.100000
122.061100 399846.500000
186.023100 900096.800000

>ms2
79.957400 2581550.500000
80.965200 10763.200000
107.037600 22647.800000
121.053300 79281.400000
122.061200 283366.300000
186.023100 221693.600000

>ms2
79.957400 2844308.000000
80.965200 20334.500000
105.034500 4973.500000
107.037700 20867.200000
121.053300 88522.600000
122.061200 141833.400000
186.023000 34417.000000

