>compound LU45728817
>parentmass 217.06590000000003
>ionization [M-H]-
>formula C16H10O
>rt 1142.760000
>profile orbitrap
#smiles_iso C1=CC2=C3C(=C1)C=CC4=C(C=CC(=C43)C=C2)O
#smiles_can C1=CC2=C3C(=C1)C=CC4=C(C=CC(=C43)C=C2)O
#inchikey BIJNHUAPTJVVNQ-UHFFFAOYSA-N
#pubchem_id 21387
#mb_accession LU050051,LU050052,LU050053,LU050054,LU050055,LU050056

>ms2
216.058800 19702.200000
217.065700 14418095.000000

>ms2
216.058000 12839.300000
217.065800 11936827.000000

>ms2
216.058200 17985.600000
217.065700 12966596.000000

>ms2
189.070900 195019.100000
216.058200 20147.700000
217.065700 12197954.000000

>ms2
189.071000 858074.900000
216.058200 15763.800000
217.065800 8858267.000000

>ms2
188.063400 14355.700000
189.071000 1026008.100000
216.058100 8013.100000
217.065800 3220313.000000

