>compound LU45540106
>parentmass 231.11390000000003
>ionization [M-H]-
>formula C13H16N2O2
>rt 812.900000
>profile orbitrap
#smiles_iso CC(=O)NCCC1=CNC2=C1C=C(C=C2)OC
#smiles_can CC(=O)NCCC1=CNC2=C1C=C(C=C2)OC
#inchikey DRLFMBDRBRZALE-UHFFFAOYSA-N
#pubchem_id 896
#mb_accession LU096151,LU096152,LU096153,LU096154,LU096155,LU096156

>ms2peaks
58.029800 8863.200000
144.045400 13819.100000
146.024800 2303.200000
172.040300 2145.200000
189.066100 1902.200000
216.090400 192313.200000
231.113800 118233.200000

>ms2peaks
58.029800 12949.600000
144.045500 58008.600000
145.053500 2814.600000
147.033100 1674.100000
159.032300 2888.000000
160.040700 2804.300000
216.090400 248764.200000
231.113900 45043.100000

>ms2peaks
58.029800 15557.400000
84.045600 1654.000000
144.045500 137542.300000
145.053100 10107.300000
147.032900 3975.000000
159.032500 6412.600000
216.090400 65259.100000

>ms2peaks
58.029800 16211.100000
144.045400 265595.500000
145.053300 13485.900000
147.032300 2479.200000
159.032500 4580.900000
216.090300 9602.400000

>ms2peaks
58.029800 14336.700000
92.050600 2116.200000
144.045500 242960.500000
145.053300 6699.800000
147.032500 1881.900000
159.032300 1871.300000

>ms2peaks
58.029900 8352.800000
92.050900 1906.000000
144.045500 142700.300000

