>compound LU45119959
>parentmass 297.1132
>ionization [M-H]-
>formula C18H18O4
>rt 923.220000
>profile orbitrap
#smiles_iso C1[C@@H]([C@H](C(=O)O1)CC2=CC(=CC=C2)O)CC3=CC(=CC=C3)O
#smiles_can C1C(C(C(=O)O1)CC2=CC(=CC=C2)O)CC3=CC(=CC=C3)O
#inchikey HVDGDHBAMCBBLR-WMLDXEAASA-N
#pubchem_id 10685477
#mb_accession LU048351,LU048352,LU048353,LU048354,LU048355,LU048356

>ms2
107.050200 71095.500000
119.050200 41780.100000
121.065800 19183.700000
131.050300 11597.400000
145.065700 11640.200000
147.045500 7457.300000
165.055700 111739.900000
189.055800 112572.900000
251.107500 17326.300000
253.123500 305770.200000
297.113100 7204374.000000

>ms2
65.039600 3125.200000
81.034500 3735.200000
91.055300 5272.600000
93.034600 27864.500000
95.014100 2847.600000
95.050400 5550.300000
106.042700 8524.600000
107.050300 968825.800000
108.022000 4756.300000
109.065900 16211.700000
117.034600 7453.300000
119.050200 455459.900000
120.058100 12108.700000
121.029600 40968.700000
121.065900 354462.900000
130.042500 5476.000000
131.050300 105664.500000
132.058100 39517.300000
133.065800 80106.400000
135.045100 9141.100000
143.050100 23008.500000
145.065900 157320.000000
146.073900 35400.300000
147.045200 91649.500000
152.047700 7298.900000
159.045500 3810.900000
159.081400 5700.400000
165.055700 517915.000000
183.081300 4119.200000
189.055800 727342.200000
195.081200 7593.100000
235.112700 5416.800000
251.107900 122008.400000
253.123500 1955671.000000
279.103000 8237.300000
297.113200 2817316.200000

>ms2
57.034600 3458.800000
65.039700 21818.200000
79.055300 13500.000000
81.034500 3052.800000
91.055500 5700.200000
92.026900 7259.900000
93.034600 60854.200000
95.013900 8231.000000
95.050300 8686.300000
103.055400 3302.700000
106.042400 30213.200000
107.050200 2101890.200000
108.021700 27173.200000
109.029400 11872.900000
109.065900 31316.100000
117.034600 3695.900000
119.050200 625661.100000
120.058100 15387.800000
121.029500 239528.900000
121.065900 947603.000000
130.042400 37839.200000
131.050200 214116.100000
132.058100 92979.200000
133.065900 255480.900000
135.045000 21024.700000
136.016800 3173.200000
137.024500 14711.600000
143.050200 76437.300000
144.058100 7177.300000
145.065900 381244.300000
146.073700 99597.500000
147.045200 137389.000000
149.060600 6687.700000
152.047900 14539.600000
157.066000 14943.200000
158.037500 7607.900000
159.045200 19276.500000
159.081500 16246.700000
161.060700 10672.300000
165.055700 171038.500000
171.045400 7472.700000
173.060900 2549.700000
181.065900 3626.100000
183.081400 6321.800000
189.055800 657502.900000
195.081700 10994.100000
211.112500 4121.400000
225.128700 3096.400000
235.113100 8605.900000
237.092400 2603.200000
249.092800 4232.700000
251.107800 130439.700000
253.123400 1231560.900000
279.103200 6248.100000
297.113100 149934.700000

>ms2
65.039700 69100.900000
67.019000 5509.100000
79.055300 35550.900000
80.026800 5740.600000
82.005800 2648.800000
91.055300 4738.300000
92.026900 8173.600000
93.034600 48065.600000
93.071000 6284.500000
95.013900 18794.300000
95.050300 5447.300000
103.055400 7650.400000
105.071000 4279.200000
106.042400 42640.400000
107.050200 1590414.100000
108.021700 45484.400000
109.029600 9750.200000
109.065800 18150.600000
115.055500 4895.500000
119.050200 430124.900000
120.058000 7766.700000
121.029500 387363.900000
121.065800 490983.100000
123.008600 2364.500000
130.042400 103474.200000
131.050200 225600.600000
132.058000 24499.900000
133.065800 259162.200000
135.045200 4612.700000
136.016500 4412.000000
137.024400 25330.100000
143.050200 109892.200000
144.058000 13325.300000
145.029500 23007.000000
145.065900 316513.700000
146.037500 10094.300000
146.073800 41551.100000
147.045100 69415.300000
149.061100 2457.400000
152.047800 5264.100000
157.066000 10317.300000
158.037400 11389.200000
159.045200 29548.500000
159.081600 16671.900000
161.060700 16868.600000
165.055300 10299.400000
171.045300 7700.100000
173.060900 6357.000000
178.026800 3998.100000
183.081300 2907.800000
185.061000 3753.900000
187.039800 3158.000000
189.055700 173527.800000
195.082400 2625.300000
211.113400 4998.500000
225.128800 3959.200000
235.112400 2353.200000
237.091600 3449.700000
249.092800 3879.900000
251.107600 49070.800000
253.123400 137646.000000

>ms2
57.034500 2727.800000
65.039700 164888.000000
67.018900 13922.700000
79.055400 89534.200000
80.026800 5033.600000
82.005900 3281.800000
91.055300 10095.200000
92.026700 12375.300000
93.034600 44177.400000
93.070900 7981.000000
95.013900 28584.200000
95.050300 6891.100000
102.047500 5517.600000
103.055400 9456.100000
105.071100 6215.200000
106.042400 46823.200000
107.050300 1266266.800000
108.021700 64114.800000
109.029600 10702.100000
109.065900 12385.600000
115.055000 9578.100000
117.034300 3486.000000
119.050200 436817.300000
121.029500 500089.700000
121.065900 185490.000000
123.008700 1989.800000
130.042400 150085.500000
131.050300 244345.900000
132.058100 7429.300000
133.065900 190783.200000
135.045500 2354.900000
136.016600 10676.300000
137.024400 29443.200000
143.050300 184627.300000
144.058100 12256.400000
145.029500 35848.600000
145.065900 207404.700000
146.037400 6058.800000
146.073600 5794.200000
147.045200 62057.300000
149.060600 3534.900000
157.065500 10578.200000
158.037400 13034.300000
159.045200 36353.800000
159.081500 9689.100000
161.060800 12899.000000
171.044900 7609.300000
173.061000 9964.600000
178.027000 4320.300000
185.060500 5449.700000
187.039900 1994.900000
189.055500 34471.100000
237.091600 4577.900000
249.092100 5255.400000
251.107300 10789.800000
253.123600 8495.300000

>ms2
65.039700 210057.000000
67.019000 27157.800000
79.055300 82496.900000
82.006000 4289.700000
91.055400 16890.200000
92.026800 8436.600000
93.034600 32465.100000
93.071100 3129.800000
95.013800 21490.500000
95.050300 7056.900000
102.047600 10031.700000
103.055300 15724.000000
106.042400 30572.400000
107.050300 713058.200000
108.021700 61048.300000
109.029500 5911.500000
115.055400 10885.100000
117.034600 8829.900000
119.050200 346724.900000
121.029500 394547.800000
121.065900 47707.700000
123.008800 3145.200000
130.042400 126922.700000
131.050200 158337.700000
132.058100 3386.000000
133.065900 76273.800000
136.016600 8144.700000
137.024300 24020.300000
143.050200 172001.700000
144.058000 5900.800000
145.029600 33996.700000
145.065900 80102.600000
146.037400 4188.500000
147.045200 32028.600000
157.065900 10543.600000
158.037500 8755.700000
159.045100 27941.200000
159.081300 3245.500000
161.060900 4416.100000
171.045200 4356.300000
173.061100 6025.200000
178.027100 2244.000000
181.065600 3643.700000
183.081700 2826.300000
185.060800 2834.400000
189.055400 2697.900000
237.092700 2874.800000
251.107900 2917.300000

