>compound LU46552947
>parentmass 292.1455
>ionization [M-H]-
>formula C18H19N3O
>rt 921.390000
>profile orbitrap
#smiles_iso CC1=C2CC[C@@H](C(=O)N2C3=CC=CC=C13)CC4=C(NC=N4)C
#smiles_can CC1=C2CCC(C(=O)N2C3=CC=CC=C13)CC4=C(NC=N4)C
#inchikey AEKQMJRJRAHOAP-CYBMUJFWSA-N
#pubchem_id 208947
#mb_accession LU039351,LU039352,LU039353,LU039354,LU039355,LU039356

>ms2peaks
81.045900 1073939.200000
144.081900 3498.900000
156.082000 3466.300000
198.092500 516273.300000
292.145700 151698.300000

>ms2peaks
81.045700 804893.200000
130.066000 4466.700000
144.081700 41924.700000
156.081700 122070.000000
170.097500 7775.000000
198.092300 833747.400000
292.145500 2610.600000

>ms2peaks
81.045700 595136.200000
129.058400 2355.100000
130.066300 12682.900000
131.037600 2297.700000
142.066000 16062.700000
144.081700 167969.200000
156.081700 543063.800000
158.061300 4362.700000
170.097500 93570.000000
180.081400 2649.800000
196.076600 13769.000000
198.092400 414761.300000

>ms2peaks
81.045900 430725.300000
129.058500 5890.300000
130.066400 17887.700000
131.037600 3084.300000
142.066300 29306.000000
144.082000 342054.000000
155.074300 20671.400000
156.082000 474245.800000
157.053600 2024.900000
158.061500 5863.600000
170.097700 175606.200000
180.082100 3426.000000
196.077100 13396.500000
198.092700 59942.400000

>ms2peaks
81.045900 296956.200000
129.058400 16190.500000
130.066200 18745.200000
142.066300 50506.500000
144.082000 444587.000000
154.066200 5313.200000
155.074200 36395.700000
156.082000 314917.200000
157.053400 2804.300000
158.061200 3662.300000
168.081600 3274.000000
170.097700 129949.700000
181.053300 5665.000000
182.061500 1992.300000
196.076900 11361.300000
198.092800 8043.000000

>ms2peaks
81.045900 202283.600000
129.058400 27491.000000
130.066200 8051.800000
142.066300 72543.400000
144.082000 366675.800000
154.066400 6755.600000
155.074200 27742.900000
156.082000 147856.000000
157.053600 2318.300000
158.061100 1901.200000
168.081900 5403.700000
170.097700 50836.000000
181.053500 7404.200000
182.061600 2502.800000
196.077000 4178.200000

