>compound LU46949429
>parentmass 350.0275
>ionization [M-H]-
>formula C14H13N3O4S2
>rt 1007.760000
>profile orbitrap
#smiles_iso CC1=CN=C(S1)NC(=O)C2=C(C3=CC=CC=C3S(=O)(=O)N2C)O
#smiles_can CC1=CN=C(S1)NC(=O)C2=C(C3=CC=CC=C3S(=O)(=O)N2C)O
#inchikey ZRVUJXDFFKFLMG-UHFFFAOYSA-N
#pubchem_id 54677470
#mb_accession LU048751,LU048752,LU048753,LU048754,LU048755,LU048756

>ms2peaks
84.009100 7363.600000
113.017700 114333.700000
119.050100 6417.900000
131.037400 60636.900000
145.029400 7067.900000
146.061200 2124108.500000
160.040700 25094.900000
168.023700 57518.400000
182.039500 93968.200000
192.012500 83959.200000
210.023000 1781139.500000
214.062100 6866.300000
217.043500 6254.000000
252.078100 93665.300000
286.065600 5716260.000000
350.027500 2325984.200000

>ms2peaks
86.007000 4834.100000
113.017900 1382218.100000
118.066400 4797.800000
119.050300 112440.900000
124.994100 6973.300000
127.033500 11353.400000
128.050500 24351.000000
131.037700 456835.800000
135.986200 5969.300000
136.022600 23622.000000
140.028900 9269.800000
144.045600 78443.600000
145.029600 58672.100000
146.061200 3892924.200000
148.022500 19568.500000
148.994300 6804.800000
150.985900 8680.200000
151.981100 6088.000000
160.040500 37578.900000
163.010100 6668.800000
164.017600 93194.800000
164.988800 19039.100000
168.023600 10929.500000
172.040300 7607.900000
176.989200 23144.800000
182.039400 46505.000000
192.012600 461525.700000
200.047000 4074.200000
208.087800 4163.300000
210.023100 430661.800000
214.061900 6189.400000
217.043800 21193.700000
240.077900 9949.400000
243.047100 5704.900000
252.078000 234011.000000
271.042100 47995.700000
286.065700 558653.300000
350.027700 9149.300000

>ms2peaks
56.980500 5756.300000
57.975700 20690.400000
65.003300 5148.000000
70.983600 3358.100000
71.991400 10118.300000
79.030200 12013.500000
80.980600 2960.000000
84.009300 2676.300000
86.007000 37113.300000
91.055300 9736.900000
96.999300 3857.700000
97.994400 9492.700000
101.039800 3617.100000
102.035000 6580.600000
106.996000 22935.400000
107.991200 4845.600000
109.011600 21014.200000
111.002300 9303.800000
112.010200 15330.500000
113.017900 2656382.200000
116.050600 18398.900000
118.066300 12820.300000
119.050200 771157.200000
120.999300 8121.700000
122.990800 2802.100000
123.986200 3528.800000
124.994000 31118.400000
127.033500 15830.800000
128.050500 77568.400000
131.037600 792730.100000
132.045500 3778.900000
134.007000 36351.200000
134.990900 17452.500000
135.986300 24205.800000
136.022600 99248.700000
137.006600 3458.600000
138.013000 9753.800000
140.028700 8560.800000
144.045500 370483.100000
145.029500 103691.400000
145.040500 9463.600000
146.061100 2232853.800000
147.014400 4481.600000
148.022500 45346.100000
148.993800 28257.100000
150.985900 56162.700000
151.981100 26982.100000
160.040500 17535.900000
162.002000 12372.500000
162.056500 3874.500000
163.009800 30588.100000
164.017500 163848.800000
164.989000 32735.100000
172.040500 16157.900000
176.989000 38685.600000
182.039200 12630.200000
192.012500 279086.800000
199.038800 4808.000000
200.046100 3035.100000
208.087700 33206.500000
210.023000 41043.300000
214.062300 7781.800000
217.043900 15893.700000
240.077600 9587.000000
243.046900 8048.400000
252.077800 136083.400000
271.042200 54895.400000
286.065600 15685.200000

>ms2peaks
57.975600 17769.000000
65.003200 2420.400000
65.040000 2053.600000
71.991400 2634.600000
79.030100 8781.400000
86.007100 12463.800000
91.055300 6876.500000
92.025500 6919.400000
93.034500 3658.000000
96.999100 2447.100000
97.994500 16342.500000
101.039600 3421.600000
102.035000 3084.300000
105.022000 2426.800000
106.996100 29888.700000
109.011600 10108.900000
111.002200 3139.500000
112.010100 11208.000000
113.017900 455177.800000
116.050600 8636.800000
118.066700 2932.800000
119.050200 347619.900000
120.999200 17794.000000
122.991000 6594.400000
124.994000 10551.600000
127.033700 2569.800000
128.050600 12432.600000
131.037600 131667.400000
134.007000 28128.300000
134.990900 4707.900000
135.986200 8310.000000
136.022600 25557.300000
138.013100 6792.100000
144.045500 137895.900000
145.029400 30203.300000
145.040600 6390.900000
146.061100 151091.200000
147.014500 1975.300000
148.022800 6206.900000
148.993800 13977.700000
150.985800 14848.900000
151.981100 11056.800000
162.001700 5078.500000
163.009900 7843.000000
164.017500 20672.500000
164.989000 7826.200000
176.988900 7009.600000
192.012400 15718.300000
199.039200 3894.700000
208.088200 10939.200000
252.077800 7746.400000
271.042800 4694.200000

>ms2peaks
56.980400 6239.100000
57.975700 40845.100000
58.996000 2299.900000
63.962500 5818.000000
65.003300 2630.000000
65.014500 11905.500000
65.039700 2764.800000
65.998500 10299.100000
71.991400 4237.000000
75.024000 5843.300000
79.030200 16267.600000
81.975700 3393.100000
83.991200 2858.500000
86.007000 21434.300000
91.055300 3772.100000
92.025400 12789.600000
93.034500 9276.000000
97.994500 72182.300000
101.039500 8848.100000
102.034900 10275.200000
105.021900 3238.100000
106.996100 58262.300000
107.991400 5414.300000
109.011700 10631.100000
111.002400 6027.800000
112.010100 13909.100000
113.017900 242182.800000
116.050400 15882.100000
118.041100 3322.800000
119.050200 357953.800000
120.999200 72597.700000
122.990800 9695.200000
123.986200 3425.200000
124.993900 9373.800000
128.050400 3086.100000
131.037600 68878.200000
132.045500 2485.100000
134.007000 47547.800000
134.991100 2734.300000
135.986400 5431.800000
136.022500 16870.600000
137.006900 3288.200000
138.013100 9314.700000
144.045500 147240.100000
145.029700 22071.100000
145.040800 11378.000000
146.061200 36427.100000
148.022500 3402.000000
148.994100 11373.000000
150.986000 6460.200000
151.981200 7711.100000
162.002000 8213.600000
163.009800 6348.000000
164.017700 6442.600000
164.989100 6887.700000
166.008300 2382.400000
176.989000 4009.700000
208.088100 6810.700000

>ms2peaks
56.980400 25483.800000
57.975700 109727.100000
58.996100 2678.100000
63.962400 10292.400000
65.014500 60912.000000
65.998500 20240.300000
70.983500 8627.200000
71.991300 2644.600000
75.024000 8493.700000
79.030200 41389.200000
80.980400 6227.400000
81.975700 17410.500000
83.991300 6443.800000
86.007000 21461.200000
91.055500 3383.600000
92.025400 17239.800000
93.034600 27418.700000
97.994500 219973.500000
101.039700 14431.700000
102.034800 11997.300000
105.022000 6121.800000
106.996100 97823.000000
107.991400 9780.400000
109.011700 17352.800000
111.002200 9269.200000
112.010100 16243.600000
113.017900 117589.400000
116.050500 23259.700000
118.041000 9206.900000
119.050200 245551.900000
120.999100 153637.400000
122.990600 13788.900000
124.994000 2476.100000
131.037600 38787.900000
132.045500 2734.100000
134.007000 46856.100000
134.991600 2552.700000
135.986500 2574.500000
136.022500 9307.700000
136.993900 2669.900000
138.013300 4340.600000
144.045500 161362.000000
145.029600 17252.400000
145.040600 16472.300000
146.061100 6555.700000
148.994000 6202.600000
151.980900 3948.900000
162.001900 7809.300000
164.988400 2058.500000
208.087600 2887.700000

