>compound LU46340277
>parentmass 183.05819999999997
>ionization [M-H]-
>formula C10H13ClO
>rt 1137.960000
>profile orbitrap
#smiles_iso CC1=CC(=C(C=C1Cl)C(C)C)O
#smiles_can CC1=CC(=C(C=C1Cl)C(C)C)O
#inchikey KFZXVMNBUMVKLN-UHFFFAOYSA-N
#pubchem_id 6982
#mb_accession LU083351,LU083352,LU083353,LU083354,LU083355,LU083356

>ms2
147.081600 38322.600000
167.026700 24839.800000
168.034100 11676.600000
183.058100 8829811.000000

>ms2
147.081600 66135.600000
167.027000 32816.600000
168.034800 19754.000000
183.058100 9034977.000000

>ms2
141.011400 7763.200000
147.081600 193695.100000
167.027000 43716.500000
168.034600 26864.200000
181.042700 16224.100000
183.058100 4824176.500000

>ms2
105.071000 2622.900000
107.050400 4195.200000
141.011200 7553.600000
147.081600 157336.800000
167.026700 24434.900000
168.034500 8230.300000
181.042600 14509.600000
183.058200 1267610.400000

>ms2
105.070900 4799.200000
107.050400 3719.400000
141.011000 2514.100000
147.081600 61534.900000
167.027000 10210.700000
181.042500 6415.600000
183.058200 179500.000000

>ms2
107.050200 2992.200000
147.081600 17194.100000
167.026900 4205.500000
183.058200 16863.800000

