>compound LU47380761
>parentmass 338.00590000000005
>ionization [M-H]-
>formula C15H11ClFNO3S
>rt 1002.720000
>profile orbitrap
#smiles_iso C1=CC=C(C=C1)/C=C/S(=O)(=O)NC(=O)C2=C(C=C(C=C2)F)Cl
#smiles_can C1=CC=C(C=C1)C=CS(=O)(=O)NC(=O)C2=C(C=C(C=C2)F)Cl
#inchikey AUMLVMKWJGCERZ-CMDGGOBGSA-N
#pubchem_id 15603288
#mb_accession LU073651,LU073652,LU073653,LU073654,LU073655,LU073656

>ms2
119.050200 587081.400000
171.997100 188050.800000
208.007600 23079.200000
238.067800 24026.600000
302.029300 24084.300000
338.005900 12338456.000000

>ms2
61.970600 9761.400000
63.962500 11081.400000
77.965700 20783.900000
79.981200 75529.400000
101.039700 405488.100000
105.960500 43147.900000
116.050600 36798.300000
117.034500 20628.400000
119.050200 5323043.500000
128.991200 113810.000000
136.020300 16422.200000
165.001600 44237.700000
167.017100 16264.600000
171.997100 2476585.500000
183.012000 25566.500000
199.982500 16460.700000
208.007300 144548.400000
238.067400 237201.300000
247.033700 7444.800000
302.029300 148024.000000
338.006100 4262179.000000

>ms2
61.970500 16125.900000
63.962400 25502.300000
77.965500 28485.300000
79.981200 62435.000000
80.965200 14071.100000
91.055300 19377.200000
101.039700 752970.900000
105.960400 14642.700000
116.050600 60660.900000
117.034600 134745.800000
119.050200 3845909.000000
128.991300 55277.200000
136.020400 17310.200000
153.986800 11453.400000
165.001400 5481.200000
167.017200 26304.800000
171.997100 722267.000000
183.012200 35396.300000
183.987400 12205.400000
199.982300 9236.400000
208.007700 16596.300000
238.067400 140425.500000
247.033400 5439.200000
302.029900 17362.500000
338.006100 103361.100000

>ms2
61.970600 24080.700000
63.962400 42456.900000
64.970400 3120.200000
77.965500 25724.700000
79.981100 25242.600000
80.965200 30130.300000
91.055300 41499.900000
101.039600 959065.300000
116.050500 70333.500000
117.034600 286287.300000
119.050200 1897475.400000
128.991400 11000.300000
136.020600 15129.100000
153.986500 16558.800000
167.017100 8267.500000
171.997100 46725.200000
183.012200 13454.900000
183.987600 6643.000000
238.067400 40847.200000

>ms2
61.970600 25045.600000
63.962500 61187.500000
65.039700 4345.700000
77.965600 18494.800000
79.957400 9587.900000
79.981200 10030.900000
80.965300 35213.300000
91.055300 49857.500000
101.039700 987234.300000
116.050600 47883.300000
117.034700 424410.200000
119.050300 837311.200000
133.980400 10878.200000
136.020500 12208.700000
153.986600 6592.300000
183.987600 5456.200000
199.982100 3626.800000
238.067400 10954.900000

>ms2
61.970600 14247.100000
63.962500 60622.400000
64.970500 2624.000000
65.039800 4628.500000
77.965600 10918.200000
79.957400 6690.900000
79.981000 3803.200000
80.965200 23511.400000
91.055400 36060.700000
101.039700 582576.400000
116.050600 20314.600000
117.034600 270000.800000
119.050200 221522.600000
133.980400 7375.600000
136.020200 2913.900000

