>compound LU47026495
>parentmass 185.04549999999998
>ionization [M-H]-
>formula C8H10O5
>rt 478.240000
>profile orbitrap
#smiles_iso C1CC2C(C(C1O2)C(=O)O)C(=O)O
#smiles_can C1CC2C(C(C1O2)C(=O)O)C(=O)O
#inchikey GXEKYRXVRROBEV-UHFFFAOYSA-N
#pubchem_id 3225
#mb_accession LU036851,LU036852,LU036853,LU036854,LU036855,LU036856

>ms2
141.055700 766323.200000
185.045500 242725.900000

>ms2
141.055800 532026.000000
185.045600 119438.600000

>ms2
95.049900 2188.500000
141.055800 661118.900000
185.045500 24392.800000

>ms2
95.050200 1502.000000
141.055800 260218.500000
185.045700 2471.200000

>ms2
141.055800 64802.600000

>ms2
141.055700 32383.400000

