>compound LU47822485
>parentmass 491.0831
>ionization [M-H]-
>formula C22H20O13
>rt 795.780000
>profile orbitrap
#smiles_iso CC1=C2C(=CC(=C1C(=O)O)O)C(=O)C3=C(C2=O)C(=C(C(=C3O)O)[C@H]4[C@@H]([C@H]([C@@H]([C@H](O4)CO)O)O)O)O
#smiles_can CC1=C2C(=CC(=C1C(=O)O)O)C(=O)C3=C(C2=O)C(=C(C(=C3O)O)C4C(C(C(C(O4)CO)O)O)O)O
#inchikey DGQLVPJVXFOQEV-JNVSTXMASA-N
#pubchem_id 10255083
#mb_accession LU136551,LU136552,LU136553,LU136554,LU136555,LU136556

>ms2peaks
327.050800 3690.400000
357.061200 3825.800000
447.093400 73549.200000
491.083100 250311.300000

>ms2peaks
283.060500 2690.200000
285.039900 5990.800000
298.049000 10634.300000
299.055900 28743.400000
311.055700 2834.400000
327.051200 90132.100000
339.050500 8299.800000
357.061600 113789.500000
447.093000 47967.600000
491.082100 3794.700000

>ms2peaks
227.072200 2283.600000
255.066500 2982.700000
270.053600 12964.700000
271.061700 5585.900000
281.045800 3573.700000
282.054600 2365.300000
283.061600 6911.600000
284.033000 7186.900000
285.040700 11917.600000
297.040600 6392.400000
298.048400 56078.700000
299.056100 66251.700000
309.040600 4601.700000
311.056500 5397.100000
327.051100 38045.600000
339.050800 10854.600000
357.061600 20473.900000

>ms2peaks
107.050000 1799.900000
183.081300 5891.300000
212.048600 2261.800000
225.056000 4522.900000
226.063300 2616.500000
227.071100 7150.700000
241.050800 4168.700000
242.058500 7229.100000
253.050900 4619.500000
254.058400 2143.400000
255.030500 2319.000000
255.066600 3987.600000
269.045200 13849.100000
270.053400 32893.900000
271.061400 16200.400000
281.046100 5869.900000
282.053300 2151.700000
283.060800 4134.500000
284.031700 4408.500000
285.040300 7512.700000
297.040500 4307.200000
298.048500 26772.400000
299.056400 22193.400000
309.039300 2940.700000
311.056500 3228.900000

>ms2peaks
107.050200 2466.200000
159.045000 3019.600000
183.045000 2292.900000
183.082000 3383.800000
197.061100 4645.000000
209.060900 2461.700000
212.048200 2846.400000
225.055800 7713.400000
226.063100 2001.200000
227.035300 5155.700000
227.072000 4082.900000
241.050900 17613.100000
242.057900 10469.600000
253.050500 6771.700000
254.059000 2952.900000
255.029600 3053.200000
269.045600 20133.300000
270.053600 13570.600000
271.061400 7932.800000
281.045400 2304.300000
298.047900 2098.400000
299.056200 3180.800000

>ms2peaks
107.050400 5457.300000
159.044900 3326.500000
183.045000 1942.300000
197.060600 3227.800000
209.060300 3343.600000
212.048800 2371.200000
225.055900 7985.700000
227.035500 8973.400000
241.050700 17130.200000
253.050100 3729.300000
255.031100 2623.200000
269.045400 12162.300000
270.054400 2601.900000

