>compound LU47133997
>parentmass 327.1714
>ionization [M-H]-
>formula C19H24N2O3
>rt 811.500000
>profile orbitrap
#smiles_iso CC(CCC1=CC=CC=C1)NCC(C2=CC(=C(C=C2)O)C(=O)N)O
#smiles_can CC(CCC1=CC=CC=C1)NCC(C2=CC(=C(C=C2)O)C(=O)N)O
#inchikey SGUAFYQXFOLMHL-UHFFFAOYSA-N
#pubchem_id 3869
#mb_accession LU022051,LU022052,LU022053,LU022054,LU022055,LU022056

>ms2peaks
164.035700 5622.000000
176.059100 11577.700000
291.150200 8053.800000
309.161000 571916.400000
327.171500 4020526.000000

>ms2peaks
65.998500 3711.100000
118.029800 37893.000000
131.037700 55745.500000
132.045500 170419.500000
133.017100 3602.100000
133.053300 4798.300000
134.024700 9667.000000
136.040400 11648.300000
144.045200 7184.400000
146.024700 46785.100000
148.040300 10868.000000
149.048000 51254.000000
150.056000 9751.100000
157.041100 3660.800000
158.048200 6308.300000
159.056400 22434.900000
162.056000 25471.900000
163.027500 16675.600000
164.035100 14430.700000
171.056100 6410.900000
175.051300 53551.600000
176.059100 609762.100000
177.066900 32905.100000
181.038100 48347.000000
187.087600 38902.600000
199.088000 16060.300000
205.098100 14976.500000
248.108100 12245.100000
266.155100 194987.800000
291.150400 531413.500000
309.160900 3553716.200000
327.171400 942864.900000

>ms2peaks
65.998600 6481.700000
91.055200 5807.500000
93.034600 9427.300000
106.029800 4792.700000
106.042400 95145.600000
107.050200 9573.300000
108.021600 33437.200000
109.029500 3546.900000
117.034500 3518.200000
118.029800 72377.900000
119.049900 2580.900000
120.045400 2468.700000
121.029500 3088.100000
123.045200 8120.300000
131.037600 189425.000000
132.045500 290209.000000
133.017200 10093.100000
133.053300 73531.100000
134.024800 18146.000000
134.061200 12228.600000
136.040400 17925.800000
138.032300 13061.000000
144.045300 20496.700000
146.024800 79851.500000
146.061100 9656.600000
148.040500 9822.400000
149.048100 197759.300000
150.056000 8231.800000
157.040800 110481.100000
158.048400 37582.300000
158.060700 3886.500000
159.056300 73725.200000
160.077100 7746.400000
162.056000 33437.900000
162.092300 4887.800000
163.027500 64150.200000
164.035300 19873.000000
169.040200 2528.600000
171.056500 18213.800000
175.051300 470492.900000
176.059100 914129.400000
177.067000 39961.800000
181.038100 209814.800000
185.072100 35321.200000
186.066900 2575.300000
186.080000 7405.000000
187.087700 80693.200000
189.067000 16623.500000
199.087700 33698.200000
203.082500 8665.100000
205.098000 8261.500000
248.108200 26397.000000
258.081600 7107.200000
266.155100 362748.200000
275.118900 4260.300000
291.150400 599800.900000
309.160900 417012.200000
327.171400 9173.000000

>ms2peaks
65.998500 8563.300000
91.018900 5758.500000
91.055300 7093.500000
93.034500 16191.500000
95.050300 7592.600000
105.034500 3800.300000
106.042400 92199.500000
107.050200 15344.700000
108.021700 28680.000000
117.034600 9811.100000
118.029900 61027.700000
119.050100 11662.800000
120.045400 2684.400000
121.029700 7508.100000
123.045400 11681.800000
131.037600 287817.600000
132.045500 105909.400000
133.016900 6807.800000
133.053300 104667.600000
134.024600 7580.400000
134.061200 18441.000000
136.040200 10896.600000
138.032000 19389.200000
142.029800 2627.300000
144.045500 26278.200000
146.024600 23363.700000
146.061100 21227.600000
148.040700 2747.000000
149.048200 167993.400000
150.055900 3750.300000
157.040700 480966.300000
158.024900 8900.500000
158.048600 45270.100000
158.060200 10438.200000
159.056400 58077.400000
160.076700 13597.200000
162.055900 20358.900000
162.092200 2225.900000
163.027500 117103.100000
164.035500 30436.800000
169.040700 4459.000000
171.056400 28078.200000
175.051300 558040.200000
176.059100 330763.200000
177.067000 11762.000000
181.038100 205260.300000
183.056300 2911.100000
184.064300 4039.700000
185.072000 35114.900000
186.067200 7564.000000
186.079700 7587.700000
187.087500 32025.000000
189.066800 28195.800000
199.087700 16832.100000
203.082500 10021.000000
248.107300 2815.700000
258.080200 2725.700000
266.155100 64840.100000
275.118500 4190.200000
291.150400 115661.600000
309.161100 9168.100000

>ms2peaks
65.003300 2389.100000
65.998600 6545.900000
89.039900 3075.600000
90.035100 2304.500000
91.018900 16559.100000
93.034700 11625.000000
95.050200 9280.100000
105.034500 5491.300000
106.042400 29737.200000
107.050100 14312.400000
108.021800 10646.700000
117.034600 10543.800000
117.045900 3117.600000
118.029900 48769.100000
119.050300 20305.300000
121.029600 23189.100000
123.045300 6105.100000
130.029900 3588.600000
131.037700 232370.100000
132.045500 45716.400000
133.053400 71151.700000
134.061200 11132.900000
136.040400 5909.800000
138.032200 5130.900000
143.025300 2862.000000
144.045600 31369.600000
145.053400 4261.300000
146.024800 8509.100000
146.061100 25398.500000
149.048200 88394.400000
156.033000 11052.700000
156.045700 2515.100000
157.040800 711684.200000
158.024600 23444.700000
158.048600 39768.100000
158.061200 8301.300000
159.056500 19929.600000
159.068300 2376.600000
160.040600 3571.100000
160.076900 11290.900000
162.056000 13423.300000
163.027500 89573.000000
164.035300 24707.900000
169.040600 8709.400000
170.048600 5977.300000
171.056400 34219.400000
174.043700 5793.100000
175.051300 264876.600000
176.059100 61523.700000
177.066900 2444.700000
181.038100 97512.000000
183.056500 5925.700000
184.064000 2756.500000
185.072300 21792.100000
186.067600 4827.800000
187.087900 6204.500000
189.067300 12559.100000
199.087200 3772.500000
203.083000 2476.500000
291.150100 5243.800000

>ms2peaks
65.003300 7825.100000
65.998600 8392.300000
89.039700 7729.700000
90.035100 3428.300000
91.018900 20738.600000
91.055300 3115.600000
93.034700 11996.200000
95.050300 5066.100000
105.034600 5545.500000
106.042400 6821.300000
107.050300 9763.900000
108.021700 4532.900000
117.034800 12559.400000
117.045800 2891.200000
118.029900 42481.400000
119.050300 32267.300000
120.045500 5771.900000
121.029500 41057.600000
123.045100 3127.200000
130.029800 11870.500000
131.037700 122543.900000
132.045500 37904.100000
133.053400 26925.600000
134.061300 4266.500000
142.030200 3372.800000
143.025000 5906.300000
144.045500 41786.400000
145.053400 6312.600000
146.024900 5522.700000
146.061300 15939.500000
149.048100 27015.100000
156.033100 27209.000000
156.045700 6028.900000
157.040800 566673.400000
158.024700 18250.300000
158.048700 23646.200000
158.061300 8324.000000
159.056400 5862.900000
159.069000 2615.500000
160.040300 2104.300000
160.076800 5878.900000
162.056500 6242.800000
163.027500 44610.900000
164.035500 15589.900000
169.040800 10409.100000
170.048700 10600.100000
171.056500 15034.700000
174.043400 10888.700000
175.051300 73587.400000
176.059000 8208.500000
181.038200 32568.800000
183.056300 3875.300000
185.071600 10782.100000
189.067200 5404.400000

