>compound LU47968675
>parentmass 297.2435
>ionization [M-H]-
>formula C18H34O3
>rt 1189.440000
>profile orbitrap
#smiles_iso CCCCCC[C@H](C/C=C\CCCCCCCC(=O)O)O
#smiles_can CCCCCCC(CC=CCCCCCCCC(=O)O)O
#inchikey WBHHMMIMDMUBKC-QJWNTBNXSA-N
#pubchem_id 643684
#mb_accession LU021951,LU021952,LU021953,LU021954,LU021955,LU021956

>ms2
183.139000 1371226.500000
279.233000 316831.800000
297.243400 18134882.000000

>ms2
111.081500 8047.600000
113.097200 82526.000000
165.128600 43420.400000
183.138900 7528853.500000
279.232900 1036546.500000
295.228000 41130.200000
297.243400 5474942.500000

>ms2
59.013900 7731.400000
83.050300 9940.800000
97.066000 14198.800000
111.081500 20663.700000
113.097200 93229.500000
127.112900 8932.200000
149.096900 4907.700000
165.128500 42068.400000
183.139000 4213809.500000
261.222200 11462.100000
279.232900 489070.900000
295.228200 31679.400000
297.243400 391884.100000

>ms2
59.013800 2637.400000
71.013900 2332.000000
83.050200 5124.000000
93.034600 6991.700000
97.065900 5477.200000
111.081700 8340.100000
113.097300 24938.400000
127.112500 3053.400000
149.097100 4308.700000
163.113000 2307.600000
165.127900 3600.600000
183.139000 264591.900000
279.232800 19407.500000
295.228900 2857.900000
297.243800 4038.000000

>ms2
93.034600 6194.200000
111.081700 5700.600000
113.097300 6313.100000
183.139200 7421.400000

>ms2
71.013800 3825.500000
93.034400 2498.800000

