>compound LU47214132
>parentmass 256.02849999999995
>ionization [M-H]-
>formula C10H11NO5S
>rt 225.780000
>profile orbitrap
#smiles_iso CC(=O)CC(=O)NC1=CC=C(C=C1)S(=O)(=O)O
#smiles_can CC(=O)CC(=O)NC1=CC=C(C=C1)S(=O)(=O)O
#inchikey GRLSWESXIFWOBF-UHFFFAOYSA-N
#pubchem_id 172537
#mb_accession LU108251,LU108252,LU108253,LU108254,LU108255,LU108256

>ms2peaks
79.957300 3360.300000
170.999700 2270.800000
172.007300 14408.500000
197.986600 391555.100000
256.028500 1083774.100000

>ms2peaks
57.034600 5589.500000
79.957500 7472.400000
134.024600 3579.000000
171.000100 2220.200000
172.007400 41623.700000
196.007700 6600.800000
197.986700 1017174.900000
214.018000 4932.200000
238.017000 2509.300000
256.028700 457207.000000

>ms2peaks
57.034600 11115.700000
78.035000 5596.200000
79.957100 23083.400000
106.029800 17241.300000
108.045400 4500.300000
134.024800 107079.000000
171.000200 8468.500000
172.007400 86967.500000
196.007500 14883.300000
197.986600 1210773.000000
214.018300 4859.400000
238.018100 6548.700000
256.028700 35153.000000

>ms2peaks
57.034600 10047.400000
78.034900 37132.700000
79.957400 120057.400000
80.965200 3712.600000
95.013900 2166.200000
106.029800 86135.900000
107.037700 4786.400000
108.045500 9459.800000
134.024800 277905.000000
170.999600 26400.600000
172.007500 89392.800000
196.007500 8148.300000
197.986700 658669.100000

>ms2peaks
57.034500 11753.800000
78.034900 117316.200000
79.957400 323664.400000
80.965000 8180.300000
95.013800 3475.500000
106.029800 120423.400000
107.037700 23160.400000
108.045500 16106.100000
118.030000 4922.600000
134.024800 224826.000000
170.999700 34328.900000
172.007400 63690.500000
196.006900 2470.900000
197.986700 212333.300000

>ms2peaks
57.034500 9624.100000
78.035000 139299.400000
79.957400 464264.400000
80.965100 12044.400000
106.029900 67830.400000
107.037800 33378.800000
108.045600 13121.900000
118.029900 5714.000000
134.024900 93342.600000
170.999700 21802.700000
172.007600 27392.700000
197.986700 40196.900000

