>compound LU47528145
>parentmass 246.0327
>ionization [M-H]-
>formula C13H10ClNO2
>rt 1094.640000
>profile orbitrap
#smiles_iso C1=CC=C(C=C1)NC(=O)C2=C(C=CC(=C2)Cl)O
#smiles_can C1=CC=C(C=C1)NC(=O)C2=C(C=CC(=C2)Cl)O
#inchikey KGYNGVVNFRUOOZ-UHFFFAOYSA-N
#pubchem_id 14869
#mb_accession LU137151,LU137152,LU137153,LU137154,LU137155,LU137156

>ms2
126.995600 2599414.500000
246.032600 50684060.000000

>ms2
91.018900 46809.300000
92.050400 90019.600000
126.995600 14490138.000000
151.990900 47393.300000
203.027500 71094.900000
228.022500 50115.500000
246.032700 36838092.000000

>ms2
91.019000 416817.700000
92.050600 761473.800000
93.034800 57905.300000
124.980000 155448.600000
126.995600 30640092.000000
151.990900 62325.700000
152.974800 45827.500000
203.027100 150367.600000
210.056300 60960.000000
228.022300 122207.500000
246.032700 9335822.000000

>ms2
91.018900 1315320.000000
92.050600 2069442.000000
93.034600 84709.000000
124.980000 291382.600000
126.995500 21024328.000000
151.990900 48395.000000
166.066300 27517.700000
203.026700 57211.200000
210.056100 40619.200000
228.022300 84657.900000
246.032600 961283.900000

>ms2
65.003300 19111.100000
89.003200 28046.400000
91.019000 1731007.800000
92.050600 2914791.000000
93.034600 84353.100000
124.980000 235855.100000
126.995600 8219075.000000
133.016600 16655.100000
151.990800 25379.000000
164.050600 9755.000000
166.065800 14556.700000
192.044900 9618.000000
203.026700 11841.900000
210.056100 12719.800000
228.022500 16741.800000
246.032500 42347.500000

>ms2
65.003400 24926.900000
89.003400 40686.200000
91.019000 1352873.100000
92.050600 2975785.800000
93.034600 63416.500000
124.980000 146423.200000
126.995600 2525511.500000
133.017000 10052.900000
151.990700 13259.000000
164.050200 8003.600000
192.045100 11949.400000
228.021800 9778.400000

