>compound LU47262065
>parentmass 456.13320000000004
>ionization [M-H]-
>formula C23H24ClN3O5
>rt 1041.580000
>profile orbitrap
#smiles_iso C1[C@H]([C@H](CN1C(=O)[C@@H]([C@H](CC2=CC=CC=C2)NC(=O)C3=CC4=C(N3)C=CC(=C4)Cl)O)O)O
#smiles_can C1C(C(CN1C(=O)C(C(CC2=CC=CC=C2)NC(=O)C3=CC4=C(N3)C=CC(=C4)Cl)O)O)O
#inchikey GVDRRZOORHCTAN-MJUUVYJYSA-N
#pubchem_id 6451325
#mb_accession LU031051,LU031052,LU031053,LU031054,LU031055,LU031056

>ms2
193.017400 590908.800000
194.001400 12817.400000
262.108500 28733.300000
295.064600 20262.100000
325.075000 1416653.600000
353.069900 156384.700000
438.123000 56244.700000
456.133100 10726591.000000

>ms2
66.034900 67699.400000
71.013800 15162.400000
73.029500 26636.400000
100.040400 9874.000000
102.056100 45923.200000
124.040300 8537.000000
130.050900 9892.500000
131.050300 22036.800000
133.065700 6939.200000
149.004300 19538.200000
150.011600 419156.200000
174.056100 24068.200000
175.006900 33281.800000
178.006900 8920.000000
190.087500 45244.900000
193.017300 6878960.500000
194.001200 84107.000000
198.091900 21822.100000
205.017400 53741.900000
206.001000 8139.300000
208.016900 42259.900000
218.081800 23160.000000
232.004400 7016.700000
233.012100 63449.200000
234.020100 801324.200000
238.014800 10016.600000
244.097900 12012.900000
262.108400 37728.700000
268.053300 42982.300000
281.084900 13188.300000
292.053900 9015.300000
295.064200 330892.100000
297.080000 104945.800000
307.064300 69121.600000
325.074900 4218808.500000
335.059600 48537.300000
353.069700 64379.600000
438.121400 19435.600000
456.133100 404078.200000

>ms2
59.013900 5774.000000
66.034900 241624.300000
70.029900 6753.100000
71.013900 25094.000000
73.029500 24788.900000
75.008900 6999.700000
82.029900 5907.800000
84.009100 8072.300000
84.045400 7965.900000
88.040400 20787.500000
98.024700 7037.400000
100.040500 62061.900000
101.027100 6353.100000
102.056000 83610.000000
114.034900 12216.500000
116.050700 7516.800000
118.065800 5059.500000
124.040200 17813.900000
130.050700 6885.400000
131.050000 32569.300000
133.066000 6999.000000
144.045400 6040.500000
146.061100 32786.000000
149.003100 25128.400000
150.011500 2574877.000000
162.092400 8313.200000
164.998700 104256.400000
174.043200 5765.100000
174.056100 57204.100000
174.092100 8697.000000
175.006800 92692.500000
178.006700 23940.200000
180.022100 15604.200000
189.022600 8083.100000
190.087200 20409.900000
193.017300 4777581.000000
194.001200 77528.900000
198.043400 8807.900000
198.092100 24676.300000
201.030900 15758.000000
205.017300 304705.900000
206.001200 14349.800000
207.032800 28233.600000
208.017000 77930.000000
216.009600 11425.600000
218.082200 10063.700000
232.004500 32650.600000
233.012300 144675.400000
234.020100 2133397.200000
238.015000 130789.300000
252.058600 9048.600000
268.053200 70255.600000
279.069500 11723.300000
280.053200 23270.700000
281.085300 18659.600000
292.053500 10481.500000
295.064200 199308.400000
297.080000 53966.300000
307.064400 118104.100000
322.051300 6044.200000
323.058800 32234.000000
325.074800 295912.600000
335.059100 37018.300000

>ms2
58.029800 5703.400000
59.013800 5278.100000
66.034900 313938.400000
68.014200 5061.400000
70.029900 15399.900000
71.013900 38117.700000
72.993000 3651.500000
73.029500 25714.700000
75.008800 3267.400000
82.029800 15753.900000
84.009000 10694.700000
84.045500 19058.400000
86.024800 5040.900000
88.040600 17008.900000
91.055400 17760.700000
94.030000 3608.500000
96.045700 3511.100000
98.024700 8158.500000
100.040500 76367.900000
101.027100 33105.400000
102.056100 64303.000000
114.034900 77933.400000
116.035200 3513.200000
116.050700 23706.500000
117.034500 6996.600000
118.066300 5924.600000
119.050300 5598.600000
124.040400 7684.000000
125.003800 4846.900000
131.050300 13190.200000
144.045400 10266.700000
146.048300 6397.700000
146.061200 18785.400000
149.003800 34058.700000
150.011700 2957026.000000
164.998800 268916.100000
173.035600 3413.600000
174.011800 9710.400000
174.056200 11935.100000
175.007000 141271.100000
177.022600 4546.800000
178.006700 28760.100000
188.014600 13394.900000
189.022300 8469.200000
191.002000 12646.300000
193.017600 846481.000000
194.001500 15471.200000
198.043600 10699.200000
198.092000 8356.100000
201.031100 12952.200000
202.038800 5936.100000
205.017500 152308.800000
207.033200 11361.400000
208.016900 17275.100000
216.009800 30602.900000
217.017600 14439.300000
232.005000 13127.500000
233.012600 46307.800000
234.020400 424954.000000
238.015400 62636.600000
252.059100 15464.800000
268.053900 21553.200000
279.069700 4645.200000
295.065700 12778.600000
297.080700 5551.900000
307.065000 33201.400000
335.059300 6393.900000

>ms2
57.034600 4487.100000
58.029800 9249.700000
59.013800 5252.700000
66.034900 426418.500000
68.014100 9538.700000
70.029800 14280.800000
71.013900 41817.700000
72.993300 2628.300000
73.029500 20663.200000
75.008600 2399.200000
76.019300 6202.500000
81.993400 2669.500000
82.029800 18925.000000
84.009000 8215.700000
84.045500 13348.000000
85.016800 3236.000000
86.024700 4538.800000
88.040400 11475.400000
91.055500 5156.800000
94.030000 3661.400000
96.045400 4558.400000
98.024800 9322.900000
100.040500 59335.800000
101.027100 53085.500000
102.056000 40276.200000
111.000700 4616.800000
114.034900 213741.500000
116.035200 4415.700000
116.050600 29688.700000
117.021700 4325.600000
117.034300 6937.200000
118.029900 3558.200000
118.066100 5101.200000
119.050100 4896.700000
125.004000 6178.800000
126.995800 14647.700000
131.037500 3891.500000
131.050200 4271.200000
135.996000 4415.300000
139.030300 21977.500000
144.045400 7163.700000
146.024900 2686.500000
146.048400 6581.800000
146.060900 6384.500000
147.032700 3791.800000
149.003600 25158.900000
150.011600 2016304.600000
151.990600 6375.100000
154.990800 3632.000000
164.027100 2713.500000
164.998700 262912.800000
174.011700 9189.600000
174.043600 3266.200000
175.006800 144459.500000
178.006700 24504.200000
179.985700 5838.400000
180.022700 3658.100000
188.014600 16384.700000
189.022300 4164.400000
191.001900 13818.800000
193.017400 145745.900000
195.009200 2953.300000
202.038600 2841.900000
205.017400 45849.100000
207.032800 3223.600000
216.009700 13786.800000
217.017200 14179.200000
232.004500 2713.700000
233.012400 14966.200000
234.020100 31157.600000
238.014700 6409.800000

>ms2
58.029900 7900.200000
59.013800 6051.400000
66.035000 506482.400000
68.014200 13870.800000
70.029900 15706.600000
71.013900 43346.500000
72.993100 3749.400000
73.029500 17292.700000
75.008900 3021.700000
76.019300 7307.100000
81.993500 4371.800000
82.029800 19746.600000
84.009100 4162.400000
84.045500 9074.200000
85.017000 5274.000000
86.024700 5064.900000
88.040400 3360.200000
90.035100 6208.500000
91.055300 3983.400000
94.029900 2007.400000
96.045600 8224.100000
98.024800 5455.900000
100.040500 43628.700000
101.027100 44242.300000
102.056100 15095.500000
111.000700 10843.900000
114.034900 328520.200000
116.050600 25185.500000
117.022200 3145.100000
117.034600 8488.600000
118.066200 3082.100000
125.003900 3501.900000
126.995700 25945.100000
135.996000 7884.300000
139.030300 63254.700000
144.045600 2744.500000
146.048700 4804.700000
149.003900 33479.300000
150.011700 940994.200000
151.991300 6700.000000
164.998800 186609.000000
174.012000 8951.400000
175.007000 109363.400000
178.006800 9591.700000
179.985700 11728.400000
188.015000 5314.500000
191.001800 7344.000000
193.017400 20767.900000
205.017600 15501.900000
217.018100 7143.900000
233.013000 2737.700000

