>compound LU48087861
>parentmass 324.0372
>ionization [M-H]-
>formula C12H9F2N5O2S
>rt 753.840000
>profile orbitrap
#smiles_iso CC1=NC2=NC(=NN2C=C1)S(=O)(=O)NC3=C(C=CC=C3F)F
#smiles_can CC1=NC2=NC(=NN2C=C1)S(=O)(=O)NC3=C(C=CC=C3F)F
#inchikey RXCPQSJAVKGONC-UHFFFAOYSA-N
#pubchem_id 91759
#mb_accession LU030451,LU030452,LU030453,LU030454,LU030455,LU030456

>ms2peaks
66.009800 7587.500000
133.052000 2218039.500000
175.042300 5927.000000
240.069000 24175.800000
260.075300 245774.400000
324.037100 4842799.000000

>ms2peaks
65.014500 8504.600000
66.009600 65660.100000
91.030200 41598.400000
92.025500 11146.100000
133.052000 6165370.500000
149.046900 6565.600000
153.026900 29314.000000
175.042500 45376.800000
220.062700 10710.900000
240.069100 133160.800000
260.075400 251094.900000
324.037200 373784.500000

>ms2peaks
64.019300 8160.400000
65.014500 22330.400000
66.009700 493425.200000
67.030200 9916.700000
91.030200 338173.300000
92.025400 57412.900000
106.041200 9151.300000
133.052000 6468451.000000
153.026900 91039.900000
167.036500 9947.700000
175.042500 40911.500000
193.052300 9494.200000
212.063300 6914.600000
220.062800 10300.600000
240.069000 69468.800000
260.075100 25961.500000

>ms2peaks
64.019300 37436.100000
65.014500 42815.400000
66.009800 1814069.400000
67.030200 27622.300000
91.030200 844144.800000
92.025400 112915.100000
106.041200 12536.500000
133.052000 4283099.000000
153.027000 105566.000000
174.034800 16117.300000
175.042600 16142.700000
239.061300 4960.600000
240.069200 10030.300000

>ms2peaks
64.019300 68391.900000
65.014600 39134.200000
66.009800 2977988.800000
67.030200 32665.200000
81.045800 6177.000000
90.009800 3450.100000
91.030200 904882.200000
92.025400 97180.000000
93.014700 5359.900000
106.041100 8446.800000
133.052000 1964021.000000
153.027000 96828.400000
160.031500 3903.300000
174.034500 7713.200000
175.042800 5200.700000

>ms2peaks
64.019300 100250.200000
65.014500 37591.500000
66.009800 3735321.800000
67.030200 27298.800000
81.045800 9395.900000
90.009700 4474.400000
91.030200 627685.800000
92.025400 53909.700000
93.014500 6361.300000
106.041100 4559.700000
113.014600 8118.800000
133.052000 666340.400000
153.027000 66498.300000

