>compound LU48318739
>parentmass 641.1842
>ionization [M-H]-
>formula C31H35ClN4O7S
>rt 1035.900000
>profile orbitrap
#smiles_iso CCOC(=O)O[C@H](C)OC(=O)C1=CC2=C(C=C1)N(C(=C2)C(=O)NC3CCN(CC3)C(C)C)CC4=NOC(=C4)C5=CC=C(S5)Cl
#smiles_can CCOC(=O)OC(C)OC(=O)C1=CC2=C(C=C1)N(C(=C2)C(=O)NC3CCN(CC3)C(C)C)CC4=NOC(=C4)C5=CC=C(S5)Cl
#inchikey GJTKAAFWJZWEPS-LJQANCHMSA-N
#pubchem_id 53316384
#mb_accession LU121951,LU121952,LU121953,LU121954,LU121955,LU121956

>ms2peaks
159.986200 137201.600000
183.963400 5217.600000
276.087300 3461.800000
354.182400 81351.100000
356.198000 652680.600000
385.042200 30744.700000

>ms2peaks
80.980400 4901.600000
89.024500 142327.900000
108.975400 12685.700000
116.050300 3513.700000
116.957100 11644.300000
132.975500 21545.800000
159.986300 250453.100000
160.040600 19946.700000
183.962900 11650.400000
186.056200 5006.600000
188.071700 186844.300000
276.087200 3055.200000
354.182500 161036.900000
356.198100 2613932.500000
385.042200 13160.400000

>ms2peaks
56.980600 2917.500000
65.998500 9315.400000
74.003600 3118.100000
80.980500 20299.200000
89.024400 131568.800000
90.035000 7243.100000
104.980400 7318.000000
108.971300 4377.300000
108.975400 49135.000000
114.034700 2524.000000
115.042600 5719.600000
116.050600 271328.300000
116.957100 8016.600000
118.030000 12488.700000
131.037500 7706.600000
131.991400 13010.000000
132.975400 70474.300000
140.050500 4864.100000
146.024800 4001.000000
158.061300 15749.600000
159.032700 15436.800000
159.986300 113296.100000
160.040400 485080.600000
186.056100 25369.900000
188.071700 1029288.400000
284.176900 15985.300000
354.182200 44010.100000
356.198100 605400.200000

>ms2peaks
50.003600 10782.400000
56.980500 4770.200000
65.998500 9641.800000
66.034900 4511.400000
80.980500 52111.500000
89.024400 59456.000000
90.035000 44441.300000
94.029800 5840.300000
96.045400 6018.000000
104.980400 42908.100000
105.975800 3200.000000
107.037400 5784.400000
108.971400 3846.500000
108.975300 53329.500000
114.034800 10073.100000
115.042700 8132.500000
116.050600 1079836.400000
116.957000 9462.700000
118.029800 45462.800000
131.037600 29838.500000
131.991400 11092.500000
132.975400 72451.500000
140.050700 12168.600000
141.045700 2873.300000
144.045300 13586.900000
146.024700 10445.400000
158.061200 36459.900000
159.032400 8743.200000
160.040400 615352.400000
186.056000 7018.600000
188.071700 319691.900000
257.093200 13745.200000
284.176700 7776.200000

>ms2peaks
50.003500 12105.300000
56.980500 2745.800000
65.998500 15950.900000
66.035000 6655.000000
74.003700 3982.000000
79.972600 6773.500000
80.980400 79633.100000
89.024500 17541.800000
90.035000 77440.800000
94.029900 11154.400000
96.045500 7004.200000
104.980400 50759.900000
105.975500 3744.900000
107.037600 5259.600000
108.975300 34038.100000
114.034800 28622.200000
115.042900 5319.700000
116.050500 1253684.400000
118.029800 79982.500000
131.037600 48849.400000
131.991200 4848.900000
132.975300 33294.000000
140.050600 9624.200000
141.045700 5675.200000
144.045500 12601.900000
146.024900 14016.600000
158.061300 17479.900000
159.032700 2692.300000
160.040400 169649.200000
188.071700 35249.700000
257.093400 4546.300000

>ms2peaks
50.003500 16894.200000
56.980400 6821.300000
65.998600 13662.300000
66.034900 9356.000000
74.003700 3972.400000
79.972600 15982.900000
80.980500 93740.300000
89.024400 3005.900000
90.034900 86742.800000
94.029900 13348.800000
96.045400 4048.000000
104.980500 54181.900000
105.975700 2864.000000
107.037700 8548.600000
108.975400 20276.800000
114.035000 78455.500000
115.042700 5773.700000
116.050600 1102671.500000
116.957000 3047.800000
118.029900 78675.500000
131.037700 51227.500000
131.990900 2387.200000
132.975500 8392.300000
140.050700 6177.600000
141.045900 5967.400000
144.045500 7838.200000
146.024800 18528.500000
158.061200 5890.800000
160.040300 39530.500000
188.071700 6383.200000

