>compound LU48697994
>parentmass 491.00500000000005
>ionization [M-H]-
>formula C17H9ClF8N2O4
>rt 1138.920000
>profile orbitrap
#smiles_iso C1=CC(=C(C(=C1)F)C(=O)NC(=O)NC2=CC(=C(C=C2)OC(C(OC(F)(F)F)F)(F)F)Cl)F
#smiles_can C1=CC(=C(C(=C1)F)C(=O)NC(=O)NC2=CC(=C(C=C2)OC(C(OC(F)(F)F)F)(F)F)Cl)F
#inchikey NJPPVKZQTLUDBO-UHFFFAOYSA-N
#pubchem_id 93541
#mb_accession LU033251,LU033252,LU033253,LU033254,LU033255,LU033256

>ms2peaks
84.990700 259905.700000
93.014600 4654.300000
113.020700 23475.900000
156.026700 1555534.100000
162.982400 209523.400000
167.985700 67274.200000
305.013500 1326181.200000
307.991900 566538.900000
332.987200 280620.900000
427.993300 27527.300000
435.022500 44871.900000
450.992600 60174.900000
470.998600 3111196.000000

>ms2peaks
68.995700 17977.400000
73.008100 2346.200000
82.969500 4100.800000
84.990700 1498427.100000
93.014600 12107.900000
113.020900 160634.300000
136.020600 12594.900000
140.998700 47389.200000
156.002300 5360.800000
156.026800 105085.200000
162.982500 109472.700000
165.993800 24142.000000
167.985700 103757.700000
260.999600 17996.800000
269.036400 17740.000000
305.013600 568037.800000
307.991900 130539.200000
332.987200 215466.900000
427.992800 26514.300000
435.021900 3720.300000
450.992000 5417.200000
470.998800 57645.600000

>ms2peaks
68.995800 39820.700000
82.969400 6389.600000
84.990600 2117053.200000
93.014600 77827.500000
113.020800 346159.000000
132.009100 3822.400000
134.028500 9364.000000
136.020400 4903.800000
140.998700 219472.100000
146.987700 3456.100000
150.023500 2896.800000
156.002100 8694.300000
162.982400 59352.700000
165.993900 133065.100000
167.985700 72710.800000
216.046300 5107.300000
260.999600 22721.600000
269.036300 17182.300000

>ms2peaks
68.995800 64431.500000
73.008400 10547.200000
82.969400 6598.100000
84.990700 2138181.000000
93.014600 279424.900000
113.020900 406528.500000
132.009100 7548.400000
134.028700 4815.800000
135.996000 3547.000000
140.998700 198147.800000
146.987600 4160.000000
150.023400 5716.400000
156.002200 6187.800000
162.982500 38291.300000
165.993900 135435.800000
167.985800 36581.100000
179.026200 8267.700000
216.046300 7961.800000
269.036300 3292.800000

>ms2peaks
65.998600 2163.700000
68.995800 106336.400000
73.008400 32317.100000
82.969600 5064.500000
84.990700 1971271.500000
93.014600 630190.100000
98.003900 4889.400000
113.020900 295495.000000
130.017400 5212.900000
132.009000 4458.000000
135.996000 3105.900000
140.998800 73481.200000
162.982500 14753.000000
165.994000 67316.300000
167.985800 8559.700000
179.026400 4778.700000

>ms2peaks
65.998500 3796.200000
68.995800 122517.000000
73.008400 93904.400000
82.969300 3735.900000
84.990700 1228584.500000
93.014600 740725.100000
98.003800 3437.300000
113.020900 118511.000000
130.017000 2596.500000
140.998500 15297.800000
150.023700 3090.500000
162.982100 2544.400000
165.993900 18471.000000

