>compound LU48926514
>parentmass 231.0751
>ionization [M-H]-
>formula C10H11F3N2O
>rt 963.780000
>profile orbitrap
#smiles_iso CN(C)C(=O)NC1=CC=CC(=C1)C(F)(F)F
#smiles_can CN(C)C(=O)NC1=CC=CC(=C1)C(F)(F)F
#inchikey RZILCCPWPBTYDO-UHFFFAOYSA-N
#pubchem_id 16562
#mb_accession LU092151,LU092152,LU092153,LU092154,LU092155,LU092156

>ms2peaks
154.047300 10514.900000
160.037800 119230.800000
166.010900 22386.800000
186.017100 1259714.100000
191.062400 9177.300000
211.069400 19100.200000
215.043700 9913.800000
231.074900 8770055.000000

>ms2peaks
142.047500 22925.400000
154.047400 32235.900000
160.038000 392334.100000
166.011000 149181.500000
171.056400 9253.200000
186.017300 3562083.500000
188.033000 26115.300000
191.062900 22423.500000
211.069300 33302.000000
215.044000 9048.900000
231.075100 6603959.000000

>ms2peaks
98.003700 10544.800000
118.010000 6597.100000
134.041400 14186.000000
138.016200 20221.400000
142.047300 51067.300000
143.061300 6306.600000
145.027100 13609.900000
146.004700 104150.000000
154.047400 58053.700000
160.038000 693758.400000
166.011000 732628.400000
168.026900 14403.100000
171.056600 13275.100000
186.017200 4419104.000000
188.032800 45794.100000
191.062900 15134.700000
211.069200 24129.500000
215.044000 6081.500000
231.075100 1407020.200000

>ms2peaks
68.995800 2469.200000
98.003600 65994.000000
118.009800 53896.700000
134.041200 9748.100000
136.020100 5209.100000
138.016000 62950.700000
142.047300 33499.500000
143.011600 7546.300000
143.061600 3662.800000
145.027100 10463.100000
146.004800 390491.800000
154.047500 33350.400000
157.041100 3818.000000
158.022200 9660.200000
159.029500 3138.100000
160.038000 422770.900000
166.011000 755053.800000
168.026600 8217.300000
171.056400 3482.700000
186.017200 1903410.200000
188.033000 22815.400000
191.062900 3704.900000
211.069200 3695.000000
215.043500 12428.800000
231.075000 129205.500000

>ms2peaks
65.998600 2337.600000
68.995800 2398.300000
92.995800 2253.500000
94.994000 2386.800000
98.003700 250117.800000
100.019300 1977.700000
118.009900 127699.700000
118.993900 5718.000000
120.025500 11851.300000
134.041300 2862.700000
136.020600 5226.400000
138.016100 78706.600000
140.031800 3214.700000
142.047200 10423.300000
143.011500 10953.300000
145.027200 5715.100000
146.004800 424337.600000
154.047400 7736.500000
156.026500 3085.500000
157.040700 2103.200000
158.022400 11495.100000
159.029900 2310.700000
160.038000 190133.400000
166.011000 300415.300000
186.017300 466289.700000
188.032900 6328.800000
200.020700 3523.500000
215.043600 11326.600000
231.074900 5911.600000

>ms2peaks
65.998500 5009.200000
68.995700 4960.400000
90.035200 2139.600000
92.995700 5239.400000
94.993700 3630.600000
98.003700 443306.700000
100.019300 10166.000000
118.009900 141636.800000
118.994000 7817.300000
120.025400 22851.300000
136.020300 3385.800000
138.016100 32969.500000
140.031600 3799.200000
143.011600 7308.800000
146.004800 233655.800000
158.022400 7898.600000
160.038000 82092.600000
166.010900 56619.800000
186.017300 96357.100000
200.020500 8215.900000
215.044500 7096.200000

