>compound LU48252470
>parentmass 207.0121
>ionization [M-H]-
>formula C10H8O3S
>rt 780.380000
>profile orbitrap
#smiles_iso C1=CC=C2C(=C1)C=CC=C2S(=O)(=O)O
#smiles_can C1=CC=C2C(=C1)C=CC=C2S(=O)(=O)O
#inchikey PSZYNBSKGUBXEH-UHFFFAOYSA-N
#pubchem_id 6812
#mb_accession LU075551,LU075552,LU075553,LU075554,LU075555,LU075556

>ms2
79.957400 99788.100000
143.050200 269029.800000
207.012000 10864443.000000

>ms2
79.957100 240856.100000
143.050200 859368.600000
206.004600 13922.300000
207.012000 12620323.000000

>ms2
79.957300 1500898.200000
80.964900 12172.300000
83.013800 12655.500000
143.050200 3262297.000000
207.012000 5820340.500000

>ms2
79.957400 4861164.500000
80.965100 27766.500000
83.013900 12149.100000
115.055300 19567.300000
143.050200 5303968.000000
207.012100 2018801.500000

>ms2
79.957400 6132985.500000
80.965100 41603.500000
83.013900 7163.200000
115.055300 106377.800000
143.050200 4205260.000000
207.012100 329742.800000

>ms2
79.957400 7061277.500000
80.965100 57168.900000
115.055300 256575.800000
143.050200 2593658.200000
207.012200 43346.000000

