>compound LU48712956
>parentmass 220.02829999999997
>ionization [M-H]-
>formula C10H8ClN3O
>rt 789.000000
>profile orbitrap
#smiles_iso C1=CC=C(C=C1)N2C(=O)C(=C(C=N2)N)Cl
#smiles_can C1=CC=C(C=C1)N2C(=O)C(=C(C=N2)N)Cl
#inchikey WYKYKTKDBLFHCY-UHFFFAOYSA-N
#pubchem_id 15546
#mb_accession LU028151,LU028152,LU028153,LU028154,LU028155,LU028156

>ms2peaks
60.972500 4847.800000
65.014600 59828.500000
65.998400 20722.500000
73.980300 129373.600000
74.964300 79058.400000
100.967400 69660.600000
100.991200 92077.000000
117.045800 30776.100000
118.029900 11383.100000
126.970600 12912.500000
141.045500 4065.200000
144.056800 27438.000000
150.011600 62922.500000
184.051700 28142.000000
193.016800 5856.200000
220.028300 3885389.800000

>ms2peaks
60.972500 8908.200000
65.014500 153481.900000
65.998500 53797.000000
73.980300 313022.900000
74.964300 301028.100000
100.967400 158912.800000
100.991200 154922.600000
101.975300 5373.800000
117.045800 108635.100000
118.029900 12305.900000
126.970500 23917.200000
141.045800 14350.100000
144.056700 62871.300000
150.011600 155683.600000
156.056900 3027.100000
157.041000 5685.500000
177.022500 4270.700000
184.051700 54092.100000
193.017400 4778.200000
220.028300 2694829.500000

>ms2peaks
60.972500 8845.800000
64.006700 6652.100000
65.014500 212527.000000
65.998500 130235.500000
73.980300 406724.100000
74.964300 826862.900000
92.050600 16799.600000
100.967400 133220.800000
100.991200 89737.000000
101.975200 15737.700000
117.045800 242448.100000
118.030000 19147.000000
126.970500 17928.800000
133.040600 4930.200000
141.045800 23707.700000
144.056600 63975.000000
150.011600 232391.600000
156.056400 2687.600000
157.040800 2681.000000
177.022600 2025.500000
184.051600 44549.100000
220.028300 382715.800000

>ms2peaks
50.003600 4420.800000
60.972500 3318.600000
64.006700 10599.000000
65.014500 199541.600000
65.998500 185493.700000
73.980300 334637.400000
74.964300 1179361.000000
90.034900 3701.200000
92.050500 28131.300000
100.967400 43344.100000
100.991200 20167.800000
101.975200 13939.900000
113.039700 2821.300000
117.045800 261525.500000
118.029700 15694.000000
126.970700 7793.400000
133.041200 4946.900000
141.045900 10903.600000
144.056600 17561.800000
150.011600 141517.300000
184.051500 11482.600000
220.028300 26304.300000

>ms2peaks
50.003500 9215.600000
64.006700 11595.600000
65.014500 148131.600000
65.998600 193350.100000
73.980300 212239.500000
74.964300 989091.000000
90.034900 2554.900000
92.050600 31359.900000
100.967400 8113.200000
100.991200 5565.400000
101.975400 10159.000000
113.039700 3004.900000
117.045800 165895.800000
118.029900 11399.500000
133.040700 4268.500000
141.045900 3874.500000
144.057000 2492.400000
150.011600 41547.300000

>ms2peaks
50.003500 13368.600000
64.006700 12150.600000
65.014500 104618.900000
65.998600 198535.600000
73.980300 127844.700000
74.964300 833116.400000
90.034900 6507.300000
92.050500 31343.500000
100.991400 2669.400000
101.975300 4943.400000
117.045800 76818.500000
118.029900 8603.800000
150.011800 6951.000000

