>compound LU48585587
>parentmass 367.2027
>ionization [M-H]-
>formula C22H28N2O3
>rt 1051.080000
>profile orbitrap
#smiles_iso CC1=CC(=CC(=C1)C(=O)N(C(C)(C)C)NC(=O)C2=C(C(=CC=C2)OC)C)C
#smiles_can CC1=CC(=CC(=C1)C(=O)N(C(C)(C)C)NC(=O)C2=C(C(=CC=C2)OC)C)C
#inchikey QCAWEPFNJXQPAN-UHFFFAOYSA-N
#pubchem_id 105010
#mb_accession LU027851,LU027852,LU027853,LU027854,LU027855,LU027856

>ms2peaks
105.070800 24511.500000
149.060800 12232676.000000
165.055700 182718.200000
204.139300 298344.400000
310.133100 73895.100000
311.140000 205535.200000
367.202600 21213934.000000

>ms2peaks
105.070900 858499.100000
146.024800 131941.400000
149.060700 30434422.000000
165.055700 576366.100000
189.066600 36582.800000
204.139200 781342.300000
295.108200 66135.200000
310.133200 51048.300000
311.140100 468192.000000
367.202300 619887.100000

>ms2peaks
93.034600 71096.900000
105.070900 3971386.200000
107.050200 18744.300000
108.021800 24342.200000
121.029400 35135.800000
121.065900 139925.100000
122.037300 199792.000000
146.024800 319123.200000
148.040500 25729.100000
148.076900 139246.500000
149.060700 18294432.000000
163.051100 30441.400000
165.055700 182483.200000
189.066600 48648.800000
204.139300 481474.400000
309.124700 54604.100000
311.140500 55995.600000

>ms2peaks
73.029600 6167.700000
91.019000 28184.700000
93.034700 61263.000000
94.042500 12611.200000
97.066100 6830.700000
105.071000 2999464.500000
106.042400 25642.400000
107.050400 17988.700000
108.021700 20573.000000
118.030100 19664.800000
119.050200 7611.100000
121.029600 113635.800000
121.065900 111887.100000
122.037400 172283.700000
132.045700 9260.600000
136.040600 17543.700000
136.052700 9363.600000
145.077500 10078.400000
146.024900 346287.900000
147.032900 11424.800000
147.081700 10050.600000
148.040500 25630.100000
148.076900 84080.500000
149.060800 4523446.500000
162.056400 10956.000000
163.051200 11491.800000
165.055800 27277.300000
189.067300 26677.800000
204.139400 86725.000000
309.124400 15157.000000

>ms2peaks
91.019000 95210.600000
93.034700 18689.500000
105.071000 847832.100000
106.042400 9750.900000
118.030100 38871.900000
119.050300 8185.800000
121.029500 139743.800000
121.065900 27556.900000
122.037400 56457.800000
132.045900 5303.400000
136.040500 15992.600000
146.024800 206594.200000
147.032400 6879.100000
147.081500 10524.700000
148.040500 19117.000000
148.076800 16209.600000
149.060800 525503.200000
204.140100 4805.900000

>ms2peaks
91.019000 191081.000000
105.071000 162883.500000
106.042300 12697.400000
118.029900 45316.300000
121.029500 124040.900000
121.066000 8947.500000
122.037400 12409.100000
136.040300 14848.400000
146.024800 124663.500000
147.032300 7487.700000
148.040300 11414.600000
149.060800 60943.400000

