>compound LU49817639
>parentmass 462.1293
>ionization [M-H]-
>formula C25H22FN3O3S
>rt 1048.920000
>profile orbitrap
#smiles_iso CC[C@@H](C1=CC=CC=C1)NC(=O)C2=C(C=CC(=C2)F)NS(=O)(=O)C3=CC=CC4=C3N=CC=C4
#smiles_can CCC(C1=CC=CC=C1)NC(=O)C2=C(C=CC(=C2)F)NS(=O)(=O)C3=CC=CC4=C3N=CC=C4
#inchikey VYUUPUMKBLIKJV-NRFANRHFSA-N
#pubchem_id 9981849
#mb_accession LU100351,LU100352,LU100353,LU100354,LU100355,LU100356

>ms2
398.166300 25102.400000
462.129200 17912956.000000

>ms2
63.962400 19388.100000
77.014600 11961.900000
79.981100 22967.900000
110.041100 13818.200000
128.050500 77382.400000
144.045500 303136.700000
150.023400 12915.100000
163.031200 21202.900000
166.066200 136682.700000
191.061800 19654.500000
192.012500 960181.600000
193.020300 169273.700000
210.072400 37162.300000
215.061400 83149.300000
217.077100 1569018.600000
235.067700 1195359.500000
237.083300 994549.600000
239.062600 37842.000000
253.078600 24775.300000
258.067100 112520.700000
259.075100 535019.400000
263.062700 27458.300000
269.109500 42613.800000
271.125500 79000.300000
299.030400 16964.100000
301.045200 172505.800000
378.161300 79460.000000
398.167300 382058.100000
462.129300 10617721.000000

>ms2
61.970700 9694.600000
63.962400 46476.600000
64.019300 12168.100000
65.998600 3902.600000
77.014500 35159.400000
79.957500 10408.100000
79.981200 31940.600000
84.025500 48952.900000
90.034900 5283.100000
108.025600 10200.400000
109.033500 17409.900000
110.041100 323483.100000
111.025200 7850.800000
128.050600 1219814.800000
135.986300 4538.600000
137.015600 3761.900000
138.990100 4265.300000
143.061600 11204.500000
144.045500 1839620.800000
146.061100 26901.900000
150.023400 63508.700000
151.031300 4932.800000
155.992500 7318.700000
160.077000 6446.600000
163.031300 209269.800000
166.066200 311075.700000
172.040400 74386.400000
172.995500 12486.000000
175.009700 23240.600000
177.047000 16162.400000
190.066200 37289.700000
191.062100 75152.900000
192.012500 1514122.000000
193.020300 36101.000000
197.064100 4119.800000
210.072400 205534.100000
215.061500 222641.200000
217.077000 1895579.400000
218.071900 23277.600000
221.064900 10343.400000
222.060000 31192.200000
225.060000 20270.900000
230.072400 12254.200000
234.059300 4094.900000
235.067700 3416489.500000
237.083300 1109476.600000
239.062700 54330.400000
241.078000 71236.500000
242.086000 17306.200000
253.078300 73018.600000
258.067200 187123.000000
259.051200 8287.200000
259.074900 138259.200000
263.062400 51307.100000
269.109800 18164.700000
271.125300 157133.500000
300.036500 24604.500000
301.045100 98193.100000
378.161400 7169.300000
398.168100 12365.500000
462.129300 278855.900000

>ms2
61.970600 12272.500000
63.962500 59110.700000
64.019200 19080.200000
65.998500 5826.100000
77.014600 11552.000000
77.965500 4906.400000
79.957400 7497.700000
79.981200 18356.800000
84.025500 38853.800000
90.035000 18647.700000
95.030400 5680.400000
103.006100 7711.800000
108.025500 22502.100000
109.033300 36341.600000
110.041100 777199.300000
111.025100 22290.400000
116.050800 11262.700000
128.050600 1827095.400000
135.036600 5909.500000
135.986400 7629.100000
137.015500 3420.800000
138.989800 12387.700000
141.045700 4850.700000
143.061300 21632.300000
144.045500 1634811.200000
146.061200 32885.100000
150.023400 43927.600000
151.031300 7508.000000
152.051600 10239.000000
154.030800 4950.000000
155.992500 4698.000000
163.031400 285387.300000
166.066200 363916.300000
172.040500 139607.500000
175.009800 4038.800000
176.050600 3274.000000
177.047200 39627.200000
190.066300 42020.500000
191.062100 55426.800000
192.012500 172949.500000
197.064400 3694.300000
208.056700 26895.400000
210.072500 189035.500000
215.061500 205508.300000
217.077100 694618.400000
218.072400 15965.200000
221.064700 12599.600000
222.059800 48896.500000
225.059800 18914.100000
230.072300 31548.700000
234.059400 4725.600000
235.067700 3166688.200000
237.083300 233632.200000
239.062800 40675.200000
241.077800 4239.500000
242.086600 10217.200000
253.078400 21896.500000
258.067300 42591.500000
259.051100 4393.900000
263.062500 35842.600000
272.019400 5300.900000
299.030200 4915.600000
301.044900 5325.900000

>ms2
50.003400 2408.600000
61.970600 9759.800000
63.962400 51350.200000
64.019200 23466.500000
65.998500 4901.600000
77.965700 4248.400000
79.981100 8128.900000
83.030200 3351.300000
84.025500 21873.600000
88.019400 4675.300000
90.035000 64246.800000
95.030200 5028.900000
103.006400 5312.100000
108.025400 52286.100000
109.033300 24528.000000
110.041100 782195.200000
111.025100 17378.400000
116.050700 20852.300000
128.050600 788265.100000
135.036200 5693.100000
135.986800 3472.600000
138.989400 11822.900000
141.045800 15684.200000
143.061500 36323.200000
144.045400 1024499.500000
146.060900 16524.000000
150.023400 14737.000000
152.052000 3523.800000
154.030900 2527.100000
163.031300 280332.900000
166.066200 336099.000000
172.040400 67922.000000
177.047000 37543.700000
184.056700 21825.600000
190.066200 52168.500000
191.061900 28979.900000
192.012500 7542.000000
208.056800 48040.200000
209.052200 3604.000000
210.072400 105800.000000
215.061500 288204.700000
217.077000 146771.000000
218.072000 2771.000000
222.060000 25286.500000
225.059900 8134.100000
230.072500 8611.300000
233.052200 6246.500000
235.067600 2246917.800000
237.083200 19328.700000
239.062800 35159.200000
258.067100 7610.600000
263.062300 17799.200000
272.019300 3503.500000

>ms2
50.003600 11337.100000
61.970600 15333.500000
63.962400 69628.000000
64.019300 33133.500000
65.998400 3146.000000
77.965500 5671.200000
79.981100 3959.800000
83.030300 2927.100000
84.025400 9545.100000
88.019200 10335.600000
90.034900 105415.800000
95.030200 5589.200000
108.025600 96102.900000
109.033400 9913.500000
110.041100 765385.700000
111.025100 6938.200000
116.050600 52827.000000
128.050600 220629.400000
135.036200 10473.300000
138.989600 14052.400000
141.045900 27744.800000
143.061600 33725.300000
144.045500 781832.600000
150.023300 3426.100000
163.031400 262622.800000
166.066200 257217.700000
172.040400 18628.800000
176.050800 3430.900000
177.047100 27883.400000
184.056700 34671.900000
190.066300 40050.000000
191.061700 13073.600000
208.056700 66311.100000
209.052100 12131.600000
210.072400 37991.600000
215.061500 584383.200000
217.077200 21214.100000
222.060100 7739.900000
233.051900 28049.900000
235.067700 1184914.800000
239.062500 22184.100000
263.062100 9996.700000

