>compound LU49399562
>parentmass 160.9566
>ionization [M-H]-
>formula C6H4Cl2O
>rt 1043.160000
>profile orbitrap
#smiles_iso C1=CC(=C(C=C1Cl)Cl)O
#smiles_can C1=CC(=C(C=C1Cl)Cl)O
#inchikey HFZWRUODUSTPEG-UHFFFAOYSA-N
#pubchem_id 8449
#mb_accession LU079751,LU079752,LU079753,LU079754,LU079755,LU079756

>ms2
89.003300 7903.200000
124.980000 596977.200000
160.956700 7229575.000000

>ms2
124.980000 620601.100000
160.956600 7890336.000000

>ms2
89.003300 30578.200000
124.979900 985639.200000
160.956600 3240961.200000

>ms2
89.003300 54224.800000
124.980000 356670.500000
160.956700 351306.900000

>ms2
77.003300 8380.700000
89.003300 217729.900000
124.980000 618381.300000
160.956700 237688.700000

>ms2
77.003200 2454.400000
89.003300 33494.900000
124.980000 34648.500000
160.956600 4793.300000

