>compound LU49513609
>parentmass 331.06120000000004
>ionization [M-H]-
>formula C20H12O5
>rt 947.880000
>profile orbitrap
#smiles_iso C1=CC=C2C(=C1)C(=O)OC23C4=C(C=C(C=C4)O)OC5=C3C=CC(=C5)O
#smiles_can C1=CC=C2C(=C1)C(=O)OC23C4=C(C=C(C=C4)O)OC5=C3C=CC(=C5)O
#inchikey GNBHRKFJIUUOQI-UHFFFAOYSA-N
#pubchem_id 16850
#mb_accession LU078851,LU078852,LU078853,LU078854,LU078855,LU078856

>ms2peaks
259.076600 10252.200000
285.055500 76921.800000
286.063600 651492.400000
287.071400 1399182.000000
331.061200 5277854.500000

>ms2peaks
215.086700 18069.000000
217.065800 7013.600000
231.081800 6418.300000
242.073700 5076.400000
243.081500 245094.800000
245.060700 63657.900000
246.068300 17742.700000
259.076400 232577.700000
269.060700 11054.700000
285.055900 360704.100000
286.063600 3787029.200000
287.071300 2434061.800000
331.061200 409466.200000

>ms2peaks
189.071300 5289.200000
193.065600 11911.400000
195.045100 4501.300000
203.050200 3839.800000
203.086400 5243.800000
204.058400 18922.500000
215.086500 92742.800000
217.065800 56445.500000
219.081400 15561.100000
230.073600 23698.800000
231.081700 36542.600000
232.052800 3966.600000
233.060500 3267.200000
241.065700 16478.100000
242.073100 15388.000000
243.081400 571289.200000
245.060700 86312.700000
246.068500 76536.900000
257.061000 8138.700000
258.068600 43693.500000
259.076400 325532.200000
269.061500 11914.900000
270.068900 5915.700000
272.048000 5427.700000
285.055800 780380.700000
286.063500 2348930.200000
287.071400 496697.700000
331.060500 4311.600000

>ms2peaks
165.070800 6613.000000
189.071000 20299.600000
191.086700 5616.100000
193.066000 18713.400000
195.045200 7380.100000
202.078800 3643.100000
203.050400 6261.700000
203.086700 7494.900000
204.058100 24121.800000
213.071300 7076.300000
215.086700 82380.900000
217.065800 87871.000000
219.080600 10657.800000
228.058400 3141.600000
229.066300 3391.100000
230.073700 59435.500000
231.081600 34373.200000
232.053300 10664.300000
233.060700 5135.200000
234.068800 4114.500000
241.066000 47703.500000
242.073300 10330.600000
243.081500 217625.800000
245.060900 38928.600000
246.068600 71952.800000
247.075300 2252.600000
256.052200 2090.500000
257.061200 31227.900000
258.068600 79307.700000
259.076400 84103.800000
269.061200 6344.700000
270.068500 2385.300000
272.048200 6759.100000
284.049100 2506.200000
285.055800 1429964.000000
286.063600 272873.000000
287.071500 82581.000000

>ms2peaks
165.071100 9370.200000
167.050200 4431.900000
175.055300 2852.300000
187.055300 2130.500000
189.071100 23452.200000
193.065900 13137.100000
195.045100 2316.700000
201.070900 1906.300000
202.078900 5680.900000
203.050200 7535.400000
203.086200 2964.500000
204.057900 14222.500000
213.071000 13513.300000
215.049300 3039.100000
215.086500 29375.200000
217.065900 53489.900000
219.081200 4538.500000
228.058700 5888.400000
229.066000 11013.500000
230.073700 45974.600000
231.081700 9613.500000
232.052900 6550.100000
233.060000 3995.900000
234.067900 3017.400000
241.066000 69728.700000
243.045600 3001.000000
243.081400 27558.700000
245.060600 11483.700000
246.068500 14142.000000
247.076500 3398.700000
256.053400 9586.800000
257.061000 46210.400000
258.068600 29121.200000
259.076500 6967.900000
284.048900 5936.900000
285.055800 1378915.600000
286.063500 13484.800000
287.071000 10274.000000

>ms2peaks
165.070900 5628.700000
167.050200 6883.500000
175.055300 6539.900000
189.071000 20195.800000
193.066000 6649.700000
195.045600 2514.700000
201.070700 6975.700000
202.079000 2016.400000
203.050100 14838.800000
204.058100 5185.000000
213.071200 14151.700000
215.050600 12793.500000
215.086600 4859.800000
217.065700 26253.000000
219.081900 11663.500000
228.058200 24885.300000
229.065800 23801.400000
230.073900 13871.500000
232.053200 4354.200000
233.061100 2492.800000
241.066000 78406.800000
243.045100 6234.500000
245.061100 4491.300000
247.076400 7854.900000
256.053000 44525.800000
257.060800 49228.800000
258.068600 6594.100000
284.048200 11279.000000
285.055800 720603.600000

