>compound LU49075682
>parentmass 197.04870000000003
>ionization [M-H]-
>formula C9H11ClN2O
>rt 907.200000
>profile orbitrap
#smiles_iso CN(C)C(=O)NC1=CC=C(C=C1)Cl
#smiles_can CN(C)C(=O)NC1=CC=C(C=C1)Cl
#inchikey BMLIZLVNXIYGCK-UHFFFAOYSA-N
#pubchem_id 8800
#mb_accession LU044651,LU044652,LU044653,LU044654,LU044655,LU044656

>ms2
116.014300 3322.700000
126.011700 8275.900000
151.990900 154165.400000
197.048800 322484.700000

>ms2
116.014200 6705.800000
126.011500 10026.100000
151.990900 211700.100000
197.048700 246242.100000

>ms2
116.014100 16135.200000
126.011500 8807.300000
151.990900 167517.400000
197.048700 53701.300000

>ms2
116.014100 20473.000000
126.011500 6430.500000
151.990800 62409.800000
197.048500 4982.500000

>ms2
65.998600 3666.700000
116.014100 11051.500000
126.011400 1928.000000
151.990800 14197.300000

>ms2
65.998500 3489.200000
116.014300 3136.800000
151.990900 2129.500000

