>compound LU49431478
>parentmass 299.0608
>ionization [M-H]-
>formula C14H12N4O2S
>rt 835.680000
>profile orbitrap
#smiles_iso C1=CC=C2C(=C1)N=CC(=N2)NS(=O)(=O)C3=CC=C(C=C3)N
#smiles_can C1=CC=C2C(=C1)N=CC(=N2)NS(=O)(=O)C3=CC=C(C=C3)N
#inchikey NHZLNPMOSADWGC-UHFFFAOYSA-N
#pubchem_id 5338
#mb_accession LU041251,LU041252,LU041253,LU041254,LU041255,LU041256

>ms2
207.012000 6996.200000
299.060800 6110552.500000

>ms2
92.050600 4797.000000
117.045900 62645.000000
121.029500 4541.400000
142.041000 15150.700000
143.048800 37097.600000
144.056700 50450.400000
181.007800 16927.200000
207.011100 5786.000000
208.087900 55426.800000
233.083200 28763.400000
235.099000 95195.200000
297.045800 3826.600000
298.053000 4296.000000
299.060800 3682082.800000

>ms2
61.970700 2097.100000
63.962500 7337.500000
77.965500 13222.400000
79.981100 2135.000000
92.050600 15635.800000
93.034600 38532.600000
95.050400 2368.300000
106.041100 6229.100000
107.037600 9929.900000
108.045500 13020.100000
117.045800 146063.700000
118.029900 38656.300000
120.045400 16876.300000
121.029500 102596.100000
123.045100 12547.300000
131.037800 14097.900000
132.021700 12740.800000
132.032800 2625.400000
142.041000 94307.600000
143.048900 89739.000000
144.056700 302226.400000
145.040700 6771.700000
148.040400 3284.400000
149.046900 8120.300000
155.004700 4264.700000
156.012400 9041.200000
158.048400 12632.600000
171.056000 2332.300000
181.007700 16765.400000
181.077500 2753.200000
184.051900 2809.500000
185.059500 7518.200000
191.015900 8638.600000
198.067200 11343.300000
199.075100 66555.100000
200.082900 12690.800000
207.011000 4488.600000
208.088000 91126.300000
224.082100 3951.600000
233.083300 79516.400000
235.099000 86161.200000
297.045100 6071.600000
299.060700 507753.300000

>ms2
61.970700 3194.600000
63.962400 17162.700000
77.965600 19999.900000
78.973400 2423.200000
79.981200 4788.700000
92.050600 17590.700000
93.034600 30818.600000
95.050200 4871.800000
106.041000 8345.900000
107.037600 18038.200000
108.045600 14646.200000
115.030200 3289.600000
117.045800 111999.400000
118.029900 48345.400000
120.045500 17104.200000
121.029500 51010.200000
123.045100 12584.100000
131.037600 29403.300000
132.021700 7543.400000
132.033000 8086.900000
132.056500 2517.200000
142.041000 190018.100000
143.048900 36945.400000
144.056700 508135.100000
145.040600 5389.300000
148.039800 2470.700000
149.046700 6848.700000
155.004300 1966.500000
156.012400 15899.200000
158.048700 6593.900000
171.056400 7821.800000
181.007800 3088.400000
184.051800 3087.700000
185.059200 4365.900000
191.015600 4386.900000
197.059300 5063.500000
198.067400 24351.300000
199.075100 49242.700000
200.082900 6057.500000
206.072700 1908.900000
207.080200 2725.300000
208.087900 44743.700000
224.083100 2866.100000
232.075500 4971.400000
233.083200 66898.200000
235.099000 19034.600000
297.044400 2494.600000
299.060500 30556.800000

>ms2
61.970600 15754.200000
63.962500 64139.000000
66.009800 4273.200000
77.965500 50800.700000
78.973400 9696.300000
79.981200 8313.600000
90.034800 5313.200000
91.042700 5397.700000
92.050600 26246.900000
93.034500 1974.000000
107.037700 42667.800000
108.045500 20169.500000
115.030200 22184.200000
117.045900 182471.100000
131.037700 2137.900000
132.033100 12373.300000
132.056700 4987.400000
142.041100 448088.500000
143.048800 11123.800000
144.056700 822110.500000
145.040700 8446.400000
156.012700 12413.400000
181.077400 3197.700000
206.072200 3345.300000
207.080200 7537.800000
208.088200 25920.800000
232.075500 24718.000000
233.083200 63857.100000
235.099000 3095.400000

>ms2
61.970600 8962.500000
63.962400 25501.100000
66.009800 3015.300000
77.965500 11074.500000
78.973400 2207.400000
90.034900 5392.000000
91.042800 1676.700000
92.050500 4120.000000
93.034600 50631.400000
95.050200 7267.200000
106.041000 13895.300000
107.037700 8466.900000
115.030200 10857.800000
117.045900 60535.000000
118.029900 83683.500000
120.045500 20140.400000
121.029500 26240.900000
123.045300 5186.000000
131.037700 32749.800000
132.021500 3189.400000
132.032800 2363.500000
142.041100 147226.200000
144.056700 120533.400000
145.040600 1926.100000
158.049000 2651.200000
171.056300 5115.300000
184.051300 2561.600000
197.059300 4684.500000
198.067600 11462.800000
199.075300 1736.000000
207.079800 2144.300000
208.088200 3341.700000
232.075500 4521.500000
233.083000 5325.500000

