>compound LU50151484
>parentmass 266.1187
>ionization [M-H]-
>formula C17H17NO2
>rt 666.210000
>profile orbitrap
#smiles_iso CN1CCC2=C3[C@H]1CC4=C(C3=CC=C2)C(=C(C=C4)O)O
#smiles_can CN1CCC2=C3C1CC4=C(C3=CC=C2)C(=C(C=C4)O)O
#inchikey VMWNQDUVQKEIOC-CYBMUJFWSA-N
#pubchem_id 6005
#mb_accession LU079651,LU079652,LU079653,LU079654,LU079655,LU079656

>ms2peaks
223.076600 6684.800000
266.118600 3810952.200000

>ms2peaks
222.068500 4750.300000
223.076400 127624.500000
249.079800 3845.600000
250.086900 5804.400000
264.103000 4724.500000
266.118600 3215311.200000

>ms2peaks
167.086500 7324.600000
179.086700 8597.900000
195.081500 5682.400000
205.066300 2405.300000
208.052900 7935.600000
222.068600 66787.200000
223.076400 1261762.500000
235.076700 9706.400000
236.071800 7100.400000
248.072000 14183.800000
249.079500 34531.200000
250.087300 69262.400000
251.095200 13225.300000
264.103000 29827.600000
266.118600 2307193.200000

>ms2peaks
82.029800 9916.500000
107.037700 151142.200000
122.024900 3063.600000
167.086700 5867.900000
179.086700 5545.800000
195.081500 4850.500000
208.052600 4280.200000
222.068700 61965.600000
223.076500 417063.300000
224.083900 2276.700000
235.076100 3556.500000
236.071500 3429.200000
248.071400 14648.700000
249.079000 7066.700000
250.087300 29501.100000
264.102000 4908.700000
266.118600 109537.800000

>ms2peaks
167.086700 42654.500000
177.071200 7978.600000
179.086700 50641.900000
195.081500 22352.600000
205.065900 11083.600000
208.053100 17843.200000
209.060700 9561.700000
211.039900 8160.100000
221.060900 6364.500000
222.068700 359836.800000
223.076500 964033.400000
224.084200 3434.900000
234.056200 6261.500000
235.076500 21885.300000
236.071500 16952.900000
247.063900 11850.500000
248.071600 73331.400000
249.079900 15856.100000
250.087400 126418.700000
264.102700 4334.700000
266.118600 46587.500000

>ms2peaks
82.029900 3561.900000
107.037700 227228.000000
167.086900 5520.400000
177.071500 2338.300000
179.086700 7530.100000
195.081400 3524.800000
205.065800 3479.800000
208.052800 2128.600000
209.060800 3050.300000
211.039800 2525.800000
221.061100 2322.500000
222.068600 46689.900000
223.076500 81697.600000
234.056200 4490.000000
235.076900 3179.600000
236.071700 3109.300000
247.064600 4162.200000
248.071900 11370.000000
249.078500 1964.400000
250.087300 15380.100000

