>compound LU50888703
>parentmass 181.06590000000003
>ionization [M-H]-
>formula C13H10O
>rt 1059.660000
>profile orbitrap
#smiles_iso C1C2=C(C=C(C=C2)O)C3=CC=CC=C31
#smiles_can C1C2=C(C=C(C=C2)O)C3=CC=CC=C31
#inchikey PVUBSZGNXLNTLX-UHFFFAOYSA-N
#pubchem_id 96088
#mb_accession LU104351,LU104352,LU104353,LU104354,LU104355,LU104356

>ms2peaks
180.058100 4401.900000
181.065900 380297.300000

>ms2peaks
180.058100 11377.600000
181.066000 578940.100000

>ms2peaks
153.070900 6237.100000
180.058100 76762.300000
181.065900 511427.300000

>ms2peaks
152.063300 4823.400000
153.071100 6220.500000
180.058100 141036.200000
181.066000 156669.400000

>ms2peaks
152.063200 14370.200000
153.071200 11081.700000
180.058100 267632.500000
181.066000 97031.400000

>ms2peaks
152.063100 7178.000000
153.071500 2879.100000
180.058200 126811.100000
181.066000 17908.300000

