>compound LU50385273
>parentmass 493.1832
>ionization [M-H]-
>formula C25H24F6N4
>rt 1063.260000
>profile orbitrap
#smiles_iso CC1(CN=C(NC1)NN=C(/C=C/C2=CC=C(C=C2)C(F)(F)F)/C=C/C3=CC=C(C=C3)C(F)(F)F)C
#smiles_can CC1(CNC(=NC1)NN=C(C=CC2=CC=C(C=C2)C(F)(F)F)C=CC3=CC=C(C=C3)C(F)(F)F)C
#inchikey IQVNEKKDSLOHHK-FNCQTZNRSA-N
#pubchem_id 5281875
#mb_accession LU035051,LU035052,LU035053,LU035054,LU035055,LU035056

>ms2peaks
145.027100 31184.000000
159.042700 11515.400000
237.064300 38343.100000
255.110900 3549.300000
276.131800 93798.500000
294.122600 63634.900000
296.138000 552872.100000
347.149000 163836.700000
353.077900 5766.900000
355.092600 37192.400000
363.093900 7359.200000
381.083300 25571.600000
383.099000 192238.500000
437.120900 30921.700000
473.177400 7415.400000
493.183300 3360415.000000

>ms2peaks
95.061400 8858.200000
121.077200 4174.200000
126.103800 23634.200000
145.027100 541778.800000
159.042800 60415.800000
169.027500 3158.400000
183.042900 4642.800000
184.037900 20754.700000
186.053700 6618.200000
189.016900 39269.800000
198.040500 3536.000000
211.049000 2678.600000
220.069200 38013.100000
224.056600 8959.000000
237.064500 1051467.000000
238.059800 133475.800000
240.100700 14838.300000
242.116600 12911.400000
255.111300 69895.600000
263.054400 5467.100000
276.131700 1211131.600000
294.122500 127346.400000
296.138000 457932.600000
330.121500 5520.700000
347.148800 216215.900000
363.092800 16159.700000
367.079500 8407.900000
381.083400 99599.100000
383.099000 374941.700000
437.120500 73048.800000
473.173900 4920.800000
493.183400 99348.300000

>ms2peaks
65.014500 28176.900000
68.995700 4178.500000
81.045900 4703.900000
95.061400 20460.600000
121.077100 28446.600000
126.103700 37247.700000
145.027000 798567.200000
159.042600 72425.300000
163.036500 5328.000000
164.031800 11632.400000
170.022300 2522.000000
176.088000 35430.600000
183.043000 6436.200000
184.037900 38861.500000
185.059100 4062.500000
189.016800 61306.000000
196.094200 51212.400000
198.041000 6999.800000
200.062900 45340.500000
209.058500 6638.100000
211.048900 10344.200000
217.058400 8635.600000
220.069100 87586.200000
222.041300 3487.900000
224.056700 30691.400000
236.044100 11191.600000
237.064400 1110333.500000
238.059700 196047.400000
240.100700 18723.500000
242.116400 7217.600000
255.111400 29723.000000
263.054900 5537.800000
276.131600 469091.200000
294.122600 31267.800000
295.074000 6101.000000
300.076000 8409.000000
323.079900 2898.200000
330.122000 4106.600000
333.070500 4849.100000
353.077000 20600.700000
355.092600 145923.200000
363.092400 28248.600000
367.079100 4081.200000
381.083100 87176.000000
383.098800 112779.100000

>ms2peaks
65.014500 33581.900000
67.030200 4004.300000
68.995800 5531.900000
81.045900 5965.000000
95.061400 13866.500000
121.077100 10010.800000
125.020700 3073.800000
126.103600 28502.700000
145.027100 524598.900000
156.033000 4017.200000
159.042800 24000.600000
164.031800 35302.500000
169.027100 10436.000000
170.022500 5236.000000
183.042700 11379.700000
185.059400 10280.000000
186.053600 2674.100000
189.017000 35490.700000
189.051600 2702.300000
196.094300 14201.100000
197.052200 5487.200000
198.040800 6084.500000
209.058400 3348.700000
210.053900 10216.900000
211.048600 10669.000000
215.063000 3351.500000
217.058200 46065.800000
220.069100 43732.300000
222.041100 9689.200000
224.056600 6849.700000
235.048600 15289.500000
236.044100 25175.200000
237.064500 700878.100000
238.059800 108876.800000
255.111500 3062.600000
276.131700 47109.500000
293.058800 6052.100000
295.074000 15189.300000
300.076900 13466.200000
323.080100 3398.800000
333.069600 2398.400000
353.077200 12476.500000
355.092000 6508.900000
363.092400 8382.700000
381.083300 34790.600000
383.097900 5080.000000

>ms2peaks
65.014500 31018.500000
67.030200 14424.800000
68.995700 7630.400000
81.045700 3714.800000
91.030200 2946.600000
95.061500 6036.500000
105.014600 4803.700000
111.024000 2572.200000
121.077400 2812.700000
125.020900 5529.900000
126.035000 3664.600000
126.103700 12033.600000
144.056800 5087.100000
145.027100 266772.500000
156.033400 3897.300000
156.081700 5968.000000
159.043000 3843.400000
163.036500 38347.100000
164.031700 42943.000000
169.027100 15413.400000
170.041300 4187.200000
176.088000 23858.400000
177.045800 16823.500000
183.042800 17591.200000
184.038100 10355.100000
185.059300 18756.000000
189.017000 18487.900000
197.052200 24517.100000
208.037900 5265.300000
210.053600 11291.500000
211.049300 8690.400000
215.062500 3597.600000
217.058200 42543.600000
220.069300 8087.500000
235.048800 23854.900000
237.064600 227733.600000
238.059800 39515.900000
293.059100 8103.600000
295.074000 9307.200000
300.077500 4200.300000
381.082700 5920.400000

>ms2peaks
65.014500 25616.500000
67.030200 15486.900000
68.995800 5671.900000
91.030300 5197.300000
105.014500 10600.300000
111.024000 5599.800000
125.021100 4834.100000
126.034900 7965.500000
126.103600 6791.300000
144.057000 3645.000000
145.027100 89710.800000
156.081700 6240.200000
163.036500 46428.800000
164.031700 23310.900000
169.027100 18474.500000
170.022200 4512.700000
170.041100 4413.300000
177.045800 25846.200000
184.038300 2863.100000
185.059300 6434.400000
189.016900 7266.300000
189.051900 3254.400000
200.063000 2646.100000
208.038400 5834.900000
210.053900 4125.900000
211.049000 3762.900000
215.062900 3766.400000
217.058300 14816.200000
235.049300 13854.000000
236.044100 11846.000000
237.064500 38316.600000
238.059300 8655.000000
263.054300 2224.700000

