>compound LU50430731
>parentmass 401.1341
>ionization [M-H]-
>formula C21H23FN2O3S
>rt 792.060000
>profile orbitrap
#smiles_iso C1CN(CCC1CC2=CC=C(C=C2)F)CCS(=O)C3=CC4=C(C=C3)NC(=O)O4
#smiles_can C1CN(CCC1CC2=CC=C(C=C2)F)CCS(=O)C3=CC4=C(C=C3)NC(=O)O4
#inchikey FCBQJNCAKZSIAH-UHFFFAOYSA-N
#pubchem_id 156328
#mb_accession LU026451,LU026452,LU026453,LU026454,LU026455,LU026456

>ms2
133.017200 5751.200000
164.988900 17650.800000
180.984000 3432190.000000
181.991800 1399881.600000
401.134100 3052485.500000

>ms2
57.975700 10402.200000
122.024800 9766.700000
133.016500 11644.200000
138.001800 7232.500000
138.986000 27624.300000
149.011700 52029.700000
152.988800 8670.900000
164.989000 224242.300000
180.983900 7035481.500000
181.991700 1114386.900000
401.134300 16987.300000

>ms2
57.975700 105822.100000
63.962400 7205.100000
65.003200 10279.600000
65.998500 10897.700000
81.975600 9042.300000
83.991300 48695.100000
93.988300 30900.700000
107.991200 9185.800000
109.016900 13840.200000
110.991000 10871.400000
111.986100 7527.800000
112.994100 63681.000000
120.009100 75154.500000
121.016800 8161.400000
122.024600 11135.300000
124.994000 14391.500000
125.978100 12343.400000
133.017100 8094.400000
134.024500 6571.200000
135.985900 12631.900000
136.994100 83370.400000
137.978100 17650.800000
138.001800 9813.800000
138.985900 40240.200000
149.011800 519908.800000
151.981100 25553.900000
152.989000 105611.900000
164.989000 662147.200000
179.976400 8289.300000
180.983900 5910655.500000
181.991700 321799.000000

>ms2
56.980400 7426.900000
57.975700 198670.200000
63.962400 10479.500000
64.019200 3074.600000
65.003300 26479.200000
65.998500 53162.500000
68.014200 40113.200000
68.998200 13317.600000
81.022000 10625.200000
81.975700 36666.200000
83.991400 195208.400000
84.975200 3315.000000
92.014100 6872.400000
93.022000 4862.800000
93.988300 131778.500000
96.009300 5085.200000
97.983200 4611.500000
98.978500 3916.100000
107.991300 35550.300000
108.999000 3252.400000
109.016900 30261.200000
110.991000 14610.700000
111.986200 21477.600000
112.994100 119408.300000
120.009100 192030.400000
121.016800 37808.900000
122.024700 2720.100000
123.986000 5638.200000
124.004100 2764.900000
124.994100 36482.000000
125.978000 32882.900000
133.017000 9269.400000
134.024700 9495.000000
135.986200 40189.000000
136.003900 30979.600000
136.994000 156480.600000
137.978100 34409.900000
138.001900 3518.300000
138.985800 22635.200000
139.981100 8908.600000
149.011800 1655740.200000
151.981100 73249.800000
152.989000 153207.800000
164.988900 692618.100000
179.976000 21260.500000
180.983900 2646472.500000
181.991700 40515.300000

>ms2
50.003500 3490.400000
56.980400 18450.800000
57.975700 143943.300000
62.016200 2277.200000
63.962500 19868.000000
64.019300 6626.000000
65.003200 18432.900000
65.998600 104317.000000
68.014200 109591.700000
68.998200 9331.200000
71.967600 4020.900000
74.003500 2155.800000
80.980600 6137.800000
81.022000 30439.500000
81.975700 57961.600000
81.988300 6185.300000
83.991400 322483.000000
84.975400 6307.000000
92.014300 16152.900000
93.022100 3481.000000
93.988300 205616.000000
96.009200 13805.000000
96.999300 6341.600000
97.983300 3483.500000
98.978500 4236.800000
107.991400 87468.400000
108.999300 4386.500000
109.017000 32241.400000
110.991100 14537.300000
111.986300 21326.100000
112.994100 74409.400000
120.009100 230907.600000
121.016900 121355.600000
123.986300 7341.600000
124.004200 5853.000000
124.994000 28474.700000
125.978100 20341.800000
133.017000 22216.500000
134.024900 3894.400000
135.986300 60823.300000
136.004000 96381.900000
136.994100 151235.700000
137.978000 17261.200000
138.986000 8899.400000
139.981500 11605.200000
149.011800 2117992.500000
151.981200 89338.300000
152.989000 78223.800000
153.007000 5898.100000
164.989000 523556.200000
179.976100 19204.800000
180.984000 754280.600000
181.991900 5684.100000

>ms2
50.003600 4028.300000
56.980400 36294.200000
57.975700 78751.700000
60.975400 2675.200000
62.016200 15643.100000
63.962400 14307.900000
64.019200 12921.700000
65.003300 11052.300000
65.998600 120258.400000
68.014200 138342.500000
68.998200 11757.300000
71.967700 3428.300000
74.003700 3316.500000
80.980500 14619.600000
81.022100 35427.400000
81.975800 72921.100000
81.988400 10280.100000
83.991400 319999.700000
84.975400 5151.200000
92.014300 28639.700000
93.022000 4456.500000
93.988300 175091.300000
96.009100 15006.000000
96.999100 7560.200000
97.983200 5877.700000
98.978200 4046.500000
107.991400 144369.100000
109.016900 34329.300000
110.991200 8648.200000
111.986400 12724.400000
112.994100 30185.200000
120.009100 238565.900000
121.017000 233791.500000
123.986300 6027.700000
124.004200 5458.700000
124.994000 14491.200000
125.978000 10717.700000
133.017000 20915.200000
134.024900 3211.000000
135.986300 58052.200000
136.004000 143031.900000
136.994100 99606.300000
137.978100 4672.400000
138.986300 2921.100000
139.981000 7039.900000
149.011800 1411037.600000
151.981200 53631.600000
152.988900 17233.000000
153.006700 12978.500000
164.989000 268666.200000
179.976300 8754.000000
180.984000 131989.400000

