>compound LU50473635
>parentmass 387.14809999999994
>ionization [M-H]-
>formula C21H25ClN2O3
>rt 978.360000
>profile orbitrap
#smiles_iso C1CN(CCN1CCOCC(=O)O)C(C2=CC=CC=C2)C3=CC=C(C=C3)Cl
#smiles_can C1CN(CCN1CCOCC(=O)O)C(C2=CC=CC=C2)C3=CC=C(C=C3)Cl
#inchikey ZKLPARSLTMPFCP-UHFFFAOYSA-N
#pubchem_id 2678
#mb_accession LU053551,LU053552,LU053553,LU053554,LU053555,LU053556

>ms2peaks
75.008800 26714.000000
387.148200 5765005.500000

>ms2peaks
59.985300 10365.900000
72.993100 42155.500000
75.008800 789313.300000
101.024400 59836.300000
111.000900 5654.800000
130.051100 6970.900000
185.093300 25846.100000
199.031800 18003.200000
201.047200 20008.200000
387.148100 3050416.800000

>ms2peaks
59.985300 6959.900000
72.993100 32842.300000
75.008800 216162.700000
101.024500 34666.000000
111.000600 5177.500000
130.050900 7837.200000
185.093200 11721.200000
199.032000 6545.200000
201.047600 3546.200000
387.148500 26769.000000

>ms2peaks
59.985300 5093.900000
72.993100 27400.300000
75.008800 129697.000000
101.024400 15360.600000
130.050800 4704.200000
185.093400 6447.800000

>ms2peaks
59.985300 18598.000000
72.993100 68243.200000
75.008800 301458.000000
101.024600 16837.400000
130.051200 2031.600000
185.093100 4663.400000

>ms2peaks
59.985300 4332.300000
72.993100 14585.300000
75.008800 57000.700000

