>compound LU50063988
>parentmass 434.9314
>ionization [M-H]-
>formula C12H4Cl2F6N4OS
>rt 1093.320000
>profile orbitrap
#smiles_iso C1=C(C=C(C(=C1Cl)N2C(=C(C(=N2)C#N)S(=O)C(F)(F)F)N)Cl)C(F)(F)F
#smiles_can C1=C(C=C(C(=C1Cl)N2C(=C(C(=N2)C#N)S(=O)C(F)(F)F)N)Cl)C(F)(F)F
#inchikey ZOCSXAVNDGMNBV-UHFFFAOYSA-N
#pubchem_id 3352
#mb_accession LU059151,LU059152,LU059153,LU059154,LU059155,LU059156

>ms2peaks
84.990700 235498.000000
243.989000 59219.900000
249.958400 484994.000000
267.988800 55778.400000
277.953200 131181.200000
278.995200 47203.400000
280.956900 379070.800000
281.992400 112813.100000
287.961700 140822.400000
317.969100 1044274.200000
329.959500 30031030.000000
348.933500 138191.100000
350.988500 147149.600000
364.928600 154746.500000
365.936200 2370850.000000

>ms2peaks
57.975700 391614.800000
84.990700 248281.300000
88.006700 104930.700000
150.003500 79431.200000
170.009800 1463575.100000
182.009600 53279.100000
183.017500 377689.400000
208.958100 123855.500000
212.949500 25092.400000
216.978800 35222.700000
217.986300 539160.900000
233.981500 308039.600000
235.955300 37430.700000
240.945000 15313.300000
242.984600 135385.600000
243.989600 916496.100000
244.921000 33973.400000
249.958500 12340834.000000
253.986800 72566.800000
267.989400 289603.900000
271.984600 17118.700000
276.945800 18635.600000
277.953400 5368575.500000
278.995900 40658.000000
280.957000 516557.600000
281.992600 1149203.900000
287.961700 560054.400000
303.956500 36465.200000
329.959600 13914109.000000
350.988100 196291.000000
364.928200 93738.200000
365.936500 275745.500000

>ms2peaks
57.975700 660792.600000
65.998500 31249.600000
66.009800 37538.700000
66.941600 9979.500000
76.006700 19076.300000
77.014600 97426.700000
81.975800 46963.000000
84.990700 111976.500000
88.006700 129685.900000
89.014500 18501.500000
113.014400 54386.900000
130.998500 8610.600000
143.005200 17894.500000
148.991100 56920.400000
150.003500 97989.700000
158.009000 8886.000000
160.001800 18879.000000
163.011300 126850.600000
170.009800 1879983.000000
174.003400 13337.000000
182.009800 750275.500000
183.017500 4511955.500000
199.011800 8010.900000
201.998500 62280.000000
208.958400 88910.400000
212.949100 191121.900000
216.978600 123106.100000
217.986300 500013.300000
222.004600 14754.900000
228.944500 28150.600000
233.981200 330292.200000
235.955500 26631.100000
240.944700 28475.800000
242.984600 77264.400000
243.989500 1316109.000000
244.921200 50742.100000
246.015200 16023.400000
249.958400 7788870.500000
253.986400 475361.800000
267.989600 785358.900000
271.984800 32998.900000
276.945900 10936.300000
277.953400 3960826.800000
278.996300 20152.300000
280.956800 253160.200000
281.992500 1886309.000000
283.000000 37943.200000
287.961600 414081.300000
303.957000 75432.900000
317.969200 749646.700000
329.959500 328230.400000
348.934000 20669.700000
350.988300 49615.800000

>ms2peaks
50.003500 59509.600000
57.975600 1111200.100000
64.006700 11683.800000
65.998500 48052.700000
66.009800 93606.600000
66.941500 24130.700000
74.003600 14195.300000
76.006700 41558.700000
77.014500 375182.200000
81.975700 116885.700000
84.990700 96020.200000
88.006700 48965.200000
89.014500 27151.900000
90.009900 37139.200000
100.006700 20488.000000
112.000400 25746.900000
112.006700 22648.000000
113.014500 811061.100000
130.998900 27110.000000
138.003600 21007.400000
148.991100 104696.300000
150.003500 72208.100000
154.999200 67736.100000
157.001800 18117.800000
158.009700 42684.300000
160.001700 37324.300000
162.003700 35487.000000
163.011300 2180163.200000
170.009700 711276.100000
174.003300 50529.300000
181.002400 19229.000000
182.009800 1451734.900000
183.017500 9160908.000000
188.006800 62277.500000
191.983500 42241.500000
196.972400 14799.500000
198.004000 47779.400000
199.011400 37805.500000
201.998500 209975.600000
203.976500 54214.300000
207.000600 11191.400000
208.012400 92994.900000
208.958000 61295.700000
212.007000 20562.000000
212.949200 396316.900000
213.973100 12075.700000
214.989600 100888.600000
216.978500 219005.500000
217.986300 297186.000000
218.009700 121197.600000
222.004800 28396.200000
223.983300 204425.700000
227.017500 18357.900000
228.944800 33678.200000
229.952400 53769.200000
232.012700 28784.400000
233.980800 214509.300000
236.984700 24486.400000
240.944500 33589.300000
242.984700 59043.600000
243.989400 1329827.600000
244.921200 58143.600000
246.015600 108734.500000
247.983100 64629.800000
249.958400 4271892.500000
253.986300 356766.600000
267.989500 1331186.600000
271.984500 155634.600000
277.953300 675603.900000
280.957000 137173.800000
281.992600 535995.600000
282.999700 25727.200000
287.961700 247713.700000
303.956200 35277.900000

>ms2peaks
50.003500 131072.400000
57.975700 1238423.900000
64.006700 33915.200000
65.998500 49609.800000
66.009800 91497.800000
66.941500 25471.800000
74.003600 91959.500000
76.006700 11217.700000
77.014500 298223.500000
81.975700 186665.000000
84.990700 40019.600000
85.970600 34155.700000
86.003600 27901.900000
88.000300 62083.800000
88.006600 42611.900000
89.014500 16072.900000
90.009800 115224.000000
98.003700 63481.300000
100.006800 15076.000000
112.000400 101241.500000
112.006700 77696.000000
113.014500 1612877.500000
124.006700 20490.500000
130.998900 21983.600000
136.000600 33764.300000
136.006400 9154.800000
138.003400 9539.100000
143.005100 2613183.000000
148.006700 111110.000000
148.991200 96174.800000
150.003400 16148.900000
151.971300 11316.100000
154.998800 141977.700000
157.001900 10731.800000
158.009800 22982.500000
160.001700 17402.800000
162.003500 66550.500000
163.011400 3664948.800000
170.009700 120395.400000
174.003400 26749.400000
174.977300 9610.100000
181.002200 35011.200000
182.009800 436602.800000
183.017500 4086595.000000
194.983600 26184.000000
196.972400 32705.200000
198.003700 83464.800000
199.011100 46090.100000
201.998600 81973.900000
203.976800 151777.600000
205.002100 9970.100000
207.000700 21885.000000
208.012800 157643.300000
208.958800 12992.800000
212.006700 98313.900000
212.949200 68035.300000
213.973400 14412.100000
214.990200 55336.900000
216.978300 115667.700000
217.986500 34828.300000
218.009600 110284.400000
222.005200 16105.400000
223.983300 164133.700000
227.017800 11050.200000
228.945000 11906.900000
229.952500 22516.900000
232.012700 100442.100000
233.981000 30433.900000
236.984000 12910.200000
243.989500 406996.600000
244.920800 22055.100000
247.983000 134662.800000
249.958400 682778.800000
253.986400 24181.300000
267.989600 650696.900000
271.984500 114397.000000
277.954700 22328.200000
280.957000 17782.100000
281.992500 50677.800000
287.961400 23603.300000

>ms2peaks
50.003500 115437.800000
57.975700 1031924.100000
64.006700 32626.500000
65.998700 35580.800000
66.009800 56576.500000
66.941500 9097.000000
74.003600 228390.000000
76.006700 7991.400000
77.014500 127500.900000
81.975700 261316.600000
84.990700 15304.200000
85.970600 35341.900000
86.003600 178550.000000
88.000500 256340.600000
88.006700 52848.100000
89.014300 11122.200000
90.009800 132737.900000
98.003700 330738.100000
112.000500 468610.400000
112.006700 157631.700000
113.014600 1956994.900000
124.006700 22443.700000
130.998800 16246.000000
136.000500 146172.700000
136.006300 14516.400000
143.005100 4676005.000000
148.006800 204408.500000
148.991300 67490.400000
150.003700 11808.600000
151.971000 27073.700000
154.999000 138535.000000
158.009300 9541.800000
162.003500 31213.300000
163.011400 2585677.000000
170.009600 43187.000000
174.977400 17951.800000
181.002100 57811.100000
182.009600 87419.500000
183.017600 1374035.100000
188.006600 190185.800000
191.983700 17058.500000
194.983700 21040.400000
196.972400 33197.000000
198.003900 42507.200000
199.011200 50312.800000
201.998400 15436.100000
205.002000 58975.200000
208.012800 155768.200000
208.958200 10969.200000
212.006700 224592.700000
213.973300 8705.800000
214.989700 28264.400000
216.978400 41081.300000
218.009800 38253.400000
223.983600 77807.400000
227.017600 11963.900000
229.952600 9419.300000
232.012900 116821.400000
243.989600 112602.600000
244.921100 16407.600000
249.958300 77595.700000
267.989600 221863.400000
271.985000 40124.800000

