>compound LU50671149
>parentmass 203.9447
>ionization [M-H]-
>formula C7H5Cl2NS
>rt 817.320000
>profile orbitrap
#smiles_iso C1=CC(=C(C(=C1)Cl)C(=S)N)Cl
#smiles_can C1=CC(=C(C(=C1)Cl)C(=S)N)Cl
#inchikey KGKGSIUWJCAFPX-UHFFFAOYSA-N
#pubchem_id 2734819
#mb_accession LU015251,LU015252,LU015253,LU015254,LU015255,LU015256

>ms2peaks
57.975700 142961.100000
144.961700 9879.300000
167.968200 3640.000000
203.944700 21153.800000

>ms2peaks
57.975700 125730.500000
144.961800 6642.700000
167.968200 3011.500000
203.944400 8233.000000

>ms2peaks
57.975700 166180.000000
144.961400 2074.600000

>ms2peaks
57.975700 155890.700000

>ms2peaks
57.975700 141323.700000

>ms2peaks
57.975700 135400.300000

