>compound LU51600507
>parentmass 243.0809
>ionization [M-H]-
>formula C10H16N2O3S
>rt 713.160000
>profile orbitrap
#smiles_iso C1[C@H]2[C@@H]([C@@H](S1)CCCCC(=O)O)NC(=O)N2
#smiles_can C1C2C(C(S1)CCCCC(=O)O)NC(=O)N2
#inchikey YBJHBAHKTGYVGT-ZKWXMUAHSA-N
#pubchem_id 171548
#mb_accession LU132851,LU132852,LU132853,LU132854,LU132855,LU132856

>ms2
74.007000 58228.400000
97.040800 7535.800000
111.045300 9247.200000
111.056400 7347.500000
120.082000 16133.900000
122.097500 37100.700000
139.058700 5117.600000
156.085200 70755.800000
165.103300 84125.300000
166.087300 439052.000000
191.082700 8785.700000
197.093200 29200.000000
199.091100 175626.300000
200.075100 977591.200000
209.093100 138570.900000
225.070900 6795.600000
243.080800 3647141.200000

>ms2
59.013800 3618.000000
59.025100 3518.500000
68.050500 41047.500000
71.991400 6244.700000
74.007000 101935.900000
83.050100 3551.600000
92.050400 1922.600000
95.025100 15753.900000
97.040700 17560.300000
103.058800 4547.300000
111.045100 8794.000000
111.056300 16430.200000
120.081800 51342.900000
122.097500 152201.600000
130.069700 4464.000000
136.076700 2742.600000
139.058700 42204.400000
140.072000 3882.200000
148.076900 7780.400000
153.103200 13799.100000
154.087300 8448.700000
156.085200 190953.500000
165.103300 103025.100000
166.087300 836537.300000
179.083100 10465.300000
183.048300 2869.200000
191.082500 12137.500000
197.093200 53004.200000
199.091000 117960.700000
200.075000 1071737.400000
209.093100 77098.400000
225.070500 8130.800000
243.080700 1300499.800000

>ms2
52.019200 4934.700000
59.013900 6649.800000
59.025000 10093.000000
63.962400 1926.200000
66.034900 1993.900000
68.050600 105290.900000
71.991300 15553.900000
74.007000 81971.600000
83.025200 2766.300000
83.050300 3267.300000
85.011700 2524.300000
92.050600 2266.300000
94.066200 6256.700000
95.025100 52583.500000
97.040800 15540.600000
97.065900 6659.200000
103.058800 29673.800000
109.040700 4634.900000
110.097600 2207.800000
111.045200 4559.900000
111.056300 19186.700000
120.081900 56277.900000
122.097500 165146.700000
123.056500 3835.300000
124.076900 3544.300000
130.069700 16769.400000
136.076700 6428.600000
139.058800 101655.900000
140.071800 2931.300000
148.077000 7036.800000
152.072000 5620.200000
153.103500 35580.800000
154.087500 26775.400000
156.085300 189013.900000
165.103400 43129.100000
166.087400 355829.700000
179.082700 14475.500000
183.048300 3017.800000
191.082800 9724.700000
197.093200 31522.000000
199.091100 15502.400000
200.075100 251305.200000
209.093500 9992.000000
225.070100 2138.200000
243.080900 81601.200000

>ms2
52.019200 5573.900000
58.996100 2843.600000
59.013800 13948.300000
59.025100 14012.400000
63.962400 2260.700000
68.014200 15357.600000
68.050600 66163.800000
71.991400 25818.200000
72.999200 6902.000000
74.007000 62040.100000
82.017200 5125.900000
82.066200 6048.800000
83.025000 7288.100000
85.011800 6095.600000
94.066200 4441.400000
95.025100 59909.800000
97.040900 11128.200000
97.066000 8995.700000
99.014800 3383.300000
101.043000 2126.500000
103.058700 36251.300000
109.040700 3243.200000
110.097400 2469.500000
111.045300 2256.900000
111.056400 12213.200000
120.081900 8945.700000
122.097600 44744.600000
123.056400 4450.800000
124.076600 2942.800000
130.069500 15218.100000
136.076600 4893.700000
139.058800 48643.400000
140.071800 3474.700000
148.076700 1813.900000
152.071700 4985.300000
153.103300 20535.900000
154.087500 19752.800000
156.085300 42460.300000
165.103200 6656.100000
166.087500 40857.100000
179.082800 7723.700000
191.082000 2176.700000
197.092800 5541.600000
200.075100 17139.500000

>ms2
52.019200 3403.300000
58.996100 2335.500000
59.013800 13196.200000
59.025100 10767.400000
63.962400 2152.900000
66.035000 4328.000000
68.014200 17723.600000
68.050600 22876.000000
71.991400 27535.900000
72.999100 11360.300000
74.007000 39221.500000
82.017200 6002.300000
82.066200 4848.500000
83.025100 6319.900000
85.011700 4354.300000
94.066300 3462.700000
95.025100 37916.500000
95.050300 2238.200000
97.040700 3889.600000
97.065900 5559.000000
99.015100 2040.400000
103.058700 26273.300000
111.056400 6132.200000
122.097700 4378.900000
123.056200 1889.500000
130.069800 7953.400000
136.077000 2070.600000
139.058900 12132.400000
153.103400 4208.800000
154.087700 2330.300000
156.085000 3876.700000
166.087800 2066.100000

>ms2
52.019200 3913.500000
58.996200 2630.100000
59.013800 10870.300000
59.025100 6930.800000
63.962400 1591.100000
66.034900 5847.300000
68.014200 19779.800000
68.050600 9515.300000
71.991400 34338.900000
72.999200 18768.100000
74.007000 28420.500000
82.017200 4550.400000
82.066200 3709.500000
83.025100 6906.300000
85.011700 7603.100000
94.066400 2075.300000
95.025100 20877.100000
95.050100 3871.600000
97.065900 2766.400000
99.014800 1673.800000
101.043200 2223.300000
103.058700 13952.700000
130.069500 1894.100000
139.058800 2378.800000

