>compound LU51136053
>parentmass 397.06120000000004
>ionization [M-H]-
>formula C18H14N4O5S
>rt 1023.140000
>profile orbitrap
#smiles_iso C1=CC=NC(=C1)NS(=O)(=O)C2=CC=C(C=C2)N=NC3=CC(=C(C=C3)O)C(=O)O
#smiles_can C1=CC=NC(=C1)NS(=O)(=O)C2=CC=C(C=C2)N=NC3=CC(=C(C=C3)O)C(=O)O
#inchikey NCEXYHBECQHGNR-UHFFFAOYSA-N
#pubchem_id 5339
#mb_accession LU104751,LU104752,LU104753,LU104754,LU104755,LU104756

>ms2
122.024600 6246.500000
196.065600 19129.300000
197.071900 215850.600000
212.059600 4303.900000
240.055400 17823.800000
241.061800 50426.500000
289.109700 19643.300000
333.099500 7241.300000
353.071300 46216.400000
397.060900 4047628.800000

>ms2
65.998500 5565.000000
92.026900 15544.600000
92.038100 13226.700000
93.022000 3455.000000
94.029800 5142.900000
105.022000 53718.800000
118.030000 4745.100000
121.016900 6976.900000
122.024700 179146.100000
148.040400 4407.100000
149.011700 19413.100000
151.027500 7578.400000
169.065800 5438.100000
183.056200 20730.200000
183.079800 12075.100000
196.063900 22976.800000
197.072000 2968263.000000
199.051200 12720.400000
200.059300 3418.200000
202.038700 3251.500000
212.059100 191604.100000
240.054000 34223.800000
241.061900 192850.500000
248.082700 6229.400000
262.098000 3391.100000
289.109500 435408.500000
333.098700 11576.000000
353.071300 51310.900000
397.061100 465320.300000

>ms2
65.998400 13366.200000
68.014100 5455.000000
69.034600 2329.500000
82.005800 2578.200000
91.018700 8099.100000
91.030100 17783.800000
92.026700 20872.600000
92.037900 26433.200000
93.022000 10339.800000
93.034400 3679.000000
94.029700 13486.300000
95.013700 56015.900000
96.009000 7807.400000
97.029300 2249.200000
105.021900 54561.800000
106.005900 3149.000000
107.037300 2719.300000
108.021600 50786.000000
118.029700 15340.200000
120.008900 3884.700000
120.045500 2532.000000
121.016700 9439.700000
122.024600 484616.700000
123.008600 8387.900000
131.037600 4268.700000
134.024400 2499.400000
143.050300 2865.400000
144.045200 3736.900000
148.040400 13251.500000
149.011700 22428.800000
151.027500 7623.200000
158.048300 8010.300000
167.050100 8997.300000
168.069100 13345.900000
169.065800 55369.400000
171.045300 3264.000000
171.056200 7762.500000
182.072500 3745.900000
183.056200 83837.900000
183.079700 20636.200000
196.064200 126990.600000
197.072000 2219427.500000
199.051300 37693.100000
200.058900 4497.200000
202.038100 10687.100000
212.059100 272962.000000
220.076900 5591.200000
222.067000 13233.700000
240.054000 45281.100000
241.062100 21046.900000
243.041100 3997.100000
248.082700 18535.100000
256.049100 4809.300000
262.098500 19314.400000
289.109700 130832.400000

>ms2
65.998500 14602.200000
68.014200 7386.600000
68.998400 5443.100000
69.034600 4770.200000
71.013900 3175.900000
72.993100 3316.600000
78.034900 2747.900000
79.990400 2968.900000
82.006000 13269.300000
90.034800 10607.000000
91.019000 18369.800000
91.030200 48175.200000
92.022100 2490.200000
92.023100 2645.000000
92.026600 25314.300000
92.038100 14324.600000
93.022000 15902.700000
93.034600 10642.700000
93.045600 3420.900000
94.029800 16432.000000
95.013900 206788.000000
96.009100 8407.400000
97.029600 3397.200000
105.021900 14745.100000
106.006100 10556.900000
106.029900 4568.400000
107.037800 6418.100000
108.021700 176580.200000
118.029900 24041.400000
120.009100 4273.400000
120.045500 4229.400000
121.016800 12006.400000
122.024800 522390.100000
123.008800 26495.300000
131.037500 6702.400000
134.024800 4448.900000
136.016800 3313.600000
141.071000 5279.000000
143.050200 14379.300000
144.045500 4601.200000
148.040500 11703.200000
149.011900 3668.700000
156.058400 5102.100000
158.048700 12642.800000
167.050400 73817.900000
167.061800 4472.100000
168.069500 11288.100000
169.066000 71803.100000
171.045600 7152.300000
171.056600 12765.500000
183.045700 10487.100000
183.056500 102990.700000
184.053200 9956.200000
195.056400 7196.100000
196.064400 106707.600000
197.072200 762768.300000
199.051300 37765.000000
200.059100 4451.400000
202.038600 13713.800000
212.059400 208072.000000
220.076900 2884.100000
222.066900 4795.500000
240.054600 12203.900000
248.083500 4599.800000
262.098700 3986.600000
289.109700 5116.300000

>ms2
65.998500 4981.300000
67.019000 3375.500000
68.014300 2855.400000
68.998200 8289.800000
69.034500 9050.300000
71.014000 6763.700000
72.993000 4477.400000
78.034900 17113.700000
79.990400 3109.300000
82.006100 9846.300000
90.035000 27814.300000
91.019000 17518.100000
91.030200 55199.500000
92.026700 25630.300000
92.038000 3444.000000
93.022000 3890.200000
93.034600 16116.700000
93.045900 8903.900000
94.029900 5805.500000
95.013900 315978.000000
96.009200 3875.600000
97.029500 6254.600000
106.006000 17954.400000
106.029900 9617.800000
107.037800 3912.400000
108.021700 287658.300000
115.055200 2212.800000
116.050800 3428.300000
118.030000 13417.600000
120.008800 2627.100000
121.017200 2085.600000
122.024800 185016.200000
123.008900 33139.500000
136.016800 2608.800000
139.055600 4335.100000
141.071300 6373.100000
143.050400 15149.100000
144.045500 4143.100000
148.040400 2899.400000
156.058100 3975.300000
158.048800 10897.100000
167.050300 88895.800000
167.061400 7170.700000
168.069300 2515.400000
169.065900 26312.000000
183.045400 12557.600000
183.056400 36399.400000
184.053200 5160.100000
195.056700 14327.500000
196.064300 28339.700000
197.072100 101883.100000
199.051600 14342.000000
202.038600 3768.500000
212.059200 63861.100000

>ms2
67.019100 4071.200000
68.998200 6468.800000
69.034600 6630.400000
71.013900 3796.500000
72.993200 4466.000000
78.034900 26618.200000
82.005900 12268.100000
90.034900 29620.500000
91.019000 10365.800000
91.030200 71424.500000
92.026800 25959.200000
93.034600 15211.300000
93.045900 9638.900000
95.013900 306184.800000
97.029500 4425.600000
106.006100 17270.700000
106.029900 2525.400000
107.037800 4194.900000
108.021700 284626.500000
115.055200 1863.200000
116.050300 1989.800000
118.029800 13378.400000
122.024800 27723.700000
123.008800 42623.100000
131.037800 2940.600000
136.016400 3258.300000
139.055500 4224.500000
141.071100 2809.300000
143.050300 13114.900000
158.048500 11697.600000
167.050200 42177.000000
167.061500 7060.700000
169.066000 6178.600000
183.045300 4528.800000
183.056500 5790.400000
195.056700 5967.400000
196.063800 5602.700000
197.072000 10748.300000
212.059300 7165.200000

