>compound LU51333648
>parentmass 165.0492
>ionization [M-H]-
>formula C8H10N2S
>rt 394.800000
>profile orbitrap
#smiles_iso CCC1=NC=CC(=C1)C(=S)N
#smiles_can CCC1=NC=CC(=C1)C(=S)N
#inchikey AEOCXXJPGCBFJA-UHFFFAOYSA-N
#pubchem_id 2761171
#mb_accession LU104551,LU104552,LU104553,LU104554,LU104555,LU104556

>ms2peaks
57.975600 48859.600000
106.066100 3176.900000
165.049100 342066.800000

>ms2peaks
57.975700 59655.600000
106.066300 3200.500000
165.049200 396816.000000

>ms2peaks
57.975600 125814.400000
106.066000 5462.200000
165.049100 87977.500000

>ms2peaks
57.975700 188493.800000
106.066200 9849.300000
165.049400 12713.900000

>ms2peaks
57.975700 214322.600000
106.066200 6762.200000
165.049500 1920.400000

>ms2peaks
57.975700 229730.500000
106.066200 3645.600000

