>compound LU51709207
>parentmass 465.11369999999994
>ionization [M-H]-
>formula C21H23FN2O7S
>rt 1001.160000
>profile orbitrap
#smiles_iso C1CCC(C1)(C(=O)NO)N(CCC(=O)O)S(=O)(=O)C2=CC=C(C=C2)OC3=CC=C(C=C3)F
#smiles_can C1CCC(C1)(C(=O)NO)N(CCC(=O)O)S(=O)(=O)C2=CC=C(C=C2)OC3=CC=C(C=C3)F
#inchikey VHHGUBHZBLPTKL-UHFFFAOYSA-N
#pubchem_id 9869142
#mb_accession LU125951,LU125952,LU125953,LU125954,LU125955,LU125956

>ms2peaks
251.018400 11533.600000
266.029200 364547.300000
332.076400 9043.600000
338.050500 807950.600000
388.102900 17149.900000
393.092800 2271885.000000

>ms2peaks
79.981500 2483.600000
111.025300 4148.200000
126.056200 3814.200000
128.071900 3454.200000
251.018200 46945.400000
266.029300 1482048.200000
332.076300 9075.400000
338.050500 150484.200000
388.102300 3432.600000
393.092600 81710.600000

>ms2peaks
78.034900 7227.100000
78.973300 2464.900000
79.981200 9839.700000
95.030300 2402.000000
106.030000 15478.700000
107.037700 60906.600000
111.025000 4104.100000
126.055400 4551.200000
128.071600 3295.300000
160.056600 2545.600000
187.056600 15509.000000
202.067400 47521.600000
203.051500 3715.200000
266.029300 1714771.100000
338.050900 2798.300000

>ms2peaks
57.993600 2832.900000
61.970700 16493.700000
63.962500 8232.900000
77.965600 23707.200000
78.035000 37310.700000
78.973300 9982.900000
79.981200 87894.500000
93.960400 4848.200000
95.030200 16441.700000
106.029900 51427.600000
107.037700 352224.200000
108.021800 16793.200000
111.025100 16891.300000
121.045800 3469.800000
160.056800 8455.700000
170.999800 8632.900000
175.056800 10441.200000
187.056500 20446.400000
201.059800 12135.700000
202.067500 66608.000000
203.051900 6301.900000
266.029400 581327.800000

>ms2peaks
57.993400 2799.900000
61.970600 66756.900000
63.962500 23395.000000
77.965600 52094.500000
78.034900 42807.700000
78.973400 24767.200000
79.981200 155478.800000
80.965200 3050.300000
93.960400 15815.200000
95.030300 17802.200000
106.029800 19718.800000
107.037700 410275.600000
108.021700 29887.300000
111.025200 30514.800000
121.046100 3598.700000
160.056700 6877.000000
170.999700 7377.200000
175.056500 6516.500000
187.056500 6436.500000
201.059800 8568.800000
202.067500 15505.200000
266.029300 75147.800000

>ms2peaks
57.993400 2198.300000
61.970600 152223.500000
63.962400 56985.400000
77.965500 81338.900000
78.035000 31023.800000
78.973400 44003.100000
79.981200 166940.500000
80.965200 4121.000000
93.960400 22292.100000
95.030300 10259.200000
106.029700 4588.000000
107.037700 251347.200000
108.021700 36179.300000
111.025200 50857.000000
160.056600 2626.300000

