>compound LU51994602
>parentmass 345.13439999999997
>ionization [M-H]-
>formula C19H22O6
>rt 783.780000
>profile orbitrap
#smiles_iso C[C@@]12[C@H](C=C[C@@]3([C@@H]1[C@@H]([C@]45[C@H]3CC[C@](C4)(C(=C)C5)O)C(=O)O)OC2=O)O
#smiles_can CC12C(C=CC3(C1C(C45C3CCC(C4)(C(=C)C5)O)C(=O)O)OC2=O)O
#inchikey IXORZMNAPKEEDV-OBDJNFEBSA-N
#pubchem_id 6466
#mb_accession LU044951,LU044952,LU044953,LU044954,LU044955,LU044956

>ms2peaks
57.034600 6783.600000
60.993100 7546.700000
71.050300 105987.700000
73.029500 10320.900000
83.050300 143178.200000
107.050200 3332.900000
143.086600 465888.900000
145.065900 5576.300000
147.081600 13555.600000
155.086500 4998.800000
157.066000 26626.800000
159.081300 4025.200000
161.097200 23234.900000
169.066200 4111.300000
169.102500 3852.100000
171.081400 11682.100000
175.076300 17683.000000
183.081500 5459.700000
185.097100 4060.100000
187.076800 2925.000000
197.097200 10336.000000
197.133700 3946.000000
199.113000 7181.500000
201.128600 4022.200000
209.097800 3945.000000
211.112800 7498.700000
213.091900 4907.700000
213.128600 36886.500000
215.107800 5511.200000
221.133600 215373.800000
223.112900 12352.100000
225.092000 33926.300000
227.107800 50981.100000
235.113100 29246.800000
237.128700 48210.300000
239.144200 738466.800000
241.123300 8966.500000
243.139700 11111.300000
251.107700 29435.000000
253.123500 207440.800000
257.154700 104714.000000
269.118200 14937.300000
271.097900 30354.400000
283.133900 139666.300000
301.144500 108631.500000
327.123000 18112.100000
345.134200 2904033.800000

>ms2peaks
57.034600 8767.100000
60.993100 7190.600000
69.034600 3530.000000
71.050300 414549.700000
73.029500 99464.600000
83.050200 300744.700000
95.050300 5938.300000
105.071000 8867.500000
107.050400 3263.300000
119.049600 2262.400000
133.065800 4693.900000
143.086600 1779141.000000
145.066000 3781.300000
145.102200 2225.600000
146.073700 3491.300000
147.081300 3954.000000
149.097200 2753.700000
155.086700 10785.300000
157.065500 4668.500000
159.081200 12624.200000
159.117900 2032.800000
161.097200 106460.800000
169.066200 3526.000000
169.102200 7254.100000
171.081600 8280.200000
173.060500 2533.700000
173.097300 10458.400000
175.076500 5449.800000
181.102500 2607.600000
183.081700 10771.800000
183.117800 4940.800000
185.097200 18231.000000
187.076600 6033.700000
187.112600 2850.500000
189.091900 3098.300000
197.097300 15056.200000
197.133500 21027.400000
199.076700 4955.900000
199.112900 35989.500000
201.128400 55123.700000
205.101600 2851.800000
209.096700 5515.600000
211.112500 7240.000000
213.128500 88923.300000
215.107400 7015.500000
215.143800 10199.800000
217.123100 3066.900000
219.117900 4210.900000
221.133600 757415.100000
223.112500 6763.100000
225.091900 8659.800000
227.107800 357211.900000
235.112600 7941.600000
237.128500 37803.000000
239.144200 445627.700000
241.123700 7213.300000
243.066000 7545.800000
243.138900 2657.200000
245.117800 6126.600000
251.107600 8905.600000
253.123400 57488.200000
255.139100 28448.500000
257.154700 143864.800000
265.123200 9015.800000
269.118500 4260.300000
271.097600 157092.700000
273.149500 8541.900000
283.134000 100092.200000
301.144500 130384.100000
327.123600 31430.900000
345.134300 329452.400000

>ms2peaks
55.018900 7310.300000
57.034600 10050.800000
60.993200 5334.800000
69.034700 7164.300000
71.050300 358461.600000
73.029500 112241.800000
83.050200 243409.800000
93.034700 2451.100000
95.050300 10158.400000
105.071000 30529.100000
107.050200 7791.100000
119.086800 7435.400000
121.065900 6487.700000
129.070800 2402.300000
133.065900 10008.800000
133.102400 3433.000000
143.086600 2049277.900000
145.065700 8568.400000
146.073500 17158.700000
149.097100 12126.000000
155.086500 7633.100000
157.065600 3100.700000
157.102200 2352.400000
158.073400 2983.000000
159.081400 18518.200000
159.117900 3481.000000
161.097200 77402.600000
169.066300 2577.100000
169.102300 8862.100000
170.073300 2616.300000
171.081300 13606.200000
171.117600 6578.800000
172.089300 7129.000000
173.097200 18935.900000
179.086600 6849.100000
181.102500 4311.300000
183.081600 19983.300000
183.117700 11390.600000
184.089600 4240.000000
185.061000 3268.900000
185.097100 23275.900000
187.076300 5482.000000
187.112700 2645.700000
189.092000 4187.500000
193.102200 31497.800000
197.097200 13128.200000
197.133700 39424.700000
198.068400 6851.800000
199.076300 19811.100000
199.113000 20180.800000
201.128400 58046.300000
205.102200 13290.700000
206.110100 8738.000000
209.097200 28756.200000
211.076800 3935.000000
211.113000 5047.300000
212.084600 3536.200000
213.091900 3051.200000
213.128700 37430.700000
215.143900 7271.800000
217.123100 6628.300000
219.117900 34413.500000
220.089500 3005.700000
221.133600 748288.000000
223.112600 4598.000000
227.107800 472694.500000
237.128200 22284.800000
239.107500 4300.500000
239.144200 64868.100000
241.123300 3781.900000
243.065700 11857.100000
245.118000 3041.900000
253.123200 5979.900000
255.139000 29591.600000
257.154800 33366.600000
265.123700 9172.800000
271.097900 41328.000000
273.150200 2635.400000
283.133800 28549.300000
301.144700 8938.700000
345.135000 8096.600000

>ms2peaks
55.018900 20275.300000
57.034600 14205.000000
60.993000 5696.900000
69.034600 11796.100000
71.050200 214789.300000
73.029500 60498.100000
79.055400 2920.100000
83.050200 180061.700000
93.034500 2313.400000
95.050200 9837.000000
105.070900 31032.200000
107.050300 12689.000000
109.065900 3180.000000
119.050000 2808.800000
119.086600 9740.700000
121.065700 16555.100000
128.063000 3657.200000
129.070800 5982.200000
131.086400 5326.300000
133.065800 17958.300000
133.102300 4448.700000
141.071000 4295.300000
142.079000 3210.800000
143.086600 2203180.000000
144.058200 10458.500000
145.065800 11377.200000
145.102200 3521.600000
146.073600 22002.700000
147.081300 2920.300000
149.097000 8605.000000
155.086500 7936.400000
156.057800 3212.000000
157.065700 7546.500000
157.102000 4122.500000
158.073700 4027.000000
159.081300 10302.200000
159.118900 2234.100000
161.097100 33550.400000
167.086400 3270.300000
169.065900 4405.000000
169.102200 8577.300000
170.073600 8446.200000
171.081600 23812.200000
171.117900 3312.600000
172.089400 4895.500000
173.097200 11004.400000
174.068800 3360.800000
179.086600 18866.300000
181.066300 2887.200000
181.102200 13079.800000
183.081500 38380.500000
183.117800 9055.700000
184.052900 7098.000000
184.088800 4783.400000
185.097000 22959.400000
187.076100 4327.500000
189.091800 3260.200000
192.094500 4426.800000
193.102100 76293.400000
194.073800 4222.500000
197.096900 8925.600000
197.133600 19481.000000
198.068800 5521.800000
199.076500 21690.600000
199.113000 16335.300000
201.128200 15498.900000
205.102100 79648.700000
206.110200 15407.500000
209.097100 81618.800000
211.076200 17042.900000
211.112200 3708.100000
212.084300 5644.500000
213.092300 4885.800000
213.128700 11190.900000
217.101900 4130.900000
219.117900 87513.800000
220.090000 2553.600000
221.133500 346194.600000
225.092300 4942.800000
227.107700 225588.900000
237.128400 13166.200000
239.109200 2299.000000
239.143900 5618.700000
255.139300 9941.000000
257.155200 3100.700000
271.097400 3399.700000

>ms2peaks
55.018900 23146.600000
57.034600 8581.000000
60.993100 1879.900000
65.039700 1897.500000
69.034500 10274.700000
71.050300 112603.300000
73.029500 35003.300000
79.055400 2661.200000
83.050300 100645.000000
93.034600 4597.400000
95.050300 4916.300000
105.071000 38560.400000
107.050300 5315.200000
109.065900 2627.600000
119.086600 7789.300000
121.066000 14188.300000
128.063200 5612.600000
129.071000 8155.500000
130.042200 3312.100000
131.086700 4971.400000
133.065900 10973.600000
133.102500 2609.800000
141.071400 5293.900000
142.078800 7166.000000
143.086600 1765411.400000
144.057900 10866.900000
145.066000 5901.100000
146.073600 9825.900000
149.097100 2221.700000
155.086600 22248.100000
156.058200 7157.000000
157.066000 12181.200000
157.102600 2714.100000
158.073500 3178.900000
159.081400 4822.800000
160.052600 3199.400000
161.097100 11714.400000
167.086400 3942.600000
169.066000 7903.900000
169.101900 4959.200000
170.073900 8817.600000
171.081400 19349.700000
174.068600 6036.100000
179.086700 22002.200000
181.066500 2304.000000
181.102100 12752.100000
183.081400 29743.100000
183.118000 3298.000000
184.053000 10896.300000
184.089300 2480.800000
185.060800 2707.600000
185.097100 9918.900000
192.094800 6787.200000
193.102200 54528.400000
194.073400 3209.900000
197.060900 4872.300000
197.097200 7067.400000
197.133400 5055.400000
198.068800 2367.000000
199.076800 5073.600000
199.113300 5010.100000
203.086700 2779.700000
205.102300 113033.700000
206.110100 6955.300000
209.097200 71180.100000
211.076500 14186.600000
212.083900 3161.200000
217.102400 4879.900000
219.117900 84891.800000
221.133600 87218.600000
227.107600 35954.600000

>ms2peaks
55.018900 24964.700000
57.034600 3652.100000
65.039700 2744.300000
69.034600 7847.400000
71.050300 44851.000000
73.029500 12994.300000
79.055400 3516.300000
83.050200 47235.800000
93.034600 2245.400000
105.071000 22532.400000
107.050300 5201.900000
119.086500 2605.100000
121.065900 8413.400000
128.063100 10615.300000
129.070800 4776.100000
130.042600 4370.600000
131.086100 2110.600000
133.065900 2471.000000
141.071100 5287.300000
142.078900 6387.100000
143.086600 1034590.800000
144.058000 6174.700000
145.065800 3882.600000
155.086800 23098.200000
156.058000 4160.500000
157.066000 8807.900000
160.053200 3838.300000
167.086200 2216.100000
169.065900 7018.000000
169.102100 4824.100000
170.074000 4096.000000
171.081400 7396.700000
174.068600 7265.700000
179.086600 12776.600000
181.102600 8877.400000
183.081500 17792.500000
184.052800 3504.900000
185.097100 5044.300000
192.094700 2693.700000
193.102300 22757.300000
197.061400 3679.400000
197.097000 4177.100000
203.086800 6231.800000
205.102200 96285.400000
209.097200 31806.500000
211.076300 14330.200000
217.102700 3543.200000
219.117800 42081.500000
221.133300 11334.500000
227.108600 2288.000000

