>compound LU51793781
>parentmass 189.0169
>ionization [M-H]-
>formula C8H5F3O2
>rt 1005.600000
>profile orbitrap
#smiles_iso C1=CC(=CC(=C1)C(F)(F)F)C(=O)O
#smiles_can C1=CC(=CC(=C1)C(F)(F)F)C(=O)O
#inchikey FQXQBFUUVCDIRK-UHFFFAOYSA-N
#pubchem_id 9963
#mb_accession LU053151,LU053152,LU053153,LU053154,LU053155,LU053156

>ms2
68.995800 17616.900000
145.027000 8481416.000000
161.022400 14390.900000
189.016900 2182319.500000

>ms2
68.995800 29322.000000
145.027000 11216915.000000
161.022500 20684.100000
189.016900 1717345.400000

>ms2
68.995900 18419.000000
145.027000 8540677.000000
161.022000 21807.300000
189.016900 450024.000000

>ms2
68.995700 11865.900000
105.014500 6224.100000
125.020700 36516.700000
145.027000 4963967.500000
161.022200 20107.700000
189.016800 202662.200000

>ms2
68.995800 9670.000000
75.024000 8110.500000
85.008400 11092.400000
105.014600 57376.000000
121.009500 5377.100000
125.020800 58416.300000
145.027100 1595452.600000
161.022100 10540.800000
189.016800 74578.100000

>ms2
68.995800 27414.400000
75.024100 24490.700000
85.008400 36119.000000
105.014600 103743.100000
121.009400 4920.000000
125.020800 47218.000000
145.027100 348401.400000
161.021800 3547.400000
189.016800 15073.500000

