>compound LU51037096
>parentmass 607.2661
>ionization [M-H]-
>formula C33H40N2O9
>rt 917.880000
>profile orbitrap
#smiles_iso CO[C@H]1[C@@H](C[C@@H]2CN3CCC4=C([C@H]3C[C@@H]2[C@@H]1C(=O)OC)NC5=C4C=CC(=C5)OC)OC(=O)C6=CC(=C(C(=C6)OC)OC)OC
#smiles_can COC1C(CC2CN3CCC4=C(C3CC2C1C(=O)OC)NC5=C4C=CC(=C5)OC)OC(=O)C6=CC(=C(C(=C6)OC)OC)OC
#inchikey QEVHRUUCFGRFIF-MDEJGZGSSA-N
#pubchem_id 5770
#mb_accession LU101353,LU101355

>ms2peaks
65.003200 3208.400000
81.034700 7627.000000
93.034600 4843.000000
95.013900 4858.000000
97.029600 3529.700000
109.029400 12745.700000
110.001100 2708.800000
111.008600 2826.000000
120.993100 8553.800000
122.001000 5745.400000
123.008800 11640.500000
125.024500 5084.200000
125.995900 7863.500000
137.024500 96931.300000
137.995600 11372.900000
139.003600 6011.500000
141.019300 3029.700000
153.019600 14340.400000
153.055700 130492.600000
153.990900 4181.400000
155.035100 32108.600000
168.043000 4075.000000
169.014600 2252.300000
198.080000 6032.600000
235.087900 4166.900000
236.095600 4342.800000

>ms2peaks
65.003200 16133.700000
81.034600 14309.500000
93.034700 6123.000000
95.013800 5418.700000
97.029700 6211.000000
109.029400 12480.300000
110.001000 7505.300000
111.008900 2324.800000
120.993100 10201.000000
122.000900 8580.800000
123.008700 13506.700000
125.024300 14526.100000
125.995700 19575.800000
137.024400 94342.900000
137.995900 17526.500000
139.003800 2742.600000
141.019400 13395.700000
153.019300 15808.700000
153.055700 16974.700000
153.990600 12995.100000
155.034900 28753.200000
168.043000 7508.800000
169.014200 3757.300000
198.080000 3261.200000
235.088000 5577.700000
236.095700 2103.100000

