>compound LU52875147
>parentmass 217.0426
>ionization [M-H]-
>formula C13H11ClO
>rt 1132.200000
>profile orbitrap
#smiles_iso C1=CC=C(C=C1)CC2=C(C=CC(=C2)Cl)O
#smiles_can C1=CC=C(C=C1)CC2=C(C=CC(=C2)Cl)O
#inchikey NCKMMSIFQUPKCK-UHFFFAOYSA-N
#pubchem_id 8425
#mb_accession LU060651,LU060652,LU060653,LU060654,LU060655,LU060656

>ms2
181.066500 2832.300000
217.042600 1010528.400000

>ms2
93.034600 4050.600000
153.071100 3842.300000
180.058500 3659.600000
181.065800 14985.500000
217.042500 1907869.900000

>ms2
93.034600 8827.500000
101.039800 7979.400000
152.063200 6299.100000
153.070900 20542.600000
180.058100 23951.100000
181.065700 33171.100000
216.034700 2128.800000
217.042500 1074888.900000

>ms2
79.018800 5780.600000
93.034500 11342.100000
101.039700 70128.400000
127.055300 7269.800000
131.050200 5614.900000
140.003500 6583.900000
151.055000 8888.300000
152.063200 56140.600000
153.071000 47617.800000
169.066500 2896.200000
180.058100 49267.900000
181.066000 40251.800000
216.034800 5082.100000
217.042500 540654.900000

>ms2
79.018900 15285.800000
93.034500 5025.800000
101.039700 225428.200000
127.055600 16891.500000
131.050200 15019.500000
140.003600 10346.500000
151.055400 15954.400000
152.063100 81406.800000
153.071100 49391.400000
169.065400 5885.700000
180.058000 44729.500000
181.066100 14886.400000
217.042500 159670.300000

>ms2
101.039700 4778.300000

