>compound LU52548247
>parentmass 235.134
>ionization [M-H]-
>formula C14H20O3
>rt 1170.120000
>profile orbitrap
#smiles_iso CCCCCCCOC(=O)C1=CC=C(C=C1)O
#smiles_can CCCCCCCOC(=O)C1=CC=C(C=C1)O
#inchikey ZTJORNVITHUQJA-UHFFFAOYSA-N
#pubchem_id 14138
#mb_accession LU057551,LU057552,LU057553,LU057554,LU057555,LU057556

>ms2peaks
92.027000 276711.400000
93.034600 479927.800000
108.021700 71180.300000
120.022000 52747.500000
136.016600 1663053.600000
137.024500 2212263.500000
235.133900 47080236.000000

>ms2peaks
82.006000 35708.700000
91.018900 42998.200000
92.026400 536341.100000
93.034600 2837916.200000
95.013900 557483.300000
108.021700 415746.800000
119.013900 103179.600000
120.021900 47944.800000
121.029300 74544.100000
123.008600 68721.900000
136.016600 7265776.000000
137.024400 7033947.500000
191.144200 83159.600000
235.133900 34868600.000000

>ms2peaks
53.003300 17969.400000
65.003300 11901.300000
67.019000 33529.200000
68.998200 67246.000000
69.034600 41177.400000
70.006000 48493.400000
71.013800 47678.800000
72.993100 28677.800000
78.011100 19506.600000
79.018900 49986.200000
79.990300 41143.200000
80.998200 22670.300000
82.006000 217548.400000
86.000900 16435.700000
91.019000 345650.500000
92.026700 1464698.200000
93.034600 9017429.000000
95.013800 2737694.000000
97.029500 24755.200000
106.006000 141939.100000
106.042300 33669.100000
107.013900 25480.900000
108.021700 2436117.500000
113.097200 256639.300000
119.013800 353003.200000
121.029500 307694.100000
123.008700 321535.600000
136.016500 9381618.000000
137.024300 7260161.000000
191.144100 63056.000000
235.133900 6561928.500000

>ms2peaks
53.003300 12331.000000
65.003200 18805.900000
65.039700 39289.300000
67.019000 40242.900000
68.998200 103642.800000
69.034600 92819.400000
70.006100 51255.000000
71.013800 83056.500000
72.993200 49107.600000
78.011100 19653.800000
79.018900 75868.800000
79.990400 38820.100000
80.998300 19165.300000
82.006000 286636.600000
91.019000 773477.900000
92.026800 1636117.100000
93.034600 10617376.000000
95.013800 4192261.800000
97.029600 64616.400000
98.001000 16534.600000
106.006000 230551.200000
106.042400 15224.400000
107.013800 42005.000000
108.021700 3830918.800000
109.029500 16410.500000
111.081500 17514.400000
113.097200 599392.800000
119.013900 205874.300000
121.029500 411158.700000
123.008800 540925.800000
136.016500 2802348.000000
137.024400 2190915.500000
149.024600 16791.600000
235.134000 403295.100000

>ms2peaks
53.003200 15715.900000
65.003300 24098.300000
65.039700 106943.800000
67.019000 35860.600000
68.998200 128938.400000
69.034600 110439.100000
70.006000 59296.700000
71.013800 70393.000000
72.993100 52368.000000
78.011200 15947.700000
79.019000 80229.200000
79.990500 43859.200000
80.998200 27765.200000
82.006000 323004.900000
86.001000 32804.500000
91.019000 1006239.000000
92.026800 1389933.600000
93.034600 9974009.000000
95.013800 4386656.500000
97.029600 65452.100000
98.001100 23475.500000
106.006100 255805.300000
107.013900 33057.700000
108.021700 3987019.200000
109.029400 15217.800000
111.081700 38611.000000
113.097200 547065.900000
119.013800 61145.600000
121.029500 390565.000000
123.008800 540677.100000
125.024200 10652.800000
136.016600 434652.300000
137.024400 376873.700000
149.024300 25070.700000
235.133800 11554.100000

>ms2peaks
53.003200 13985.200000
55.018800 11909.600000
65.003300 15216.200000
65.039700 210469.500000
67.019000 34511.000000
68.998200 123672.000000
69.034600 83463.600000
70.006100 37804.600000
71.013900 62803.500000
72.993200 40086.800000
78.011100 17702.600000
79.018800 53054.900000
79.990400 44062.500000
80.998300 24904.300000
82.006000 250291.000000
83.014000 11676.700000
86.001000 13719.600000
91.019000 789061.600000
92.026800 1144062.900000
93.034600 8159701.500000
95.013800 3691063.000000
97.029600 54242.100000
98.001100 13352.700000
106.006000 170761.200000
107.013900 25750.300000
108.021700 3505718.800000
109.029500 11488.600000
111.081600 51514.300000
113.097200 328477.700000
119.013900 17089.500000
121.029500 300539.900000
123.008800 468564.300000
125.024200 8774.200000
136.016600 82959.100000
137.024400 72736.300000
149.024400 10714.900000

