>compound LU53884232
>parentmass 195.016
>ionization [M-H]-
>formula C6H4N4O4
>rt 669.420000
>profile orbitrap
#smiles_iso C1=C(OC(=C1)[N+](=O)[O-])C2=NN=C(O2)N
#smiles_can C1=C(OC(=C1)[N+](=O)[O-])C2=NN=C(O2)N
#inchikey VTWQUFUBSCXPOW-UHFFFAOYSA-N
#pubchem_id 77406
#mb_accession LU096951,LU096952,LU096953,LU096954

>ms2peaks
50.003500 5897.100000
64.019300 43734.700000
65.003300 26069.700000
65.014500 2582.500000
65.998600 6725.500000
68.998400 1879.600000
77.003300 24593.200000
77.014600 7740.700000
79.990400 4613.700000
80.014200 16234.100000
82.004700 381762.900000
89.998700 1648.300000
92.014200 34477.000000
92.998400 2641.100000
93.009400 3870.700000
105.009500 19406.000000
105.993500 3628.500000
108.009200 2883.000000
109.017000 4833.700000
112.004100 7633.600000
120.020400 4645.100000
121.028200 58836.000000
123.020100 3768.700000
124.004000 64492.500000
136.004300 4015.100000
137.024700 2923.200000
148.015300 75296.200000
165.018000 13867.900000
195.016100 46106.000000

>ms2peaks
50.003600 4542.600000
64.019300 48938.100000
65.003300 28810.900000
65.014500 2539.700000
65.998600 3562.400000
68.998200 2987.200000
77.003300 28498.500000
77.014500 8009.400000
77.998600 2178.400000
79.990500 3811.400000
80.014300 10765.400000
82.004700 305624.300000
89.998600 3034.400000
92.014200 31605.300000
92.998300 2240.700000
93.009400 3619.800000
105.009400 17681.000000
105.993700 3673.500000
108.009200 4488.400000
109.016900 2651.800000
112.004100 7285.900000
120.020400 6120.000000
121.028100 36202.800000
124.004000 52160.600000
136.004100 2282.000000
137.024700 4267.300000
148.015300 45561.600000
165.017900 4937.300000
195.016100 13040.400000

>ms2peaks
50.003500 9012.000000
64.019300 56551.700000
65.003300 39198.700000
65.014600 4024.600000
65.998600 8579.700000
77.003300 50598.700000
77.014600 9950.600000
77.998700 2584.100000
80.014300 7009.500000
82.004700 184963.000000
89.998600 6606.200000
92.014200 38442.800000
92.998200 2198.000000
93.009500 2021.400000
105.009400 4709.100000
105.993500 4255.500000
108.009300 2525.900000
109.029700 1831.900000
120.020400 7043.100000
121.028200 5313.700000
123.019900 2832.500000
124.004000 21984.700000
137.024400 2764.600000
148.015400 4095.500000

>ms2peaks
50.003500 10035.500000
64.019300 39915.100000
65.003300 40544.600000
65.014600 3760.100000
65.998600 7336.200000
77.003400 50247.800000
77.014600 6259.500000
77.998500 2095.000000
80.014300 2394.600000
82.004700 86927.800000
89.998500 7703.600000
92.014200 21108.600000
92.998300 3622.400000
93.009700 2242.000000
109.029600 2943.700000
120.020400 2701.000000
124.004100 4658.600000

