>compound LU53184027
>parentmass 187.04009999999997
>ionization [M-H]-
>formula C11H8O3
>rt 1061.280000
>profile orbitrap
#smiles_iso C1=CC=C2C=C(C(=CC2=C1)C(=O)O)O
#smiles_can C1=CC=C2C=C(C(=CC2=C1)C(=O)O)O
#inchikey ALKYHXVLJMQRLQ-UHFFFAOYSA-N
#pubchem_id 7104
#mb_accession LU084651,LU084652,LU084653,LU084654,LU084655,LU084656

>ms2peaks
143.050200 4522998.000000
187.040100 1616138.400000

>ms2peaks
143.050200 6217608.000000
187.040100 1351201.400000

>ms2peaks
115.055300 71531.800000
143.050100 7694189.000000
187.040100 153943.500000

>ms2peaks
115.055300 506330.400000
143.050200 7387352.000000
187.040200 11751.100000

>ms2peaks
115.055300 1378586.400000
117.034700 4992.400000
143.050200 4810797.500000

>ms2peaks
114.047400 3125.700000
115.055300 2352317.800000
117.034400 7707.800000
125.039600 8978.600000
143.050200 2742341.200000

