>compound LU53137382
>parentmass 238.91869999999997
>ionization [M-H]-
>formula C6H3Cl3N2O2
>rt 711.840000
>profile orbitrap
#smiles_iso C1(=C(C(=NC(=C1Cl)Cl)C(=O)O)Cl)N
#smiles_can C1(=C(C(=NC(=C1Cl)Cl)C(=O)O)Cl)N
#inchikey NQQVFXUMIDALNH-UHFFFAOYSA-N
#pubchem_id 15965
#mb_accession LU022751,LU022752,LU022753,LU022754,LU022755,LU022756

>ms2peaks
122.975400 3143.400000
158.952200 7361.100000
194.928900 223764.400000

>ms2peaks
122.975600 28803.400000
158.952300 38906.700000
194.929000 207054.100000

>ms2peaks
122.975600 42714.500000
158.952300 30595.400000
194.928900 33171.900000

>ms2peaks
122.975500 38779.300000
158.952200 22996.700000
194.928800 3602.400000

>ms2peaks
88.006600 2866.700000
98.975700 1515.700000
122.975600 22554.600000
158.952300 6584.200000

>ms2peaks
88.006600 6736.600000
98.975500 4163.500000
122.975500 6955.900000

