>compound LU53537680
>parentmass 153.03060000000002
>ionization [M-H]-
>formula C6H6N2O3
>rt 669.720000
>profile orbitrap
#smiles_iso C1=CC(=C(C=C1N)[N+](=O)[O-])O
#smiles_can C1=CC(=C(C=C1N)[N+](=O)[O-])O
#inchikey WHODQVWERNSQEO-UHFFFAOYSA-N
#pubchem_id 3417419
#mb_accession LU076951,LU076952,LU076953,LU076954,LU076955,LU076956

>ms2
65.998500 1875.400000
106.029900 7007.000000
122.024700 221584.900000
123.008900 2830.000000
123.032500 19213.600000
124.016700 2780.400000
153.030600 1289898.500000

>ms2
65.998500 2923.000000
68.014100 3148.200000
106.029700 8282.700000
122.024800 272997.400000
123.008700 2492.100000
123.032500 29970.900000
124.016600 2603.700000
153.030600 1525531.000000

>ms2
65.998500 2449.200000
68.014100 3969.900000
95.013500 1762.300000
106.029900 15617.100000
122.024800 529273.400000
123.008600 2668.700000
123.032600 31722.800000
124.016500 5177.100000
153.030600 807905.400000

>ms2
65.998400 1498.500000
68.014300 2246.900000
80.014100 1774.200000
95.013900 1627.100000
106.030000 8198.900000
122.024800 400871.400000
123.008700 1751.000000
123.032700 11994.800000
124.016800 4628.500000
153.030600 154858.900000

>ms2
80.014100 3973.400000
94.029900 6375.800000
95.013900 8428.600000
106.029800 7116.900000
122.024800 430964.400000
123.008900 3125.500000
123.032600 3737.400000
124.016400 1732.300000
153.030600 30167.900000

>ms2
80.014200 6444.600000
94.029900 11829.800000
95.013900 10365.900000
122.024800 261086.400000
124.016600 2382.000000
153.030600 4449.600000

