>compound LU54652369
>parentmass 281.1394
>ionization [M-H]-
>formula C15H22O5
>rt 1123.020000
>profile orbitrap
#smiles_iso CCCCCCCCOC(=O)C1=CC(=C(C(=C1)O)O)O
#smiles_can CCCCCCCCOC(=O)C1=CC(=C(C(=C1)O)O)O
#inchikey NRPKURNSADTHLJ-UHFFFAOYSA-N
#pubchem_id 61253
#mb_accession LU059351,LU059352,LU059353,LU059354,LU059355,LU059356

>ms2
124.017300 11234.600000
126.011900 3077.000000
168.006500 7818.300000
169.014200 18361.600000
281.139500 2431478.000000

>ms2
68.998200 3486.800000
71.014000 4066.300000
83.013800 6007.700000
110.000800 3700.700000
111.008700 19846.100000
123.008900 7138.900000
124.016800 25939.400000
125.024400 97577.800000
126.011500 3327.000000
127.003600 9000.800000
136.988000 16322.600000
139.003700 26609.300000
140.011600 31035.600000
151.003600 5632.200000
154.998300 2661.500000
166.998400 6468.300000
168.006600 136256.500000
169.014300 291366.700000
237.149700 3470.200000
281.139400 2627914.200000

>ms2
55.018900 1892.300000
59.013900 1831.100000
65.003300 8560.100000
67.019000 11209.700000
68.998100 8911.600000
69.034600 5636.100000
71.013900 12904.500000
72.993100 11757.200000
79.018900 2851.700000
82.005900 5286.500000
83.013800 12176.500000
86.001000 2649.500000
87.008800 6538.900000
95.013900 6859.900000
96.993200 5009.500000
97.029600 4251.600000
99.008900 4511.400000
110.000900 19236.100000
111.008800 98017.000000
123.008800 27926.100000
124.016500 43514.900000
125.024400 416885.500000
127.003600 53542.400000
136.988000 73047.000000
139.003700 118495.900000
140.011500 166207.600000
141.990600 2967.100000
151.003700 13356.600000
154.998700 14727.700000
166.998700 2579.000000
168.006400 136940.200000
169.014200 333565.500000
237.149800 3468.200000
281.139400 374249.400000

>ms2
55.018900 4353.800000
65.003300 15586.300000
67.019000 15909.600000
68.998200 13096.000000
69.034600 13858.700000
71.014000 14601.300000
72.993100 18400.500000
78.011200 1864.600000
79.018800 4350.400000
81.034600 5110.000000
82.006000 4756.600000
83.013800 22958.100000
86.001000 3758.900000
87.008800 8809.700000
95.013900 12494.000000
96.993200 6322.100000
97.029500 14457.600000
99.008900 5245.200000
106.005900 8469.700000
107.013700 2782.100000
110.000900 21757.800000
111.008700 136786.500000
123.008800 45989.700000
124.016600 58685.700000
125.024400 412722.900000
127.003700 59184.000000
136.988000 91461.100000
139.003700 140752.700000
140.011500 227799.800000
141.990300 2441.900000
151.003500 5791.300000
154.998700 20978.300000
168.006500 22727.800000
169.014300 89067.900000
281.139200 14916.900000

>ms2
53.003200 5565.200000
55.018900 5117.600000
59.013900 1971.800000
65.003300 17675.700000
67.018900 23616.800000
68.998200 11795.900000
69.034600 33344.200000
71.013900 12857.500000
72.993200 15086.700000
78.011100 11553.600000
79.018900 9284.600000
81.034600 7763.400000
82.006000 4513.900000
83.013900 18122.700000
87.008700 8066.300000
95.013900 20243.100000
96.993200 4902.100000
97.029500 24740.200000
99.008800 4057.700000
106.006000 34246.400000
107.013900 2355.400000
110.001000 23418.600000
111.008800 135264.800000
123.008800 66831.200000
124.016600 55723.200000
125.024400 296062.400000
127.003700 61488.200000
136.988100 89194.700000
139.003700 137129.700000
140.011500 223216.200000
141.990800 2668.800000
154.998900 17382.800000
169.014300 13099.900000

>ms2
53.003200 10838.100000
55.019000 3931.100000
65.003300 16471.600000
67.019000 27209.000000
68.998300 7932.800000
69.034600 42496.500000
71.013900 9559.300000
72.993200 11517.900000
78.011100 14140.700000
79.019100 8402.700000
81.034600 4464.400000
82.006100 2759.900000
83.013900 14166.700000
87.008800 3398.200000
95.013900 32223.200000
96.993100 3944.700000
97.029500 28168.300000
99.008900 2796.900000
106.006000 41926.100000
107.014000 3459.900000
110.000900 14065.100000
111.008800 91388.400000
123.008800 62309.600000
124.016600 44493.100000
125.024400 144693.200000
127.003700 32621.900000
136.988000 59152.800000
139.003700 86383.500000
140.011500 145720.500000
154.998800 12408.600000

