>compound LU54675468
>parentmass 151.0261
>ionization [M-H]-
>formula C5H4N4O2
>rt 189.020000
>profile orbitrap
#smiles_iso C1=NNC2=C1C(=O)NC(=O)N2
#smiles_can C1=NNC2=C1C(=O)NC(=O)N2
#inchikey HXNFUBHNUDHIGC-UHFFFAOYSA-N
#pubchem_id 135398752
#mb_accession LU086451,LU086452,LU086453,LU086454,LU086455,LU086456

>ms2
95.025100 3195.400000
107.036600 2427.500000
108.020400 62816.100000
123.020100 4471.900000
151.026100 2250507.800000

>ms2
65.998500 2148.700000
95.025100 5008.800000
108.020400 52173.100000
123.020200 2761.000000
151.026100 1924204.800000

>ms2
65.014500 2890.900000
65.998600 7169.100000
95.025200 9420.600000
107.036400 3710.800000
108.020400 98210.000000
123.019900 3504.900000
151.026100 1468168.000000

>ms2
52.019200 5200.000000
65.014500 5952.000000
65.998600 17307.100000
90.009900 1783.400000
95.025000 6581.800000
108.020400 96740.300000
123.019700 1706.100000
133.015400 2860.700000
151.026100 370424.600000

>ms2
52.019200 9796.100000
65.014500 8113.200000
65.998600 28777.100000
80.025400 2910.200000
90.009700 2361.500000
95.025000 2290.000000
108.020400 74813.000000
133.015500 3497.800000
151.026200 86236.100000

>ms2
52.019200 15597.100000
65.014500 13819.200000
65.998600 52795.000000
80.025500 8726.200000
90.009700 5408.500000
108.020400 62000.800000
133.015400 3623.200000
151.026200 17672.600000

