>compound LU54520919
>parentmass 249.1132
>ionization [M-H]-
>formula C14H18O4
>rt 1017.120000
>profile orbitrap
#smiles_iso CC(C)OC(=O)C1=CC=CC=C1C(=O)OC(C)C
#smiles_can CC(C)OC(=O)C1=CC=CC=C1C(=O)OC(C)C
#inchikey QWDBCIAVABMJPP-UHFFFAOYSA-N
#pubchem_id 11799
#mb_accession LU083251,LU083252,LU083253,LU083254,LU083255,LU083256

>ms2
59.013800 123979.100000
149.097200 53990.000000
161.097300 2388.700000
165.055900 5211.900000
177.128600 68245.100000
205.123700 29690.400000
221.118400 1418415.800000
249.113300 320218.300000

>ms2
59.013800 397105.300000
97.066000 9933.300000
121.065800 6896.200000
149.097200 131131.400000
161.097000 10146.500000
165.055900 8474.500000
175.112400 3239.100000
177.128600 115630.600000
205.123400 34311.000000
221.118400 654164.600000
249.113400 31475.500000

>ms2
59.013800 297896.100000
97.065900 20102.700000
106.042300 2267.200000
121.065800 18348.000000
149.097100 108035.000000
161.097200 13195.500000
165.055400 4028.500000
175.112900 7321.100000
177.128400 59962.500000
205.123700 7120.100000
221.118200 57902.200000

>ms2
59.013900 149765.000000
97.066000 18970.400000
106.042500 5870.600000
119.050400 3022.200000
121.066100 12542.100000
147.045200 3065.900000
149.097200 65035.900000
161.097100 8644.400000
175.112900 6279.100000
177.128600 12594.900000

>ms2
59.013800 61555.000000
97.066000 14885.200000
106.042300 3445.700000
119.050100 4017.600000
121.065900 3820.100000
147.045200 2474.300000
149.097200 31371.200000
161.097300 4499.900000
175.113000 4255.800000

>ms2
59.013900 25972.700000
97.065900 7693.300000
106.042400 2023.200000
119.050400 3739.300000
149.097000 8808.400000

