>compound LU54369506
>parentmass 245.04549999999998
>ionization [M-H]-
>formula C13H10O5
>rt 898.080000
>profile orbitrap
#smiles_iso C1=CC(=C(C=C1O)O)C(=O)C2=C(C=C(C=C2)O)O
#smiles_can C1=CC(=C(C=C1O)O)C(=O)C2=C(C=C(C=C2)O)O
#inchikey WXNRYSGJLQFHBR-UHFFFAOYSA-N
#pubchem_id 8571
#mb_accession LU100051,LU100052,LU100053,LU100054,LU100055,LU100056

>ms2peaks
91.018900 131899.300000
109.029500 2707776.500000
135.008800 6548433.000000
153.019400 2140688.500000
159.044900 9878.800000
177.055700 13383.400000
201.055700 63559.000000
227.035000 46868.400000
245.045500 6058071.000000

>ms2peaks
65.003300 14310.600000
65.039600 56449.200000
67.019000 17592.500000
91.019000 667575.400000
109.029500 6803034.500000
135.008800 8453624.000000
153.019300 2950761.500000
157.065900 37809.700000
159.045000 71715.900000
177.055600 48896.400000
201.055700 205721.500000
227.035000 59126.100000
245.045500 1297159.800000

>ms2peaks
65.003100 24822.700000
65.039700 349524.700000
67.018900 111433.100000
89.039700 34988.200000
91.018900 2953711.200000
107.013900 12453.500000
108.021700 8994.800000
109.029400 8694447.000000
115.055300 14962.700000
129.070900 21093.200000
131.050200 15037.000000
133.029500 15166.100000
133.065800 11206.100000
135.008800 4561717.500000
153.019300 1400782.000000
156.058100 24496.100000
157.065900 103602.200000
158.037300 14046.200000
159.045100 275013.000000
161.024400 29097.500000
173.060700 15495.900000
177.055700 64727.600000
183.044800 14095.500000
201.055800 160047.400000
227.035300 42385.400000
245.045700 33868.600000

>ms2peaks
63.024000 11975.500000
65.003300 88485.200000
65.039700 1100456.100000
67.019000 410917.500000
89.039700 67725.700000
91.019000 4822773.000000
107.013900 30918.800000
108.021600 12030.900000
109.029500 7363026.000000
115.055200 34387.500000
117.034700 9656.500000
123.008800 16199.600000
128.063300 18720.500000
129.071200 20713.300000
130.042500 12744.800000
131.050200 44571.500000
133.029600 29395.100000
133.066000 17174.600000
135.008800 1620241.900000
153.019400 408710.900000
156.058100 25915.400000
157.065700 46693.800000
158.037200 32702.300000
159.045100 245181.500000
161.024400 47045.000000
173.060700 11966.700000
177.055600 39109.500000
183.045300 13350.900000
201.055700 31469.400000
227.034900 26741.900000

>ms2peaks
63.023900 25198.400000
65.003300 281048.500000
65.039700 1845174.500000
67.018900 877039.800000
69.034600 4753.900000
79.018900 5908.200000
81.034500 6866.500000
89.039700 52246.000000
91.019000 4382032.500000
92.998100 5260.500000
95.014000 7485.500000
97.029300 5216.100000
107.014000 59567.300000
108.021800 10319.300000
109.029500 4647650.500000
115.055300 44283.700000
117.034700 21711.700000
123.008800 11398.000000
124.016800 10157.500000
128.063300 12574.400000
129.071100 6987.200000
130.042200 27064.200000
131.050300 46088.800000
133.029600 28300.100000
133.066100 13765.200000
135.008800 391421.200000
153.019400 78126.600000
156.058200 12949.100000
157.066000 9203.300000
158.037300 44820.500000
159.045100 91990.400000
161.024500 47948.100000
173.061100 5695.500000
177.055800 12495.000000
227.035100 6982.400000

>ms2peaks
63.024000 51700.900000
65.003300 510764.500000
65.039700 1678030.200000
67.018900 974237.100000
69.034600 5933.600000
79.019000 8323.600000
81.034700 5682.300000
89.039700 44815.800000
91.019000 2410342.200000
92.998200 11133.900000
95.013900 8707.000000
97.029300 3203.400000
107.013900 48521.600000
108.021700 7154.200000
109.029500 1899662.900000
115.055500 19560.200000
117.034600 18074.800000
123.008900 8971.400000
124.016600 8875.700000
130.042300 31253.600000
131.050300 21170.400000
133.029700 16304.200000
135.008800 66334.800000
153.019300 14596.200000
158.037200 25612.000000
159.045000 25473.400000
161.024500 24923.700000

