>compound LU54989385
>parentmass 280.0778
>ionization [M-H]-
>formula C10H20NO4PS
>rt 1062.600000
>profile orbitrap
#smiles_iso CCNP(=S)(OC)O/C(=C/C(=O)OC(C)C)/C
#smiles_can CCNP(=S)(OC)OC(=CC(=O)OC(C)C)C
#inchikey BZNDWPRGXNILMS-VQHVLOKHSA-N
#pubchem_id 5372405
#mb_accession LU133352,LU133353,LU133354

>ms2
110.061100 32377.200000
154.009700 8449.900000
170.118800 29884.100000

>ms2
94.936400 1815.700000
95.037900 3722.900000
110.061100 64007.800000
154.009700 5179.900000
170.119200 4115.000000

>ms2
94.936100 1922.000000
95.037700 15039.600000
110.061100 47413.400000

