>compound LU55635959
>parentmass 197.072
>ionization [M-H]-
>formula C12H10N2O
>rt 1002.060000
>profile orbitrap
#smiles_iso C1=CC=C(C=C1)NC2=CC=C(C=C2)N=O
#smiles_can C1=CC=C(C=C1)NC2=CC=C(C=C2)N=O
#inchikey OIJHFHYPXWSVPF-UHFFFAOYSA-N
#pubchem_id 9074
#mb_accession LU079851,LU079852,LU079853,LU079854,LU079855,LU079856

>ms2peaks
166.066400 14244.300000
167.074000 5420.900000
170.061200 27232.600000
183.068900 2917.900000
197.072100 2200460.800000

>ms2peaks
94.029700 2163.100000
154.066200 4183.700000
166.066200 25084.600000
167.073900 7838.300000
170.061200 54162.000000
183.069000 6384.000000
195.056600 5469.600000
197.072000 1852927.000000

>ms2peaks
90.034700 3154.500000
94.029800 15128.000000
121.040600 2404.100000
154.066300 21671.700000
166.066200 158439.400000
167.074200 34201.200000
170.061200 237279.100000
183.069000 36899.800000
195.056400 7515.300000
197.072000 906069.300000

>ms2peaks
90.034900 14790.900000
94.029800 13392.200000
121.040700 3441.400000
154.066300 15826.000000
166.066200 285304.000000
167.074200 23998.100000
170.061200 239335.200000
183.068900 28847.200000
195.056800 2475.600000
197.072100 172254.600000

>ms2peaks
64.019300 6093.000000
90.035000 51881.400000
94.029800 4799.100000
121.040700 6568.100000
154.066300 5399.800000
166.066300 286488.000000
167.074600 8578.300000
170.061200 87638.900000
183.069000 13705.700000
197.072200 13861.000000

>ms2peaks
64.019300 5911.000000
90.035000 84996.700000
94.029800 3579.900000
121.040700 3323.300000
166.066300 158051.700000
170.061200 19122.800000
183.068900 2929.500000

