>compound LU55461361
>parentmass 170.0281
>ionization [M-H]-
>formula C7H9NO2S
>rt 961.860000
>profile orbitrap
#smiles_iso CC1=CC=C(C=C1)S(=O)(=O)N
#smiles_can CC1=CC=C(C=C1)S(=O)(=O)N
#inchikey LMYRWZFENFIFIT-UHFFFAOYSA-N
#pubchem_id 6269
#mb_accession LU092651,LU092652,LU092653,LU092654,LU092655,LU092656

>ms2peaks
61.970600 4060.500000
63.962500 6750.400000
77.965600 3413.300000
78.973200 15935.100000
79.981200 49082.200000
106.066200 411216.800000
107.050300 4231.000000
170.028200 1182771.200000

>ms2peaks
61.970600 4296.900000
63.962500 6907.600000
77.965600 3616.000000
78.973100 18959.800000
79.981200 48055.700000
106.066200 411773.400000
107.050300 5686.500000
122.061500 1736.900000
170.028200 1087973.600000

>ms2peaks
61.970600 28362.100000
63.962400 18744.700000
77.965500 17432.600000
78.973300 88870.900000
79.981200 173682.100000
106.066200 763798.600000
107.050200 19696.900000
122.061100 15149.500000
170.028100 482476.600000

>ms2peaks
61.970600 77915.700000
63.962400 40346.100000
77.965500 40798.700000
78.973400 194037.600000
79.981200 275140.600000
103.042900 1709.900000
106.066200 599206.600000
107.050200 23898.600000
122.061200 41906.800000
170.028100 124049.900000

>ms2peaks
61.970600 162538.700000
63.962400 82982.900000
77.965500 48701.200000
78.973400 237482.000000
79.981200 265403.900000
103.042900 1843.000000
104.050600 4101.500000
106.066200 294557.200000
107.050200 22383.200000
122.061100 46999.500000
170.028100 18412.900000

>ms2peaks
61.970600 192093.200000
63.962500 122598.300000
77.965500 50417.900000
78.973400 185177.900000
79.981200 132808.500000
103.042700 3290.000000
104.050500 2675.500000
106.066300 93740.500000
107.050200 11489.400000
122.061200 23807.900000
170.028400 1511.800000

