>compound LU56274389
>parentmass 224.0313
>ionization [M-H]-
>formula C8H7N3O5
>rt 750.240000
>profile orbitrap
#smiles_iso CC1=C(C=C(C=C1[N+](=O)[O-])[N+](=O)[O-])C(=O)N
#smiles_can CC1=C(C=C(C=C1[N+](=O)[O-])[N+](=O)[O-])C(=O)N
#inchikey ZEFNOZRLAWVAQF-UHFFFAOYSA-N
#pubchem_id 3092
#mb_accession LU100751,LU100752,LU100753,LU100754

>ms2
77.039700 13542.500000
109.029500 5550.800000
116.014000 5333.800000
135.019900 1789.500000
137.024500 1621.400000
151.027500 4110.200000
166.014700 32749.000000
181.025600 295565.300000
224.031400 69726.000000

>ms2
77.039800 54683.500000
78.035000 2193.800000
109.029500 7733.300000
116.014400 8909.700000
135.019900 3752.900000
137.024600 2689.700000
151.027400 7124.700000
166.014700 65019.700000
181.025600 167225.200000
224.031000 7341.000000

>ms2
72.993300 2907.500000
77.039700 167911.600000
78.035000 5353.600000
88.019300 2904.900000
105.034600 6809.000000
109.029600 6921.900000
116.014200 12432.200000
121.029400 2874.500000
135.019900 11281.200000
137.024300 2731.600000
151.027500 2766.800000
166.014600 43399.900000
181.025500 28864.300000

>ms2
72.993100 2685.400000
77.039700 214906.100000
78.035000 3970.200000
88.019300 2528.400000
105.034600 17692.000000
109.029300 1731.900000
121.029400 1745.100000
135.020200 10583.500000
166.014300 9940.000000

