>compound LU56356059
>parentmass 206.0071
>ionization [M-H]-
>formula C7H4F3NO3
>rt 993.010000
>profile orbitrap
#smiles_iso C1=CC(=C(C=C1O)C(F)(F)F)[N+](=O)[O-]
#smiles_can C1=CC(=C(C=C1O)C(F)(F)F)[N+](=O)[O-]
#inchikey ZEFMBAFMCSYJOO-UHFFFAOYSA-N
#pubchem_id 6931
#mb_accession LU115651,LU115652,LU115653,LU115654,LU115655,LU115656

>ms2
65.998500 101002.000000
74.003600 150755.700000
120.009000 309347.900000
160.013800 176363.400000
176.009000 4837602.500000
206.006900 95660664.000000

>ms2
65.998500 251947.700000
70.993900 189134.500000
74.003600 330995.100000
94.009800 107205.700000
120.009100 596473.900000
128.008100 120915.800000
160.014100 403702.000000
176.009100 11779212.000000
206.006900 84340112.000000

>ms2
50.003600 74981.200000
52.019200 187326.200000
63.995500 183606.600000
64.019300 76177.500000
65.003300 56568.600000
65.998500 719216.400000
68.998000 44931.700000
70.993900 489422.100000
74.003600 1000703.800000
76.019300 57199.500000
82.010000 48376.400000
84.001600 268685.300000
86.988700 79343.300000
89.998400 158604.100000
91.000200 47358.200000
92.014300 69131.400000
92.995400 43418.400000
92.998400 151828.100000
94.009900 261527.400000
94.994000 150118.800000
95.013900 241698.600000
96.001700 44243.600000
98.001100 55529.800000
101.998600 92620.400000
103.990300 44731.000000
108.001700 206153.500000
108.990600 114966.000000
110.004700 44168.600000
110.988900 122345.000000
120.009100 787295.200000
122.004900 71327.900000
123.008600 100292.300000
123.996600 221692.200000
126.012300 123866.200000
128.007900 1021631.200000
137.993300 91790.400000
137.999600 180792.700000
140.008000 71882.700000
144.002700 308589.500000
145.982000 43843.300000
148.014100 72930.000000
156.002700 317485.800000
159.006600 52938.300000
160.014100 2517145.000000
163.001300 782957.200000
165.994500 62822.600000
176.009000 34639900.000000
190.996200 77288.900000
206.006900 41835144.000000

>ms2
50.003500 126613.300000
52.019200 117850.700000
63.995500 400538.700000
64.019300 85111.200000
65.003300 140934.200000
65.998500 666604.100000
68.996000 89985.900000
68.997900 97106.900000
70.009900 47581.900000
70.993900 710926.700000
74.003600 952895.200000
75.005200 35558.300000
76.019200 39257.600000
79.990400 125604.200000
80.006700 142912.200000
82.006000 60027.600000
82.993800 40460.600000
84.001700 444955.500000
86.988700 109210.900000
87.005200 183766.300000
87.995500 154449.500000
89.003300 73439.800000
89.998500 128986.200000
91.000100 182204.000000
92.014000 48441.800000
92.995200 97027.500000
92.998300 86746.300000
94.006300 34349.200000
94.009800 111968.700000
94.993900 141563.000000
95.013900 437384.900000
96.001600 81670.400000
98.001000 101340.800000
99.996800 30726.200000
100.013000 44539.800000
101.992300 31362.800000
101.998500 38535.300000
103.000000 101589.200000
103.990400 79057.800000
106.005900 89435.800000
108.001700 879348.800000
108.990700 217274.600000
109.009300 129816.500000
110.988700 213204.900000
111.996700 44929.400000
112.013000 68318.600000
115.000000 52284.300000
120.001600 82710.900000
120.009100 315255.800000
122.000800 65887.600000
122.005200 29656.700000
123.008700 177531.200000
123.996600 443449.900000
126.012200 330702.700000
128.007900 2280221.800000
130.995100 33323.900000
135.996500 64364.600000
137.993400 233944.200000
137.999800 74994.700000
140.007900 552293.200000
142.995100 91670.200000
144.002700 582989.600000
145.982200 92202.500000
148.014100 139357.100000
151.991400 76957.400000
156.002900 515680.300000
159.006400 74918.100000
160.014200 5010234.000000
163.001300 1457119.000000
165.988100 78566.600000
171.997800 38654.100000
176.009000 27600660.000000
190.996500 118019.500000
206.007000 8705279.000000

>ms2
50.003500 262832.900000
52.019200 62966.300000
62.003600 43567.800000
63.995500 439112.300000
64.019400 43477.500000
65.003300 157956.100000
65.998600 461050.700000
66.999000 48370.000000
68.995800 79115.200000
68.998200 55739.400000
70.009900 48615.000000
70.993900 469918.500000
74.003700 713534.000000
75.005200 43991.400000
76.019300 25424.000000
77.992200 27293.800000
79.990500 134934.600000
80.006800 453865.500000
82.006100 50454.000000
82.993900 38422.700000
84.001700 302054.900000
84.997100 24161.200000
86.988800 108670.000000
87.005200 277469.600000
87.995500 414024.900000
89.003300 198716.400000
89.998500 90420.600000
91.000200 107469.100000
92.013900 16611.300000
92.995700 60618.400000
92.998400 49517.500000
94.006100 67921.000000
94.009700 37220.200000
94.993900 134718.200000
95.013900 291019.100000
96.001600 104966.200000
98.000900 92990.600000
98.017600 30804.500000
99.005100 57177.400000
100.013200 99305.400000
101.992300 65105.700000
103.000100 193715.400000
103.990500 74051.100000
106.006100 81916.500000
108.001800 1575579.200000
108.990700 189481.100000
109.009500 175551.800000
110.988800 221589.000000
111.005200 80330.300000
111.996500 44409.400000
112.013100 331054.400000
115.000200 109146.000000
116.007900 41417.600000
117.987200 16887.200000
120.001700 444810.200000
120.009300 42506.000000
123.009000 111547.600000
123.996600 405340.800000
126.012300 378533.400000
127.000100 104866.500000
128.008000 2123496.800000
130.994900 47815.000000
135.996700 61592.000000
137.993500 133022.600000
140.008100 909183.300000
142.995100 83046.800000
144.002900 386089.200000
145.982200 57206.400000
148.014300 123846.000000
151.992000 56104.000000
156.003000 358158.500000
159.006400 93276.200000
160.014300 3844961.800000
163.001400 1099873.600000
165.988400 60221.500000
171.997800 36366.100000
176.009200 10950682.000000
190.996500 77360.500000
206.007300 1006515.600000

>ms2
50.003600 422321.200000
52.019200 36048.500000
60.000500 259869.900000
63.995500 286066.000000
64.019200 26372.000000
65.003300 162705.000000
65.998600 389458.700000
66.999000 74070.500000
68.995900 34405.500000
68.998200 31400.200000
70.009700 22976.500000
70.993900 303400.400000
72.000600 97352.100000
74.003700 460177.800000
75.005400 20878.000000
75.995300 29296.100000
77.992300 18402.400000
79.990500 87342.500000
80.006800 751831.500000
82.006000 27050.700000
82.993900 23717.200000
84.001700 146816.500000
85.997400 131423.800000
86.988800 44243.900000
87.005200 191934.000000
87.995500 855784.100000
89.003300 290934.300000
89.998300 35776.400000
91.000100 75699.100000
92.006900 83896.100000
92.995600 37064.900000
94.006000 40316.400000
94.993900 78716.500000
95.013900 91425.400000
96.001600 50835.400000
98.000700 20130.300000
99.005200 54356.100000
99.996600 22157.600000
100.013100 55739.300000
101.992300 58452.700000
103.000200 134462.800000
103.990300 42634.400000
106.006100 41068.600000
108.001700 1370494.600000
108.990700 86514.600000
109.009500 104765.500000
110.988600 115880.500000
111.005200 195472.600000
112.013000 520882.400000
115.000200 101981.600000
116.995800 77681.700000
120.001700 895417.700000
123.008800 51796.700000
123.996600 190132.700000
126.012400 153751.800000
127.000100 133855.000000
128.008000 954372.800000
130.995100 27202.600000
131.011000 25471.400000
137.993300 62647.300000
140.008000 480429.900000
142.995000 34111.800000
144.002700 208299.500000
145.982200 28300.200000
148.014300 57702.700000
151.991600 32196.800000
156.002700 115814.000000
159.006400 36939.300000
160.014200 1130958.500000
163.001300 405996.900000
171.997700 24261.800000
176.009100 2281698.000000
190.996100 41393.600000
206.007300 49219.900000

