>compound LU57062819
>parentmass 429.1052
>ionization [M-H]-
>formula C19H18N4O8
>rt 1038.720000
>profile orbitrap
#smiles_iso COC1=CC(=NC(=N1)OC2=C(C(=CC=C2)OC3=NC(=CC(=N3)OC)OC)C(=O)O)OC
#smiles_can COC1=CC(=NC(=N1)OC2=C(C(=CC=C2)OC3=NC(=CC(=N3)OC)OC)C(=O)O)OC
#inchikey RYVIXQCRCQLFCM-UHFFFAOYSA-N
#pubchem_id 443031
#mb_accession LU016251,LU016252,LU016253,LU016254,LU016255,LU016256

>ms2peaks
135.008700 32959.800000
155.046300 280291.700000
179.046300 16643.300000
341.124700 3035.900000
385.115500 437765.300000

>ms2peaks
65.998500 8346.600000
79.030200 11388.700000
91.018800 3663.000000
98.024900 2597.100000
125.035900 1928.400000
135.008800 21460.100000
140.022800 5368.100000
155.046300 495697.800000
164.022800 2942.200000
179.046300 133940.200000
341.124900 3729.600000
385.115700 44011.200000

>ms2peaks
54.034800 3065.900000
64.006700 4108.700000
65.014600 2002.400000
65.998500 70721.300000
79.030200 55689.700000
87.056400 4009.300000
91.019000 8979.200000
97.017000 3948.000000
98.024800 4656.300000
123.019800 5347.300000
125.035700 21171.100000
135.008800 7160.600000
135.020300 1867.200000
136.027800 8238.400000
140.022700 32574.700000
155.046300 418214.000000
164.022800 12285.000000
179.046300 69084.900000

>ms2peaks
54.034800 3679.800000
64.006700 6518.400000
65.014600 6138.500000
65.998500 147939.500000
79.030200 72180.000000
87.056300 4964.800000
91.018900 9310.400000
97.017000 7676.500000
98.024900 5431.400000
109.004200 3356.000000
110.012200 3112.700000
123.019900 3821.100000
125.035600 24539.100000
135.020200 3302.700000
136.027800 6486.800000
140.022800 33200.000000
155.046200 142500.100000
164.022800 7297.900000
179.046300 8866.100000

>ms2peaks
64.006700 11400.600000
65.014500 6535.900000
65.998600 205166.000000
79.030200 48638.400000
87.056400 2094.700000
91.018900 5388.000000
97.016900 8354.600000
98.024800 2698.800000
109.004200 5022.700000
110.012200 4257.100000
125.035600 16849.000000
136.027600 2585.400000
140.022800 15091.100000
155.046300 37607.700000
164.023200 2636.200000

>ms2peaks
64.006800 7336.100000
65.014500 9459.700000
65.998500 159807.100000
79.030200 16220.400000
97.017000 3374.700000
109.004300 4248.900000
110.012100 3640.200000
125.035600 5351.000000
140.022900 5446.200000
155.046300 4438.500000

