>compound LU57250076
>parentmass 503.00190000000003
>ionization [M-H]-
>formula C23H12Cl2F2N2O5
>rt 1046.580000
>profile orbitrap
#smiles_iso C1=CC=C(C(=C1)C(=O)O)N2C=C(C(=O)C3=CC(=C(C=C32)Cl)NC4=C(C=C(C=C4Cl)F)F)C(=O)O
#smiles_can C1=CC=C(C(=C1)C(=O)O)N2C=C(C(=O)C3=CC(=C(C=C32)Cl)NC4=C(C=C(C=C4Cl)F)F)C(=O)O
#inchikey OEMJXSVJXPIFMA-UHFFFAOYSA-N
#pubchem_id 24798733
#mb_accession LU048051,LU048052,LU048053,LU048054,LU048055,LU048056

>ms2
331.044500 37532.600000
343.069000 60585.300000
351.050300 3474.200000
359.039400 83169.400000
367.020800 7923.300000
379.045600 152162.200000
395.015700 28005.600000

>ms2
315.074700 7638.800000
317.977000 7611.200000
323.062100 17450.200000
330.037200 3050.300000
331.044400 82523.700000
338.990300 5694.800000
342.059900 3254.900000
343.068800 246898.000000
359.039400 391384.800000
367.020500 16880.600000
374.051500 4383.100000
377.029600 7172.000000
379.045600 53725.000000
382.980900 34587.100000
395.015600 31305.000000

>ms2
146.981900 3316.500000
289.058700 4522.000000
295.067400 4641.800000
302.006800 20568.500000
303.056200 3668.100000
305.028500 8182.100000
306.036500 3479.800000
314.065800 11874.600000
315.074400 13288.200000
323.062500 22244.300000
330.037300 11673.500000
331.044400 41419.900000
338.990600 12600.600000
342.061100 5764.000000
343.068700 44556.000000
351.050100 10440.800000
359.039500 87369.800000
374.050000 2786.100000
377.029200 11756.300000
382.981800 2256.800000

>ms2
146.981900 3289.900000
156.032600 2892.100000
247.031800 2918.700000
274.011800 8579.900000
275.062400 5655.700000
288.051200 3862.400000
289.058900 7919.300000
294.059900 5232.300000
295.067100 9312.900000
302.006800 15477.200000
303.056700 8103.900000
305.028900 14318.200000
306.036700 2293.700000
314.065600 11690.300000
315.074100 6069.300000
317.977100 9254.700000
323.062700 29978.300000
331.044400 11455.300000
342.060700 5556.100000
343.069100 13091.700000
359.039100 16792.000000
377.029900 13303.300000

>ms2
156.033300 2210.900000
247.031800 2770.700000
249.046300 3203.700000
274.011400 4132.400000
275.062200 4308.200000
288.051200 2769.500000
294.060100 2981.800000
314.066900 3877.700000
323.062900 9951.600000
377.031400 2645.100000

>ms2
249.046300 3987.300000

