>compound LU57512617
>parentmass 331.1662999999999
>ionization [M-H]-
>formula C18H24N2O4
>rt 1041.660000
>profile orbitrap
#smiles_iso CCC(C)(CC)C1=NOC(=C1)NC(=O)C2=C(C=CC=C2OC)OC
#smiles_can CCC(C)(CC)C1=NOC(=C1)NC(=O)C2=C(C=CC=C2OC)OC
#inchikey PMHURSZHKKJGBM-UHFFFAOYSA-N
#pubchem_id 73672
#mb_accession LU134551,LU134552,LU134553,LU134554,LU134555,LU134556

>ms2peaks
72.993000 7020.900000
137.060800 36065.800000
148.040400 4866.600000
162.056100 4531.800000
220.061500 87469.600000
331.166400 3808193.800000

>ms2peaks
65.014600 2998.200000
65.998600 8182.700000
72.993200 145511.700000
93.034600 43618.800000
102.035100 12092.800000
105.034600 5931.800000
107.050200 14392.000000
108.021700 4148.100000
118.030100 13662.700000
121.029500 34838.600000
123.045300 4554.000000
132.045500 70401.500000
133.029600 10705.200000
134.037300 8374.300000
135.045200 35301.000000
137.060800 329668.200000
148.040400 66363.400000
151.040300 5110.500000
160.040400 3746.000000
161.024400 8026.000000
162.032300 33739.400000
162.056100 69310.500000
164.035700 3135.700000
164.071700 16757.800000
166.111500 4244.400000
176.035000 4577.200000
181.050900 12273.700000
188.035300 9356.000000
190.014900 10093.500000
205.038000 26219.600000
206.045800 9393.600000
220.061600 347787.400000
331.166400 1058315.900000

>ms2peaks
65.014600 3251.300000
65.998600 37774.400000
72.993200 93676.200000
81.009600 2446.800000
93.034600 58606.700000
95.013900 2690.500000
102.035000 17556.300000
105.034600 6367.200000
107.050400 12556.600000
108.021800 5552.400000
108.082000 3617.100000
118.029900 19782.000000
120.009400 3207.300000
121.029500 70737.500000
123.045300 8699.700000
132.045500 81707.500000
133.017200 5090.400000
133.029600 37528.300000
134.025000 6550.300000
134.037400 19197.700000
135.009100 4271.400000
135.045200 16382.500000
136.040500 3156.600000
137.060800 55352.300000
146.025000 11525.000000
148.040400 51628.800000
151.040200 7739.700000
160.040300 3193.100000
161.024500 35875.300000
162.019900 8143.600000
162.032400 29426.600000
162.056100 26848.400000
164.035500 9964.500000
164.071800 6437.700000
166.111200 13775.100000
173.012000 4473.900000
176.035200 7525.500000
181.050800 3113.300000
188.035300 5388.400000
190.014700 11893.200000
205.038200 8546.500000
206.045800 4443.900000
220.061500 32957.100000
331.166700 24337.400000

>ms2peaks
65.014600 4972.100000
65.998500 51404.900000
72.993100 23164.900000
81.009500 2345.800000
91.019000 2294.500000
93.034600 24605.400000
95.014000 3225.800000
102.035000 7968.300000
107.050200 5676.200000
108.021800 11195.600000
108.081900 6795.000000
117.022400 2179.300000
117.034500 1691.000000
118.029800 15637.300000
120.009000 9370.300000
121.029500 58046.400000
123.045200 4238.500000
132.021500 2951.200000
132.045400 28702.500000
133.017000 17201.500000
133.029500 40202.600000
134.024800 8363.600000
134.037300 9288.000000
135.008800 6097.000000
135.045200 2359.100000
136.040200 4643.200000
137.060900 4459.200000
146.024700 7780.200000
148.040400 25833.600000
161.024400 32688.600000
162.019700 5612.400000
162.031800 2880.600000
164.035200 3756.500000
166.110800 4159.800000
173.012000 6311.300000
176.035000 3008.700000
190.014400 2374.300000

>ms2peaks
65.014500 4140.800000
65.998600 50057.700000
66.034900 4620.600000
72.993100 5116.400000
91.018900 4290.100000
93.034600 9469.900000
95.013800 6340.600000
105.021800 3352.300000
108.021700 17540.000000
108.081800 3576.100000
117.022200 3432.500000
117.034800 2595.700000
118.029800 5156.000000
120.009200 7350.800000
121.029500 47406.200000
123.045000 2000.300000
132.021900 1843.600000
132.045400 5985.800000
133.017000 25011.700000
133.029400 25143.200000
134.024800 8970.600000
134.037800 2270.000000
135.008700 3678.900000
146.024800 3288.500000
148.040500 12088.100000
161.024500 15244.900000
162.019900 3194.000000
166.110800 1855.100000

>ms2peaks
65.014600 2944.600000
65.998600 48664.900000
66.035000 6262.100000
72.993100 3124.700000
91.019000 4957.100000
93.034700 7437.500000
95.013900 9559.700000
105.022100 6580.600000
108.021700 22703.800000
108.082100 2422.000000
117.022500 2351.500000
117.034600 4170.000000
118.030100 4598.100000
120.009200 4575.900000
121.029500 38492.200000
133.017000 24189.900000
133.029500 18168.700000
134.024900 5081.200000
148.040600 5858.800000
161.024500 5834.900000

