>compound LU57807793
>parentmass 328.1918
>ionization [M-H]-
>formula C20H27NO3
>rt 1002.720000
>profile orbitrap
#smiles_iso C[C@]12CC[C@H]3[C@H]([C@@H]1CC[C@@H]2O)CC[C@]45[C@@]3(CC(=C([C@H]4O5)O)C#N)C
#smiles_can CC12CCC3C(C1CCC2O)CCC45C3(CC(=C(C4O5)O)C#N)C
#inchikey KVJXBPDAXMEYOA-CXANFOAXSA-N
#pubchem_id 656583
#mb_accession LU072051,LU072052,LU072053,LU072054,LU072055,LU072056

>ms2peaks
92.014200 36577.600000
328.191800 8767326.000000

>ms2peaks
65.003300 75842.200000
92.014200 1367985.800000
207.139200 9593.400000
233.154700 28093.800000
235.170400 220528.200000
249.149400 14146.200000
266.155200 50919.700000
267.159800 16379.800000
268.170700 17503.300000
280.170700 124806.600000
282.186400 239165.700000
284.202300 10251.600000
287.165300 8382.700000
294.149800 12686.100000
300.196600 51427.200000
310.181300 108273.800000
328.191800 7551364.500000

>ms2peaks
57.034700 4658.200000
65.003300 374514.700000
65.998500 6742.700000
71.050300 5356.100000
73.029400 3313.700000
80.050700 7497.300000
82.029900 5083.200000
83.050300 5705.900000
92.014200 2474942.000000
94.029700 4475.000000
109.065800 21396.900000
118.066100 9781.200000
119.037600 56624.800000
120.045500 7599.200000
121.066200 2862.500000
123.081600 65722.800000
130.066200 7073.800000
131.038000 3370.200000
135.081700 3745.500000
143.074000 7655.100000
144.082100 7966.800000
145.053300 15236.600000
146.024900 28464.300000
146.061200 27382.800000
148.040300 17901.100000
149.097300 3480.000000
156.082000 3759.100000
158.061200 5708.300000
159.032700 4982.400000
159.069300 3718.900000
170.060700 5469.300000
175.113000 8036.000000
176.035100 6099.500000
177.043300 3797.400000
177.128500 40155.000000
182.061100 2810.700000
189.128000 3168.500000
191.059000 3046.600000
196.076600 16181.300000
205.123000 3181.300000
207.139000 49941.000000
215.144300 4247.900000
223.170800 6071.300000
226.160600 14003.500000
231.139200 10814.400000
233.154700 345425.500000
235.170300 761566.600000
238.124400 4398.400000
245.154300 7262.800000
248.143700 4402.300000
249.149500 51956.700000
252.140400 2649.200000
254.154400 11506.200000
257.154400 6450.400000
264.139500 30745.600000
264.175900 9478.800000
266.155000 118129.200000
267.160200 63543.600000
268.170700 80787.000000
273.186400 9530.700000
278.155200 18205.000000
279.160400 10153.500000
280.170700 296973.800000
282.186300 491881.000000
284.165500 33652.400000
284.201500 4861.400000
287.165400 8295.700000
294.149900 82909.100000
296.165800 14337.800000
298.181300 6198.600000
300.196900 86190.500000
308.165800 5495.900000
310.181300 210487.300000
312.160700 5591.800000
326.176400 4477.400000
328.191800 1533323.500000

>ms2peaks
57.034600 4609.600000
65.003300 438674.100000
65.998500 18237.600000
71.050200 14028.000000
73.029500 2295.100000
80.050600 4395.300000
82.029800 5101.700000
83.050300 5387.400000
92.014200 1002000.400000
94.029900 2215.800000
95.050200 2227.800000
97.066000 5690.300000
104.050600 4351.600000
107.050000 3265.100000
109.065800 72223.300000
116.050700 5180.900000
117.058400 4757.600000
118.029900 4207.400000
118.066200 14340.800000
119.037600 71720.100000
120.045500 9449.300000
121.065700 5566.800000
123.081500 245215.000000
130.066000 12166.600000
131.037700 6164.900000
135.081500 22612.900000
142.066200 3746.400000
143.073900 27136.200000
144.081800 9060.000000
145.053300 38358.900000
146.024800 39584.800000
146.061200 34639.300000
148.040300 27668.300000
149.097000 15718.800000
154.066600 4817.400000
156.081800 9274.000000
158.060900 24226.200000
159.032300 4922.300000
159.068600 6274.000000
161.097200 4356.800000
163.112600 3093.600000
168.044800 3464.600000
168.081900 2699.000000
170.061100 9676.800000
173.097200 6505.400000
175.112800 24035.400000
176.035200 8494.000000
177.043000 14153.500000
177.128400 222312.600000
182.060800 8003.200000
182.097600 4869.600000
184.076600 6523.600000
189.128300 11068.600000
191.059100 3646.500000
194.097500 4249.500000
196.076700 31561.000000
205.123300 2664.800000
207.139000 27474.600000
210.129100 3449.700000
215.144300 11106.900000
217.160000 3570.400000
222.092200 4335.500000
223.170300 3369.400000
224.108800 3565.800000
224.144900 3680.200000
226.160000 18056.100000
231.139100 25407.400000
233.154700 522279.000000
235.170300 323843.100000
236.108000 2576.200000
236.144700 2271.200000
238.123700 6494.000000
245.154600 3801.000000
249.149900 21197.700000
250.124600 2674.900000
250.160500 2487.900000
252.139600 2984.900000
254.155000 8207.200000
257.154500 4310.300000
264.139400 20451.900000
264.176300 4928.900000
266.119100 3301.700000
266.155000 51915.000000
267.160200 30773.200000
268.170500 78319.100000
273.186700 4908.900000
276.138700 2547.300000
278.155000 25077.600000
279.161300 3583.600000
280.134400 6607.400000
280.170700 118939.200000
282.186300 212804.900000
283.156900 4785.800000
284.165700 19762.400000
294.149900 116854.000000
296.165700 18535.300000
298.182600 4985.900000
300.196900 38598.200000
308.167300 3371.300000
310.181400 63145.900000
312.160100 8407.600000
328.191800 73447.900000

>ms2peaks
52.019300 4292.400000
57.034500 5763.100000
65.003300 460315.200000
65.998500 25564.000000
71.050200 19219.800000
82.029800 2740.700000
83.050200 8828.800000
92.014200 355935.000000
95.050200 8192.400000
97.066000 10207.100000
104.050500 3788.000000
106.042400 3079.900000
107.050200 9162.200000
109.065800 108514.300000
116.050500 3075.600000
117.058200 2708.900000
118.029700 13599.000000
118.066300 10760.000000
119.037700 74346.100000
120.045500 9953.700000
120.058100 2593.200000
121.065900 16254.600000
123.081500 320976.000000
128.050300 6854.900000
130.066100 20132.700000
131.037500 7617.500000
132.045500 3098.300000
133.065800 7438.000000
134.073800 3038.700000
135.081400 44240.000000
137.097200 4376.900000
140.050500 6002.700000
142.066200 12294.400000
143.074100 34894.800000
144.045500 4374.300000
144.081800 8661.100000
145.053400 31932.300000
146.024800 30162.000000
146.061200 10583.300000
147.081200 2754.200000
148.040200 12315.700000
149.097200 50291.000000
154.066100 11974.500000
156.045500 8742.200000
156.081800 13879.200000
158.061100 46534.800000
159.069000 3509.900000
159.081200 2419.600000
159.117800 2046.500000
161.097000 12729.100000
163.112700 3190.000000
166.066200 2794.700000
168.045300 7758.300000
168.081600 5529.300000
170.061100 15299.700000
170.097200 3077.600000
173.097100 15452.400000
175.112900 30190.800000
176.035400 6565.800000
177.128500 324277.200000
180.081600 4245.200000
182.061000 17344.500000
182.097500 6246.100000
184.076700 10856.900000
187.112800 6246.100000
189.128700 10117.800000
194.061600 3643.600000
194.097200 8736.000000
196.076700 40824.900000
196.113500 3680.400000
205.123500 2903.800000
207.138400 3429.400000
208.076800 3193.200000
208.113300 3370.200000
210.091900 4886.900000
210.129000 8858.900000
215.143500 10490.800000
217.160600 2348.300000
220.112500 4934.400000
222.092400 8043.600000
222.128800 4011.300000
224.107600 3257.200000
224.144500 3992.200000
226.160200 9069.800000
231.139000 34863.900000
233.154700 282091.000000
234.092500 2703.800000
235.170200 49423.500000
236.108000 4399.700000
236.144500 3720.400000
238.124100 4779.100000
248.144800 2751.200000
249.149700 2965.100000
250.123300 5684.200000
250.160000 7975.400000
252.139100 4427.700000
262.122900 3258.400000
264.139600 14748.800000
266.118600 2837.500000
266.155200 48521.200000
267.160400 7845.900000
268.170700 62971.700000
276.138000 2693.100000
278.155100 14842.600000
280.134100 3404.400000
280.170700 31009.900000
282.150100 6455.500000
282.186200 41134.300000
283.157700 4033.900000
284.165600 8282.600000
292.134400 2936.000000
294.150100 125288.600000
296.165600 25772.000000
300.196500 8933.400000
310.180700 7185.100000
312.160900 6254.400000

>ms2peaks
52.019200 7927.400000
57.034500 5564.900000
65.003300 478278.300000
65.998500 52751.700000
71.050300 22752.300000
83.050300 11997.400000
92.014200 146658.400000
95.050300 10366.600000
97.065900 9237.200000
104.050600 7732.800000
106.042300 6151.100000
107.050200 23049.900000
109.065900 107782.500000
116.050600 5404.800000
118.029900 26585.300000
118.066100 6030.800000
119.037700 42215.600000
120.045400 4611.300000
120.058200 2534.400000
121.065900 38972.900000
123.081600 293005.500000
128.050600 17271.400000
130.066200 24227.300000
131.037700 5185.900000
132.045600 5704.000000
133.065900 15677.700000
134.073800 11132.500000
135.081600 51057.000000
137.097200 4259.700000
140.050500 17401.300000
142.066200 28740.300000
143.074000 21393.900000
144.045500 8647.100000
144.081900 7412.700000
145.053500 20593.400000
146.024700 17294.200000
146.061100 6136.200000
147.081400 4532.000000
148.040600 6200.400000
149.097100 73850.800000
154.066300 20505.000000
156.045600 19298.800000
156.081700 19718.900000
158.061200 60045.200000
159.081400 7575.600000
159.117600 3490.300000
161.097400 20048.700000
163.113000 3904.800000
166.066300 5715.700000
168.045400 29578.800000
168.082000 10439.400000
170.061300 20730.900000
170.097700 2610.800000
173.097000 25067.800000
175.112900 34860.600000
177.128500 211458.800000
180.081900 9201.800000
182.061300 22961.200000
182.097400 7820.100000
184.076800 11305.500000
187.112700 8239.400000
189.128400 6135.400000
194.061300 9280.900000
194.097800 12621.600000
196.076800 48329.400000
196.113300 4945.800000
208.076600 15273.800000
208.114000 4717.400000
210.092400 4338.900000
210.128700 10900.000000
215.144300 7272.500000
220.113000 5221.800000
222.092600 22349.900000
222.129000 5674.300000
224.108400 4020.300000
224.144700 2684.300000
231.139000 25938.500000
233.154700 80226.800000
234.092500 3019.300000
235.170600 4457.700000
236.107700 4349.100000
236.144500 9187.600000
238.123800 5118.400000
248.144800 2192.100000
250.123500 4207.000000
250.159800 6249.100000
262.123300 4514.200000
264.139400 13157.800000
266.155000 40025.800000
268.170300 27439.200000
276.138900 2937.900000
278.154900 6122.500000
280.134800 4245.400000
280.170800 8481.200000
282.150500 7441.700000
282.186500 5522.200000
284.165800 2920.700000
292.134900 3296.000000
294.150100 88714.200000
296.165500 14152.500000
312.161400 2952.200000

