>compound LU57301841
>parentmass 360.1266
>ionization [M-H]-
>formula C20H16FN5O
>rt 1020.180000
>profile orbitrap
#smiles_iso CC1=CN(C2=C1C=C(C=C2)F)NC(=O)C3=CN=C(N=C3C)C4=CC=CC=N4
#smiles_can CC1=CN(C2=C1C=C(C=C2)F)NC(=O)C3=CN=C(N=C3C)C4=CC=CC=N4
#inchikey YNVKAENVJKEMOU-UHFFFAOYSA-N
#pubchem_id 25099474
#mb_accession LU135951,LU135952,LU135953,LU135954,LU135955,LU135956

>ms2
149.060100 4474.000000

>ms2
148.056800 2803799.800000
170.072300 10843.500000
189.047000 108072.200000
211.062600 18250.100000
360.126800 1245267.800000

>ms2
126.034900 6339.000000
146.041000 4835.300000
148.056800 4307878.500000
161.052100 7930.300000
164.051400 11317.500000
170.072200 20572.600000
189.047000 110675.100000
211.062400 11201.900000
360.126800 30136.400000

>ms2
126.034900 55333.300000
128.050600 19827.700000
146.041200 27427.000000
147.049000 7106.700000
148.056800 4099908.000000
159.036200 9063.000000
161.051700 14831.300000
164.051700 59037.500000
170.072400 9026.900000
179.038700 14796.100000
189.047000 57672.500000

>ms2
126.035000 9123.200000
146.040700 2159.000000
148.056800 106954.800000
149.060000 139522.700000
164.051600 4891.000000

>ms2
126.034900 251730.700000
128.050600 41305.300000
146.041200 33736.800000
147.049300 4320.200000
148.056800 819010.800000
159.036400 6150.900000
161.052300 2574.700000
164.051800 87872.900000
179.038900 16469.700000

