>compound LU57243700
>parentmass 182.0378
>ionization [M-H]-
>formula C9H10ClNO
>rt 986.460000
>profile orbitrap
#smiles_iso CC1=C(C=C(C=C1)NC(=O)C)Cl
#smiles_can CC1=C(C=C(C=C1)NC(=O)C)Cl
#inchikey IGLVCWPPISIXPR-UHFFFAOYSA-N
#pubchem_id 23537
#mb_accession LU041051,LU041052,LU041053,LU041054,LU041055

>ms2
140.027300 214364.000000
146.061200 38404.500000
166.006200 2726.700000
182.037900 838353.300000

>ms2
140.027300 81208.900000
146.061100 15399.900000
182.037900 240904.300000

>ms2
80.026900 2697.000000
108.021600 9440.100000
140.027200 212130.700000
146.061100 38216.600000
166.006400 3246.900000
182.037800 196409.400000

>ms2
80.026800 2774.300000
108.021800 7441.700000
140.027300 64960.700000
146.061200 12039.100000
182.037900 27525.200000

>ms2
80.026800 2685.100000
108.021700 4147.200000
140.027300 12410.700000
146.061500 2529.900000
182.038100 2860.100000

