>compound LU57280345
>parentmass 252.9588
>ionization [M-H]-
>formula C7H5Cl2FN2O3
>rt 906.900000
>profile orbitrap
#smiles_iso C(C(=O)O)OC1=NC(=C(C(=C1Cl)N)Cl)F
#smiles_can C(C(=O)O)OC1=NC(=C(C(=C1Cl)N)Cl)F
#inchikey MEFQWPUMEMWTJP-UHFFFAOYSA-N
#pubchem_id 50465
#mb_accession LU005651,LU005652,LU005654,LU005655

>ms2
138.970600 1899.800000
152.985800 2043.800000
153.011100 1953.700000
172.992500 19610.200000
174.947500 2669.900000
188.962900 29659.300000
193.946300 1818.700000
194.953400 1195678.400000
216.982300 72977.100000
232.952700 250914.100000
252.959000 111044.900000

>ms2
65.998500 4969.200000
131.941400 15369.600000
138.970400 4749.100000
152.986100 6646.900000
153.010600 2781.000000
158.976800 16887.300000
172.992400 16190.900000
174.947100 28316.500000
174.971600 4226.900000
188.962900 60427.400000
193.945500 3728.500000
194.953400 1013705.900000
216.982200 32038.800000
232.952600 102951.500000
252.959200 7656.100000

>ms2
50.003500 2351.300000
65.998600 49359.100000
89.014500 6166.000000
89.998600 10487.400000
95.005100 37390.900000
98.964500 3019.600000
98.975600 3730.300000
107.941100 2693.700000
110.975600 12867.300000
115.971100 7667.000000
123.000200 6414.800000
130.981700 5718.200000
131.941300 136562.100000
138.970500 2541.200000
152.986200 4029.700000
157.968600 8606.200000
158.976800 32291.700000
172.992400 2241.300000
174.947200 62284.900000
174.971500 6693.500000
176.987400 10356.200000
188.962600 4399.400000
193.945500 9228.900000
194.953400 111099.300000

>ms2
50.003600 1750.000000
65.998600 46158.800000
89.014600 8900.900000
89.998500 11876.700000
95.005200 37791.800000
98.964500 7391.400000
98.975600 4644.400000
107.941300 4896.000000
110.975600 9495.700000
115.971000 9297.600000
123.000200 4312.400000
130.981700 3981.300000
131.941400 75435.700000
157.969000 7064.900000
158.976600 8653.000000
174.947100 17742.500000
174.971600 1985.200000
176.987300 2852.700000
193.945800 2580.800000
194.953600 13508.800000

