>compound LU57321190
>parentmass 349.1129
>ionization [M-H]-
>formula C13H17F3N4O4
>rt 1182.240000
>profile orbitrap
#smiles_iso CCCN(CCC)C1=C(C=C(C(=C1[N+](=O)[O-])N)C(F)(F)F)[N+](=O)[O-]
#smiles_can CCCN(CCC)C1=C(C=C(C(=C1[N+](=O)[O-])N)C(F)(F)F)[N+](=O)[O-]
#inchikey RSVPPPHXAASNOL-UHFFFAOYSA-N
#pubchem_id 34469
#mb_accession LU049851,LU049852,LU049853,LU049854,LU049855,LU049856

>ms2
231.997900 69294.700000
248.999900 43792.100000
286.117700 74861.500000
302.112400 36497.400000
306.106100 41413.600000
349.112800 35048508.000000

>ms2
64.006700 36025.900000
65.014600 29224.400000
65.998500 167412.200000
68.995700 18441.400000
73.029400 45932.700000
88.000400 179269.300000
88.006700 53613.900000
89.014600 18056.300000
90.009700 14193.400000
92.995700 16499.000000
93.009500 17798.900000
95.005100 37924.000000
100.000600 22020.100000
102.009800 17484.300000
103.995400 102093.400000
108.990900 56233.600000
108.996900 15482.400000
110.999900 43579.500000
112.000300 43864.900000
115.017500 36966.900000
119.025100 20821.200000
120.006800 27195.500000
123.000500 20536.600000
126.003600 19530.600000
127.011400 51318.600000
127.995500 15169.600000
130.998900 14471.000000
132.020400 13749.400000
133.001900 30218.300000
134.016000 84909.600000
135.000000 16422.300000
136.001600 156231.100000
143.036200 20849.500000
144.006700 36064.900000
145.001900 127767.800000
145.052000 32445.900000
146.009900 113250.200000
147.023900 22349.900000
148.008000 19315.900000
149.009200 17405.800000
151.043800 37079.200000
155.006500 15860.600000
157.002000 93782.200000
158.009700 23585.800000
159.011200 15268.500000
159.017700 78813.600000
160.001600 91597.500000
160.031800 18907.700000
160.996400 47858.600000
162.011000 55165.300000
162.079900 29984.600000
166.040900 27267.600000
171.017700 32190.800000
173.020700 16005.600000
174.004200 38840.100000
175.012300 31272.400000
175.054800 17438.400000
176.020300 35234.800000
176.039700 14028.300000
177.046900 35153.300000
178.021900 16376.300000
182.017100 18735.200000
182.036100 30585.100000
183.044000 21151.100000
184.012500 42417.700000
184.051300 61005.500000
184.996800 295385.600000
186.028700 42910.100000
187.012700 52761.500000
188.007700 87077.900000
190.012000 24008.900000
191.007300 17008.700000
196.032800 36129.700000
199.048900 103401.000000
200.007800 49939.400000
201.065100 44257.000000
201.999700 47130.800000
202.023300 15418.300000
202.042200 23178.500000
203.050100 53404.500000
204.002900 33734.200000
204.057900 89548.600000
206.053400 31428.000000
208.032700 36795.700000
208.087900 15138.900000
209.028600 13749.100000
210.028600 18685.100000
212.044300 19138.900000
214.023400 162134.400000
215.030800 95331.400000
216.114000 157556.200000
217.010300 66996.900000
217.052600 14938.700000
217.994400 92128.100000
218.018200 155279.200000
219.025900 29718.300000
220.010400 22071.300000
222.048300 35844.700000
223.056000 31554.500000
224.064000 96339.700000
225.023200 49758.400000
226.043600 15060.400000
226.059500 50474.900000
228.038900 84490.200000
228.094600 14816.500000
229.034100 22724.100000
230.002200 55666.100000
230.017400 51002.100000
230.054600 16970.500000
231.013700 109641.100000
231.075100 26997.400000
231.997500 1959823.900000
233.047800 98562.500000
235.021200 26399.300000
235.043300 16802.500000
237.039100 48791.200000
238.046600 34607.700000
238.059100 18026.000000
239.054500 44199.300000
240.039300 38152.900000
240.061000 16044.900000
240.074800 19169.700000
242.055000 101727.800000
243.062600 28340.800000
244.021300 65510.100000
244.034500 21908.800000
244.070300 117720.500000
245.028800 43878.000000
246.086200 14020.300000
249.000300 438453.100000
250.008200 175994.500000
253.054400 28206.000000
253.083200 23480.200000
255.049900 85234.900000
256.057800 85939.200000
257.065800 64173.400000
258.049000 23676.700000
259.106100 164580.700000
260.016800 17118.500000
260.065100 26836.600000
266.111100 406167.800000
268.107000 70803.200000
270.036700 28693.800000
271.045000 55421.800000
272.051900 38877.900000
285.060200 22536.000000
286.117400 940280.600000
287.076300 94523.800000
288.047800 36919.600000
289.055800 84622.400000
289.116700 38571.200000
302.112100 513624.900000
306.107100 465053.200000
313.092200 46346.100000
349.112800 13539042.000000

>ms2
57.993400 28619.100000
64.006700 91293.000000
65.014500 101067.800000
65.998500 405467.400000
68.014200 9813.400000
68.995700 44890.700000
70.993900 14923.300000
73.029500 72554.800000
74.003600 19246.200000
76.006700 14033.700000
77.014500 14408.100000
79.990400 14079.600000
84.996800 24363.600000
86.988700 16177.400000
88.000400 507876.500000
88.006600 199382.100000
89.014400 60439.100000
89.998600 36177.900000
90.009800 39116.400000
92.025300 13182.300000
92.995900 16474.300000
93.009500 18922.900000
94.004700 14422.900000
94.010000 9187.000000
95.005000 67852.500000
100.000500 60603.100000
101.014600 40034.200000
102.009800 22751.700000
103.995400 182825.300000
104.001500 18706.900000
104.050400 9856.700000
106.017200 15995.000000
106.998900 21110.800000
107.005100 50488.500000
108.006700 34519.500000
108.021700 29945.200000
108.990700 98993.300000
108.996900 79233.300000
109.020800 17329.600000
111.000000 107213.500000
112.000400 145282.400000
113.999600 11542.200000
114.009800 72276.100000
115.017600 47782.500000
115.030100 8179.500000
116.025200 43109.500000
117.009600 21928.100000
117.020600 27339.500000
117.045900 22026.100000
118.041300 10783.800000
119.005200 49206.100000
119.025100 203810.800000
120.006500 48892.800000
120.020200 9009.900000
121.008400 18721.600000
121.020500 10842.800000
122.004600 14168.900000
122.999800 13150.300000
124.007800 24286.700000
126.003600 72415.800000
126.009800 50272.400000
127.011400 82232.400000
127.017600 77215.000000
127.995300 31871.700000
128.025500 10713.000000
128.038000 17416.000000
129.003600 10086.500000
129.009500 9315.600000
129.032900 10238.000000
129.046000 40640.800000
130.028400 11507.300000
130.998700 81007.600000
131.012300 17711.500000
132.006900 16125.100000
132.020300 17339.300000
133.002000 135110.600000
133.008000 18850.400000
133.020900 31374.600000
133.041000 12170.300000
134.004800 12509.300000
134.016100 247575.000000
134.999900 59675.000000
136.001600 223684.400000
136.007700 26279.500000
136.020500 52096.100000
137.015800 37347.600000
138.994800 11468.200000
139.011300 65950.800000
139.995400 9476.100000
140.025300 12918.400000
141.020600 18957.000000
141.045800 27285.000000
142.041000 32251.200000
143.036300 33668.600000
143.048500 11557.900000
143.061300 25614.000000
144.006600 85350.700000
144.020400 41446.300000
144.056800 32272.900000
145.001900 307595.400000
145.052000 51064.200000
146.009700 173617.200000
146.016000 60591.200000
146.994000 18855.500000
147.000300 15643.400000
147.024000 83212.900000
148.001800 11235.500000
148.008000 32922.800000
149.003000 47877.400000
149.009200 17442.400000
150.035900 10142.100000
151.011400 37888.600000
151.044100 57142.800000
152.013000 13971.500000
152.025400 8063.700000
153.033200 8472.200000
154.028600 11747.900000
154.041000 11571.700000
155.006000 22300.000000
155.012500 60423.400000
155.048800 22657.100000
156.007700 9224.100000
156.020100 21640.400000
156.026600 50931.600000
156.033000 16763.300000
156.056800 55060.800000
157.001900 547152.900000
158.009600 30571.800000
158.016000 30009.300000
158.035500 10729.000000
159.011000 29717.400000
159.017600 228858.600000
159.036500 18710.200000
160.001600 201951.100000
160.031700 61328.400000
160.996900 124431.800000
161.015800 16656.700000
161.052500 14816.000000
162.010800 95839.100000
162.017300 9543.400000
162.080000 42320.800000
163.012700 12920.600000
164.006200 12282.600000
164.026300 14184.500000
165.010700 28178.500000
166.022600 37227.900000
166.041000 60170.700000
167.006000 23142.800000
167.036400 25691.100000
168.013200 13801.100000
168.020400 32887.700000
168.056500 18884.900000
169.001700 26930.500000
169.021900 12091.600000
169.040700 21392.800000
169.051800 30422.100000
170.010100 64423.900000
171.017600 79530.500000
172.001600 17223.600000
172.051700 13996.300000
173.020600 44318.500000
173.039000 13666.700000
174.004500 64313.900000
174.047400 49917.600000
175.012100 25072.700000
175.019400 79039.300000
175.031300 19476.600000
175.055100 16625.000000
176.020100 20380.800000
176.027400 53843.300000
176.039100 18479.100000
177.047200 55754.500000
178.022100 91228.500000
180.001600 24407.100000
181.021800 26214.500000
182.017100 18589.200000
182.036200 64386.000000
183.044100 17083.400000
184.012900 135095.900000
184.031900 14161.200000
184.051400 135700.300000
184.996800 308629.100000
186.047600 43394.100000
187.012700 113567.800000
187.055100 13256.800000
187.996300 22422.200000
188.007800 79805.300000
188.026700 125016.800000
188.062900 73978.300000
189.015200 18975.000000
189.047000 45966.500000
190.020800 12555.600000
191.007400 35506.700000
191.029600 10406.900000
194.017100 39338.700000
196.032700 48960.100000
197.017300 24564.800000
199.036500 94680.000000
199.048800 88851.300000
200.007400 34772.400000
201.015500 30516.300000
201.064400 81927.700000
201.999500 188447.300000
202.023100 12931.700000
202.041900 71620.000000
203.050400 39235.000000
204.002600 103552.500000
204.057900 95590.900000
205.024500 62843.800000
206.053600 123317.700000
208.032800 43050.600000
208.068800 8610.200000
208.088100 16570.900000
209.028600 13128.600000
210.028100 88453.500000
211.023500 27165.800000
212.027800 56140.200000
212.043500 44585.700000
213.027700 8741.200000
213.064700 14070.600000
214.023400 248144.600000
215.031000 214730.100000
215.042100 12130.800000
216.114200 771866.400000
217.010500 45510.900000
217.022800 54767.800000
217.053100 9197.500000
217.994400 129459.900000
218.017900 159661.800000
219.026000 13323.700000
220.009800 21712.900000
222.048400 58756.900000
223.056800 9647.800000
224.044100 14757.600000
224.064200 55206.400000
225.023200 105227.100000
225.051500 19125.200000
226.043100 12478.500000
226.060000 51074.100000
228.026300 40579.800000
228.039100 64366.800000
228.094400 12939.000000
229.034300 22287.700000
230.003200 43192.200000
230.017500 63284.100000
230.054400 16622.500000
231.013500 167393.500000
231.027300 10391.900000
231.032600 11452.700000
231.075300 25788.200000
231.997500 2238202.800000
233.048300 80208.900000
235.021600 14717.800000
235.043500 26725.900000
237.039400 101713.300000
238.046200 34209.600000
238.059400 15392.100000
239.054900 65284.200000
240.039100 132559.400000
240.061600 18855.100000
240.075400 28231.600000
241.034000 24144.000000
241.047000 19723.500000
242.054900 184842.200000
243.013200 14201.600000
243.062000 10050.100000
244.021000 44238.300000
244.033900 76682.200000
244.070300 175444.200000
245.029200 70088.400000
246.086000 34217.400000
249.000100 59386.800000
250.008100 75092.500000
251.038700 31210.200000
253.054400 21559.900000
253.083500 21463.200000
255.049900 130385.600000
256.057900 72280.400000
257.065200 14475.900000
258.050200 20691.900000
259.106200 363864.800000
260.065500 48024.200000
266.110900 302978.100000
268.107100 30818.700000
270.037500 35061.200000
271.044700 79790.000000
272.052000 40385.800000
273.059700 10328.600000
285.060200 18187.600000
286.117300 198318.100000
287.076200 20365.200000
288.048200 13326.700000
289.055400 67602.800000
289.117300 36596.900000
302.112100 147475.600000
306.107300 105163.800000
313.091900 11668.700000
349.112800 644930.900000

>ms2
50.003600 35873.300000
57.993500 26764.200000
64.006600 120709.700000
65.014500 201245.900000
65.998600 658941.000000
68.014300 15676.500000
68.995800 58755.400000
70.993900 26720.800000
73.029500 52650.800000
74.003600 69249.200000
76.000600 13272.700000
76.006700 24511.500000
77.014400 19539.600000
79.990500 14866.200000
81.002000 19067.700000
84.996800 14701.100000
86.988700 15699.000000
88.000500 544668.700000
88.006700 297293.700000
89.014500 144867.900000
89.998500 76186.900000
90.009800 60278.200000
92.025400 13252.600000
92.995800 18509.400000
93.009600 15068.900000
94.004500 15637.000000
95.005000 36764.600000
100.000400 94094.900000
101.014600 64312.600000
102.009800 34882.000000
103.995400 120383.100000
104.001500 17796.000000
104.050500 18704.100000
106.998700 13998.500000
107.005100 91853.600000
108.006400 24625.900000
108.021600 42437.300000
108.990600 70273.000000
108.996900 97714.000000
109.020600 18792.300000
111.000000 82475.500000
112.000500 253513.200000
112.006600 26539.000000
113.014800 21083.600000
114.009700 116561.500000
115.017700 23944.800000
115.030100 30262.500000
116.025200 48296.000000
117.009400 30649.300000
117.020800 34111.400000
117.046000 12162.500000
118.040900 16573.200000
119.005100 87061.800000
119.025100 160506.100000
120.006700 39549.700000
120.020300 14609.000000
121.008600 13473.500000
121.020700 14504.000000
124.000200 27990.600000
124.007800 19798.100000
126.003400 85384.200000
126.009700 64544.900000
127.011300 48244.700000
127.017600 92415.900000
127.995500 23553.000000
128.025300 13041.500000
128.038300 9854.100000
129.009400 13065.000000
129.033100 13075.500000
129.045900 75258.700000
130.028500 22616.700000
130.998800 210038.200000
131.004400 15343.900000
131.012300 13223.200000
132.006600 27505.300000
133.002100 209000.000000
133.008000 26442.900000
133.020600 44770.200000
133.040800 12019.800000
134.005100 12399.300000
134.016100 238372.700000
135.000100 47965.100000
136.001600 148829.100000
136.007400 19429.700000
136.020300 75881.500000
137.015700 34823.100000
138.009800 19527.800000
139.003800 37761.400000
139.011300 144211.200000
139.995400 19840.800000
140.025600 36902.700000
141.045800 37242.900000
142.040900 39235.000000
143.025100 19418.400000
143.036300 25055.200000
143.048300 13837.200000
144.006800 118689.100000
144.020300 38311.000000
144.056900 26450.000000
145.001900 271060.200000
145.052000 54907.800000
146.010400 75248.000000
146.993900 24509.900000
147.000200 30093.000000
147.024000 85518.800000
148.007700 25660.600000
149.003200 23613.100000
150.003600 25314.200000
150.035900 11901.300000
151.011300 66070.600000
151.995600 17017.800000
152.006600 16272.400000
152.012900 13976.600000
152.025400 16754.100000
154.028700 12890.800000
154.041000 36263.700000
155.005700 22607.100000
155.012500 86822.900000
155.049000 17040.100000
156.008000 11360.200000
156.020200 33023.900000
156.026900 25622.000000
156.032900 23534.700000
156.056600 47975.400000
157.001900 550841.700000
158.009600 45853.000000
158.016000 90367.200000
158.035700 12829.400000
159.011100 15031.200000
159.017600 156860.100000
159.024300 19371.300000
159.036400 33109.800000
160.001500 181723.600000
160.031800 72107.300000
160.996700 70562.600000
161.015600 28743.400000
161.052100 16831.900000
162.010700 71161.600000
162.017400 18084.100000
163.012200 10432.800000
164.006400 23718.000000
164.026600 11838.700000
165.010600 19153.500000
166.041100 31709.100000
167.006000 23975.600000
167.036300 35045.500000
168.013300 14736.500000
168.020400 42223.200000
168.057000 13901.300000
169.001900 14725.900000
169.021800 13180.800000
169.040800 35250.400000
169.052100 31441.700000
170.009900 64996.300000
171.017400 54502.700000
172.001600 30019.700000
172.019600 18369.900000
172.031500 24884.400000
173.003000 32415.900000
173.020800 41457.200000
173.039400 64762.400000
174.004500 89378.900000
174.047200 43949.300000
175.018900 132769.000000
175.031200 36972.300000
176.026600 40628.500000
176.039500 12177.300000
177.047000 17215.400000
180.001200 14346.500000
181.022100 32497.000000
182.036400 52932.400000
184.012900 233781.600000
184.031400 17568.200000
184.051400 63635.600000
184.996900 57714.800000
186.028600 33875.700000
186.047300 67888.800000
187.012900 73510.900000
187.055500 21501.700000
187.996300 49040.900000
188.026600 91546.800000
188.063000 46282.700000
189.046800 19620.900000
190.012000 43419.200000
190.020700 11233.900000
191.007400 52758.800000
191.029800 38122.900000
194.017100 22978.900000
195.024900 29235.100000
197.016600 57198.100000
199.048700 18702.300000
200.026900 27576.200000
201.015400 22444.800000
201.034200 10854.600000
201.064400 12497.600000
201.999500 175848.900000
202.042300 42244.700000
204.002400 86736.900000
204.038000 23618.800000
204.057400 21125.600000
206.053500 111506.700000
210.028200 93644.200000
211.023800 21549.600000
212.028300 16446.100000
212.043700 48724.400000
214.023300 164433.600000
215.031300 188426.800000
215.042600 11309.200000
216.114200 517382.800000
217.022900 39361.100000
217.994200 33243.200000
218.018300 41585.900000
222.048400 20688.100000
224.028400 49167.200000
224.044000 12637.700000
225.023200 33426.800000
225.051200 15433.600000
228.026300 31686.400000
228.038500 23754.200000
230.018300 84149.400000
231.013400 44045.200000
231.032100 16503.500000
231.997500 434374.900000
233.048000 16743.700000
235.043800 21203.700000
237.039600 76591.800000
238.046400 39339.200000
240.039000 114195.600000
241.033900 12772.700000
241.046700 27320.200000
242.054700 100240.000000
243.013500 24928.700000
244.021100 14282.800000
244.033500 58787.500000
244.070600 46770.100000
250.007800 12142.100000
251.038700 17280.500000
255.049900 90123.000000
259.106400 83690.400000

>ms2
50.003500 72225.900000
57.993500 16739.800000
64.006700 102972.000000
64.019300 18169.100000
65.014600 258435.500000
65.998600 735034.600000
68.995800 53387.400000
70.993900 20401.800000
73.029500 35044.800000
74.003600 106240.900000
76.006600 17242.000000
77.014500 13392.400000
81.002000 34478.200000
82.009900 15882.300000
88.000500 576178.500000
88.006700 316066.200000
89.014600 259231.100000
89.998600 122129.700000
90.009800 73796.300000
92.025100 12139.800000
92.995700 30618.700000
93.009600 12985.500000
94.009900 13546.000000
95.005100 30292.300000
100.000500 100467.900000
101.014700 75082.500000
102.009700 25298.700000
102.034900 18828.900000
103.995500 59895.700000
104.050500 30760.000000
106.009800 22523.700000
106.998800 14672.300000
107.005100 110761.000000
108.006800 12909.800000
108.021700 49836.900000
108.990800 51784.700000
108.996900 62777.100000
109.020800 20513.900000
111.000000 47120.200000
112.000500 278713.600000
112.006700 69276.000000
113.014700 48507.000000
114.009800 187824.400000
115.030200 30823.300000
116.025400 71915.700000
117.009500 17041.000000
117.020500 32353.100000
119.005100 77554.800000
119.025100 98210.100000
120.006500 20955.500000
122.004500 18128.200000
124.000400 49733.900000
124.007700 13116.300000
125.014500 9996.600000
126.003500 69695.500000
126.009700 53370.800000
127.011300 28420.900000
127.017500 106837.200000
127.030200 14467.900000
127.995400 21656.500000
128.025400 33555.900000
128.038000 23817.400000
129.033300 24883.200000
129.045900 57556.800000
130.028500 37787.100000
130.998900 269728.800000
131.004800 37240.000000
131.012300 13561.300000
132.006900 17837.400000
132.012500 11644.100000
132.020400 11120.400000
133.001900 93154.300000
133.007700 15808.700000
133.020700 50657.600000
134.016100 169285.500000
135.000000 37114.000000
136.001700 61934.000000
136.020400 61715.600000
137.015600 17206.600000
138.009800 38241.100000
139.003700 20277.400000
139.011300 97025.600000
139.017400 14686.500000
139.030100 18533.900000
139.995300 19097.100000
140.025400 63478.800000
141.020600 29066.500000
141.045800 35901.400000
142.040800 52694.100000
143.025100 12532.500000
143.036400 32277.500000
144.006700 100291.400000
144.020100 27558.900000
144.056600 31908.100000
145.002100 86122.400000
145.052100 34155.100000
146.009700 38700.700000
146.016000 55325.300000
146.029100 11134.900000
146.993700 22802.600000
147.000000 21984.900000
147.024100 94173.400000
148.008000 21979.800000
150.003100 30265.600000
151.011700 61764.600000
151.995300 22629.200000
152.006300 10561.500000
152.025400 11473.100000
153.033500 14641.400000
154.028300 23069.500000
154.041100 42807.000000
154.998800 25967.600000
155.006100 13098.000000
155.012600 55908.900000
155.048700 15001.600000
156.008100 12745.600000
156.020400 11596.200000
156.033000 17829.400000
157.001900 404447.000000
158.009400 41744.600000
158.015900 156016.600000
159.011100 19715.800000
159.017600 74219.900000
159.024200 14875.600000
159.036300 21304.700000
160.001600 97566.900000
160.031700 51160.400000
160.996600 21666.900000
161.015600 33156.800000
162.010800 41951.900000
162.017500 12236.000000
164.006500 57537.300000
166.022300 23246.200000
166.041300 45379.100000
167.006000 19173.200000
167.036400 47917.400000
168.020400 29568.300000
168.056600 20122.800000
169.001300 9622.400000
169.040500 24161.700000
169.051900 30484.000000
170.009600 16068.100000
171.017200 20116.800000
172.001400 40524.400000
172.019200 23680.100000
172.031400 39609.900000
173.021300 15416.800000
173.039400 95261.500000
174.004300 61603.600000
174.047300 32167.300000
175.018700 113998.000000
175.031200 16071.500000
176.026500 22932.900000
178.022000 85213.700000
179.029900 26429.200000
180.001400 11782.500000
181.021600 17622.800000
182.036200 23166.400000
184.012800 155802.100000
184.031300 34968.200000
186.028600 14926.600000
186.047600 54415.000000
187.012300 49134.700000
188.026400 42808.500000
188.062500 21284.700000
191.007500 20885.900000
191.029900 38735.800000
197.018600 33797.400000
199.036600 49295.900000
201.034500 13701.000000
201.999700 78501.100000
202.042200 38222.800000
204.002200 34735.900000
204.037800 35528.600000
205.028800 24407.700000
206.053900 52340.700000
211.024400 15328.100000
212.043700 26848.000000
213.028000 14234.200000
214.023400 56640.600000
215.031300 76202.400000
216.114200 64425.600000
218.017900 13783.900000
224.028500 15600.300000
231.998100 45792.400000
237.039200 44249.200000
238.046500 30032.200000
240.039400 46033.200000
243.013300 29088.200000
244.033500 14212.200000
260.016500 18687.800000

>ms2
50.003500 95164.200000
57.993300 9615.300000
64.006700 145997.600000
64.019300 35635.500000
65.014500 429702.200000
65.998500 857843.800000
68.995800 69691.300000
70.993800 25417.400000
73.029500 20770.100000
74.003600 284036.400000
76.000400 15698.000000
76.006700 22088.200000
77.014500 10197.300000
80.001600 8509.100000
81.002100 43092.700000
82.009700 12085.800000
88.000500 561015.800000
88.006700 491979.000000
89.014500 362628.300000
89.998500 183712.500000
90.009800 110345.500000
92.025500 16723.200000
92.995700 57009.300000
94.009900 15506.500000
95.005100 18902.800000
100.000500 88184.500000
101.014400 81452.100000
102.009800 25909.800000
102.034800 25061.800000
103.995300 38629.400000
104.001400 11784.900000
104.050500 22913.800000
106.009800 42205.800000
106.016900 10855.200000
106.998900 13779.100000
107.005100 167997.300000
108.006700 15060.700000
108.021500 27695.800000
108.990700 44184.600000
108.996800 54071.700000
109.020800 15419.600000
111.000100 41652.200000
112.000400 315507.200000
112.006600 128277.500000
113.014600 108338.200000
114.009700 306545.900000
115.017600 16522.000000
115.030100 39084.700000
116.025300 113915.700000
117.009200 16675.200000
117.020600 46971.700000
117.045900 17216.800000
118.041000 9512.100000
119.005000 92005.800000
119.025100 52741.100000
120.006700 16389.000000
121.020500 17410.900000
124.000500 80834.400000
124.005700 12864.600000
125.014500 13753.800000
126.003500 43610.000000
126.009500 44541.800000
127.011800 15742.100000
127.017500 119336.600000
127.030100 26267.100000
128.025400 28659.000000
128.038200 16193.700000
129.010000 10078.700000
129.033300 31589.100000
129.045700 46777.800000
130.028400 28589.600000
130.998800 309533.600000
131.004900 72537.300000
132.012600 14085.600000
133.001900 42918.300000
133.007800 13140.400000
133.020900 68532.100000
134.004800 15573.100000
134.016000 121483.400000
135.000100 32056.400000
136.001400 30950.200000
137.015400 11176.000000
138.009700 98723.300000
139.011300 81313.300000
139.017400 14030.600000
139.030100 31774.200000
140.025400 104518.000000
141.020600 34427.300000
141.045800 34358.900000
142.041000 45827.300000
143.024900 13139.400000
143.036300 63207.700000
144.006500 77649.500000
144.020100 26451.400000
144.056500 19604.200000
145.002100 26276.200000
145.051800 15457.200000
146.010100 20530.000000
146.016000 29849.300000
146.029000 12063.300000
146.993800 23735.200000
147.000000 17356.700000
147.023900 78723.600000
148.007900 24892.400000
150.003300 32209.400000
151.011500 44115.900000
151.995100 23540.700000
152.012900 11740.900000
152.025600 24067.000000
153.033200 18219.900000
154.028500 30741.900000
154.041100 45355.900000
154.998600 33963.000000
155.005700 15800.800000
155.012400 43915.500000
156.033100 12277.100000
156.056900 11677.300000
157.001900 399215.500000
158.009600 14341.200000
158.016000 254121.800000
159.011000 24365.400000
159.017700 41349.500000
159.024300 21146.900000
160.001800 43780.600000
160.031500 62039.000000
161.015900 44102.500000
161.052500 9078.200000
162.010800 24941.500000
162.017500 11571.200000
166.040900 42258.000000
167.006000 11669.800000
167.036300 62568.000000
168.013500 11686.400000
168.020700 14175.000000
168.056400 12545.500000
169.040800 10758.200000
169.052000 25685.500000
170.009300 13328.100000
172.019400 12678.000000
172.031600 29834.900000
173.003000 17768.800000
173.039300 63284.500000
174.004400 38698.800000
174.047700 9413.100000
175.018800 43272.000000
178.021900 97369.700000
179.029700 15572.600000
181.021900 11120.800000
184.012800 111163.300000
184.031400 34061.000000
186.047500 47318.000000
187.012500 29450.200000
188.026400 23126.700000
191.030000 33148.300000
197.020200 38070.000000
199.036400 16216.000000
200.027000 11688.800000
202.000100 12270.100000
204.002800 18789.500000
204.037500 53506.100000
205.028800 12721.500000
206.053100 18984.700000
210.028400 39192.600000
211.024400 12008.700000
212.044400 9468.700000
215.031400 10435.700000
230.018200 11209.500000
237.038900 28727.100000
240.039000 26394.400000

