>compound LU57646990
>parentmass 215.05929999999998
>ionization [M-H]-
>formula C9H13ClN2O2
>rt 937.260000
>profile orbitrap
#smiles_iso CC1=C(C(=O)N(C(=O)N1)C(C)(C)C)Cl
#smiles_can CC1=C(C(=O)N(C(=O)N1)C(C)(C)C)Cl
#inchikey NBQCNZYJJMBDKY-UHFFFAOYSA-N
#pubchem_id 22188
#mb_accession LU134751,LU134752,LU134753,LU134754,LU134755,LU134756

>ms2peaks
115.990700 27086.200000
130.042800 13659.100000
158.996600 10826568.000000
215.059200 11582678.000000

>ms2peaks
74.964200 27383.700000
115.990900 89941.500000
130.043000 43515.100000
158.996600 15793497.000000
215.059400 6688364.500000

>ms2peaks
72.972500 17512.900000
73.980300 60824.000000
74.964300 99026.000000
115.990900 297292.000000
130.042900 74526.600000
158.996600 14445529.000000
215.059300 801065.200000

>ms2peaks
60.972400 7899.700000
72.972500 57596.000000
73.980300 90258.200000
74.964300 196462.600000
90.011600 16178.500000
115.990900 320294.500000
130.042900 55259.800000
158.996600 6228701.500000
215.059500 40911.500000

>ms2peaks
60.972500 12467.400000
69.993500 10009.600000
72.972500 105847.400000
73.980300 71960.100000
74.964300 285753.500000
88.967300 11125.900000
115.990900 122637.100000
130.042900 15098.400000
143.050400 4515.000000
158.996700 1409546.200000
215.059600 4444.800000

>ms2peaks
60.972400 20240.900000
69.993600 11176.800000
72.972500 81549.600000
73.980400 38884.700000
74.964300 286858.300000
88.967500 11320.800000
115.990900 33482.600000
158.996700 197065.000000

