>compound LU58302793
>parentmass 169.0441
>ionization [M-H]-
>formula C7H10N2OS
>rt 682.740000
>profile orbitrap
#smiles_iso CCCC1=CC(=O)NC(=S)N1
#smiles_can CCCC1=CC(=O)NC(=S)N1
#inchikey KNAHARQHSZJURB-UHFFFAOYSA-N
#pubchem_id 657298
#mb_accession LU032451,LU032452,LU032453,LU032454,LU032455,LU032456

>ms2
57.975700 3993308.500000
135.056300 27605.000000
169.044100 1740761.200000

>ms2
57.975700 4165904.500000
135.056400 19992.800000
169.044100 1748633.200000

>ms2
57.975600 6469992.500000
135.056400 32755.000000
169.044100 286605.200000

>ms2
57.975600 4695385.500000
107.061400 5574.400000
135.056300 24437.000000
169.044200 22291.500000

>ms2
57.975700 4873296.500000
67.055300 8000.700000
107.061400 6411.500000
135.056500 15464.500000

>ms2
57.975700 4805835.500000
67.055400 12122.500000
135.056500 5248.600000

