>compound LU58423711
>parentmass 215.9988
>ionization [M-H]-
>formula C9H9Cl2NO
>rt 1054.440000
>profile orbitrap
#smiles_iso CCC(=O)NC1=CC(=C(C=C1)Cl)Cl
#smiles_can CCC(=O)NC1=CC(=C(C=C1)Cl)Cl
#inchikey LFULEKSKNZEWOE-UHFFFAOYSA-N
#pubchem_id 4933
#mb_accession LU134151,LU134152,LU134153,LU134154,LU134155,LU134156

>ms2peaks
159.972600 9234693.000000
160.956400 42181.500000
215.998700 34373312.000000

>ms2peaks
123.995900 88727.600000
159.972600 18955130.000000
160.956500 99690.500000
185.952000 40315.200000
215.998700 24441136.000000

>ms2peaks
123.996000 668028.300000
159.972600 24202546.000000
160.956500 173680.300000
185.952100 69343.800000
215.998800 5860035.000000

>ms2peaks
55.018900 22282.000000
88.019200 65353.600000
123.995900 982011.300000
124.980000 47688.900000
149.975300 28426.600000
159.972600 10786516.000000
160.956700 158401.000000
185.952000 42503.000000
199.967500 32699.700000
215.998700 604759.900000

>ms2peaks
55.018900 16677.500000
87.011300 8675.500000
88.019300 185108.700000
121.979900 8907.100000
123.996000 643061.100000
124.980000 60392.000000
149.975000 19957.800000
159.972700 2689426.000000
160.956700 64616.300000
185.951600 12821.700000
199.967200 24687.100000
215.998800 38502.200000

>ms2peaks
55.018900 16630.600000
87.011200 6704.900000
88.019300 190408.000000
121.980300 9242.200000
123.995900 203611.300000
124.979700 36182.000000
149.975200 15177.000000
159.972600 404774.500000
160.956600 21785.000000
199.967500 19267.100000

