>compound LU58519274
>parentmass 269.09650000000005
>ionization [M-H]-
>formula C12H18N2O3S
>rt 969.060000
>profile orbitrap
#smiles_iso CCCCNC(=O)NS(=O)(=O)C1=CC=C(C=C1)C
#smiles_can CCCCNC(=O)NS(=O)(=O)C1=CC=C(C=C1)C
#inchikey JLRGJRBPOGGCBT-UHFFFAOYSA-N
#pubchem_id 5505
#mb_accession LU069351,LU069352,LU069353,LU069354,LU069355,LU069356

>ms2peaks
78.973400 5804.500000
106.066300 2453.700000
170.028200 1337857.200000
174.972200 16008.300000
269.096700 577753.600000

>ms2peaks
78.973500 11859.000000
79.981300 5749.200000
106.066300 58087.800000
170.028200 2772950.200000
174.972200 20199.800000
269.096600 77526.900000

>ms2peaks
61.970500 19627.600000
63.962400 27723.300000
77.965300 15072.100000
78.973000 63670.200000
79.981200 154746.100000
93.960400 13256.100000
106.066200 1538686.500000
107.050200 23026.400000
122.061100 9754.900000
150.056200 12910.900000
170.028100 5905921.500000
174.972100 48872.000000

>ms2peaks
61.970600 152715.800000
63.962400 120291.400000
77.965500 85413.500000
78.973300 329346.100000
79.981100 873076.500000
80.965200 20762.300000
93.960400 169564.600000
106.066200 4464605.500000
107.050200 110077.500000
122.061100 92279.800000
150.056100 28675.100000
170.028000 3943151.200000
174.971900 23304.600000

>ms2peaks
61.970600 204909.100000
63.962500 107062.400000
77.965600 79837.000000
78.973400 326654.600000
79.981200 621130.600000
80.965200 27912.600000
93.960500 182280.900000
103.042600 2565.600000
104.050600 2979.600000
106.066200 1776687.100000
107.050200 68392.600000
122.061200 107383.300000
150.056100 13795.000000
170.028200 510287.900000
174.972100 7794.700000

>ms2peaks
61.970600 829429.200000
63.962500 411350.200000
77.965600 240767.000000
78.973400 864265.800000
79.981200 1224046.500000
80.965200 69602.600000
93.960500 495107.200000
103.042800 21542.800000
104.050700 12768.000000
106.066200 1931184.400000
107.050200 125983.700000
122.061200 264825.100000
150.055900 17668.100000
170.028100 196628.700000

