>compound LU58339811
>parentmass 564.2398
>ionization [M-H]-
>formula C28H35N7O4S
>rt 850.320000
>profile orbitrap
#smiles_iso CCCOC1=C(C=C(C=C1)S(=O)(=O)N2CCN(CC2)CC)C3=NC4=C(N(N=C4C(=O)N3)CC5=CC=CC=N5)CC
#smiles_can CCCOC1=C(C=C(C=C1)S(=O)(=O)N2CCN(CC2)CC)C3=NC4=C(N(N=C4C(=O)N3)CC5=CC=CC=N5)CC
#inchikey NIBCDDKWFDEBEP-UHFFFAOYSA-N
#pubchem_id 135430996
#mb_accession LU123051,LU123052,LU123053,LU123054,LU123055,LU123056

>ms2
207.201900 12493.800000
522.192300 28813.300000
564.239900 543046.500000

>ms2
207.196200 12953.400000
285.063300 3558.200000
307.109100 2994.300000
348.109900 16156.100000
377.112900 25097.500000
419.160100 4192.700000
430.142800 19750.100000
522.192900 286306.300000
564.239800 75573.200000

>ms2
120.009300 2655.200000
253.073100 5385.000000
257.068000 17488.400000
269.068100 5342.700000
270.075900 3970.300000
285.063200 15281.800000
307.108600 10665.000000
348.110400 50896.300000
349.117700 7319.600000
377.113000 89841.000000
419.160100 5253.600000
430.143000 16120.900000
522.191600 15116.400000

>ms2
63.962400 2702.500000
118.029700 3376.300000
120.009200 4815.100000
133.017000 2656.700000
197.072100 4492.400000
225.078300 10743.000000
226.062200 5700.700000
251.057300 2296.200000
253.073200 31195.100000
257.068400 17686.200000
269.068500 4831.400000
270.075700 4622.900000
285.063300 4940.200000
307.108300 2660.100000
348.110700 11917.400000
349.118400 3186.500000
377.113700 24459.900000

>ms2
63.962400 2569.200000
65.998600 4474.500000
118.029900 8578.800000
120.009100 3099.400000
120.056700 6269.000000
143.025100 4015.200000
197.071900 5604.200000
210.066800 5140.700000
225.078400 11251.400000
226.062100 4130.400000
251.057100 3200.000000
253.072800 13075.700000
257.068000 4586.300000

>ms2
63.962500 3823.800000
65.998600 4467.800000
118.029900 12444.400000
120.056800 3769.100000
133.016500 3575.900000
143.025000 7634.400000
210.066700 2383.000000

