>compound LU59690815
>parentmass 400.1267
>ionization [M-H]-
>formula C24H17F2N3O
>rt 1100.040000
>profile orbitrap
#smiles_iso C1=CC(=CC(=C1)F)CN2C3=C(C=C(C=C3)F)C=C2C(=O)NC4=CC5=C(C=C4)NC=C5
#smiles_can C1=CC(=CC(=C1)F)CN2C3=C(C=C(C=C3)F)C=C2C(=O)NC4=CC5=C(C=C4)NC=C5
#inchikey OCSHTBUKRNOLMC-UHFFFAOYSA-N
#pubchem_id 53316382
#mb_accession LU050951,LU050952,LU050953,LU050954,LU050955,LU050956

>ms2
134.041200 12088.100000
146.041100 66733.200000
157.040700 914903.900000
177.046900 4725.900000
242.078700 90162.800000
268.057500 11165.100000
400.126500 4127448.000000

>ms2
75.024100 18519.000000
93.034600 20635.100000
95.030300 840731.100000
126.034900 24925.700000
129.046100 3554.400000
131.061500 5230.600000
134.041200 17001.400000
139.020200 36705.300000
146.041200 1113698.900000
157.040700 3400750.800000
177.047000 21099.900000
190.031000 49903.800000
222.072500 22674.100000
240.062900 22122.000000
242.078800 229024.000000
268.057700 28545.300000
290.073300 21169.200000
400.126600 269367.300000

>ms2
75.024000 113039.900000
93.034600 29983.100000
95.030300 1156837.500000
114.035000 2826.400000
126.034900 230492.200000
129.045800 36819.200000
130.053800 30453.400000
131.061500 4278.300000
134.041100 16042.000000
139.020100 54275.000000
146.041100 887976.100000
157.040700 2240061.000000
190.031000 37938.500000
220.057100 3995.800000
222.072500 27017.200000
240.063000 37146.400000
241.070400 2802.100000
242.078700 131641.300000
247.067300 5042.400000
268.057800 7162.900000
290.073500 49411.200000

>ms2
75.024000 334979.900000
93.034500 21385.200000
95.030200 808594.900000
114.035000 7498.200000
126.034900 553222.700000
129.045800 114241.700000
130.053600 56480.000000
131.037700 4455.200000
134.041300 14321.700000
139.020100 39051.900000
144.045400 2320.600000
146.041100 369296.800000
157.040700 1397686.100000
159.036400 4098.800000
170.041000 2787.500000
190.030700 16405.100000
220.057000 14633.300000
221.064500 10726.700000
222.072300 25470.800000
239.055300 7337.400000
240.063100 32177.500000
241.071000 8613.000000
242.078800 56018.500000
247.067400 3908.500000
290.073600 26933.900000

>ms2
75.024000 617995.400000
93.034700 8247.500000
95.030300 400165.500000
114.034900 14872.400000
120.025400 4285.200000
126.034900 651680.800000
129.045800 107913.000000
130.053600 42687.600000
131.037800 5222.600000
134.041200 15571.500000
139.020100 17965.500000
144.045700 2679.800000
146.041200 82265.400000
157.040700 578764.000000
159.036700 3496.400000
170.041100 2879.800000
190.030900 3540.100000
220.056700 13534.500000
221.064600 8363.800000
222.073000 15433.600000
239.056100 2089.200000
240.063100 13114.400000
241.070800 3841.400000
242.078300 11309.400000

>ms2
75.024100 716729.900000
95.030300 134269.100000
114.034900 21331.300000
120.025400 2204.300000
126.035000 527541.200000
129.045900 54988.600000
130.053800 16655.300000
131.037800 3385.600000
134.041200 18941.100000
139.020000 3752.200000
146.041200 12276.000000
157.040800 189065.100000
159.036400 2987.300000
170.040800 7804.800000
220.056900 9012.800000
221.064600 3973.900000
222.072500 3022.800000
240.062500 3326.100000

