>compound LU59040951
>parentmass 437.17179999999996
>ionization [M-H]-
>formula C24H26N2O6
>rt 1054.560000
>profile orbitrap
#smiles_iso CCCCC1(C(=O)N(N(C1=O)C2=CC=CC=C2)C3=CC=CC=C3)COC(=O)CCC(=O)O
#smiles_can CCCCC1(C(=O)N(N(C1=O)C2=CC=CC=C2)C3=CC=CC=C3)COC(=O)CCC(=O)O
#inchikey ONWXNHPOAGOMTG-UHFFFAOYSA-N
#pubchem_id 5362
#mb_accession LU113551,LU113552,LU113553,LU113555,LU113556

>ms2
244.061300 2108.300000
307.145200 56540.800000

>ms2
95.014100 2113.800000
183.092700 3820.000000
200.071800 12556.400000
244.062500 3858.700000
279.149400 3697.100000
307.145200 30893.300000

>ms2
95.013900 3858.200000
183.092900 2941.800000
200.071700 6431.700000
279.150700 3111.400000

>ms2
92.050500 5636.200000
95.014000 2699.100000

>ms2
92.050500 4214.000000

