>compound LU59357782
>parentmass 288.13540000000006
>ionization [M-H]-
>formula C15H19N3O3
>rt 884.880000
>profile orbitrap
#smiles_iso CCC1=CC(=C(N=C1)C2=NC(C(=O)N2)(C)C(C)C)C(=O)O
#smiles_can CCC1=CC(=C(N=C1)C2=NC(C(=O)N2)(C)C(C)C)C(=O)O
#inchikey XVOKUMIPKHGGTN-UHFFFAOYSA-N
#pubchem_id 54740
#mb_accession LU027451,LU027452,LU027453,LU027454,LU027455,LU027456

>ms2peaks
201.090800 176349.200000
202.098900 2490.700000
203.119400 2741.000000
229.121400 4422.500000
244.145500 2112746.200000

>ms2peaks
201.090800 384107.500000
202.098700 9949.300000
203.119300 2912.000000
244.145500 293750.200000

>ms2peaks
161.072000 3381.700000
186.067300 41817.200000
200.083100 14590.900000
201.090800 1331773.000000
202.098700 16082.900000
203.119300 3010.100000
214.098600 21645.800000
229.122000 30110.800000
244.145400 50551.900000

>ms2peaks
117.045900 7546.200000
161.072000 3626.500000
186.067300 292495.200000
200.083000 115220.700000
201.090800 740190.900000
202.098700 5849.900000
214.098700 65609.200000
229.122600 11286.500000

>ms2peaks
117.045900 82632.500000
131.061900 1898.900000
161.072200 5482.900000
186.067300 469322.300000
199.074900 4284.900000
200.083100 188609.500000
201.090800 164245.100000
214.098800 57704.300000

>ms2peaks
117.045900 270421.000000
131.061200 1676.200000
186.067300 295802.800000
199.075200 6837.500000
200.083000 114010.000000
201.090900 17728.400000
214.098600 20755.800000

