>compound LU59916014
>parentmass 362.9519
>ionization [M-H]-
>formula C15H12Cl4O2
>rt 1140.540000
>profile orbitrap
#smiles_iso CC(C)(C1=CC(=C(C(=C1)Cl)O)Cl)C2=CC(=C(C(=C2)Cl)O)Cl
#smiles_can CC(C)(C1=CC(=C(C(=C1)Cl)O)Cl)C2=CC(=C(C(=C2)Cl)O)Cl
#inchikey KYPYTERUKNKOLP-UHFFFAOYSA-N
#pubchem_id 6619
#mb_accession LU054751,LU054752,LU054753,LU054754,LU054755,LU054756

>ms2peaks
158.978400 11949.100000
200.988600 7129.500000
226.966000 16029.200000
311.952800 6654.000000
362.952000 5398410.000000

>ms2peaks
124.980000 16831.100000
158.978600 23749.100000
160.956700 29077.200000
175.943600 7360.700000
184.956100 8242.900000
200.988000 319733.700000
210.972300 9412.800000
211.980800 11441.700000
212.951500 7739.400000
215.998500 19318.100000
223.980100 16364.100000
226.966900 8573.600000
235.979900 18633.300000
238.967100 11758.700000
246.891900 10684.800000
251.975000 108080.800000
262.967300 55236.300000
263.974900 39100.600000
270.948800 8244.500000
271.958000 4028.700000
283.956800 6576.700000
284.928200 6398.900000
286.944100 83682.200000
287.951800 4372.100000
298.944000 60124.200000
299.951600 64481.300000
311.951800 187245.400000
326.975400 39466.200000
347.928300 146753.800000
362.952000 3771253.500000

>ms2peaks
89.003200 12278.200000
124.980000 142304.800000
151.990700 5531.000000
156.021700 8413.200000
158.978600 9250.300000
160.956600 59975.700000
165.011000 2408.200000
175.943700 18062.100000
180.021700 3316.600000
184.956800 12164.100000
188.003500 26692.500000
191.998400 14407.800000
200.003500 17664.200000
200.987900 859327.200000
210.972200 27287.600000
211.980100 147862.300000
212.951300 26000.100000
215.998300 125436.800000
223.980100 176848.800000
226.967200 38215.100000
232.956900 5882.500000
234.972200 16162.800000
235.980000 104070.400000
238.967300 19909.100000
239.975200 7662.600000
246.891500 4070.500000
247.980000 292544.600000
250.967100 36404.700000
251.975000 343647.800000
262.967100 100692.400000
263.975100 70056.700000
268.933800 4232.100000
270.949000 26011.700000
271.956100 7559.600000
272.928100 7552.600000
275.975100 11129.000000
282.949200 8291.600000
283.956900 132596.500000
284.928700 11008.100000
286.943900 170338.600000
287.950500 4259.200000
296.928200 19284.900000
298.943800 99970.000000
299.951600 183976.100000
310.944100 10225.700000
311.951800 250258.700000
326.975000 34549.100000
346.920000 7629.700000
347.928500 34957.600000
362.951900 369550.700000

>ms2peaks
89.003300 58171.100000
124.979900 158481.600000
151.990900 10445.100000
156.021900 3446.600000
160.956500 23382.500000
165.011500 2747.000000
175.943600 3521.100000
176.026700 7730.500000
180.021300 2904.400000
184.956800 8944.000000
188.003500 12993.800000
191.998600 7903.500000
200.003600 5123.700000
200.987900 446596.900000
208.956400 2168.600000
210.972400 7422.600000
211.980100 89234.000000
212.003400 46264.900000
212.951600 7420.400000
215.998300 61985.200000
223.980100 73514.400000
226.967100 14313.500000
232.956600 144728.900000
234.972500 8422.900000
235.980000 39899.600000
238.967200 2655.300000
239.976500 2500.100000
246.971400 3462.600000
247.980100 1216312.400000
250.967500 22503.800000
251.975000 107468.200000
262.967200 8298.100000
263.975000 5979.500000
268.933900 17839.200000
270.949100 7069.500000
272.928200 2889.500000
275.974900 6381.700000
282.948900 39781.600000
283.956700 77854.000000
286.944000 25354.500000
296.928300 26454.300000
298.943600 7282.600000
299.951800 54908.300000
310.944200 15865.100000
311.951200 19543.200000
362.951200 3737.600000

>ms2peaks
61.008400 2565.100000
77.003300 3213.600000
89.003300 112092.800000
124.979900 89853.200000
148.032200 4865.500000
151.991000 2947.700000
160.956600 13026.400000
165.011500 3710.100000
176.026700 21206.300000
184.956600 22637.500000
188.003600 2190.500000
200.987900 104856.700000
211.980100 5731.100000
212.003500 46864.800000
215.998800 5499.200000
223.979700 6040.000000
232.956600 564682.900000
235.980500 5414.800000
246.972200 8136.700000
247.980100 419666.900000
251.975400 5916.500000
268.933500 21540.300000
282.949000 33043.600000
283.956900 4148.900000
296.928600 10342.800000
299.951500 3312.200000
310.944000 6460.300000

>ms2peaks
61.008400 2328.000000
77.003300 4464.300000
89.003300 114953.400000
124.980000 34722.400000
148.032000 12928.300000
160.956500 4437.000000
176.026600 6141.700000
184.956700 26726.400000
200.988000 12509.900000
208.956600 2602.800000
212.003300 4388.600000
232.956600 515513.300000
246.972200 6482.200000
247.980000 29255.500000
268.933700 10741.300000
282.949300 6439.300000
296.927700 2157.600000

