>compound LU60842845
>parentmass 403.1412
>ionization [M-H]-
>formula C22H20N4O4
>rt 981.120000
>profile orbitrap
#smiles_iso CC(C)(C1=CC=C(C=C1)CNC(=O)C2=C(N=CC=C2)OC3=CC4=NON=C4C=C3)O
#smiles_can CC(C)(C1=CC=C(C=C1)CNC(=O)C2=C(N=CC=C2)OC3=CC4=NON=C4C=C3)O
#inchikey QYZRHDNGOVTVDB-UHFFFAOYSA-N
#pubchem_id 9865929
#mb_accession LU050551,LU050552,LU050553,LU050554,LU050555,LU050556

>ms2peaks
57.034600 4403.400000
94.029900 12524.700000
119.025300 4829.100000
122.024600 7522.500000
133.028200 6293.700000
134.036300 6854.400000
135.020100 99255.400000
138.019700 96761.300000
237.041700 31898.500000
240.041700 85117.800000
241.049300 67043.900000
242.057700 11695.900000
250.049400 5375.600000
268.098100 4877.700000
282.124800 586296.900000
307.108500 12824.800000
327.088900 21600.300000
330.124700 4405.600000
342.124300 20133.500000
355.132600 13724.500000
358.119800 10233.500000
359.150300 12780.600000
360.135300 13403.700000
367.119200 29977.500000
368.127300 16018.300000
369.099000 8356.700000
370.105400 4825.900000
384.122300 4237.800000
385.130700 2670156.000000
386.138600 7663.000000
403.141100 4130987.800000

>ms2peaks
57.034500 22042.400000
65.014500 2988.800000
65.998600 8876.100000
68.014200 3733.900000
77.014500 7985.100000
90.022500 3432.900000
91.030100 4068.500000
94.029900 142635.300000
102.034900 14037.300000
103.030100 6619.100000
105.045800 9616.900000
106.017000 3029.800000
117.045800 4207.900000
118.041000 13288.500000
119.025100 92934.700000
122.024700 71284.500000
133.028200 765557.100000
134.035900 55850.200000
135.020000 212574.100000
137.035600 9379.800000
138.019700 417969.800000
161.036100 5185.300000
169.040700 3867.600000
170.036500 3583.200000
173.084900 4924.200000
188.108200 30841.500000
196.051400 5342.200000
197.035800 6962.900000
198.043400 46366.500000
210.054100 3353.500000
211.051100 22231.600000
220.051800 14601.900000
223.039100 14017.800000
224.046800 15147.800000
229.025700 4824.200000
237.041700 48514.000000
238.062800 4009.100000
238.111000 6733.200000
240.041500 122998.500000
241.049300 157638.900000
242.057100 8173.800000
246.104300 5023.400000
250.049500 26056.900000
251.118600 28395.900000
255.113800 69902.000000
263.106700 6757.000000
264.114200 28419.300000
265.122100 34581.600000
267.113500 6232.000000
268.098500 16793.800000
270.113800 16776.200000
277.098000 4376.500000
282.124800 2953339.200000
284.082600 5962.500000
285.124500 12358.900000
291.101300 5535.800000
292.109600 3715.100000
307.109000 17734.900000
309.077600 5768.600000
315.114700 4261.600000
324.114200 42766.500000
327.088300 19957.600000
330.125300 12071.700000
333.124700 3463.200000
339.124600 6364.400000
340.109500 10750.800000
341.116700 9699.800000
342.124700 194092.200000
349.109500 4833.800000
351.088000 3451.700000
351.125400 20906.400000
353.104400 13475.500000
354.125400 4142.500000
355.133200 32213.200000
357.135900 13453.300000
358.119600 28391.700000
359.127900 4727.900000
359.152900 4612.800000
360.135600 27225.800000
367.120000 382641.500000
368.127900 51341.500000
369.099400 134685.200000
369.133400 14008.800000
370.107400 5059.000000
384.122900 8960.200000
385.130700 777596.600000
386.137500 5786.600000
403.141200 88379.800000

>ms2peaks
57.034500 22617.800000
65.014600 26885.900000
65.998500 34119.100000
68.014200 21700.300000
74.003700 2894.500000
77.014500 25879.400000
78.022400 21236.700000
89.014600 40205.800000
90.009800 8903.800000
90.022400 47668.100000
91.030100 20201.400000
92.014200 5235.100000
94.029900 491063.600000
102.022300 3283.100000
102.035000 29826.500000
103.030200 19164.100000
104.038100 5311.600000
105.009500 4385.400000
105.033200 8024.800000
105.045600 6514.700000
106.017300 23622.700000
109.016900 2787.100000
116.025400 12804.600000
117.033200 3467.500000
117.046000 16972.600000
118.017200 11041.800000
118.041000 16109.700000
119.025100 178928.000000
121.040700 2126.100000
122.024700 62065.800000
130.041200 9385.400000
130.066400 5465.100000
131.086300 3656.400000
132.020600 4912.800000
133.028200 1963658.200000
134.035900 49739.700000
135.020000 133778.400000
137.035900 6477.400000
138.019700 281756.800000
141.046000 3398.900000
143.025000 3198.900000
146.035900 2436.200000
146.097600 20424.400000
156.082000 6488.700000
161.035700 6403.800000
167.061600 6886.200000
168.045700 17437.700000
169.041100 4112.900000
170.097700 15451.400000
173.084600 42690.700000
179.061200 2842.900000
186.055900 4800.500000
188.108100 73969.900000
196.051400 4213.700000
197.035300 7904.600000
197.071900 11020.100000
198.043600 36699.400000
210.031200 3238.800000
211.051200 27325.500000
213.030300 3098.200000
220.051700 24449.600000
222.030600 3783.400000
222.079900 3441.300000
223.038800 12914.800000
224.046800 3828.500000
228.103300 4139.900000
229.025300 4726.400000
237.041800 19807.100000
237.103700 5501.300000
238.062300 4471.000000
238.111200 31962.300000
239.082800 3348.600000
240.041500 18796.400000
240.090300 5729.100000
241.049600 11466.100000
246.103400 8451.100000
247.111400 3179.000000
248.082800 5350.000000
249.102900 5521.000000
250.049300 4044.700000
250.087100 13900.900000
251.119000 75976.000000
252.103200 3534.100000
253.098200 3572.600000
255.114000 128502.000000
264.114300 42291.500000
265.122200 88996.300000
267.113500 4183.200000
268.098300 10650.000000
277.096900 3303.000000
282.124800 575920.600000
285.124700 16672.900000
291.101400 5073.300000
292.109800 3377.600000
300.113400 4180.600000
309.078300 4223.700000
314.093800 9012.100000
315.115600 3538.100000
323.106900 10694.900000
324.114200 69020.200000
325.085600 3454.800000
326.093700 55118.400000
339.125600 13502.500000
340.109000 9082.100000
341.102300 5791.000000
341.119100 3855.100000
342.088700 6724.900000
342.124900 26201.700000
349.109400 13928.700000
351.088600 17536.400000
351.125000 30137.300000
353.103800 9848.200000
354.125400 3493.100000
355.131400 3736.900000
357.135700 2555.800000
358.121100 5100.500000
367.120000 251717.500000
368.127900 3490.100000
369.099200 119724.600000
369.135500 31394.000000
385.130100 12963.800000

>ms2peaks
50.003600 6085.400000
57.034500 20200.800000
64.006700 2825.600000
64.019200 2373.200000
65.014500 55142.500000
65.998500 43642.900000
66.034900 8604.800000
68.014200 40567.500000
77.014500 33002.000000
78.022300 39798.600000
89.014500 141375.200000
90.009800 34916.200000
90.022300 89565.900000
91.030100 25042.800000
92.014100 8326.100000
94.029800 745665.900000
102.022400 3914.400000
102.034900 22794.500000
103.030100 27945.900000
104.038000 2518.900000
105.009300 7035.100000
105.033200 13608.900000
106.017200 46001.500000
109.016900 3674.900000
116.025400 31257.500000
117.033300 5173.300000
117.045700 19534.600000
118.017100 17585.800000
118.041100 9221.700000
119.025000 96908.000000
121.040700 8311.900000
122.024700 33991.800000
130.041000 14357.200000
130.066200 6484.700000
131.086500 8849.200000
132.020300 16115.600000
133.028100 1128180.900000
134.036000 20669.500000
135.020000 36178.500000
138.019600 82298.000000
140.051000 2987.400000
143.025100 3836.200000
146.036000 2530.500000
146.097500 12112.400000
156.082100 7866.900000
167.061600 8589.600000
168.045300 20700.200000
169.040600 4500.500000
170.035800 2416.100000
170.097400 16759.300000
173.084600 24675.700000
179.061600 2627.000000
182.097700 3726.600000
185.034800 3064.400000
186.055700 4699.600000
188.108100 13757.000000
194.036100 3126.300000
196.051900 3397.600000
197.035500 5619.600000
197.072200 5455.300000
198.043300 7664.100000
207.092700 5056.700000
210.031500 2755.700000
211.051100 19117.000000
220.051400 17717.600000
220.100700 8151.700000
222.030500 4028.100000
222.079600 6520.500000
223.038900 4321.600000
223.087300 3088.800000
224.046100 2693.300000
233.108900 7345.000000
235.087100 3312.500000
237.041900 5780.400000
237.103500 13149.900000
238.111000 28224.200000
239.082800 5416.100000
240.090200 4812.900000
245.096200 7144.100000
246.103500 6160.200000
247.075300 5190.000000
247.110900 4535.400000
248.082700 4476.400000
249.102900 6358.200000
250.087100 13040.500000
251.118900 59406.400000
252.103100 9172.700000
255.113800 43219.300000
263.105800 6621.200000
264.114100 39568.300000
265.122000 23391.200000
270.114200 3904.200000
282.106700 3768.700000
282.124500 22721.400000
285.124000 5894.100000
300.114400 4086.000000
309.077600 2660.400000
314.092900 8620.100000
323.107500 16001.900000
324.114000 15579.800000
325.084800 9168.600000
326.093600 38307.100000
333.114500 10299.600000
335.092500 7453.100000
339.124600 4898.200000
340.107800 3998.800000
341.104200 6245.300000
342.088300 3352.500000
349.109100 65463.900000
351.088500 55483.100000
351.125000 20990.700000
353.103800 16138.700000
367.119800 45976.800000
369.098700 22387.600000
369.135500 9119.700000

>ms2peaks
50.003500 10005.000000
57.034600 11739.100000
64.006700 6710.100000
64.019300 8344.000000
65.014500 74535.300000
65.998600 39620.800000
66.034900 15189.700000
68.014200 31028.800000
74.003800 3517.600000
76.019300 5285.600000
77.014500 34137.900000
78.022400 50506.000000
89.014600 327519.600000
90.009800 36110.200000
90.022400 69075.700000
90.035000 5773.200000
91.030200 25185.900000
92.014100 12246.900000
94.029900 728173.400000
102.035000 20721.000000
103.030100 19666.800000
105.009500 8481.900000
105.033200 8857.200000
106.017200 45487.700000
109.016900 3645.100000
116.025400 45256.200000
117.033200 4910.300000
117.045800 12127.100000
118.017200 7871.600000
118.029700 4184.500000
118.041200 3566.000000
119.025000 38560.000000
121.040800 8305.800000
122.024800 6873.600000
130.041200 8171.400000
130.066300 2411.000000
131.086400 6500.600000
132.020400 23163.300000
133.028200 363657.400000
134.035900 7264.100000
135.019900 7381.900000
138.019500 17990.600000
140.051000 10087.900000
141.046000 2888.500000
143.025100 2578.900000
146.097500 2545.000000
156.081700 8507.700000
167.061400 4142.300000
168.045600 13363.900000
169.040900 2444.900000
170.097500 5061.700000
173.084200 3164.200000
179.061900 2498.800000
182.097700 5661.200000
194.036100 5004.000000
197.035700 4053.200000
206.097500 3991.700000
207.093000 5203.100000
211.050500 5104.100000
220.051700 7903.100000
220.100600 6749.800000
222.030700 2340.500000
222.079900 4723.500000
223.087600 3252.700000
233.108500 29164.800000
235.087500 10777.700000
237.103300 8465.700000
238.111400 5699.400000
239.082300 9563.600000
245.095600 7368.000000
246.103600 3525.200000
247.074900 3591.800000
248.083400 3277.600000
250.086900 6602.000000
251.119000 22140.800000
252.103200 2199.900000
255.113400 3118.100000
264.114400 6704.900000
282.105000 2059.000000
306.103300 2531.400000
322.098900 4667.100000
325.085900 6374.100000
326.093200 6255.700000
333.116000 3154.600000
335.093800 11305.500000
340.059400 3350.700000
349.109200 26288.300000
351.088900 48326.200000
351.124600 4512.000000
353.104600 17779.400000

>ms2peaks
50.003500 15665.300000
57.034600 5937.300000
64.006700 5363.800000
64.019300 9188.100000
65.014500 100055.200000
65.998500 36697.600000
66.034900 28456.800000
68.014200 16095.400000
74.003500 2306.500000
76.019300 10336.200000
77.014500 26707.200000
78.022400 47463.700000
89.014500 405885.900000
90.009700 30895.400000
90.022300 29250.600000
90.035000 7320.700000
91.030100 16046.700000
92.014300 15461.900000
94.029800 541276.900000
102.035000 10175.800000
103.030200 11741.000000
105.009400 6964.100000
105.033300 4274.500000
106.017300 24951.000000
109.016900 2411.300000
116.025500 32730.000000
117.045800 7864.700000
118.017200 3473.400000
118.029900 3239.100000
119.025100 20679.400000
121.040900 4437.200000
132.020300 16737.200000
133.028100 86116.100000
140.050600 8570.900000
156.081800 7547.200000
167.061400 2532.700000
168.045600 2272.200000
170.097700 3408.100000
182.097400 2504.900000
206.097600 6274.100000
220.050800 3943.600000
222.079600 5791.700000
233.108500 24163.400000
235.088000 10139.900000
237.103100 2717.400000
239.082700 5452.500000
245.095800 2309.500000
247.075000 5486.400000
249.102800 2004.900000
251.118900 4104.400000
284.083500 4800.300000
306.103300 3977.200000
322.098300 3268.400000
340.060000 6871.400000
349.111300 2625.200000
351.088000 11002.500000
353.104700 3224.900000

