>compound LU60892491
>parentmass 251.0925
>ionization [M-H]-
>formula C13H16O5
>rt 1030.860000
>profile orbitrap
#smiles_iso CCOC(=O)C1CC(=O)C(=C(C2CC2)O)C(=O)C1
#smiles_can CCOC(=O)C1CC(=O)C(=C(C2CC2)O)C(=O)C1
#inchikey RVKCCVTVZORVGD-UHFFFAOYSA-N
#pubchem_id 92421
#mb_accession LU005351,LU005352,LU005353,LU005354,LU005355,LU005356

>ms2peaks
109.029300 6388.700000
133.065900 1943.400000
137.061100 1964.400000
179.107800 23451.600000
207.102600 43870.900000
251.092600 93538.900000

>ms2peaks
57.034600 2764.500000
95.014000 2282.400000
109.029500 3295.800000
119.050300 1908.500000
133.066000 23835.900000
135.045200 3021.700000
135.081500 6320.300000
137.060800 22369.700000
141.055600 1887.500000
159.044900 1879.100000
161.060800 14349.300000
163.040100 5473.200000
177.055900 18217.400000
179.071400 5962.700000
183.066100 4951.700000
205.050600 10765.000000
207.102800 3851.500000
251.092600 151052.400000

>ms2peaks
83.050200 10777.300000
85.029600 3171.800000
95.013800 10118.100000
107.050200 3878.300000
109.029500 19223.000000
122.037300 2837.200000
133.065800 31181.300000
135.009000 4923.200000
137.060800 61825.900000
161.060900 23817.100000
163.039900 11167.600000
177.055800 45876.000000
179.107400 2979.000000
183.066100 10446.000000
205.050400 8025.300000
251.092600 46316.300000

>ms2peaks
65.039600 2303.900000
67.019100 2680.800000
83.050200 9188.300000
85.029600 3558.600000
91.018900 4194.200000
93.034600 4153.000000
95.013900 6919.800000
107.050100 4630.200000
109.029600 15899.200000
111.044900 4704.100000
119.050100 1576.500000
122.037300 2695.300000
133.065900 11426.000000
135.008800 5218.800000
135.045200 3128.400000
135.081500 4455.000000
137.024500 2441.600000
137.060900 20850.100000
159.045400 3637.200000
161.060700 6464.700000
163.040100 5088.600000
177.055800 16839.900000
179.071400 3438.400000
183.066300 3592.000000

>ms2peaks
65.039700 4716.900000
67.018800 3030.500000
83.050200 8679.700000
85.029600 2234.300000
91.018900 4711.600000
93.034600 3232.900000
95.013800 6772.900000
107.050300 5974.700000
109.029600 18506.300000
111.045300 3714.900000
121.029700 2514.000000
122.037300 1984.700000
133.066000 5510.800000
135.008800 4322.500000
135.045400 3444.900000
135.082000 2016.700000
137.060800 5973.400000
159.044700 1787.200000
163.040200 2325.100000
177.055700 4290.100000
179.071800 1632.700000

>ms2peaks
109.029500 2971.800000
121.029300 2233.800000
122.037300 3179.000000

