>compound LU61824441
>parentmass 319.0976
>ionization [M-H]-
>formula C20H16O4
>rt 934.770000
>profile orbitrap
#smiles_iso C1=CC=C(C(=C1)C(C2=CC=C(C=C2)O)C3=CC=C(C=C3)O)C(=O)O
#smiles_can C1=CC=C(C(=C1)C(C2=CC=C(C=C2)O)C3=CC=C(C=C3)O)C(=O)O
#inchikey FFFPYJTVNSSLBQ-UHFFFAOYSA-N
#pubchem_id 66494
#mb_accession LU128851,LU128852,LU128853,LU128854,LU128855,LU128856

>ms2peaks
93.034600 39795.900000
181.065900 92299.000000
197.060700 6749.300000
224.047800 49974.000000
225.055800 104229.000000
272.085300 8715.500000
273.092100 4965367.500000
275.107800 148575.500000
305.082200 5828.000000
319.097400 4710147.500000

>ms2peaks
93.034600 88210.900000
180.058200 18379.500000
181.066000 209195.300000
197.060900 19233.600000
219.081900 16711.000000
224.047500 38535.000000
225.056300 20955.000000
231.081100 10879.100000
233.097200 15866.500000
247.111800 14142.200000
257.096900 11428.400000
272.084700 35506.100000
273.092200 8379712.000000
275.107800 171506.600000
305.081600 11206.500000
319.097700 138024.100000

>ms2peaks
93.034600 122157.400000
153.071000 15302.300000
169.065900 12246.700000
180.058200 150026.500000
181.065900 142097.900000
195.044900 37086.600000
196.053000 91204.000000
197.060800 44532.900000
205.066000 14208.800000
213.055400 13849.000000
219.081800 15419.600000
223.040600 17906.700000
224.047900 8778.400000
227.087100 13937.900000
231.081400 26396.200000
232.089700 7617.900000
233.097100 17388.500000
243.081300 63367.100000
245.097100 89246.500000
247.112000 14509.000000
257.097300 11774.800000
260.084900 7830.500000
271.077000 32248.100000
272.084500 933578.400000
273.092100 7155709.000000
275.108000 34184.600000

>ms2peaks
93.034600 181524.900000
152.063200 7744.200000
153.071300 14804.600000
167.050400 11864.200000
169.066100 14617.400000
180.058100 309586.400000
181.065900 56247.700000
195.045100 85040.400000
196.053000 220742.700000
197.060800 85874.300000
205.065900 56832.600000
213.055700 60733.500000
217.065800 8973.900000
217.102400 3449.000000
219.081300 8791.700000
223.039800 8054.400000
226.079100 2279.900000
227.086600 20819.600000
230.073700 10372.700000
231.081500 37959.500000
232.089900 4125.600000
233.097400 4052.500000
243.081500 171575.500000
244.089300 45335.900000
245.097100 185899.600000
247.111700 3737.200000
255.081400 5689.700000
256.089300 9355.000000
257.096800 3018.200000
258.069000 7587.700000
259.077300 4615.100000
271.076700 117918.300000
272.084500 1702540.900000
273.092200 1995104.600000
275.109000 2885.600000

>ms2peaks
65.039600 6534.900000
93.034600 203432.200000
151.055300 6899.100000
152.063300 11960.600000
153.070700 9427.100000
167.050100 29407.300000
169.065900 18479.500000
180.058100 170795.800000
181.065800 22518.000000
185.060200 3652.900000
195.045100 76900.800000
196.053000 92593.500000
197.060700 72715.400000
204.058400 8885.100000
205.065900 55610.800000
213.055700 61180.900000
215.086700 5371.100000
217.065700 8852.400000
217.102200 6514.500000
219.081500 6132.000000
223.040000 7121.000000
226.079100 3153.200000
227.086800 5500.000000
230.073600 26197.200000
231.081400 25721.400000
243.081500 184592.600000
244.089300 41692.900000
245.097100 61870.000000
256.088900 5725.700000
258.068500 5271.900000
259.076400 2715.600000
271.076600 226674.700000
272.084400 519364.100000
273.092100 190599.900000

>ms2peaks
65.039700 8846.500000
93.034600 166791.300000
151.055300 9309.000000
152.063300 8034.300000
153.071100 3215.700000
167.050400 29792.000000
169.066000 7381.700000
180.058200 45981.800000
181.065700 6252.900000
185.060900 2163.600000
195.045200 51654.500000
196.052900 12690.300000
197.060800 34711.900000
204.058300 16674.300000
205.066100 18138.700000
213.055600 21082.200000
215.086800 13390.800000
217.066000 6922.200000
223.039500 1955.400000
230.073800 15545.000000
231.081400 5753.200000
243.081600 117113.800000
244.089300 8869.900000
245.097700 10280.400000
256.089300 2132.500000
258.068500 2102.100000
271.076700 223804.900000
272.084500 47313.300000
273.092200 9771.900000

