>compound LU61922874
>parentmass 303.0574
>ionization [M-H]-
>formula C11H17N2O4PS
>rt 1076.880000
>profile orbitrap
#smiles_iso CC1=CC(=C(C=C1)OP(=S)(NC(C)C)OC)[N+](=O)[O-]
#smiles_can CC1=CC(=C(C=C1)OP(=S)(NC(C)C)OC)[N+](=O)[O-]
#inchikey VHEWQRWLIDWRMR-UHFFFAOYSA-N
#pubchem_id 100524
#mb_accession LU127451,LU127452,LU127453,LU127454,LU127455

>ms2
125.954800 8792.300000
152.035000 2407.300000

>ms2
94.936300 2620.800000
125.954600 9070.200000
131.061600 4378.200000
157.077200 6413.000000

>ms2
78.958900 3822.400000
94.936300 5871.800000
125.954800 4556.300000
131.061600 7432.000000
143.061600 4046.800000
152.035400 4438.200000
157.077200 2753.500000

>ms2
62.964200 2475.000000
78.959300 1825.900000
94.936200 10624.600000
131.061600 6769.600000
143.061500 6419.200000
152.035400 2607.700000

>ms2
62.964300 3809.700000
78.959100 2639.800000
94.936300 7266.500000
131.061400 3879.100000
143.061700 6877.400000

