>compound LU62572059
>parentmass 185.02780000000004
>ionization [M-H]-
>formula C8H10O3S
>rt 762.600000
>profile orbitrap
#smiles_iso CC1=CC(=C(C=C1)C)S(=O)(=O)O
#smiles_can CC1=CC(=C(C=C1)C)S(=O)(=O)O
#inchikey IRLYGRLEBKCYPY-UHFFFAOYSA-N
#pubchem_id 11868
#mb_accession LU088151,LU088152,LU088153,LU088154,LU088155,LU088156

>ms2peaks
79.957100 550858.900000
121.065900 462354.300000
185.027700 23822066.000000

>ms2peaks
79.957200 860861.100000
121.065900 753981.000000
185.027800 22898510.000000

>ms2peaks
79.957400 6041413.000000
80.965100 23893.900000
121.065900 3771968.800000
185.027700 17102658.000000

>ms2peaks
79.957400 12810381.000000
80.965100 57489.700000
120.058200 18811.200000
121.065900 4508683.500000
185.027700 6343966.000000

>ms2peaks
79.957400 16962316.000000
80.965100 80454.200000
120.058100 39429.800000
121.065900 2940680.800000
137.060800 20660.000000
185.027800 1384594.400000

>ms2peaks
79.957400 18746406.000000
80.965100 110054.300000
106.042500 29199.700000
120.058100 34575.500000
121.065900 1354894.900000
137.060700 21203.800000
185.027800 230963.200000

