>compound LU62634192
>parentmass 188.9879
>ionization [M-H]-
>formula C8H8Cl2O
>rt 1126.140000
>profile orbitrap
#smiles_iso CC1=CC(=C(C(=C1Cl)C)Cl)O
#smiles_can CC1=CC(=C(C(=C1Cl)C)Cl)O
#inchikey IYOLBFFHPZOQGW-UHFFFAOYSA-N
#pubchem_id 8621
#mb_accession LU105451,LU105452,LU105453,LU105454,LU105455

>ms2
153.011200 19892.700000
188.987900 580620.900000

>ms2
153.011400 28627.800000
188.988000 451561.800000

>ms2
153.011200 39668.300000
188.988000 149700.600000

>ms2
153.011200 18740.500000
188.988000 20976.900000

>ms2
153.011300 6279.600000
188.987700 2269.400000

