>compound LU62142866
>parentmass 213.067
>ionization [M-H]-
>formula C12H10N2O2
>rt 1072.200000
>profile orbitrap
#smiles_iso C1=CC=C(C=C1)NC2=CC=C(C=C2)[N+](=O)[O-]
#smiles_can C1=CC=C(C=C1)NC2=CC=C(C=C2)[N+](=O)[O-]
#inchikey XXYMSQQCBUKFHE-UHFFFAOYSA-N
#pubchem_id 13271
#mb_accession LU039951,LU039952,LU039953,LU039954,LU039955,LU039956

>ms2
93.034700 24172.600000
183.069000 254636.500000
211.051400 54178.700000
213.067000 16503443.000000

>ms2
93.034600 29983.900000
182.061000 34760.500000
183.068900 670246.100000
211.051500 105568.800000
213.066900 13184406.000000

>ms2
93.034500 44316.600000
116.050500 14319.400000
122.024900 11404.800000
137.035500 68448.800000
140.050400 14839.900000
166.066100 38653.900000
167.061400 9972.300000
168.045400 18705.100000
170.060900 18263.300000
178.053200 12425.500000
181.053400 16206.500000
182.060900 219862.300000
183.068800 1964168.200000
195.055900 32280.000000
198.056000 11659.100000
211.051300 426912.100000
213.066700 8521725.000000

>ms2
90.034900 6433.100000
93.034600 89856.000000
107.037700 12036.400000
116.050700 16815.500000
119.024600 6496.000000
122.024700 26844.600000
137.035600 249230.500000
140.050600 13436.900000
141.058400 10208.400000
153.058300 7358.600000
154.066300 31404.900000
165.058300 19498.800000
166.066300 108220.300000
167.074100 15048.000000
168.045800 28865.300000
170.061300 62334.300000
178.054100 7555.800000
181.053400 120114.900000
182.061100 417915.000000
183.068900 1296988.200000
195.056700 23439.100000
198.056300 20491.900000
211.051400 380848.200000
213.067000 2529342.200000

>ms2
90.034900 21250.900000
93.034600 76433.300000
107.037700 40241.600000
116.050800 14874.500000
119.025000 4186.800000
122.024700 25995.600000
137.035700 196770.000000
140.050800 8419.000000
153.058600 17593.100000
154.066200 46212.300000
165.058400 4397.100000
166.066200 127723.100000
167.062000 6214.700000
167.074100 7378.700000
168.045400 15511.800000
170.061300 43990.200000
181.053400 147041.200000
182.061100 178306.800000
183.069000 208161.300000
195.056200 6085.900000
198.056100 15660.300000
211.051400 100718.600000
213.067000 247344.100000

>ms2
90.034900 50951.400000
93.034600 57747.600000
107.037800 59629.100000
116.050600 21047.000000
122.025000 6641.600000
137.035700 155229.500000
153.058500 35092.600000
154.066300 36678.200000
165.058600 6435.400000
166.066300 121327.100000
168.045700 15125.100000
170.061200 15560.800000
181.053400 143768.500000
182.061100 72311.300000
183.069000 33037.200000
198.056200 7769.500000
211.051600 23527.600000
213.066900 17871.100000

