>compound LU62434473
>parentmass 321.0051
>ionization [M-H]-
>formula C11H12Cl2N2O5
>rt 825.180000
>profile orbitrap
#smiles_iso C1=CC(=CC=C1[C@H]([C@@H](CO)NC(=O)C(Cl)Cl)O)[N+](=O)[O-]
#smiles_can C1=CC(=CC=C1C(C(CO)NC(=O)C(Cl)Cl)O)[N+](=O)[O-]
#inchikey WIIZWVCIJKGZOK-RKDXNWHRSA-N
#pubchem_id 5959
#mb_accession LU066251,LU066252,LU066253,LU066254,LU066255,LU066256

>ms2
61.988400 19698.500000
70.946000 13273.500000
82.946100 8729.700000
84.009100 28785.900000
86.024900 5580.000000
93.034500 3854.600000
98.024800 4672.400000
108.021700 13968.300000
109.029400 3367.700000
119.013800 4200.200000
121.029500 182943.400000
122.024800 63631.800000
125.951900 87964.700000
126.935900 95963.600000
136.040600 2238.300000
137.024300 4482.500000
146.037400 2735.300000
148.040400 26291.600000
150.019600 49226.400000
151.027500 413601.800000
152.035300 1308844.600000
159.032700 5211.900000
160.040400 9159.000000
164.035300 10399.400000
166.014500 38665.900000
166.051000 7445.900000
175.051300 7376.700000
176.035300 429437.200000
179.046900 5114.500000
192.029800 3355.600000
194.045800 804303.400000
207.041100 29800.500000
219.041100 64708.300000
249.051700 198177.200000
257.033500 1279226.500000
321.005000 1544223.600000

>ms2
61.988400 18585.600000
70.946100 9563.100000
78.035000 26846.400000
82.946100 44392.700000
84.009100 32042.800000
86.024800 3595.200000
91.019200 3962.900000
93.034600 9844.400000
98.024700 11971.800000
105.022200 4032.400000
108.021600 9806.600000
109.029700 3406.600000
118.029600 4880.300000
119.013900 7547.400000
121.029500 299264.700000
122.024800 69595.700000
125.952000 30862.500000
126.935900 82991.700000
131.037500 3889.700000
133.029600 2179.800000
136.040500 8097.200000
137.024300 5535.800000
138.019800 3576.100000
146.037300 13823.900000
148.040500 111061.300000
150.019700 54731.600000
151.027600 684788.600000
152.035300 1347818.200000
159.032600 26301.100000
160.040400 11653.600000
161.035600 5893.700000
166.014600 35591.700000
166.050700 20975.600000
175.051600 8174.000000
176.035300 314162.600000
179.046300 19921.100000
192.030300 3793.400000
194.045900 83350.100000
207.041100 6823.300000
219.041000 29672.500000
249.051700 23105.500000
257.033600 61001.100000
321.005100 15567.900000

>ms2
61.988400 8644.200000
65.998800 2521.500000
70.946100 7109.900000
71.013800 6192.900000
78.034900 120489.700000
79.018900 3373.800000
82.946100 112091.700000
84.009100 31751.400000
86.024900 3636.400000
91.019000 2651.700000
92.026700 3752.100000
93.034500 9468.000000
95.013800 4512.900000
98.024700 6442.600000
105.022100 13752.400000
106.029800 12684.100000
108.021700 7242.100000
117.034500 4886.300000
118.029800 3741.700000
121.029500 707365.400000
122.024800 54755.000000
123.032700 6966.400000
124.040600 9845.400000
125.952000 6887.000000
126.936000 30368.200000
131.037500 3795.000000
133.029600 3862.400000
134.037500 2386.900000
135.032600 17283.100000
136.040400 11099.900000
137.024600 2346.400000
138.019700 2776.600000
146.037400 7381.800000
148.040500 90171.000000
150.019800 27767.200000
151.027500 645534.000000
152.035300 653939.000000
159.032500 40898.000000
161.035600 12302.600000
162.019800 18991.600000
164.035500 6004.500000
166.014400 22302.300000
166.051000 6190.400000
175.026900 2184.600000
176.035300 49482.800000
179.046300 18665.300000
194.045900 3116.100000
219.041200 4847.100000

>ms2
50.003700 2179.900000
65.998500 2774.700000
70.946000 2649.800000
71.013900 4301.000000
78.034900 83233.800000
79.019000 8301.600000
82.946100 104381.700000
84.009000 18592.200000
91.018900 2148.200000
92.026600 2273.900000
93.034600 7320.900000
98.024700 2378.300000
105.022000 9235.600000
105.034600 2412.900000
106.029800 17154.900000
108.021600 5865.000000
117.034600 16975.700000
121.029500 757551.200000
122.024700 36573.900000
123.032700 3841.400000
124.040400 9835.000000
126.935900 7213.300000
131.037700 3663.100000
133.029700 2137.700000
134.037500 2218.000000
135.032500 16090.700000
136.040200 5090.700000
145.029300 3246.600000
146.037500 2554.100000
148.040400 21572.900000
150.019900 5315.800000
151.027400 306009.800000
152.035300 107729.300000
159.032600 24514.500000
161.035700 11974.100000
162.019800 14986.800000
166.014700 4292.100000
175.027600 2620.800000
176.035200 3110.100000
179.046200 4746.200000

>ms2
50.003500 2604.900000
70.946000 2088.900000
71.013900 1836.100000
78.034900 35406.300000
79.018900 3344.400000
82.946100 64632.900000
84.009100 9408.700000
91.019000 8178.500000
93.034600 9197.800000
95.013800 4978.500000
105.022000 5280.900000
105.034600 5280.100000
106.029800 8899.300000
108.021900 11117.300000
117.034600 16800.400000
121.029500 603781.900000
122.024700 20875.300000
123.045100 2473.500000
124.040300 4878.900000
126.936200 1873.400000
132.021800 2913.800000
135.032600 7516.100000
145.029500 3724.100000
147.045200 6897.800000
148.040400 4471.600000
151.027500 92326.500000
152.035200 8246.100000
159.032500 7226.900000
161.035500 4795.600000
162.019700 4067.800000

>ms2
50.003500 2354.400000
65.998500 4003.500000
78.035000 16067.600000
79.019100 1955.800000
82.946100 51761.100000
84.009100 8802.400000
91.018900 16519.400000
93.034600 20584.400000
95.013900 10335.500000
105.022000 3704.800000
105.034600 2899.200000
106.029900 4744.000000
108.021700 28469.200000
117.034500 16229.000000
121.029500 605699.100000
122.024900 14426.700000
123.045300 2616.000000
124.040400 2857.600000
131.037600 2903.700000
132.021500 2562.500000
145.029600 4082.500000
147.045100 8200.100000
151.027500 24639.100000
161.035500 2956.200000
162.019700 2523.700000

