>compound LU62069834
>parentmass 310.1197
>ionization [M-H]-
>formula C17H17N3O3
>rt 919.860000
>profile orbitrap
#smiles_iso CC(C)C1(C(=O)NC(=N1)C2=NC3=CC=CC=C3C=C2C(=O)O)C
#smiles_can CC(C)C1(C(=O)NC(=N1)C2=NC3=CC=CC=C3C=C2C(=O)O)C
#inchikey CABMTIJINOIHOD-UHFFFAOYSA-N
#pubchem_id 54739
#mb_accession LU125251,LU125252,LU125253,LU125254,LU125255,LU125256

>ms2
223.075100 77999.100000
224.083100 3832.000000
266.129900 1041718.400000

>ms2
223.075100 756335.100000
224.082800 15806.800000
225.103300 9785.700000
251.107000 21005.000000
266.129900 369769.300000

>ms2
208.051900 10323.400000
222.067400 11655.600000
223.075200 598906.500000
224.083200 7750.800000
225.103400 2809.300000
236.082900 10912.000000
251.106800 11591.300000
266.129900 8229.100000

>ms2
183.056300 2319.700000
208.051700 75248.600000
222.067300 85754.000000
223.075100 400513.700000
224.082600 2001.700000
236.083000 45760.900000
251.106400 4792.600000

>ms2
183.056500 3545.800000
208.051700 34885.600000
222.067400 82758.500000
223.075100 53626.600000
236.083000 21891.300000

>ms2
208.051800 7472.200000
222.067300 37361.700000
223.075300 3211.600000
236.083000 4582.500000

