>compound LU63600166
>parentmass 576.3078999999999
>ionization [M-H]-
>formula C33H43N3O6
>rt 957.480000
>profile orbitrap
#smiles_iso CCCCN1C(=O)[C@H](NC(=O)C12CCN(CC2)CC3=CC=C(C=C3)OC4=CC=C(C=C4)C(=O)O)[C@@H](C5CCCCC5)O
#smiles_can CCCCN1C(=O)C(NC(=O)C12CCN(CC2)CC3=CC=C(C=C3)OC4=CC=C(C=C4)C(=O)O)C(C5CCCCC5)O
#inchikey GWNOTCOIYUNTQP-FQLXRVMXSA-N
#pubchem_id 3001322
#mb_accession LU123151,LU123152,LU123153,LU123154,LU123155,LU123156

>ms2
420.229800 16402.700000
464.218900 3327877.200000

>ms2
84.009100 31583.800000
110.061100 3004.000000
124.113000 4506.500000
127.087800 12993.700000
129.103400 88570.000000
136.040300 17969.700000
137.072200 4801.800000
139.087400 2896.000000
154.074800 36962.500000
155.082600 68447.000000
163.051300 3700.200000
183.081600 35250.200000
197.129600 8959.900000
209.129500 46306.100000
210.092000 11469.200000
221.130100 3684.100000
234.125200 3921.500000
236.140500 84559.900000
264.138700 4019.500000
319.144300 3975.400000
321.161000 26555.900000
334.156500 6990.200000
347.139500 18360.300000
420.229500 627253.800000
464.219000 1266644.400000

>ms2
67.019000 5358.700000
73.040800 3787.600000
84.009100 34463.700000
92.050500 3955.200000
93.034600 9359.400000
97.004400 13761.100000
98.097400 2327.100000
100.076800 4032.100000
106.042400 16983.100000
108.021700 6921.800000
108.045500 8976.000000
110.061200 9693.400000
118.030000 4013.900000
122.061000 5533.100000
123.045100 9296.000000
124.113300 7332.600000
127.087700 48623.400000
129.103400 128862.600000
133.053300 9492.900000
136.040400 76887.200000
137.072100 7122.500000
138.032300 3797.700000
139.088000 2520.700000
148.040400 3746.100000
154.074800 69501.400000
155.082600 131921.500000
163.051400 7100.000000
165.043000 4087.500000
169.065900 7285.300000
172.077000 2121.500000
182.073400 5398.700000
183.081600 67313.100000
197.129300 4997.300000
208.076700 5317.000000
209.129700 42734.300000
210.092400 16123.000000
221.129300 4430.100000
234.125100 3164.100000
236.140700 18183.800000
238.156400 5030.300000
264.139200 3394.400000
319.144300 4036.400000
321.161000 9131.600000
334.155700 9775.700000
347.139500 3737.000000
420.229400 32650.300000
464.219700 7445.400000

>ms2
67.019100 2280.100000
73.040800 6140.600000
80.050500 5489.800000
84.009100 12797.900000
92.050700 6267.800000
93.034600 20919.800000
95.050200 3882.800000
97.004400 22814.000000
98.097500 4401.900000
100.076900 3736.400000
106.042300 12970.500000
108.021600 8332.100000
108.045400 13776.200000
110.061100 4869.900000
118.029900 6829.800000
120.045800 3014.300000
122.061200 2251.100000
123.045100 8988.700000
127.087700 24040.200000
129.103300 47238.200000
132.045500 3951.900000
133.053400 8071.900000
136.040300 34746.900000
138.032300 2830.400000
148.040200 3263.400000
154.074900 26752.600000
155.082600 38837.500000
165.043700 3986.500000
169.066000 4438.500000
172.076900 4267.100000
182.073800 7482.900000
183.081600 20820.200000
208.076200 2466.500000
209.129200 4728.700000
210.092600 3273.300000
238.156300 8289.800000

>ms2
73.040700 3813.200000
80.050500 3045.200000
84.009100 3842.100000
92.050600 5844.300000
93.034600 33436.400000
95.050300 6634.800000
97.004500 18321.300000
98.097500 3324.400000
100.076800 3196.600000
106.042200 5491.100000
107.050200 2336.100000
108.021700 4555.900000
108.045500 8722.500000
118.029900 7416.600000
120.045500 3158.200000
123.045200 10310.500000
127.087600 7125.000000
129.103300 11753.900000
132.045700 3161.500000
133.053300 2409.100000
136.040400 7713.400000
154.074800 5898.700000
155.082500 5932.200000
165.042800 2027.400000
169.065800 2391.600000
172.076800 3143.100000
182.073700 3767.500000
183.081600 3976.300000
238.155600 3459.600000

>ms2
73.040800 3324.200000
80.050600 1944.300000
93.034600 36247.900000
95.050100 5202.900000
97.004300 6249.600000
107.050300 2548.900000
108.045400 4181.000000
118.029900 5366.400000
127.087800 1959.500000
129.103500 2628.300000

