>compound LU63394226
>parentmass 272.0564
>ionization [M-H]-
>formula C14H11NO5
>rt 1049.640000
>profile orbitrap
#smiles_iso CC1=CC=C(C=C1)C(=O)C2=CC(=C(C(=C2)O)O)[N+](=O)[O-]
#smiles_can CC1=CC=C(C=C1)C(=O)C2=CC(=C(C(=C2)O)O)[N+](=O)[O-]
#inchikey MIQPIUSUKVNLNT-UHFFFAOYSA-N
#pubchem_id 4659569
#mb_accession LU027351,LU027352,LU027353,LU027354,LU027355,LU027356

>ms2
242.058500 5760.900000
255.053800 2172.800000
272.056600 398818.600000

>ms2
182.061100 4945.200000
214.064100 2968.500000
225.055200 3504.700000
241.050300 1762.500000
242.058500 45270.300000
255.053800 38897.800000
272.056600 232249.100000

>ms2
143.050200 2112.200000
159.044900 4534.300000
169.065800 1704.800000
181.066000 19420.600000
182.061000 30072.800000
185.061100 1950.200000
196.053100 3008.900000
197.060800 4878.400000
210.056100 5317.100000
214.063700 11924.900000
225.055700 36193.800000
241.050900 8221.800000
242.058500 56841.400000
255.053700 37713.400000
272.056600 37088.600000

>ms2
115.055300 1784.400000
141.070900 5848.200000
159.045200 3584.900000
169.065900 12268.600000
181.066100 34091.700000
182.061100 19056.500000
185.061100 2378.100000
196.053100 1866.800000
197.060700 5635.500000
210.056500 2972.400000
214.063500 4032.300000
224.047800 3011.900000
225.055900 17112.800000
241.050600 5872.300000
242.058500 7827.900000
255.054100 4035.700000
272.056900 2388.100000

>ms2
115.055400 7718.100000
141.071000 8620.200000
159.045500 2199.700000
169.065800 13536.200000
181.065800 19892.200000
182.061100 13555.700000
185.060700 2067.300000
196.052600 1802.800000
197.061100 3299.000000
224.048000 6707.000000
225.055400 2198.700000
241.050700 2581.400000

>ms2
115.055400 15536.200000
141.071100 6965.400000
143.050100 1954.500000
159.045400 3729.200000
169.065800 5253.500000
181.065900 5841.400000
182.061300 6170.000000
185.059800 1780.100000
224.048200 2783.900000

