>compound LU63925169
>parentmass 229.14449999999997
>ionization [M-H]-
>formula C12H22O4
>rt 1047.240000
>profile orbitrap
#smiles_iso C(CCCCCC(=O)O)CCCCC(=O)O
#smiles_can C(CCCCCC(=O)O)CCCCC(=O)O
#inchikey TVIDDXQYHWJXFK-UHFFFAOYSA-N
#pubchem_id 12736
#mb_accession LU027551,LU027552,LU027553,LU027554,LU027555,LU027556

>ms2
167.144200 1305121.500000
185.154900 59399.800000
211.134000 4804821.500000
229.144500 10901768.000000

>ms2
57.034600 16909.800000
139.112900 18166.600000
165.128500 24211.300000
167.144100 4208690.500000
185.154700 159761.400000
211.133900 9241668.000000
229.144400 6990718.000000

>ms2
57.034500 82453.600000
69.034600 11631.600000
71.050200 13960.400000
80.026600 8717.100000
83.050300 24986.200000
99.081600 7466.700000
139.112800 77655.900000
165.128500 142348.500000
167.144100 4839702.500000
183.139100 6813.400000
185.154700 118275.000000
211.133900 5011253.500000
229.144400 1637426.600000

>ms2
57.034600 58971.500000
69.034700 12393.700000
71.050300 9296.400000
80.026800 24790.900000
81.034700 11585.200000
83.050400 20396.800000
99.081600 6298.500000
139.112900 38919.600000
165.128500 100087.600000
167.144200 1309115.100000
183.139400 7755.300000
185.154900 24800.300000
211.134000 842394.800000
229.144600 241175.800000

>ms2
57.034600 19750.200000
69.034700 6568.700000
71.050300 4213.500000
80.026900 16401.000000
81.034700 6179.400000
83.050300 6360.400000
139.113300 4885.600000
165.128600 15826.900000
167.144100 84492.600000
211.134100 41007.100000
229.144600 15065.600000

>ms2
81.034700 3103.000000

