>compound LU63440233
>parentmass 289.0749
>ionization [M-H]-
>formula C15H15ClN2O2
>rt 1075.860000
>profile orbitrap
#smiles_iso CN(C)C(=O)NC1=CC=C(C=C1)OC2=CC=C(C=C2)Cl
#smiles_can CN(C)C(=O)NC1=CC=C(C=C1)OC2=CC=C(C=C2)Cl
#inchikey IVUXTESCPZUGJC-UHFFFAOYSA-N
#pubchem_id 16115
#mb_accession LU091351,LU091352,LU091353,LU091354,LU091355,LU091356

>ms2
126.995700 3923.100000
178.074800 58331.000000
217.030200 3781.300000
244.017000 147479.800000
273.044600 4548.500000
289.074900 3320414.800000

>ms2
120.045400 20299.600000
126.995700 8978.400000
133.016900 38244.800000
134.024700 60469.500000
134.061100 34049.600000
163.051300 127347.200000
178.074800 452804.000000
182.060400 2718.900000
208.040300 5734.500000
217.029900 19925.800000
218.037900 9286.700000
244.017000 849202.600000
246.033000 6757.100000
273.043600 2620.300000
289.075000 1400795.500000

>ms2
59.013900 5856.200000
78.034900 2657.300000
106.029800 5334.300000
116.014300 4641.400000
118.030000 3867.300000
120.045400 301135.100000
126.995500 35763.700000
133.017000 72773.200000
134.024800 473717.000000
134.061100 216204.200000
135.032600 8858.200000
135.068900 7736.900000
158.024700 5114.400000
163.051300 423039.600000
177.067400 2566.600000
178.074800 342458.900000
182.060700 3446.000000
188.027200 36274.400000
208.040400 29236.400000
217.029800 17386.500000
218.038100 3252.400000
244.017000 421288.100000
246.033000 3981.700000
289.074900 101028.700000

>ms2
59.013800 2292.200000
65.003300 5532.900000
78.034900 19999.400000
90.034800 3021.500000
105.021800 2919.200000
106.029800 50380.300000
107.037700 5551.800000
116.014200 5136.100000
118.030000 9863.700000
120.045500 634278.600000
126.995600 52570.500000
133.016900 44746.600000
134.024800 820165.800000
134.061100 280271.000000
135.032600 15221.300000
135.069100 3306.600000
163.051300 181407.400000
177.067600 1821.900000
178.074700 48028.300000
188.027200 21780.400000
244.017100 51116.500000

>ms2
65.003300 4466.400000
78.034900 97795.400000
90.035000 3291.700000
93.034600 10214.300000
105.022200 3997.400000
106.029800 149099.500000
107.037700 6836.100000
118.029800 48137.000000
119.037600 4004.400000
120.045500 606213.600000
126.995600 60216.000000
133.016900 18673.300000
134.024800 707685.900000
134.061100 224612.700000
135.032700 6878.800000
158.024600 7877.200000
163.051300 28877.700000
178.074700 3696.200000
188.027300 2713.500000
208.039900 2270.600000
244.016900 3922.200000

>ms2
65.003300 4753.900000
78.035000 226788.300000
90.034900 5818.200000
93.034600 36976.600000
105.021900 3416.400000
106.029800 192204.200000
107.037600 4797.900000
118.029900 116794.500000
119.037800 4570.500000
120.045500 505311.000000
126.995500 38724.700000
133.016900 7644.300000
134.024800 439920.300000
134.061100 139222.500000
135.032700 2680.000000
158.025000 5818.900000
163.051400 1994.700000

