>compound LU63416579
>parentmass 271.98869999999994
>ionization [M-H]-
>formula C11H9Cl2NO3
>rt 1142.760000
>profile orbitrap
#smiles_iso C1CC1(C(=O)NC2=C(C=C(C=C2)Cl)Cl)C(=O)O
#smiles_can C1CC1(C(=O)NC2=C(C=C(C=C2)Cl)Cl)C(=O)O
#inchikey GLWWLNJJJCTFMZ-UHFFFAOYSA-N
#pubchem_id 11097730
#mb_accession LU061551,LU061552,LU061553,LU061554,LU061555,LU061556

>ms2peaks
123.995700 10759.900000
159.972600 10504729.000000
192.022200 737397.600000
225.983600 37197.400000
227.998900 10647355.000000
271.988800 2901206.500000

>ms2peaks
156.045600 21312.500000
159.972700 8928597.000000
192.022200 297711.400000
212.975500 13914.100000
225.983300 76304.000000
227.999000 1530477.600000
271.988800 54687.300000

>ms2peaks
123.995800 100693.900000
156.045400 33601.900000
159.972600 9573255.000000
192.022300 116936.900000
225.983300 93190.500000
227.998800 111718.000000

>ms2peaks
123.995900 729092.600000
156.045600 27760.200000
159.972600 9022976.000000
192.023400 34958.200000
225.983300 91801.300000

>ms2peaks
88.019300 5586.900000
123.995900 1500080.200000
128.050400 8013.100000
156.045400 15916.400000
159.972700 4282021.500000
172.018800 12162.500000
225.983200 53293.100000

>ms2peaks
88.019100 3145.500000
123.996000 362218.200000
159.972700 289235.600000
172.019200 6087.300000

