>compound LU63476046
>parentmass 445.8032
>ionization [M-H]-
>formula C13H8Br3NO2
>rt 1259.520000
>profile orbitrap
#smiles_iso C1=CC(=CC=C1NC(=O)C2=C(C(=CC(=C2)Br)Br)O)Br
#smiles_can C1=CC(=CC=C1NC(=O)C2=C(C(=CC(=C2)Br)Br)O)Br
#inchikey KVSKGMLNBAPGKH-UHFFFAOYSA-N
#pubchem_id 14868
#mb_accession LU030251,LU030252,LU030253,LU030254,LU030255,LU030256

>ms2peaks
78.919100 2149.300000
248.855500 6477.000000
445.803400 866093.100000

>ms2peaks
78.918900 258704.500000
168.929400 20053.900000
248.855600 299049.700000
365.877200 3024.400000
445.803200 505923.900000

>ms2peaks
78.918900 786842.800000
89.003200 2368.200000
168.929400 109870.400000
248.855500 177477.200000
365.878100 2690.400000
445.803200 30621.100000

>ms2peaks
78.918900 864870.300000
89.003300 7156.000000
168.929500 103045.500000
248.855500 23472.800000

>ms2peaks
78.918900 1534583.500000
89.003300 21439.100000
168.929400 78930.900000
248.856100 4082.500000

>ms2peaks
78.918900 1629141.100000
89.003300 23907.300000
168.929400 29699.900000

