>compound LU63353735
>parentmass 218.9621
>ionization [M-H]-
>formula C8H6Cl2O3
>rt 1017.780000
>profile orbitrap
#smiles_iso COC1=C(C=CC(=C1C(=O)O)Cl)Cl
#smiles_can COC1=C(C=CC(=C1C(=O)O)Cl)Cl
#inchikey IWEDIXLBFLAXBO-UHFFFAOYSA-N
#pubchem_id 3030
#mb_accession LU099051,LU099052,LU099053,LU099054,LU099055,LU099056

>ms2
160.956600 3179195.800000
174.972300 8257.700000
218.962000 35039.800000

>ms2
124.980000 13105.100000
160.956700 3287420.000000
174.972400 3673.000000
218.962000 6626.100000

>ms2
89.003300 3519.700000
124.980000 147778.000000
160.956700 2812121.500000

>ms2
89.003300 38860.400000
124.980000 449547.800000
160.956700 1791203.100000

>ms2
89.003300 101767.000000
124.980000 455533.800000
160.956700 576936.000000

>ms2
89.003300 143361.200000
124.980000 240897.900000
160.956700 131685.800000

