>compound LU64860594
>parentmass 193.09989999999996
>ionization [M-H]-
>formula C8H19O3P
>rt 1062.540000
>profile orbitrap
#smiles_iso CCCCCCCCP(=O)(O)O
#smiles_can CCCCCCCCP(=O)(O)O
#inchikey NJGCRMAPOWGWMW-UHFFFAOYSA-N
#pubchem_id 78452
#mb_accession LU029051,LU029052,LU029053,LU029054,LU029055,LU029056

>ms2peaks
78.959100 71746.700000
107.050100 3513.900000
107.086600 29523.800000
120.058200 4443.700000
121.029400 6875.000000
136.053100 6930.000000
137.024200 5197.400000

>ms2peaks
78.959000 113760.000000
83.050200 5018.900000
93.034800 2850.500000
105.071300 2545.400000
107.050000 5136.600000
107.086600 52281.600000
109.029500 4382.200000
120.058100 7168.900000
121.029500 6740.500000
135.044900 4038.500000
136.053000 16880.800000
137.024300 8304.200000
150.032300 4231.300000
152.048300 3987.300000

>ms2peaks
57.034500 5147.300000
59.013900 5281.700000
65.039700 11807.100000
67.018800 19613.000000
67.055300 3495.500000
69.034600 2818.200000
78.959000 496230.900000
81.034600 7980.700000
83.050200 63602.000000
91.055200 6303.100000
93.034600 12475.000000
104.026600 3641.500000
105.034400 5104.500000
105.071000 9385.100000
106.042200 3703.000000
107.050200 48547.800000
107.086600 575854.100000
108.021600 12792.000000
109.029400 63253.800000
109.065600 3353.800000
119.050300 18339.900000
120.058000 69446.600000
121.029400 115858.800000
122.037400 26814.400000
125.024400 7703.000000
135.045100 85579.900000
136.052900 331242.700000
137.024400 8879.000000
150.032200 21467.800000
152.048100 23447.500000
193.097400 322193.400000

>ms2peaks
57.034600 12561.300000
59.013800 21273.200000
62.964100 11633.000000
65.003200 6814.700000
65.039600 27882.100000
67.018900 49676.100000
67.055300 3230.900000
78.959100 753946.900000
81.034600 42351.200000
83.050300 273871.700000
91.018900 5696.300000
91.055400 26358.100000
93.034600 17522.400000
95.013800 4791.900000
95.050300 5055.000000
103.055300 4023.900000
104.026900 24330.700000
105.034500 37638.400000
105.071100 30538.900000
106.042300 10310.400000
107.050300 62274.300000
107.086600 997998.400000
108.021800 18172.200000
109.029500 125969.100000
109.065700 13012.300000
119.050100 32085.000000
120.058100 126345.700000
121.029500 264074.500000
122.037300 110453.000000
123.045300 5253.900000
125.024400 6850.000000
135.045200 317024.900000
136.052900 978372.500000
137.024300 7564.800000
149.024400 146715.000000
150.032300 25017.300000
152.048000 15436.000000
175.088700 19794.100000

>ms2peaks
57.034600 17304.200000
59.013800 21974.200000
62.964200 13686.700000
65.003200 15022.600000
65.039700 38766.800000
67.018900 81551.500000
69.034700 4340.500000
77.039700 4919.800000
78.959100 859145.900000
81.034600 99682.500000
83.050300 470895.000000
91.018900 12251.500000
91.055300 48799.100000
93.034500 37724.800000
94.042300 4106.100000
95.013900 4335.000000
95.050300 10978.700000
102.047600 3762.800000
103.055300 7282.700000
104.026800 116898.200000
105.034600 206637.200000
105.071000 44998.400000
106.042500 7873.700000
107.050300 54774.900000
107.086600 590924.600000
108.021600 28301.300000
109.029500 87493.800000
109.065800 12009.200000
117.034500 5462.500000
119.050200 26876.000000
120.058100 103168.000000
121.029500 332209.500000
122.037300 154269.400000
123.045200 10523.100000
135.045200 523062.000000
136.053000 935507.400000
137.024500 3802.500000
149.024400 249335.000000
150.032000 10346.600000
152.047700 6945.500000
175.089700 8931.400000
193.099500 10359.200000

>ms2peaks
57.034600 17828.900000
59.013900 20689.800000
62.964100 29882.800000
65.003300 34997.200000
65.039700 34515.000000
67.018900 88774.000000
69.034600 3995.400000
77.039600 12659.100000
78.959100 922868.600000
81.034600 148236.200000
83.050300 426668.600000
91.018800 15126.900000
91.055400 47018.600000
93.034600 99134.400000
94.042300 4906.600000
95.014000 5598.800000
95.050300 18352.500000
102.047500 2355.000000
103.055400 10260.200000
104.026800 221294.200000
105.034600 404535.000000
105.071000 33503.000000
106.042700 2529.600000
107.050300 28864.100000
107.086600 160986.600000
108.021700 23251.500000
109.029500 44349.500000
109.065900 14063.200000
117.034700 15440.600000
119.050200 31013.800000
120.058000 33767.300000
121.029500 429117.000000
122.037300 111426.400000
123.045200 6488.600000
135.045200 533056.800000
136.052900 402819.500000
149.024400 185010.800000
150.032000 3530.100000
175.089500 3666.000000

