>compound LU64591352
>parentmass 336.0376999999999
>ionization [M-H]-
>formula C8H15N7O2S3
>rt 481.120000
>profile orbitrap
#smiles_iso C1=C(N=C(S1)N=C(N)N)CSCCC(=NS(=O)(=O)N)N
#smiles_can C1=C(N=C(S1)N=C(N)N)CSCCC(=NS(=O)(=O)N)N
#inchikey XUFQPHANEAPEMJ-UHFFFAOYSA-N
#pubchem_id 3325
#mb_accession LU112151,LU112152,LU112153,LU112154,LU112155,LU112156

>ms2peaks
77.965600 72706.600000
94.992100 144195.700000
111.002200 3126.600000
148.018700 453163.500000
187.011800 145082.400000
215.042600 1838.900000
240.038400 58562.000000
257.064600 11014.400000

>ms2peaks
57.975600 28805.600000
77.965400 102504.200000
78.973200 2858.400000
83.036300 7562.400000
86.006900 3726.400000
94.992000 336922.100000
103.033500 3235.000000
111.002100 39533.500000
138.012800 2194.500000
144.989600 8656.300000
148.018500 145397.600000
169.985200 6932.300000
187.011700 115689.300000
240.038100 11300.300000
257.064200 9332.400000

>ms2peaks
57.975600 50035.700000
66.009700 2029.200000
77.965500 102644.700000
78.973200 3039.400000
83.036100 19304.200000
86.006900 6098.300000
94.992000 372238.800000
103.033400 18059.900000
111.002100 77793.200000
113.017800 3293.800000
138.013000 6282.500000
144.989800 5929.600000
148.018400 22202.700000
169.984900 8973.300000
187.011700 18101.700000

>ms2peaks
57.975700 37737.300000
58.996000 11453.800000
63.962500 3639.100000
66.009800 8578.500000
77.965600 145514.300000
78.973400 11841.300000
83.036400 13980.300000
86.007000 9031.800000
94.992100 367966.600000
103.033500 29311.100000
111.002300 71352.000000
113.017900 4611.300000
138.013200 4934.700000
187.011800 3489.100000

>ms2peaks
57.045800 2885.700000
57.975600 32584.500000
58.996100 25805.500000
63.962500 9764.600000
66.009800 10209.300000
77.965600 169769.900000
78.973400 26485.200000
83.036500 11914.500000
83.991500 2559.600000
86.007000 4226.200000
94.992100 303074.800000
103.033600 22553.600000
111.002300 39128.700000
113.018100 2155.700000
138.013500 2055.600000

>ms2peaks
57.045800 3003.200000
57.975600 15656.700000
58.996100 27605.900000
63.962500 15898.500000
66.009800 10204.400000
77.965500 131013.700000
78.973300 29286.000000
83.036200 2521.200000
86.006900 2062.600000
94.992100 155611.000000
103.033500 5511.100000
111.002200 13018.300000

