>compound LU64527302
>parentmass 199.06590000000003
>ionization [M-H]-
>formula C7H12N4OS
>rt 896.820000
>profile orbitrap
#smiles_iso CC(C)(C)C1=NNC(=S)N(C1=O)N
#smiles_can CC(C)(C)C1=NNC(=S)N(C1=O)N
#inchikey OFKAVNQBCRJBJE-UHFFFAOYSA-N
#pubchem_id 676486
#mb_accession LU078651,LU078652,LU078653,LU078654,LU078655,LU078656

>ms2
56.025400 22027.500000
57.975600 965572.100000
170.052100 18762.600000
199.065800 12005630.000000

>ms2
56.025400 49880.700000
57.975700 1988367.500000
71.978800 24928.800000
72.986600 15084.600000
170.052100 32827.700000
199.065900 11882747.000000

>ms2
56.025400 107318.600000
57.975600 6608029.500000
71.978800 43945.300000
72.986600 24873.400000
167.093900 12682.800000
170.052000 44359.100000
199.065800 4697960.500000

>ms2
56.025400 59589.600000
57.975600 7539558.000000
71.978700 26473.300000
72.986700 12161.500000
170.051800 14967.200000
199.065900 773969.200000

>ms2
56.025400 36932.400000
57.975700 9655972.000000
71.978700 18114.200000
199.066100 92254.500000

>ms2
56.025400 17566.200000
57.975700 9199317.000000
71.978700 9560.900000

