>compound LU64397140
>parentmass 439.02350000000007
>ionization [M-H]-
>formula C17H16ClF3O6S
>rt 1012.320000
>profile orbitrap
#smiles_iso CS(=O)(=O)C1=C(C(=C(C=C1)C(=O)C2C(=O)CCCC2=O)Cl)COCC(F)(F)F
#smiles_can CS(=O)(=O)C1=C(C(=C(C=C1)C(=O)C2C(=O)CCCC2=O)Cl)COCC(F)(F)F
#inchikey IUQAXCIUEPFPSF-UHFFFAOYSA-N
#pubchem_id 11556911
#mb_accession LU033951,LU033952,LU033953,LU033954,LU033955,LU033956

>ms2
226.064000 3332.100000
403.046900 837327.500000

>ms2
78.986100 2302.300000
80.965100 2191.600000
195.081100 2519.000000
197.061000 5318.900000
238.063500 3312.000000
239.071400 58188.000000
241.087000 28857.200000
258.053300 35995.800000
303.033300 4949.200000
304.041000 4964.000000
305.048400 15177.000000
361.036900 8134.500000
403.046900 1111768.200000

>ms2
63.962500 3028.300000
68.995900 5586.800000
78.986000 7190.400000
80.965000 1947.200000
93.034600 9928.100000
141.070600 2202.100000
161.024400 3858.600000
169.066300 8299.700000
183.081400 2334.500000
185.060800 4837.900000
195.081500 17353.900000
197.060700 62561.400000
211.076700 16442.900000
213.055900 25898.900000
224.047900 13697.500000
225.055800 5826.300000
226.063500 176973.800000
230.058900 2006.200000
238.063600 23924.800000
239.071400 98284.200000
240.079100 15624.700000
241.087300 16869.600000
258.053300 162114.100000
271.007200 6940.900000
303.032700 3098.000000
304.041000 3549.900000
305.049200 14310.400000
361.036900 4649.900000
403.046800 83904.400000

>ms2
51.024000 1793.100000
63.962500 3109.600000
68.995800 6863.500000
78.986000 5145.600000
93.034700 9823.900000
117.034800 1881.700000
141.070600 2451.200000
143.050300 3909.500000
161.024600 8241.600000
169.065900 11195.400000
171.045000 3174.700000
183.045000 3888.400000
185.060700 4271.900000
195.081800 6596.700000
197.061000 27781.000000
209.060900 3451.600000
211.076400 6092.400000
213.055600 11904.100000
216.042600 2481.200000
224.047700 7485.200000
225.055800 18974.000000
226.063700 67574.500000
237.055400 4083.900000
238.063500 12190.000000
239.071400 13700.600000
240.079300 6131.300000
258.053400 61777.000000
270.053100 6176.800000
271.007600 3873.900000

>ms2
51.023900 13448.700000
63.962500 6862.600000
68.995800 19589.500000
78.986000 5565.900000
93.034600 19503.200000
117.034600 8039.400000
139.055300 4355.600000
141.070900 2097.900000
143.050200 8876.900000
161.024500 9022.900000
169.065900 19752.100000
171.045100 2933.300000
183.045200 22029.100000
183.081900 2193.900000
184.053000 14666.800000
185.060900 2896.000000
195.045200 5016.000000
197.060800 22808.800000
209.060300 2562.000000
211.076400 3062.300000
216.042600 9115.000000
223.040100 4390.000000
224.048000 7493.700000
225.055800 31885.200000
226.063700 13836.600000
230.059200 1787.800000
237.055400 9958.000000
238.063700 13347.200000
270.053000 4275.300000

>ms2
51.023900 14376.100000
63.962400 5196.000000
68.995800 9445.900000
93.034700 7747.700000
117.034500 2659.500000
139.055400 4310.100000
143.050400 2959.400000
169.065800 6677.700000
183.045200 9236.000000
184.052900 2704.000000
195.045000 4124.900000
197.060700 7727.500000
223.040400 3524.200000
224.047800 5589.000000
226.064000 2094.200000
237.055600 7203.300000
238.063800 2208.100000

