>compound LU64228639
>parentmass 557.2457000000002
>ionization [M-H]-
>formula C33H35FN2O5
>rt 1067.930000
>profile orbitrap
#smiles_iso CC(C)C1=C(C(=C(N1CC[C@H](C[C@H](CC(=O)O)O)O)C2=CC=C(C=C2)F)C3=CC=CC=C3)C(=O)NC4=CC=CC=C4
#smiles_can CC(C)C1=C(C(=C(N1CCC(CC(CC(=O)O)O)O)C2=CC=C(C=C2)F)C3=CC=CC=C3)C(=O)NC4=CC=CC=C4
#inchikey XUKUURHRXDUEBC-KAYWLYCHSA-N
#pubchem_id 60823
#mb_accession LU035851,LU035852,LU035853,LU035854,LU035855,LU035856,LU138551,LU138552,LU138553,LU138554,LU138555,LU138556

>ms2peaks
59.013800 310212.800000
85.029500 452120.500000
397.172100 1037446.200000
453.198400 1592696.400000
477.234300 20651.800000
479.214000 303988.700000
495.245200 42876.500000
521.224500 188104.600000
557.245600 7416449.000000

>ms2peaks
59.013800 1217265.400000
85.029500 1317301.000000
207.234000 7640.300000
262.103800 5933.100000
276.120200 6949.800000
278.135000 1029366.500000
342.166100 11341.600000
397.172000 4850903.000000
453.198300 945831.800000
477.234200 43510.600000
479.213800 98214.600000
495.244600 9946.800000
521.223500 7564.000000
557.245800 15075.100000

>ms2peaks
59.013800 1149982.800000
69.034500 5831.600000
85.029500 656923.200000
92.050500 111638.400000
262.103000 25462.300000
276.119900 25561.200000
278.134800 5623916.000000
342.165600 7156.300000
395.156800 6995.300000
397.171900 634344.900000

>ms2peaks
59.013800 1088036.400000
85.029600 283137.400000
92.050600 354617.100000
236.088200 12040.000000
260.088100 6161.300000
262.104000 312933.800000
276.120000 63683.100000
278.135400 4357070.000000
295.101700 37293.500000

>ms2peaks
59.013800 854399.700000
65.039700 2475.400000
67.019000 3803.100000
69.034600 4015.800000
85.029500 80620.200000
92.050600 556215.600000
236.088100 12296.100000
260.088100 12295.700000
262.103700 899651.800000
274.105300 3901.400000
276.119500 51805.400000
278.135100 849249.500000
290.135200 3296.900000
295.101900 13412.600000

>ms2peaks
59.013800 702111.900000
67.019100 4001.200000
69.034700 3166.500000
85.029500 24531.800000
92.050600 674114.800000
234.073100 5547.400000
236.088800 6644.000000
260.088400 77506.500000
262.104000 1087933.000000
276.119300 20785.300000
278.135400 53010.600000

>ms2peaks
59.013800 274428.500000
85.029500 364298.200000
278.135800 7399.400000
397.172100 919576.500000
453.198400 1361456.100000
477.234500 14759.300000
479.214000 252392.200000
495.245400 41201.500000
521.224500 176301.000000
557.245600 6348617.500000

>ms2peaks
59.013800 1098411.800000
85.029500 1189535.500000
276.119100 5707.500000
278.135100 976144.600000
342.166300 7621.300000
395.157200 5555.100000
397.172000 4572727.500000
453.198400 882657.800000
477.234800 43576.800000
479.213700 100380.400000
495.245500 7550.300000
521.224700 5703.500000
557.244500 14808.200000

>ms2peaks
59.013800 1030824.400000
85.029500 602689.400000
92.050600 98511.000000
236.088400 5989.600000
262.102700 29734.600000
276.119400 22158.200000
278.134900 5227663.500000
295.101400 6908.700000
395.157300 5450.800000
397.172000 588853.900000

>ms2peaks
59.013800 980211.300000
85.029500 251657.200000
92.050600 340631.200000
236.088000 9781.700000
262.103700 286869.500000
276.119400 55022.900000
278.135000 3924791.500000
295.101100 33343.200000
304.115000 5424.500000

>ms2peaks
59.013800 734332.200000
85.029500 71915.200000
92.050600 480169.600000
200.087400 2211.600000
234.072500 2723.000000
236.087400 11001.600000
260.088200 9779.700000
262.103700 772076.400000
276.119400 50278.700000
278.135000 744328.800000
295.101900 13853.200000
304.114100 3075.400000

>ms2peaks
59.013800 515329.000000
69.034600 2886.700000
85.029600 15764.700000
92.050600 516549.800000
200.088200 3165.600000
234.073000 4339.700000
236.088400 2365.300000
260.088000 48305.600000
262.103700 848590.300000
276.119200 14514.500000
278.135200 47885.700000

