>compound LU64685339
>parentmass 136.0404
>ionization [M-H]-
>formula C7H7NO2
>rt 727.500000
>profile orbitrap
#smiles_iso C1=CC=C(C(=C1)C(=O)N)O
#smiles_can C1=CC=C(C(=C1)C(=O)N)O
#inchikey SKZKKFZAGNVIMN-UHFFFAOYSA-N
#pubchem_id 5147
#mb_accession LU054651,LU054652,LU054653,LU054654,LU054655,LU054656

>ms2
91.018900 47802.600000
92.050600 9680.700000
93.034600 123611.300000
118.029900 288118.700000
136.040400 295340.800000

>ms2
91.019000 58851.600000
92.050600 12356.300000
93.034600 155483.900000
118.029900 336151.000000
136.040400 362549.500000

>ms2
90.034800 2197.900000
91.019000 102133.000000
92.050600 19111.000000
93.034600 209756.700000
116.014100 3330.100000
118.029900 333701.300000
136.040400 206503.600000

>ms2
65.003400 2148.000000
65.039700 4454.200000
90.035000 7280.000000
91.018900 123994.800000
92.050600 7601.500000
93.034600 245169.900000
116.014400 4362.100000
118.029900 196388.200000
136.040400 50251.100000

>ms2
65.003300 11297.100000
65.039700 20956.200000
90.035000 13405.100000
91.019000 157268.900000
92.050700 11514.600000
93.034600 313403.600000
116.014200 6638.800000
118.029900 150331.200000
136.040400 13332.100000

>ms2
65.003300 22466.000000
65.039700 38014.900000
90.035000 19407.500000
91.019000 124828.800000
92.050400 7203.000000
93.034600 292823.400000
116.014100 8637.700000
118.029900 88826.900000
136.040600 5757.400000

