>compound LU65376204
>parentmass 322.0421999999999
>ionization [M-H]-
>formula C14H14ClN3O2S
>rt 1070.320000
>profile orbitrap
#smiles_iso CC1=C(C(=CC=C1)NC2=CC(=NC(=N2)SCC(=O)O)Cl)C
#smiles_can CC1=C(C(=CC=C1)NC2=CC(=NC(=N2)SCC(=O)O)Cl)C
#inchikey SZRPDCCEHVWOJX-UHFFFAOYSA-N
#pubchem_id 5694
#mb_accession LU029351,LU029352,LU029353,LU029354,LU029355,LU029356

>ms2peaks
138.997200 109818.700000
169.077100 42443.600000
243.059800 30053.400000
248.059800 426165.200000
264.037200 7449.100000
278.052500 4833854.000000

>ms2peaks
57.975700 18409.400000
65.014500 159499.600000
71.991200 6587.400000
138.997100 57493.300000
145.026900 12419.300000
169.077100 314211.100000
194.072000 26840.900000
196.088000 12415.200000
227.052200 65296.600000
232.064600 13742.900000
242.075500 24106.000000
243.059900 9095.300000
248.059600 121719.800000
262.021000 32768.500000
264.037100 5257.100000
278.052300 4072235.200000

>ms2peaks
57.975600 105041.200000
64.006600 2534.400000
65.014500 531436.800000
70.983600 3346.100000
71.991300 19479.700000
90.009900 4499.400000
130.066100 31457.500000
138.997000 29981.600000
145.026900 9064.200000
145.077000 12837.500000
169.077100 393720.800000
188.054100 2477.400000
194.072400 44845.100000
196.088000 43654.200000
199.033400 4190.100000
208.088000 2596.600000
209.095600 4813.200000
226.044600 4565.700000
227.052200 97165.500000
232.064600 8356.000000
242.075700 16411.200000
248.059500 7745.900000
262.021000 122186.900000
278.052300 867819.200000

>ms2peaks
57.975700 114192.500000
64.006700 6867.300000
65.014600 433272.300000
70.983600 5207.800000
71.991400 9360.200000
90.009900 10158.800000
121.994500 2077.000000
130.066300 31042.500000
138.997300 7887.300000
145.026900 9207.300000
145.077100 18890.500000
154.053600 3812.100000
167.061300 2651.500000
168.069600 2269.800000
169.077300 191048.600000
194.072600 13098.000000
196.088200 22750.400000
199.033800 5276.200000
208.088100 3222.900000
226.044800 7861.700000
227.052600 23745.200000
248.005700 8158.500000
262.021500 74347.800000
278.052900 41445.700000

>ms2peaks
57.975700 115372.800000
64.006700 16108.400000
65.014500 335524.000000
70.983600 2684.000000
71.991400 4849.900000
90.009800 13417.800000
95.978900 4196.100000
130.066300 27505.700000
145.027300 4819.800000
145.077200 17843.000000
154.053800 6674.200000
168.069700 4972.800000
169.077300 62219.000000
194.072500 7107.600000
196.088400 3190.900000
199.034000 3445.700000
226.044400 12557.500000
227.052800 2742.300000
262.021500 35229.500000
278.054100 3076.200000

>ms2peaks
57.975700 124940.900000
64.006700 23581.200000
65.014500 270792.000000
70.983500 4050.300000
71.991400 2707.900000
90.009800 18751.800000
95.979000 4842.800000
130.066200 18151.600000
145.077200 9446.500000
154.053700 6671.800000
168.069400 8243.200000
169.077000 12911.000000
194.072200 9676.100000
226.044300 4838.900000
262.021600 5341.900000

