>compound LU65617343
>parentmass 179.035
>ionization [M-H]-
>formula C9H8O4
>rt 805.320000
>profile orbitrap
#smiles_iso COC(=O)C1=CC=CC=C1C(=O)O
#smiles_can COC(=O)C1=CC=CC=C1C(=O)O
#inchikey FNJSWIPFHMKRAT-UHFFFAOYSA-N
#pubchem_id 20392
#mb_accession LU043751,LU043752,LU043753,LU043754,LU043755,LU043756

>ms2peaks
93.034700 5194.000000
105.034700 2289.900000
107.050300 341154.600000
121.029600 38524.400000
133.029700 8011.700000
135.045300 36824.800000
147.008700 10475.800000
179.035100 58403.900000

>ms2peaks
93.034500 2084.000000
105.034400 1541.100000
107.050200 105206.700000
121.029500 15111.900000
133.029600 2552.500000
135.045300 9024.600000
147.008500 2688.800000
179.035000 15617.200000

>ms2peaks
93.034600 4487.700000
107.050200 41872.800000
121.029500 6627.900000
133.029600 2562.200000

>ms2peaks
75.024100 1701.900000
93.034500 4552.200000
107.050200 8298.000000
121.029600 5999.700000

>ms2peaks
75.024100 3522.300000
93.034600 3620.000000
121.029500 6573.500000

>ms2peaks
75.024000 4063.700000
93.034700 1546.300000
121.029200 2536.900000

