>compound LU65835721
>parentmass 248.0717
>ionization [M-H]-
>formula C16H11NO2
>rt 1020.000000
>profile orbitrap
#smiles_iso C1=CC=C(C=C1)C2=NC3=CC=CC=C3C(=C2)C(=O)O
#smiles_can C1=CC=C(C=C1)C2=NC3=CC=CC=C3C(=C2)C(=O)O
#inchikey YTRMTPPVNRALON-UHFFFAOYSA-N
#pubchem_id 8593
#mb_accession LU105151,LU105152,LU105153,LU105154,LU105155,LU105156

>ms2peaks
203.073800 4207.300000
204.081800 2997704.800000
220.076700 3972.200000
248.071600 455410.200000

>ms2peaks
203.074400 23897.100000
204.081800 2624561.500000
220.076800 6169.300000
248.071600 212166.800000

>ms2peaks
102.034900 10304.300000
203.074200 227871.200000
204.081800 1726971.800000
220.076800 12386.400000
248.071700 108615.500000

>ms2peaks
101.039800 3566.300000
102.035000 30436.000000
146.024700 3003.300000
203.074200 208667.400000
204.081800 334821.700000
220.076600 9947.600000
248.071800 20467.100000

>ms2peaks
101.039700 11748.300000
102.035000 41452.500000
146.024800 2346.500000
203.074200 79363.400000
204.081800 51894.500000
220.076900 7154.500000

>ms2peaks
101.039700 9291.500000
102.035000 23249.900000
203.074200 10412.000000
204.081800 2283.500000
220.076700 2485.400000

