>compound LU68426869
>parentmass 153.03060000000002
>ionization [M-H]-
>formula C6H6N2O3
>rt 590.940000
>profile orbitrap
#smiles_iso C1=CC(=C(C=C1[N+](=O)[O-])N)O
#smiles_can C1=CC(=C(C=C1[N+](=O)[O-])N)O
#inchikey VLZVIIYRNMWPSN-UHFFFAOYSA-N
#pubchem_id 3613389
#mb_accession LU076851,LU076852,LU076853,LU076854,LU076855,LU076856

>ms2peaks
122.024900 3109.200000
123.032600 248785.800000
153.030600 1818762.600000

>ms2peaks
122.024800 2748.500000
123.032600 290671.200000
153.030600 2179359.000000

>ms2peaks
106.029900 3032.800000
107.037700 3376.300000
122.024700 13757.900000
123.032600 596876.200000
124.016500 5710.700000
153.030600 1541940.500000

>ms2peaks
65.998400 1498.500000
68.014300 2246.900000
80.014100 1774.200000
95.013900 1627.100000
106.030000 8198.900000
122.024800 400871.400000
123.008700 1751.000000
123.032700 11994.800000
124.016800 4628.500000
153.030600 154858.900000

>ms2peaks
80.014100 3973.400000
94.029900 6375.800000
95.013900 8428.600000
106.029800 7116.900000
122.024800 430964.400000
123.008900 3125.500000
123.032600 3737.400000
124.016400 1732.300000
153.030600 30167.900000

>ms2peaks
80.014200 6444.600000
94.029900 11829.800000
95.013900 10365.900000
122.024800 261086.400000
124.016600 2382.000000
153.030600 4449.600000

