>compound LU68219239
>parentmass 202.9784
>ionization [M-H]-
>formula C7H6Cl2N2O
>rt 987.480000
>profile orbitrap
#smiles_iso C1=CC(=C(C=C1NC(=O)N)Cl)Cl
#smiles_can C1=CC(=C(C=C1NC(=O)N)Cl)Cl
#inchikey CYESCLHCWJKRKM-UHFFFAOYSA-N
#pubchem_id 16854
#mb_accession LU053251,LU053252,LU053253,LU053254,LU053255,LU053256

>ms2peaks
159.972700 70837.100000
202.978900 4157.600000

>ms2peaks
123.995900 42019.900000
159.972600 4810579.500000
202.978500 111240.100000

>ms2peaks
88.019300 7591.900000
123.995900 194944.600000
159.972600 3992362.500000
184.967500 5373.500000
202.978200 4267.900000

>ms2peaks
88.019300 29904.400000
123.995900 219022.900000
159.972600 1333350.000000
184.968000 10402.900000

>ms2peaks
88.019300 54349.300000
113.014300 3735.100000
123.995900 102535.700000
148.991200 6352.200000
159.972600 246749.800000
184.967600 8481.800000

>ms2peaks
88.019300 53588.200000
113.014500 5933.000000
123.995900 25373.100000
148.991300 5745.000000
159.972600 30360.100000
184.967400 2741.900000

