>compound LU69467688
>parentmass 329.1062
>ionization [M-H]-
>formula C18H19ClN2O2
>rt 1037.880000
>profile orbitrap
#smiles_iso CC(C)(C)N(C(=O)C1=CC=CC=C1)NC(=O)C2=CC=C(C=C2)Cl
#smiles_can CC(C)(C)N(C(=O)C1=CC=CC=C1)NC(=O)C2=CC=C(C=C2)Cl
#inchikey CNKHSLKYRMDDNQ-UHFFFAOYSA-N
#pubchem_id 114994
#mb_accession LU086351,LU086352,LU086353,LU086354,LU086355,LU086356

>ms2peaks
77.039600 49346.800000
121.029400 25151144.000000
154.990500 533909.300000
176.108300 52476.400000
272.035900 380947.400000
273.043600 369702.700000
329.106000 35559992.000000

>ms2peaks
77.039200 119316.800000
111.000700 68342.400000
121.029400 56107676.000000
154.990600 1294859.900000
161.035600 98931.200000
176.108000 141110.100000
194.997000 72872.700000
272.035900 1063315.600000
273.043700 731209.200000
329.106200 1353229.100000

>ms2peaks
77.039300 107918.500000
93.034400 71109.200000
111.000700 345789.700000
121.029400 43264772.000000
151.006900 57578.300000
154.006600 82045.600000
154.990600 1336490.500000
161.035600 313809.300000
176.108000 157142.400000
194.996700 232082.700000
272.035900 213612.900000
273.043700 160209.500000

>ms2peaks
77.039400 49800.600000
93.034600 173344.400000
108.021700 44821.100000
111.000700 656695.600000
117.045800 38268.600000
120.045600 44743.200000
121.029500 18361300.000000
151.007000 46694.200000
154.006600 34237.100000
154.990600 547833.400000
161.035700 142382.000000
176.108200 65212.700000
194.996500 125426.500000
271.028800 19051.800000

>ms2peaks
77.039600 25385.600000
80.026800 11075.300000
93.034600 144143.500000
108.021700 31504.800000
111.000700 522335.300000
117.045800 26410.800000
120.045600 18291.200000
121.029500 4993673.500000
151.006900 23521.100000
154.006400 14789.500000
154.990600 135728.200000
161.035600 38297.900000
176.107600 12200.300000
194.996500 27395.900000
271.028000 8595.700000

>ms2peaks
93.034600 85501.300000
108.021800 26031.500000
111.000700 262168.400000
117.045700 12640.500000
121.029600 1120215.100000
154.990800 14437.300000

