>compound LU69748216
>parentmass 166.0146
>ionization [M-H]-
>formula C7H5NO4
>rt 882.900000
>profile orbitrap
#smiles_iso C1=CC(=NC(=C1)C(=O)O)C(=O)O
#smiles_can C1=CC(=NC(=C1)C(=O)O)C(=O)O
#inchikey WJJMNDUMQPNECX-UHFFFAOYSA-N
#pubchem_id 10367
#mb_accession LU090151,LU090152,LU090153,LU090154,LU090155

>ms2
92.026900 4135.400000
122.024700 125838.300000
166.014400 13215.400000

>ms2
92.026800 2707.900000
122.024800 122111.600000
166.014600 12151.700000

>ms2
92.026700 1976.300000
108.021900 1859.800000
122.024800 88029.700000
166.014800 3013.000000

>ms2
108.021700 2051.100000
122.024700 33648.700000
166.014900 1644.600000

>ms2
108.021700 2118.400000
122.024800 11640.900000

