>compound LU69943896
>parentmass 202.0874
>ionization [M-H]-
>formula C12H13NO2
>rt 944.160000
>profile orbitrap
#smiles_iso CC1=CC(=O)OC2=C1C=CC(=C2)N(C)C
#smiles_can CC1=CC(=O)OC2=C1C=CC(=C2)N(C)C
#inchikey GZEYLLPOQRZUDF-UHFFFAOYSA-N
#pubchem_id 6867
#mb_accession LU114551,LU114552,LU114553,LU114554,LU114555,LU114556

>ms2
55.018900 5159.600000
65.039700 2557.800000
67.018800 3512.800000
83.050200 136395.700000
92.050600 504391.300000
109.029400 1282916.200000
116.050500 4150.400000
131.037600 7954.200000
142.066100 9792.400000
144.045600 3411.500000
156.081600 4610.300000
158.061100 32878.300000
158.097500 9514.500000
160.076800 26902.600000
184.076600 2510.300000
187.064100 17239.900000
202.087400 607475.000000

>ms2
55.018900 5651.800000
65.039800 4668.100000
67.018900 5015.000000
81.034700 2611.400000
83.050300 123943.800000
92.050600 604377.100000
109.029500 1113891.200000
131.037700 7613.400000
142.066300 12428.500000
144.045600 5697.300000
158.061100 25405.900000
158.097800 2957.800000
160.076900 17751.400000
187.064000 15004.200000
202.087400 215428.300000

>ms2
55.018900 16233.800000
65.039700 23554.900000
67.018900 17355.900000
81.034700 10207.800000
83.050300 112992.200000
92.050600 1279377.800000
108.022000 2490.300000
109.029500 950178.900000
116.050700 9385.900000
131.037600 19746.600000
136.040600 1976.900000
142.066300 23937.500000
144.045400 13539.600000
156.082100 5183.300000
158.061100 27746.900000
158.097500 7005.000000
160.076800 17729.000000
184.077000 3300.500000
187.064100 15772.900000
202.087400 18750.100000

>ms2
55.018900 30654.900000
65.039700 26874.900000
67.018900 22927.000000
68.998300 2571.600000
81.034600 21759.900000
83.050300 48353.000000
92.050600 1425694.400000
108.021800 6962.000000
109.029500 468121.700000
116.050400 12746.400000
131.037700 18030.000000
136.040400 2085.300000
142.066200 13863.000000
144.045500 19195.800000
156.082200 3515.000000
158.061000 18338.300000
160.076800 4541.300000
187.064500 4222.900000

>ms2
55.018900 39054.800000
65.039700 20078.300000
67.018900 20167.700000
68.998200 3747.300000
81.034600 12852.800000
83.050300 20925.900000
92.050600 1308757.500000
108.021600 6683.500000
109.029500 161375.600000
116.050700 4047.500000
131.037500 12718.400000
136.040100 2692.000000
142.066400 4394.500000
144.045400 14406.800000
158.061200 12307.300000

>ms2
55.018900 33044.800000
65.039700 15806.800000
67.018900 14398.200000
68.998200 3779.000000
81.034700 10802.400000
83.050200 6017.600000
92.050600 1056969.100000
108.021800 5242.100000
109.029500 56356.700000
116.050500 3446.900000
131.037700 8237.900000
144.045500 19249.600000
158.061100 7404.000000

