>compound LU69012082
>parentmass 285.0405
>ionization [M-H]-
>formula C15H10O6
>rt 981.910000
>profile orbitrap
#smiles_iso C1=CC(=CC=C1C2=C(C(=O)C3=C(C=C(C=C3O2)O)O)O)O
#smiles_can C1=CC(=CC=C1C2=C(C(=O)C3=C(C=C(C=C3O2)O)O)O)O
#inchikey IYRMWMYZSQPJKC-UHFFFAOYSA-N
#pubchem_id 5280863
#mb_accession LU089851,LU089852,LU089853,LU089854,LU089855,LU089856

>ms2
151.003600 11648.500000
257.045300 5504.000000
285.040400 4187442.000000

>ms2
107.013900 7110.000000
145.048800 56923.000000
151.003700 29895.700000
169.014000 4375.000000
169.066100 8428.300000
177.021200 131093.700000
185.060800 7345.100000
187.040100 4753.500000
213.055700 8391.200000
214.026800 3895.900000
229.050500 11221.100000
239.034500 3869.000000
241.051200 5064.900000
243.030600 4988.700000
257.045900 19201.300000
284.031100 3162.900000
285.040500 2597578.200000

>ms2
63.024000 22698.400000
65.003200 16094.600000
67.018900 4673.600000
79.018900 4844.300000
83.013900 36817.400000
91.018900 7015.300000
93.034600 78852.800000
95.014000 10114.100000
97.029700 2277.800000
107.013900 57753.400000
108.021600 10076.300000
109.029500 33267.500000
117.034600 14405.300000
119.013900 8251.000000
119.050500 3005.700000
121.029500 9380.100000
123.008800 15652.200000
123.045200 9605.900000
130.042400 7260.100000
131.050000 9710.400000
132.021700 2760.600000
133.029500 19413.300000
135.008800 32867.900000
136.016500 6317.700000
137.024600 31144.700000
141.070800 10237.900000
143.050200 45652.500000
145.029400 27026.400000
145.065800 12355.200000
147.008800 6244.500000
147.045300 5087.500000
151.003700 57474.500000
152.011300 2562.400000
153.019400 7217.500000
154.042400 44727.400000
155.050200 25783.100000
156.058200 7238.200000
157.029500 10189.000000
157.066000 37057.100000
158.037200 5869.700000
159.045200 43067.600000
161.024500 19633.400000
161.061200 6182.800000
163.003800 42927.300000
164.011500 15853.600000
165.019300 24143.700000
167.050200 19227.500000
168.058000 14844.800000
169.014200 7748.900000
169.065900 81174.500000
171.045200 48832.600000
173.024500 28661.400000
173.060600 11763.900000
174.032300 5574.400000
175.039900 7480.300000
182.037600 2945.900000
183.045000 7997.800000
184.053000 13190.700000
185.060800 117631.000000
187.040200 80049.000000
189.055600 12077.200000
190.998100 2807.000000
191.034900 6807.700000
192.006200 10513.500000
195.045200 21137.700000
196.053100 7890.900000
197.061000 15140.800000
198.032700 10988.100000
199.040200 21684.500000
201.055700 27974.000000
211.040200 46576.900000
212.048500 10909.100000
213.055700 53503.000000
214.027200 44914.600000
215.035200 39132.400000
217.050600 6024.700000
219.030000 11001.900000
223.040000 3862.500000
226.026800 3819.600000
227.035100 26767.200000
228.042800 2465.600000
229.050600 108646.300000
239.035000 82819.000000
240.042800 21482.700000
241.050600 20646.100000
243.030000 40039.100000
255.029900 25105.500000
256.037600 13860.400000
257.045900 41697.900000
267.030200 11447.100000
268.037600 14720.000000
284.032700 13675.900000
285.040500 2103070.200000

>ms2
55.018900 4345.000000
63.024000 60348.500000
65.003300 44433.100000
65.039800 10701.600000
67.018900 17366.400000
68.998100 5986.700000
79.018900 18304.200000
80.026700 7077.800000
81.034600 2662.400000
83.013900 58017.600000
89.039700 7250.700000
91.018900 22456.500000
93.034600 206234.800000
95.013800 31077.300000
95.050300 4173.600000
97.029500 2428.000000
107.013900 71591.100000
108.021700 42915.100000
109.029500 67932.000000
111.008700 5667.200000
115.055300 6062.400000
117.034500 85553.700000
119.013800 21956.100000
119.050300 15583.400000
120.021700 2282.500000
121.029500 20932.800000
123.008800 20800.800000
123.045200 34038.800000
124.016500 4622.500000
129.034800 7498.900000
129.070700 2226.600000
130.042300 22388.600000
131.050200 34536.200000
132.021600 6776.600000
133.029500 35057.900000
133.066000 3912.200000
135.008800 42197.300000
135.045100 8107.300000
136.016700 11001.600000
137.024400 45624.300000
139.055300 2259.500000
141.034600 4269.800000
141.071000 12014.800000
143.050200 99134.800000
145.029500 78550.300000
145.065800 13671.300000
147.008500 3130.500000
147.045200 9873.000000
149.024200 2321.700000
151.003600 33605.200000
152.011500 3007.300000
153.019100 5610.500000
154.042400 56016.200000
155.050200 45273.300000
156.058000 27002.500000
157.029500 30123.100000
157.065800 55904.200000
158.037300 21027.500000
159.045100 122357.900000
161.024400 57805.400000
161.060400 7921.400000
163.003800 38440.800000
164.011600 22170.300000
165.019400 14736.800000
167.050200 40930.400000
168.057900 19746.900000
169.029200 6684.400000
169.066000 41036.500000
170.037100 6516.000000
171.045200 79881.200000
173.024400 32062.700000
173.060500 12977.500000
174.032200 12294.100000
175.040300 9599.700000
182.037700 9521.200000
183.045100 42452.700000
184.053000 36162.600000
185.060800 114137.300000
186.032400 5611.500000
187.040100 127721.800000
189.055600 9540.600000
190.998100 4096.400000
191.034600 9981.400000
192.006400 9079.600000
195.045200 25114.000000
196.053200 8657.500000
197.024100 3902.700000
197.060900 6937.600000
198.032500 13657.300000
199.040000 14876.500000
200.047600 6684.300000
201.055700 30591.600000
202.028600 2403.400000
210.032700 9421.100000
211.040000 84984.500000
212.047800 12777.900000
213.019600 10255.400000
213.055800 30775.700000
214.027200 43677.100000
215.035100 27906.000000
217.050500 4001.700000
219.029700 12708.000000
223.039700 4880.300000
227.035100 58908.700000
228.043200 3826.500000
229.050600 66820.800000
238.027400 3198.400000
239.035000 89085.200000
240.042900 22546.400000
241.050300 7746.000000
243.030100 25504.100000
255.029900 41858.400000
256.037500 12231.800000
257.046100 10206.900000
267.030100 11582.400000
268.037800 23956.000000
284.032700 11440.600000
285.040500 328265.200000

>ms2
55.018900 3123.900000
63.024000 72951.400000
65.003300 81809.300000
65.039600 12248.000000
67.018900 24144.900000
68.998300 11943.600000
75.024100 2646.000000
79.019100 14581.000000
80.026800 12406.600000
81.034600 4375.100000
83.013900 41495.300000
89.039600 11275.500000
91.018900 31126.700000
91.055100 2715.700000
93.034600 218613.100000
95.013900 31319.300000
95.050300 12601.100000
107.013900 41694.600000
108.021700 60075.400000
109.029500 38590.400000
111.008900 2810.300000
115.055300 13654.200000
117.034600 152082.800000
119.013700 12634.400000
119.050300 23313.600000
120.021600 1852.900000
121.029500 20262.200000
123.008700 8328.600000
123.045200 32698.400000
124.016700 5061.200000
129.034700 14300.300000
129.070900 4295.800000
130.042300 25062.700000
131.050200 37079.100000
132.021800 14500.900000
133.029500 26806.800000
133.066100 5070.900000
135.008800 25124.600000
135.045300 11967.000000
136.016800 5427.900000
137.024500 17562.500000
139.055400 4236.600000
141.034600 13216.700000
141.071000 5476.200000
143.050200 96988.400000
145.029500 86779.400000
145.065900 6409.300000
147.045400 7834.900000
149.024400 2873.400000
151.003800 12501.700000
154.042500 28968.900000
155.050200 32305.500000
156.021800 3617.700000
156.058200 29532.300000
157.029500 26460.900000
157.065800 25458.900000
158.037300 27600.100000
159.045100 89033.800000
161.024500 55603.500000
161.061100 3035.900000
163.003800 15549.900000
164.011400 11237.400000
167.050200 29880.900000
168.057800 5503.100000
169.029300 9921.900000
169.066100 5637.000000
170.037600 3311.400000
171.045100 38879.700000
173.024200 19924.600000
173.060900 6588.700000
174.032000 6638.500000
182.037400 17696.500000
183.045100 49812.000000
184.053000 23782.300000
185.024400 7491.900000
185.060900 35576.800000
186.032500 2786.200000
187.040100 61776.000000
189.055400 2210.700000
190.998600 7987.900000
192.006700 2123.200000
195.045100 14684.100000
196.053500 2233.100000
197.024500 3781.100000
198.032200 5191.100000
199.040400 3952.400000
200.048200 4903.900000
201.056200 10154.800000
202.027400 2178.500000
210.032300 14263.900000
211.040100 57428.300000
212.048100 4264.800000
213.019300 9999.500000
213.055700 4879.300000
214.026900 11358.700000
215.035200 5196.000000
219.029700 3097.100000
223.040200 5364.900000
227.035000 59642.100000
229.050700 5223.400000
239.035000 33930.700000
240.043200 5671.200000
243.030500 3793.500000
255.030000 29848.000000
267.030200 13121.300000
268.037600 6533.100000
285.040500 16836.900000

>ms2
55.018900 3228.900000
63.024000 73420.000000
65.003300 102931.900000
65.039700 14225.100000
67.019000 26478.600000
68.998200 13112.900000
75.024000 2272.100000
79.019000 8633.800000
80.026800 9832.900000
81.034600 2606.700000
83.013900 23637.000000
89.039700 14319.600000
91.019000 23813.800000
91.055400 2067.900000
93.034600 165398.600000
95.013900 23135.600000
95.050300 16137.200000
107.013900 22139.000000
108.021700 43331.200000
109.029500 17601.500000
115.055200 14632.600000
117.034600 176848.900000
119.014000 5543.200000
119.050300 18123.200000
121.029400 14137.500000
123.008600 1871.800000
123.045100 16572.300000
124.016500 2392.800000
129.034600 9196.700000
130.042400 21760.500000
131.050200 17757.600000
132.021700 23841.000000
133.029500 15952.600000
133.066000 3029.600000
135.008800 8640.000000
135.045300 5881.900000
137.024700 3657.100000
139.055600 3491.300000
141.034600 16781.500000
141.070900 2123.300000
143.050300 44508.000000
145.029500 46561.500000
145.065900 5336.400000
147.045400 4137.200000
154.042300 19353.700000
155.050300 21516.500000
156.021700 7992.700000
156.057900 11631.400000
157.029500 18945.600000
157.065800 7620.700000
158.037300 30364.200000
159.045100 38620.800000
161.024500 31348.100000
163.003800 10851.000000
167.050100 18559.000000
169.029400 6551.200000
171.045500 11536.700000
173.024300 7168.200000
173.060600 3052.500000
182.037400 38356.800000
183.045200 41714.800000
184.053000 7411.300000
185.024500 7020.400000
185.060600 3637.200000
187.040100 13968.400000
190.998700 4460.800000
195.045100 5589.500000
197.024500 3119.400000
199.040300 5145.400000
201.055400 1983.300000
210.032400 11033.200000
211.040100 26840.400000
213.019300 6803.600000
223.040600 3218.800000
226.027100 2322.300000
227.035000 35380.800000
238.027300 2610.800000
239.034600 8684.400000
240.042200 2216.100000
255.029700 11591.400000
267.030200 6694.200000

