>compound LU70434452
>parentmass 323.1071
>ionization [M-H]-
>formula C15H20N2O4S
>rt 968.220000
>profile orbitrap
#smiles_iso CC(=O)C1=CC=C(C=C1)S(=O)(=O)NC(=O)NC2CCCCC2
#smiles_can CC(=O)C1=CC=C(C=C1)S(=O)(=O)NC(=O)NC2CCCCC2
#inchikey VGZSUPCWNCWDAN-UHFFFAOYSA-N
#pubchem_id 1989
#mb_accession LU089451,LU089452,LU089453,LU089454,LU089455,LU089456

>ms2peaks
78.973400 15051.500000
134.061000 123758.000000
135.045200 62131.300000
155.004800 13494.800000
198.023000 6138094.500000
323.106900 12569632.000000

>ms2peaks
78.973500 24986.100000
92.050500 19202.900000
134.061200 2569656.500000
135.045200 123944.500000
155.004200 13961.300000
198.023000 9552879.000000
323.107000 781441.300000

>ms2peaks
78.973400 17603.700000
91.042300 22055.400000
92.050600 577307.400000
134.061100 15182228.000000
135.045000 222589.500000
198.023000 6685460.500000

>ms2peaks
77.965600 17056.100000
78.973400 18647.700000
91.042400 37216.800000
92.050600 3460926.200000
93.034500 27143.100000
107.037500 24521.400000
116.050600 35216.600000
134.061100 16453218.000000
135.045000 237151.700000
198.023000 1020419.900000

>ms2peaks
61.970600 47394.800000
63.962400 17754.200000
77.965500 85471.100000
78.973300 79231.200000
79.981200 74387.300000
91.042600 89578.800000
92.050600 8009896.000000
93.034600 100755.300000
93.960400 15575.100000
107.037700 64084.500000
108.021700 38156.600000
116.050600 127466.000000
119.037700 26690.000000
119.050200 13232.800000
134.061100 11672735.000000
135.045100 240827.200000
198.023100 111093.400000

>ms2peaks
61.970600 144983.500000
63.962500 75188.300000
77.965500 169751.300000
78.973400 137418.200000
79.981200 106400.800000
91.042800 155130.600000
92.050600 7558455.500000
93.034600 129191.900000
93.960500 41174.600000
94.029700 23811.300000
95.013900 21208.900000
107.037700 64382.600000
108.021700 52561.600000
116.050600 199476.100000
119.050300 8818.600000
134.061200 4239796.500000
135.045200 123824.800000
136.040300 9734.900000

