>compound LU70646026
>parentmass 545.2082
>ionization [M-H]-
>formula C34H30N2O5
>rt 1208.280000
>profile orbitrap
#smiles_iso CC1=C(N=C(O1)C2=CC=CC=C2)CCOC3=CC=C(C=C3)C[C@@H](C(=O)O)NC4=CC=CC=C4C(=O)C5=CC=CC=C5
#smiles_can CC1=C(N=C(O1)C2=CC=CC=C2)CCOC3=CC=C(C=C3)CC(C(=O)O)NC4=CC=CC=C4C(=O)C5=CC=CC=C5
#inchikey ZZCHHVUQYRMYLW-HKBQPEDESA-N
#pubchem_id 170364
#mb_accession LU050851,LU050852,LU050853,LU050854,LU050855,LU050856

>ms2peaks
92.050600 12051.900000
93.034600 15835.900000
106.042400 40934.000000
107.050300 161741.000000
108.021700 11105.700000
119.050000 3624.800000
123.045200 5177.300000
131.037600 43305.400000
138.032200 8210.600000
144.045400 15551.100000
184.076800 4419.000000
192.082000 17181.600000
194.061100 3878.700000
196.076700 60042.200000
204.081900 8447.900000
207.069000 11394.200000
208.076800 805954.900000
209.084500 6263.100000
210.092400 9514.100000
223.076000 5255.700000
240.066400 8907.200000
292.134400 139258.800000
297.115900 3792.100000
298.124000 6441.800000
315.126700 106374.700000
316.134200 179324.200000
320.129100 15588.200000
423.171700 101099.200000
483.207800 420832.200000
501.218400 2459316.200000

>ms2peaks
92.050600 148847.200000
93.034600 101745.400000
102.035000 44937.700000
106.042400 459440.500000
107.050300 465631.900000
108.021700 150125.300000
117.034400 3161.200000
119.050200 81059.500000
120.045500 12598.100000
131.037700 216702.600000
133.065900 7256.800000
134.037400 60206.700000
138.032300 76441.100000
144.045500 74249.500000
157.053400 2435.400000
160.076800 47935.200000
168.082000 5022.000000
171.081700 6354.300000
172.076700 13240.700000
184.076700 6397.500000
186.092500 26470.200000
192.082100 34406.000000
194.060900 22104.900000
195.081600 22777.100000
196.076800 172870.900000
204.081900 8998.200000
207.068900 19790.100000
208.076800 471142.800000
209.084500 96295.300000
210.069000 5922.400000
210.092600 48366.800000
220.076400 6638.100000
222.068600 6465.800000
223.076500 26273.100000
225.079600 5133.400000
237.079900 20535.000000
238.087500 31255.600000
240.066900 7865.700000
292.134500 481061.600000
296.107900 18749.300000
297.115900 61677.200000
298.123700 68575.400000
313.111300 8146.600000
315.126700 230799.100000
316.134300 174251.400000
320.128900 6608.100000
423.171400 22274.500000
483.207800 278821.200000
501.219100 42976.100000

>ms2peaks
92.050600 102381.200000
93.034600 186392.600000
102.034900 43532.600000
106.042400 313981.900000
107.050300 347924.000000
108.021700 123453.100000
117.034600 5654.600000
118.029700 6787.900000
119.050200 178210.800000
120.045600 12682.000000
123.045400 4203.000000
131.037700 182807.900000
132.045600 5156.900000
133.065900 34742.200000
134.037300 46460.600000
138.032200 61453.300000
144.045500 87885.400000
157.053400 8901.500000
158.061100 5411.300000
160.076800 99673.400000
168.082000 17549.400000
171.081300 4469.800000
172.076900 23104.200000
186.092500 37634.500000
192.082000 37810.900000
194.061100 54824.700000
195.081500 36086.300000
196.076800 151093.700000
204.082400 2305.200000
207.068800 18723.400000
208.076800 74032.300000
209.084700 58046.300000
210.055900 7370.200000
210.067800 5058.800000
210.092400 32744.500000
220.076700 11130.800000
221.061500 4304.800000
222.068800 3147.200000
223.076400 23084.500000
225.079700 3332.800000
236.071900 17420.400000
237.079700 8881.000000
238.087500 22165.800000
292.134400 58485.300000
296.108000 49406.700000
297.116000 31309.600000
298.123500 17393.700000
313.110600 4040.700000
315.127100 4038.600000
316.134100 13873.100000
483.209100 5166.300000

>ms2peaks
92.050600 65970.200000
93.034600 128012.400000
95.050100 2579.200000
102.034900 14930.100000
106.042400 73215.700000
107.050200 211161.600000
108.021600 31707.400000
117.034300 4038.700000
118.029700 6115.700000
119.050200 136486.900000
120.045300 4065.700000
123.045100 4668.700000
131.037600 82869.900000
132.045700 3367.400000
133.065700 13740.000000
134.037300 15368.000000
138.032200 19974.700000
144.045400 62815.400000
157.053200 2775.100000
158.061700 2139.500000
160.076600 26444.100000
168.081800 12618.700000
172.076600 2804.500000
186.092800 2590.500000
190.066500 2766.800000
192.081700 26282.300000
194.061100 54211.600000
195.081400 19423.200000
196.076800 32509.000000
207.068900 7034.000000
208.076600 13334.800000
209.084300 9142.500000
210.055600 7548.400000
210.092500 14544.300000
220.076600 9455.900000
221.060900 3792.100000
223.076200 13241.400000
236.072000 11460.200000
238.087300 3687.800000
296.108200 31348.400000

>ms2peaks
92.050600 58165.500000
93.034600 126803.900000
95.050200 4312.800000
102.035000 10358.800000
106.042500 27196.500000
107.050200 175816.200000
108.021700 10109.800000
117.034600 9759.400000
118.029500 4159.900000
119.050200 128115.500000
123.045300 4933.900000
131.037700 46241.700000
133.065700 5159.700000
134.037400 9891.300000
138.032200 5648.600000
144.045500 68990.300000
160.076400 4932.700000
166.066300 5592.500000
168.081700 6677.100000
190.066000 9162.800000
192.082000 27210.800000
193.065500 2471.100000
194.061100 41513.400000
195.081400 14604.200000
196.076600 5695.400000
207.068900 5864.100000
208.076500 10477.500000
210.055800 8341.400000
210.093000 2390.000000
220.076400 8166.100000
221.061100 4943.500000
223.076700 6772.800000
236.071700 8649.800000
296.108400 14062.300000

>ms2peaks
92.050600 42551.000000
93.034600 125475.800000
95.050200 2849.100000
102.034800 3588.700000
106.042400 8695.100000
107.050300 119046.500000
108.021700 4213.000000
117.034700 11892.000000
118.029800 2343.400000
119.050200 92072.800000
123.045300 9571.700000
131.037600 13549.400000
132.045800 2395.000000
138.032400 4448.400000
144.045500 54882.000000
166.066300 7934.500000
190.066300 6639.100000
192.081700 18879.700000
193.065900 3285.500000
194.061200 24537.800000
195.081400 3285.600000
207.069300 4187.300000
208.076700 4334.300000
210.055400 2391.300000
220.077400 5000.500000
221.060700 4624.400000
236.071100 3173.200000
296.109500 2247.100000

