>compound LU70205014
>parentmass 249.1496
>ionization [M-H]-
>formula C15H22O3
>rt 1183.560000
>profile orbitrap
#smiles_iso CCCCC(CC)COC(=O)C1=CC=C(C=C1)O
#smiles_can CCCCC(CC)COC(=O)C1=CC=C(C=C1)O
#inchikey VTIMKVIDORQQFA-UHFFFAOYSA-N
#pubchem_id 107377
#mb_accession LU076251,LU076252,LU076253,LU076254,LU076255,LU076256

>ms2peaks
92.027000 267004.000000
93.034500 141244.300000
120.022000 59975.600000
136.016500 1176330.600000
137.024400 688602.900000
249.149500 56575532.000000

>ms2peaks
91.018900 55365.600000
92.026400 695387.400000
93.034600 1883911.400000
95.013800 746681.700000
108.021700 595948.600000
119.013800 194032.300000
120.021900 49105.100000
121.029500 161947.200000
123.008600 81582.700000
127.112900 71294.600000
136.016600 9845480.000000
137.024400 4608890.000000
205.160200 87323.200000
249.149500 47142612.000000

>ms2peaks
65.003300 27922.400000
67.019000 45153.700000
68.998200 105084.100000
69.034500 76823.800000
70.006000 142694.000000
71.013900 72219.000000
72.993100 54276.200000
78.011200 34150.400000
79.019000 93139.700000
79.990300 46367.200000
80.998200 29018.700000
82.006000 324909.000000
91.019000 471185.100000
92.026800 3083423.000000
93.034600 7003791.000000
95.013900 4157300.000000
97.029500 41463.400000
98.000900 22552.100000
106.006000 209032.900000
106.042600 86703.500000
108.021700 3767462.200000
109.029700 20479.100000
119.013800 557470.100000
121.029500 665561.500000
123.008800 561940.900000
127.112900 736593.700000
129.128600 33321.900000
136.016600 16406128.000000
137.024400 5544523.000000
149.024600 35229.100000
205.159600 67078.900000
209.097700 53160.700000
249.149600 12507458.000000

>ms2peaks
53.003100 25246.900000
65.039500 20300.500000
67.019000 49684.000000
68.998200 165789.800000
69.034600 147670.200000
70.006000 170697.800000
71.013800 121913.500000
72.993200 62325.500000
78.011100 40653.600000
79.018800 131182.900000
79.990100 79040.300000
80.998200 50897.100000
82.006000 610720.000000
83.013800 24904.400000
86.000900 32380.000000
91.018900 1352534.000000
92.026800 4026489.200000
93.034600 8518561.000000
95.013800 6867386.000000
97.029500 95004.200000
98.001200 29445.500000
106.006000 414867.400000
106.042300 36982.500000
107.013900 68598.000000
108.021700 6443022.000000
109.029300 32042.000000
119.013800 367403.400000
120.021700 16396.300000
121.029500 901221.800000
123.008800 904290.400000
125.097400 33018.700000
127.112800 1518810.600000
136.016600 5206544.500000
137.024400 1722506.900000
149.024500 44391.000000
249.149500 766868.900000

>ms2peaks
53.003200 30563.700000
65.003300 44590.500000
65.039700 86791.800000
67.019100 59422.500000
68.998200 208908.100000
69.034600 164148.700000
70.006100 178656.100000
71.013900 95499.400000
71.050100 17829.300000
72.993200 58803.000000
78.011300 42388.900000
79.018900 167638.600000
79.990400 83907.900000
80.998200 60504.300000
82.006100 567982.300000
83.013900 25035.200000
83.050300 25925.000000
86.001000 25751.000000
91.019000 1584773.400000
92.026800 4564684.000000
93.034600 7832844.000000
95.013900 6959289.500000
97.029600 90736.700000
98.001100 40443.300000
106.006100 426237.600000
107.014000 59745.700000
108.021700 6602696.000000
109.029500 20828.500000
111.081500 23926.000000
119.013900 103606.600000
121.029500 730239.200000
123.008800 906396.000000
125.097600 75284.300000
127.112900 1084124.600000
136.016600 726629.100000
137.024500 296566.800000
149.024700 79679.900000

>ms2peaks
53.003300 31849.000000
65.003400 46153.800000
65.039700 168590.800000
67.019000 55658.500000
68.998200 142956.200000
69.034600 115258.400000
70.006000 155361.800000
71.013900 94164.400000
71.050300 14613.200000
72.993300 61654.800000
78.011200 28738.900000
79.018900 134251.700000
79.990300 70345.100000
80.998200 40464.100000
82.006000 509048.900000
83.014000 15066.300000
83.050100 31221.900000
86.001000 21616.500000
91.019000 1256652.000000
92.026800 3839329.200000
93.034600 6307285.000000
95.013900 5451671.000000
97.029500 80545.200000
98.001200 24110.500000
106.006000 311404.500000
107.013800 36200.600000
108.021700 5303515.000000
109.029500 26664.800000
111.081600 16959.500000
119.013600 19644.600000
120.021700 16267.600000
121.029500 544430.400000
123.008800 668194.900000
125.097100 51838.200000
127.112900 405555.300000
136.016700 145052.700000
137.024400 21068.300000
149.024300 45422.700000
209.097200 33098.300000

