>compound LU70467629
>parentmass 210.10370000000003
>ionization [M-H]-
>formula C13H13N3
>rt 698.160000
>profile orbitrap
#smiles_iso C1=CC=C(C=C1)NC(=NC2=CC=CC=C2)N
#smiles_can C1=CC=C(C=C1)NC(=NC2=CC=CC=C2)N
#inchikey OWRCNXZUPFZXOS-UHFFFAOYSA-N
#pubchem_id 7594
#mb_accession LU084551,LU084552,LU084553,LU084554,LU084555,LU084556

>ms2
92.050600 15716.900000
117.045800 194208.200000

>ms2
92.050500 16492.600000
117.045900 153216.700000

>ms2
92.050600 26020.600000
117.045800 150010.500000

>ms2
92.050600 25326.300000
117.045800 132544.000000

>ms2
92.050600 28653.800000
117.045800 109723.500000

>ms2
92.050600 27382.100000
117.045900 70772.900000

