>compound LU70822410
>parentmass 253.0506
>ionization [M-H]-
>formula C15H10O4
>rt 1070.160000
>profile orbitrap
#smiles_iso C1=CC=C(C=C1)C2=CC(=O)C3=C(C=C(C=C3O2)O)O
#smiles_can C1=CC=C(C=C1)C2=CC(=O)C3=C(C=C(C=C3O2)O)O
#inchikey RTIXKCRFFJGDFG-UHFFFAOYSA-N
#pubchem_id 5281607
#mb_accession LU080451,LU080452,LU080453,LU080454,LU080455,LU080456

>ms2
252.042900 37710.000000
253.050600 31317760.000000

>ms2
63.023900 95865.700000
65.003000 48249.700000
107.013900 138854.200000
143.050100 86551.200000
145.029400 38020.100000
151.003700 30838.000000
165.071000 27787.000000
180.057700 36128.700000
181.066200 60887.400000
185.060800 55130.700000
187.040000 27187.600000
209.060900 343681.200000
211.040100 56723.700000
253.050600 26492666.000000

>ms2
63.024000 1726788.200000
65.003300 721814.300000
79.019000 49049.700000
83.013800 48972.200000
89.003300 167011.500000
101.039700 101678.700000
107.013800 1251230.800000
115.055200 55673.000000
117.034500 26274.300000
119.050200 244892.600000
121.029500 90519.500000
131.013900 18335.600000
139.055400 94255.800000
141.071000 36566.300000
143.050200 1515714.600000
145.029500 603610.200000
148.016600 93007.300000
151.003700 423544.500000
152.063100 24093.100000
153.071000 92684.800000
155.050300 71706.400000
157.065900 72511.400000
165.070900 420940.800000
167.050200 303044.900000
169.065900 25417.800000
180.058100 388831.500000
181.066000 621313.800000
183.045100 147512.200000
185.060800 508638.000000
187.040000 137308.800000
197.060700 91336.800000
208.053100 115701.700000
209.060800 1876972.900000
211.040100 455331.900000
224.048000 20681.500000
225.055800 207663.000000
253.050600 18153898.000000

>ms2
55.018900 16344.500000
62.016200 10319.000000
63.024000 5777406.000000
63.995500 7221.600000
65.003300 2488858.800000
67.018900 15876.200000
68.998000 6820.300000
69.034600 8267.500000
77.003300 7545.000000
79.019000 155134.600000
83.013900 197571.500000
89.003300 435955.800000
91.019000 11418.400000
101.039700 572466.000000
103.018900 8219.800000
104.026800 16480.300000
107.013900 1852676.000000
115.055300 313678.400000
117.034700 81181.200000
119.050200 1226423.900000
121.029500 117029.400000
127.055300 26796.100000
129.034600 12503.300000
129.071200 7589.700000
131.013900 19260.900000
135.008800 16420.900000
139.055300 268242.500000
141.034500 27159.100000
141.071200 46259.600000
143.050200 3508455.500000
145.029500 1397653.400000
148.016600 106342.800000
151.003700 478663.400000
151.055000 35438.000000
152.063200 96182.700000
153.070900 148496.100000
155.050300 213942.200000
157.065800 108193.000000
165.070900 574379.400000
167.050200 538899.400000
169.029400 18419.000000
169.065700 50700.400000
175.004000 14206.200000
180.058100 370409.000000
181.065900 621129.600000
183.045000 170985.100000
185.060800 399577.300000
187.039900 77417.900000
191.050800 17032.000000
195.045300 23040.500000
197.060800 122227.400000
208.053100 169258.700000
209.060800 942853.600000
211.040000 297968.800000
224.048400 24912.900000
225.055800 110454.600000
253.050700 3819389.800000

>ms2
55.018900 29968.300000
61.008400 14380.200000
63.024000 7099147.000000
63.995500 30297.000000
65.003300 3670392.800000
67.018900 18606.400000
68.998200 21933.300000
77.003200 14720.600000
79.019000 204119.600000
83.013900 266413.000000
89.003300 465186.000000
91.018800 8158.100000
95.014100 10561.100000
101.039700 1027866.400000
103.019100 13163.400000
104.026800 15859.800000
107.013900 1020366.900000
115.055300 447994.900000
117.034600 113399.400000
119.050200 1593214.800000
121.029600 52177.500000
125.039500 10251.900000
127.055400 34044.100000
129.034300 7803.900000
129.070900 10308.400000
131.013600 9943.500000
135.008600 12784.300000
138.047500 14079.800000
139.055400 233049.600000
141.034500 31883.000000
141.070900 44743.400000
143.050200 2448135.800000
145.029500 1330449.100000
148.016800 39808.400000
151.003600 177425.400000
151.055400 17489.100000
152.063200 43397.100000
153.071000 57716.900000
155.050300 169653.700000
157.065800 59976.700000
165.070900 239880.100000
167.050200 297103.000000
169.029800 8704.900000
169.066100 50346.400000
180.058300 105136.500000
181.065900 180336.500000
183.044900 37651.400000
185.060800 82242.300000
187.040400 10547.600000
191.050300 8398.200000
195.044800 17416.700000
197.060900 39399.500000
208.053000 63305.800000
209.060700 129596.300000
211.040000 58857.900000
224.049100 7315.400000
225.055300 22812.800000
253.050600 310392.600000

>ms2
55.018900 29242.400000
61.008400 23916.800000
62.016200 11011.400000
63.024000 5862031.500000
63.995500 60277.500000
65.003300 4149013.500000
67.018900 24111.200000
68.998200 18394.500000
77.003300 21014.800000
79.018900 168611.800000
83.013900 170223.000000
89.003300 382968.900000
95.014000 12401.100000
101.039700 1037727.400000
103.018900 7115.600000
104.026800 8962.000000
107.013900 401249.100000
115.055300 406494.400000
117.034700 104589.900000
119.050200 954510.000000
121.029700 11316.400000
125.039600 19933.700000
127.055400 18108.300000
129.034300 8238.000000
129.070400 8171.200000
135.009000 7253.200000
138.047500 22272.400000
139.055300 97814.800000
141.034600 25011.900000
141.071100 25871.800000
143.050200 843044.200000
145.029500 722320.100000
148.016800 8061.300000
151.003900 26495.100000
151.054800 7765.100000
152.063300 7542.000000
153.070900 13293.700000
155.050300 61883.200000
157.066100 15844.800000
165.070900 41940.100000
167.050200 98934.600000
169.029600 10792.200000
169.066100 19023.900000
180.057900 17430.600000
181.066000 28044.800000
183.044700 8993.800000
208.053400 17747.800000
253.051200 14714.900000

