>compound LU70439606
>parentmass 307.1452
>ionization [M-H]-
>formula C19H20N2O2
>rt 937.420000
>profile orbitrap
#smiles_iso CC1=C(C2=CC=CC=C2N1CCCCC(=O)O)C3=CN=CC=C3
#smiles_can CC1=C(C2=CC=CC=C2N1CCCCC(=O)O)C3=CN=CC=C3
#inchikey MYDPDVXVDQMNLD-UHFFFAOYSA-N
#pubchem_id 9926621
#mb_accession LU083651,LU083652,LU083653,LU083654,LU083655,LU083656

>ms2
82.066200 32084.500000
92.050400 110465.300000
131.037600 356577.500000
160.113000 65162.100000
170.097300 27886.500000
188.108100 210429.100000
214.087500 20337.900000
230.105700 29252.800000
250.062900 46023.500000
279.150200 785387.900000
307.144800 17434804.000000

>ms2
99.045100 28704.300000
205.077600 9850.100000
206.084900 10002.200000
207.092600 6832730.500000
238.074800 7017.800000
263.156000 13499.500000
307.145200 167462.300000

>ms2
205.077200 74744.000000
206.085300 10216.400000
207.092700 6407096.500000
219.091900 11179.500000
238.074600 15276.100000

>ms2
130.066100 38354.500000
180.081500 12871.400000
191.061200 14983.100000
205.077200 279222.600000
206.085000 13019.600000
207.092600 5642410.500000
219.092900 11695.900000
238.074400 10431.500000

>ms2
129.058500 11852.200000
130.066200 255321.600000
153.058300 13793.600000
154.066300 7822.500000
161.048300 20706.000000
166.066200 19575.400000
179.074000 12487.900000
180.082000 47885.100000
191.061600 81638.000000
192.069600 4463.100000
204.069400 52436.500000
205.077300 958193.500000
206.085200 21964.400000
207.092800 4298939.500000
211.063900 7507.000000
217.076900 7935.300000
219.092300 11224.600000
238.074500 15109.400000

>ms2
57.034500 297564.900000
65.039700 43764.500000
66.035000 6679.700000
67.055400 8235.600000
78.034900 32297.900000
80.026800 8991.400000
80.050600 56075.200000
82.066200 24317.900000
91.042700 5462.000000
92.050600 4108940.200000
93.034600 39219.300000
94.066300 5189.300000
95.050200 132316.200000
101.039700 12956.100000
102.034900 8073.400000
116.050500 44755.400000
117.034600 380536.800000
118.066200 14796.500000
119.050500 4494.300000
131.037600 371828.000000
132.033100 6192.200000
132.045500 10957.200000
132.081700 6543.400000
133.040600 6114.900000
136.040500 4955.300000
142.066500 19280.400000
144.045400 100946.800000
154.066100 6838.900000
155.074100 26676.800000
156.081600 28867.200000
157.053400 9055.400000
158.097500 14368.000000
166.066200 40898.100000
168.081900 43441.300000
187.051200 5842.700000
193.065500 6723.600000

