>compound LU70284537
>parentmass 312.1241
>ionization [M-H]-
>formula C18H19NO4
>rt 1051.610000
>profile orbitrap
#smiles_iso CCN(CC)C1=CC(=C(C=C1)C(=O)C2=CC=CC=C2C(=O)O)O
#smiles_can CCN(CC)C1=CC(=C(C=C1)C(=O)C2=CC=CC=C2C(=O)O)O
#inchikey FQNKTJPBXAZUGC-UHFFFAOYSA-N
#pubchem_id 79878
#mb_accession LU030351,LU030352,LU030353,LU030354,LU030355,LU030356

>ms2peaks
164.108100 2053517.800000
224.070800 43505.300000
239.095200 9023.600000
268.134300 9012414.000000
312.124300 1026693.300000

>ms2peaks
120.045000 18091.400000
121.029500 60775.000000
135.069000 36568.200000
164.108000 1586993.000000
196.052700 14378.400000
224.071700 754425.200000
238.086800 34108.400000
239.095200 366580.500000
240.102900 143703.600000
250.123600 49667.600000
266.118600 12664.400000
268.134300 9434449.000000

>ms2peaks
120.045400 129541.700000
121.029400 328611.200000
134.061300 9519.800000
135.068900 257303.200000
136.076800 36178.700000
164.108000 868889.300000
169.065900 45957.800000
183.012200 9162.700000
184.015200 6419.000000
184.052900 13326.500000
195.045400 6359.900000
196.076500 25158.200000
197.061000 24667.200000
197.097200 6908.800000
210.056200 31641.000000
211.063300 16194.600000
212.072100 25906.900000
221.084600 11648.000000
222.055800 11049.300000
223.065000 8432.000000
223.076300 52372.500000
224.071600 5831503.500000
225.079600 8639.000000
225.092000 13306.600000
238.051300 45617.900000
238.087200 301847.700000
239.095100 507573.800000
240.102900 444810.100000
250.123800 53002.300000
252.066400 5916.600000
252.102500 8322.900000
256.074100 16782.100000
266.119200 8188.100000
268.134200 2903779.200000

>ms2peaks
120.045500 515349.300000
121.029500 668973.500000
134.061400 19630.800000
135.069000 306630.400000
136.076800 54549.900000
164.108100 283807.400000
169.065900 72457.200000
182.037500 8902.800000
183.012100 23329.400000
184.016000 19379.000000
184.053100 37694.500000
194.060900 11709.700000
195.045100 12527.500000
196.040400 9821.300000
196.076700 110127.100000
197.060900 42543.700000
209.048200 8762.100000
210.056200 100960.900000
211.063700 26536.200000
211.076300 9848.600000
212.071900 53055.100000
220.077100 10618.500000
221.084700 10698.000000
222.055800 37241.900000
223.064100 24960.300000
223.076600 96558.500000
224.071700 8092280.000000
238.051100 53386.300000
238.087400 457914.800000
239.095200 65712.100000
240.103000 165275.700000
252.066800 9687.100000
252.102700 15350.100000
256.074900 8620.800000
268.134400 245815.000000

>ms2peaks
65.998600 13919.500000
71.013800 6104.800000
75.024000 11425.700000
92.014200 19431.700000
93.034600 15123.500000
94.029800 11052.900000
107.037700 9319.100000
108.045500 10969.100000
118.029800 22763.700000
119.050200 19005.700000
120.045500 812156.900000
121.029500 2063407.000000
134.061200 31595.500000
135.069000 125782.400000
136.076600 23751.900000
141.070800 8462.000000
143.050500 15912.400000
144.045200 10179.000000
145.029600 12506.200000
145.065600 7897.300000
164.108000 48295.800000
166.066200 5332.900000
167.050500 15083.900000
168.045400 5602.300000
169.065900 81112.400000
170.061100 13652.600000
182.037800 21507.000000
182.061000 9344.900000
183.012600 18536.100000
183.045000 9156.000000
184.015300 13398.800000
184.053300 24583.300000
194.061200 40579.600000
195.045100 34013.000000
196.053300 15930.000000
196.076800 310463.700000
197.060800 66527.300000
205.052500 15935.000000
206.061100 20503.400000
207.068900 12945.000000
209.048300 32344.500000
210.056100 131008.000000
210.092500 8696.000000
211.063600 9743.800000
211.076200 26669.300000
212.072000 31245.700000
220.076600 9110.800000
222.056100 52444.100000
223.063900 33777.600000
223.076600 66029.000000
224.071700 5073868.500000
238.087400 289112.000000
240.102800 22004.200000
252.102600 9784.800000
268.133800 8308.100000

>ms2peaks
65.039700 3905.100000
65.998500 25956.500000
66.034900 7700.200000
68.014100 6003.600000
71.013800 8450.300000
75.024000 14744.200000
92.014200 27724.900000
93.034600 40830.600000
94.030000 19851.200000
105.022300 3710.800000
107.037700 13120.600000
108.021700 5272.500000
108.045500 10549.600000
118.029900 39346.800000
119.050300 32857.500000
120.045600 838893.600000
121.029500 2459797.800000
132.045400 8196.400000
133.029700 6425.000000
134.025000 4300.900000
134.061300 29719.800000
135.069100 28443.000000
136.076900 9294.700000
141.071100 13470.600000
143.050500 16952.900000
144.045700 14132.600000
145.029800 15207.800000
145.065800 4271.300000
160.040400 4722.300000
164.108200 4492.900000
166.066500 6979.800000
167.050200 18577.600000
168.045400 7507.500000
169.066100 88073.800000
170.061200 20738.800000
181.053600 6617.400000
182.037700 26691.500000
182.061300 9281.000000
183.012200 17586.600000
183.045200 5465.300000
184.016000 13926.900000
184.052700 7424.300000
184.076900 4366.400000
194.061500 38803.200000
195.045400 40540.400000
196.076900 262866.100000
197.061000 50076.700000
205.053300 25726.300000
206.061600 15535.000000
207.068900 11288.000000
208.040500 9456.400000
209.048400 17663.000000
210.056300 74016.000000
210.067800 6089.700000
210.092600 9804.500000
211.076600 17417.700000
212.071800 12668.200000
222.056200 50941.800000
223.064200 26462.400000
223.076900 24636.500000
224.072000 1578793.800000
236.072800 3092.900000
238.087600 88434.200000

