>compound LU71365309
>parentmass 542.2697
>ionization [M-H]-
>formula C27H35F2N7O3
>rt 886.740000
>profile orbitrap
#smiles_iso CN1CCC(CC1)NC(=O)C2=CC(=C(C=C2)NC3=NC=C4C(=N3)N(CC(C(=O)N4C)(F)F)C5CCCC5)OC
#smiles_can CN1CCC(CC1)NC(=O)C2=CC(=C(C=C2)NC3=NC=C4C(=N3)N(CC(C(=O)N4C)(F)F)C5CCCC5)OC
#inchikey DJNZZLZKAXGMMC-UHFFFAOYSA-N
#pubchem_id 25015677
#mb_accession LU031751,LU031752,LU031753,LU031754,LU031755,LU031756

>ms2
527.244500 6701.500000
542.269800 2747959.000000

>ms2
217.096800 2624.400000
247.132600 4312.500000
280.113900 21279.000000
365.209000 7568.300000
380.184400 9015.100000
393.147800 2913.900000
395.171300 17252.300000
410.194700 56404.600000
419.171100 2721.700000
425.174800 7078.300000
470.231000 14627.500000
487.233800 9188.000000
506.232400 12951.100000
507.240200 41618.200000
522.263300 126862.100000
526.240700 4132.500000
527.246000 275266.600000
542.269600 1002902.100000

>ms2
65.014300 2148.600000
106.028400 18921.200000
109.077100 12420.600000
124.007700 4548.200000
139.031300 34168.400000
217.096800 7878.100000
238.073300 4543.900000
247.132600 37538.800000
258.124600 12185.900000
272.127900 83127.600000
273.135700 132353.400000
280.113800 39050.200000
298.130100 5933.900000
324.145900 9107.500000
365.208900 4132.300000
378.168500 49461.400000
380.184300 25713.700000
381.148600 19551.300000
393.147900 5768.200000
394.162900 21688.300000
395.170900 98056.700000
410.195700 40247.300000
419.171300 3497.300000
425.175000 13799.400000
429.204100 19042.800000
470.230100 6418.300000
487.234500 4000.400000
506.231900 21924.000000
507.239900 16967.000000
522.265500 11236.700000
526.237900 4298.900000
527.246200 31413.400000
542.270200 11604.400000

>ms2
65.014500 4578.100000
65.998600 3211.300000
66.009900 3694.100000
79.017700 4762.600000
91.030400 4258.800000
92.025400 2548.200000
106.028400 36722.400000
107.037400 2612.900000
109.077200 7981.900000
116.025500 3179.400000
118.030100 12043.900000
124.040400 4975.800000
130.028500 3606.100000
132.033000 6877.300000
133.040700 9878.300000
139.031400 42072.800000
147.031500 3271.500000
148.027300 4135.700000
176.046900 3754.500000
191.037300 7876.100000
213.057700 2299.400000
217.097100 4986.000000
240.044400 2035.200000
241.053100 4586.200000
247.132900 13591.100000
258.124700 14649.300000
272.128000 60130.400000
273.135800 94668.800000
280.114100 5585.700000
298.131100 6511.900000
320.139600 2868.700000
322.131800 3332.600000
324.146000 3505.400000
365.153200 17391.900000
378.168300 50970.300000
381.148200 21600.500000
394.163800 22780.300000
395.171300 10463.100000
429.205000 5547.100000

>ms2
50.003700 2043.100000
65.014600 4304.800000
65.998600 5473.100000
66.010000 2051.600000
79.017600 7927.200000
89.014700 2053.500000
90.010000 4907.300000
91.030200 7351.600000
92.025500 6744.800000
106.028500 35298.700000
107.012600 3792.300000
107.037300 2685.000000
109.020900 5206.100000
109.077100 5213.100000
116.014200 2660.900000
116.025500 5820.200000
117.020800 2627.400000
117.045800 3995.900000
118.029900 21445.400000
124.007800 20983.800000
124.040400 9617.500000
129.033300 3094.900000
132.032900 12806.100000
133.040800 23951.700000
135.020300 2315.000000
139.031400 29339.600000
147.031200 4184.200000
148.027400 4046.500000
148.039200 4217.600000
158.035700 3246.400000
162.022300 2993.900000
166.041900 2017.000000
172.039200 2441.400000
176.046800 11626.900000
191.037300 3861.700000
193.052500 2236.500000
201.041900 2543.900000
213.058000 3883.900000
223.050000 2117.400000
238.073500 4929.800000
240.044400 3086.600000
258.124900 9145.700000
272.128100 21657.200000
273.135900 40241.800000
320.139200 8386.800000
322.131700 3345.100000
365.152700 6131.500000
378.168700 16746.900000
381.148700 10471.800000
394.163600 6553.700000

>ms2
50.003600 3667.600000
65.014600 9141.400000
65.998600 9847.100000
66.009700 4166.500000
79.017700 10787.200000
89.014600 4187.900000
90.009700 10092.600000
91.030200 11049.100000
92.025500 6908.100000
106.028500 22220.500000
107.012500 2261.200000
109.020800 5223.600000
109.077200 3416.600000
116.014100 11531.500000
116.025400 6492.000000
117.020800 5342.600000
117.045800 5487.400000
118.030000 21629.200000
124.007800 29572.400000
124.040300 6170.600000
129.033700 3390.500000
130.028400 3291.900000
132.033000 11832.600000
133.040800 16333.500000
135.020300 2793.300000
139.031500 11139.200000
147.031500 5397.400000
148.027300 4025.600000
148.039400 2870.900000
158.035800 4693.800000
162.022600 2615.800000
166.041700 2279.300000
172.039500 2144.700000
176.046500 8287.600000
193.052500 2551.900000
201.041900 3751.100000
223.049900 3581.000000
241.053100 4438.200000
258.124100 4089.600000
272.128000 6095.700000
273.135900 9615.200000
298.130800 11594.200000
320.139600 5403.700000

