>compound LU71087730
>parentmass 306.9548
>ionization [M-H]-
>formula C8H11Cl3O6
>rt 812.580000
>profile orbitrap
#smiles_iso C([C@H]([C@@H]1[C@@H]([C@@H]2[C@H](O1)O[C@@H](O2)C(Cl)(Cl)Cl)O)O)O
#smiles_can C(C(C1C(C2C(O1)OC(O2)C(Cl)(Cl)Cl)O)O)O
#inchikey OJYGBLRPYBAHRT-IPQSZEQASA-N
#pubchem_id 7057995
#mb_accession LU057151,LU057152,LU057153,LU057154,LU057155,LU057156

>ms2
55.018900 2466.300000
59.013900 36839.900000
71.013900 157647.600000
73.029600 49638.100000
83.013800 7078.500000
85.029600 40341.400000
87.008900 7916.300000
89.024500 18449.500000
95.013900 4519.500000
97.029700 6037.900000
99.008900 28289.800000
101.024500 171075.800000
113.024500 121903.600000
116.907100 98777.600000
125.024700 8631.100000
129.019400 3336.000000
143.035000 30921.800000
159.029900 52858.800000
161.045600 379549.400000
189.040600 76238.000000
242.974300 2720.000000

>ms2
55.018900 9137.800000
57.034600 7197.900000
59.013800 72937.100000
69.034600 1586.100000
71.013900 240412.200000
73.029500 84058.100000
75.009000 3781.000000
83.013800 28810.000000
85.029500 101679.200000
87.008800 6988.700000
89.024400 14019.400000
95.013900 18282.000000
97.029600 3845.900000
99.008800 38649.700000
101.024400 149807.700000
113.024400 144242.900000
116.907100 128429.000000
125.024500 4768.000000
129.019400 5439.000000
143.035000 5612.600000
159.030000 18864.600000
161.045600 39125.300000
189.040600 2736.900000
242.974900 4731.900000

>ms2
55.018900 24499.400000
57.034600 21221.400000
58.006100 3288.300000
59.013800 93699.900000
69.034700 3025.300000
71.013900 228563.000000
72.993200 7848.700000
73.029600 70189.100000
75.008800 4104.500000
83.013900 37800.200000
85.029500 126858.100000
87.008900 6334.500000
89.024700 2083.600000
95.013900 25797.600000
97.029600 2933.100000
99.008900 20938.500000
101.024500 72329.700000
113.024500 48781.700000
116.907100 83972.000000

>ms2
55.018900 30526.300000
57.034500 24770.700000
58.005900 3314.900000
59.013800 75898.200000
69.034500 2172.600000
71.013900 153722.300000
72.993100 6020.600000
73.029500 32468.100000
75.008700 2934.900000
83.013800 23221.700000
84.021600 4262.100000
85.029500 87403.300000
87.008600 4515.300000
95.013900 13310.300000
97.029400 2293.700000
99.008800 6944.100000
101.024300 26808.200000
108.021600 4953.400000
113.024500 9868.100000
116.907200 26940.000000

>ms2
55.018900 30944.500000
57.034500 14273.900000
58.006100 2179.600000
59.013800 48294.600000
71.013900 75731.900000
72.993100 4898.500000
73.029500 17340.400000
83.013800 8701.900000
84.021600 3391.000000
85.029500 32839.800000
87.008700 3008.900000
95.013900 4314.900000
99.008800 2629.500000
101.024400 5909.900000
108.021700 3583.200000
116.907200 4632.400000

>ms2
55.018900 23289.800000
57.034600 6954.900000
59.013800 33436.800000
71.013900 34345.100000
72.993200 4710.600000
73.029600 4930.800000
83.013900 4485.200000
84.021700 2802.700000
85.029600 7497.900000
87.008800 2030.400000
108.021700 4303.500000

