>compound LU71266747
>parentmass 210.07719999999998
>ionization [M-H]-
>formula C10H13NO4
>rt 217.080000
>profile orbitrap
#smiles_iso C[C@](CC1=CC(=C(C=C1)O)O)(C(=O)O)N
#smiles_can CC(CC1=CC(=C(C=C1)O)O)(C(=O)O)N
#inchikey CJCSPKMFHVPWAR-JTQLQIEISA-N
#pubchem_id 38853
#mb_accession LU128451,LU128452,LU128453,LU128454,LU128455,LU128456

>ms2
86.024800 166764.200000
109.029400 25176.100000
121.029600 2547.200000
122.037300 60312.600000
123.045100 51720.800000
124.016500 3967.900000
137.024400 8835.400000
148.076800 3177.000000
149.060700 310372.400000
154.027300 9510.400000
166.087300 4174.200000
193.050600 19890.400000
210.077200 244401.400000

>ms2
86.024800 153607.400000
108.021400 1668.200000
109.029500 29747.300000
121.029500 3201.200000
122.037300 84044.600000
123.045200 60339.000000
124.016700 5874.900000
137.024300 10036.600000
148.077100 4964.100000
149.060800 337502.100000
154.027200 14265.200000
166.087100 2441.900000
193.050700 18576.400000
210.077300 102404.100000

>ms2
86.024800 59229.200000
109.029500 22713.100000
121.029100 2112.500000
122.037400 72808.900000
123.045200 38671.500000
124.016600 6396.300000
131.050200 2074.900000
137.024400 12529.500000
148.053000 3407.800000
149.060800 209706.100000
154.027300 17837.700000
193.050200 1787.500000
210.077100 3077.700000

>ms2
86.024800 43684.800000
93.034500 2890.200000
95.050500 3184.600000
106.042200 2174.400000
108.021500 3258.100000
109.029500 46421.600000
121.029400 3852.100000
121.065600 4006.700000
122.037400 42649.200000
123.045200 42476.200000
124.016500 5365.500000
131.050400 3380.900000
137.024400 7307.700000
148.053100 21837.200000
149.060800 191985.500000
154.027100 13673.500000

>ms2
86.024800 15349.400000
93.034700 3336.700000
95.050200 3126.400000
106.042500 2867.300000
108.021800 6853.400000
109.029500 35648.400000
121.029500 3526.400000
121.066100 3461.000000
122.037400 17126.800000
123.045200 16337.600000
131.050200 1869.800000
133.029400 3056.500000
137.024200 2462.700000
147.045300 4765.800000
148.053100 28767.700000
149.060800 72447.100000
154.027300 3210.400000

>ms2
86.024700 3653.600000
93.034600 3768.400000
108.021600 7190.700000
109.029600 19552.800000
121.029400 2447.700000
122.037400 5917.300000
123.045200 6614.400000
131.050100 2033.700000
133.029600 5093.500000
147.045800 2492.900000
148.053100 16334.100000
149.060800 18260.800000

