>compound LU71075915
>parentmass 213.05569999999997
>ionization [M-H]-
>formula C13H10O3
>rt 1024.560000
>profile orbitrap
#smiles_iso C1=CC=C(C=C1)OC(=O)C2=CC=CC=C2O
#smiles_can C1=CC=C(C=C1)OC(=O)C2=CC=CC=C2O
#inchikey ZQBAKBUEJOMQEX-UHFFFAOYSA-N
#pubchem_id 8361
#mb_accession LU113851,LU113852,LU113853,LU113854,LU113855,LU113856

>ms2
91.018800 311538.700000
93.034600 21926866.000000
135.008700 2770578.500000
169.065900 932980.000000
213.055600 47160380.000000

>ms2
91.019000 1207709.800000
93.034600 28782240.000000
121.029500 71655.900000
135.008800 7412546.000000
141.071000 41636.800000
169.065900 2950708.000000
171.045100 98314.500000
213.055700 38689156.000000

>ms2
65.003300 42829.600000
65.039700 34252.800000
67.019000 51657.900000
91.019000 8891183.000000
93.034600 28383314.000000
119.050200 75340.200000
121.029500 289487.600000
130.042200 41684.800000
135.008800 15293090.000000
141.071000 245339.700000
143.050200 283406.000000
145.029500 40000.600000
154.042700 92633.400000
167.050500 66872.900000
169.065900 7027228.000000
171.045100 351537.400000
213.055700 12473670.000000

>ms2
63.024000 32979.300000
65.003300 303074.400000
65.039800 108518.000000
67.019000 82174.000000
91.019000 19159630.000000
93.034600 28167324.000000
101.039600 38183.400000
107.013800 156566.300000
108.021700 34559.500000
119.050200 263360.000000
121.029500 262952.800000
130.042300 46428.600000
135.008800 9948857.000000
141.071000 437278.500000
143.050200 522114.600000
145.029500 37423.800000
154.042500 185329.400000
167.050200 82154.700000
169.065900 3673259.800000
171.045200 338550.900000
213.055800 1741502.100000

>ms2
63.024100 82773.900000
65.003300 957133.900000
65.039700 386488.600000
67.019000 144925.600000
91.019000 16659516.000000
93.034600 31197754.000000
101.039500 80099.500000
107.013800 219262.000000
108.021600 65879.800000
119.050200 211076.500000
121.029600 104557.100000
129.034500 38590.400000
135.008800 2877873.800000
141.071000 235690.100000
143.050200 338813.200000
154.042600 69279.700000
167.050400 65003.400000
169.065900 735065.000000
171.045100 89907.400000
213.056200 100487.300000

>ms2
63.024000 206946.500000
65.003300 2243678.800000
65.039700 1025608.600000
67.019000 217831.400000
75.024100 70065.100000
79.018900 47142.900000
91.019000 13567624.000000
93.034600 30564602.000000
101.039600 145170.400000
107.013900 239650.000000
108.021700 63889.700000
115.055200 47370.500000
119.050200 119012.400000
135.008800 805811.800000
141.071100 111891.600000
143.050300 224801.700000
167.050300 46479.500000
169.065900 122594.200000

