>compound LU71129792
>parentmass 263.0714
>ionization [M-H]-
>formula C17H12O3
>rt 1229.440000
>profile orbitrap
#smiles_iso C1=CC=C(C=C1)OC(=O)C2=C(C3=CC=CC=C3C=C2)O
#smiles_can C1=CC=C(C=C1)OC(=O)C2=C(C3=CC=CC=C3C=C2)O
#inchikey QHDYIMWKSCJTIM-UHFFFAOYSA-N
#pubchem_id 67236
#mb_accession LU107451,LU107452,LU107453,LU107454,LU107455,LU107456

>ms2peaks
93.034500 186541.400000
143.050100 13621.400000
219.081800 7343.900000

>ms2peaks
93.034600 200437.200000
143.050300 11859.600000
219.081600 4887.700000

>ms2peaks
93.034600 192949.200000
143.050300 11742.600000
219.081400 2176.200000

>ms2peaks
65.039900 1839.600000
93.034600 183997.200000
143.050100 10448.700000

>ms2peaks
65.039600 4246.300000
93.034600 155235.700000
143.050100 10088.800000

>ms2peaks
65.039700 4317.200000
93.034600 144481.700000
143.050500 7701.800000

