>compound LU72387131
>parentmass 269.1547
>ionization [M-H]-
>formula C18H22O2
>rt 1062.560000
>profile orbitrap
#smiles_iso CC[C@H](C1=CC=C(C=C1)O)[C@@H](CC)C2=CC=C(C=C2)O
#smiles_can CCC(C1=CC=C(C=C1)O)C(CC)C2=CC=C(C=C2)O
#inchikey PBBGSZCBWVPOOL-HDICACEKSA-N
#pubchem_id 192197
#mb_accession LU082651,LU082652,LU082653,LU082654,LU082655,LU082656

>ms2peaks
119.050500 10107.900000
133.065900 327244.200000
135.081600 69427.900000
269.154800 664949.400000

>ms2peaks
108.021800 4112.600000
119.050200 41044.300000
133.065900 355512.500000
135.081600 87939.100000
269.154800 95978.700000

>ms2peaks
106.042500 2795.600000
119.050200 155262.400000
133.065900 88884.700000
135.081600 39707.100000
269.155500 1745.000000

>ms2peaks
106.042400 5330.900000
108.021700 2181.500000
119.050200 286225.900000
132.057900 2757.200000
133.065900 39027.100000
135.081700 15311.000000

>ms2peaks
93.034800 2593.100000
106.042300 4479.700000
119.050200 345946.500000
132.058100 5586.100000
133.065900 23448.300000
135.081400 3641.400000

>ms2peaks
106.042200 2188.900000
119.050200 408460.000000
132.058200 3986.900000
133.065900 12721.300000

