>compound LU72685895
>parentmass 216.0302
>ionization [M-H]-
>formula C11H7NO4
>rt 730.860000
>profile orbitrap
#smiles_iso C1=CC=C2C(=C1)C=C(C(=N2)C(=O)O)C(=O)O
#smiles_can C1=CC=C2C(=C1)C=C(C(=N2)C(=O)O)C(=O)O
#inchikey YHUVMHKAHWKQBI-UHFFFAOYSA-N
#pubchem_id 69508
#mb_accession LU103751,LU103752,LU103753,LU103754

>ms2peaks
128.050600 30796.500000
144.045600 5040.000000
172.040500 30881.300000

>ms2peaks
128.050600 32884.800000
144.045600 4428.100000
172.040500 16510.700000

>ms2peaks
128.050600 14485.300000
144.045300 2339.300000
172.040000 2776.400000

>ms2peaks
128.050600 5248.800000

