>compound LU72021335
>parentmass 232.0728
>ionization [M-H]-
>formula C11H11N3O3
>rt 574.200000
>profile orbitrap
#smiles_iso CC(=O)CC(=O)NC1=CC2=C(C=C1)NC(=O)N2
#smiles_can CC(=O)CC(=O)NC1=CC2=C(C=C1)NC(=O)N2
#inchikey VEMDQCGHZNXORX-UHFFFAOYSA-N
#pubchem_id 117822
#mb_accession LU038751,LU038752,LU038753,LU038754,LU038755,LU038756

>ms2peaks
83.013900 181901.000000
134.036100 2475.600000
146.035900 9342.700000
148.051700 189200.000000
174.030900 29226.300000
190.062000 7419.700000
232.072800 69695.900000

>ms2peaks
83.013900 197610.000000
134.035900 3512.100000
146.035900 18331.700000
148.051700 199336.200000
174.030900 26562.400000
190.062500 4785.200000
232.072600 11981.100000

>ms2peaks
83.013900 158706.500000
120.056500 3879.900000
121.040700 3854.300000
134.036300 2470.300000
146.036100 23519.800000
147.043800 3893.900000
148.051700 177444.500000
174.030800 22368.900000
190.061700 2242.400000

>ms2peaks
83.013900 122894.100000
107.025100 2377.300000
119.025000 2696.300000
120.056700 8051.900000
121.040800 7111.700000
146.036100 13162.900000
147.043900 17057.500000
148.051700 111893.100000
174.031100 14246.500000

>ms2peaks
83.013900 73278.200000
93.045500 2318.000000
119.025500 1747.000000
120.056900 12392.900000
121.040700 3907.600000
132.033300 2348.400000
146.036300 4294.100000
147.043900 27318.200000
148.051700 44687.300000
174.030900 5116.300000

>ms2peaks
83.013900 43296.500000
93.046000 2424.600000
107.024800 1879.200000
120.056700 8461.800000
132.032900 3123.200000
147.043900 29987.900000
148.051600 18810.800000
174.030600 1428.900000

