>compound LU72965409
>parentmass 201.1132
>ionization [M-H]-
>formula C10H18O4
>rt 951.480000
>profile orbitrap
#smiles_iso C(CCCCC(=O)O)CCCC(=O)O
#smiles_can C(CCCCC(=O)O)CCCC(=O)O
#inchikey CXMXRPHRNRROMY-UHFFFAOYSA-N
#pubchem_id 5192
#mb_accession LU067151,LU067152,LU067153,LU067154,LU067155,LU067156

>ms2peaks
57.034600 89749.800000
111.081600 83912.700000
137.097300 15247.000000
139.112800 5360359.500000
157.123400 83229.400000
183.102700 3671267.500000
201.113200 6996718.500000

>ms2peaks
57.034600 193969.200000
69.034600 15888.200000
71.050300 11119.700000
111.081600 174168.100000
137.097300 34457.900000
139.112900 6555388.500000
157.123400 115125.200000
183.102700 3577961.000000
201.113300 4040865.200000

>ms2peaks
57.034600 512903.100000
69.034600 38610.500000
71.050300 35939.100000
83.050300 34374.000000
85.065900 5732.300000
97.065900 9494.900000
109.065700 6084.800000
111.081500 425913.100000
123.081200 14910.100000
137.097300 165196.300000
139.112800 4915434.500000
157.123400 85058.500000
183.102600 1364793.500000
201.113200 544457.600000

>ms2peaks
55.018900 7066.500000
57.034500 355661.600000
59.013700 3135.100000
69.034600 29408.300000
71.050300 40153.700000
80.026700 24258.400000
81.034500 8862.600000
83.050200 42078.600000
85.065800 6566.500000
97.065800 8165.200000
109.065900 7740.200000
111.081500 279741.800000
123.081400 10568.000000
137.097200 179708.500000
139.112800 1367490.000000
141.091900 3322.100000
157.123300 18478.600000
183.102600 222370.000000
201.113200 57478.100000

>ms2peaks
57.034600 91945.800000
69.034600 10746.300000
71.050300 9425.000000
80.026800 24059.600000
81.034700 6586.900000
83.050300 23135.100000
109.065600 4601.500000
111.081500 67073.900000
123.081500 3440.300000
137.097200 46276.200000
139.112800 149893.200000
183.102500 14087.100000

>ms2peaks
55.018900 3321.200000
57.034500 28848.400000
69.034700 4916.700000
71.050300 3877.600000
80.026700 9650.400000
81.034600 4344.100000
83.050200 12343.100000
109.065600 3208.900000
111.081400 8595.100000
137.097100 9807.700000
139.112800 8314.000000

