>compound LU72674878
>parentmass 291.0598
>ionization [M-H]-
>formula C11H11F3N2O4
>rt 1008.420000
>profile orbitrap
#smiles_iso CC(C)(C(=O)NC1=CC(=C(C=C1)[N+](=O)[O-])C(F)(F)F)O
#smiles_can CC(C)(C(=O)NC1=CC(=C(C=C1)[N+](=O)[O-])C(F)(F)F)O
#inchikey YPQLFJODEKMJEF-UHFFFAOYSA-N
#pubchem_id 91649
#mb_accession LU040151,LU040152,LU040153,LU040154,LU040155,LU040156

>ms2peaks
205.023000 20274218.000000
206.006900 293896.400000
291.059900 54884584.000000

>ms2peaks
175.025500 116053.500000
205.022900 65430000.000000
206.006800 971738.000000
291.059900 13589910.000000

>ms2peaks
65.998500 647199.100000
70.993900 186509.100000
74.003600 305475.400000
77.014500 305371.800000
86.988800 798710.300000
89.014400 66038.400000
93.009500 211760.300000
101.014500 223487.500000
111.000100 95030.800000
119.025000 144385.500000
135.012500 177373.300000
151.007800 70621.500000
154.010600 92539.400000
155.018800 332922.200000
159.029500 72247.500000
165.010500 570617.800000
175.025000 2911608.200000
205.022900 61437824.000000
206.006800 993060.200000
291.059700 311920.800000

>ms2peaks
50.003600 163441.100000
62.988800 36646.000000
63.011400 194307.100000
63.995500 78564.300000
64.006700 31268.100000
65.014500 177675.400000
65.998500 2918417.500000
68.014200 159585.900000
70.009800 44057.700000
70.993900 1021125.700000
74.003700 835603.200000
76.019200 51911.400000
77.014500 488744.100000
79.006300 59017.300000
84.001700 41112.000000
84.996900 72066.500000
86.988800 1814908.400000
87.011500 263464.900000
89.014500 198635.600000
89.998500 358375.300000
91.006400 217517.900000
92.014300 119854.900000
93.009400 580713.200000
94.009900 37499.500000
95.005100 161792.500000
96.997000 77542.500000
101.014500 489343.200000
103.006300 115156.300000
106.995000 81925.700000
107.017700 324655.000000
110.004800 115976.900000
110.999900 295424.300000
113.998800 319494.500000
115.006300 304338.800000
117.009500 136264.800000
119.025000 363085.900000
120.009200 35648.600000
121.020800 78414.100000
122.004800 43425.100000
123.012600 333517.800000
129.015800 40199.000000
131.001000 37084.700000
134.004700 72139.600000
135.012600 580029.300000
137.004300 45183.200000
137.015500 115856.300000
137.999600 95385.200000
138.994900 136385.800000
139.023900 36444.800000
148.007600 75855.300000
151.007500 205076.500000
154.011000 310459.600000
155.018900 1365466.400000
159.030100 454146.300000
160.037700 39824.700000
162.017000 97445.200000
165.010500 1075602.800000
175.025000 8414223.000000
176.009000 253806.100000
202.012500 34078.000000
205.023000 30200326.000000
206.006900 725857.400000

>ms2peaks
50.003500 305670.900000
58.993900 21621.400000
62.003600 38849.500000
62.988800 45567.700000
63.011500 346562.700000
63.995500 83991.100000
64.006800 32553.400000
64.019200 34017.800000
65.003400 32869.200000
65.014600 249254.500000
65.998600 3936278.500000
68.014200 126537.700000
68.996000 16723.200000
70.009800 24312.800000
70.993900 1355765.800000
74.003600 903876.500000
75.011200 14256.800000
76.019300 45387.900000
77.014500 267883.900000
79.006400 60057.100000
84.001600 46925.300000
84.996900 84658.700000
86.003700 15970.000000
86.988800 1339419.200000
87.011500 1155269.400000
89.014600 169723.300000
89.998600 562217.100000
91.006400 182866.700000
92.014100 132240.500000
93.009500 416854.000000
94.009900 46737.600000
94.993900 46490.900000
95.005000 89795.500000
96.997000 37471.800000
101.014600 281623.800000
101.998500 31322.100000
103.006400 142195.100000
105.022000 30228.300000
106.010000 33458.400000
106.995100 94487.200000
107.017700 642240.300000
108.001800 16876.300000
110.004800 177479.400000
111.000000 283377.400000
113.998600 789239.600000
115.006400 441300.600000
117.009400 87340.800000
119.017800 21306.600000
119.025100 186995.700000
120.009200 34414.700000
121.020900 51458.300000
122.004800 43384.700000
123.012600 549049.400000
129.015900 48254.200000
130.995600 35258.800000
131.001200 64940.100000
134.004900 223709.000000
135.012600 399634.900000
137.004300 65864.700000
137.015700 124792.100000
137.999800 74412.600000
138.995000 48116.000000
139.023700 89931.800000
143.018800 34126.400000
145.004300 18110.600000
148.008300 81420.200000
151.007600 119282.700000
154.011000 494206.200000
155.018900 1418660.900000
158.022200 16768.400000
159.030100 971341.700000
160.037900 40059.600000
162.017300 196600.900000
165.010500 529380.200000
175.025000 6936471.500000
176.009000 362089.900000
190.011900 31177.800000
205.023000 7168566.500000
206.007100 248456.200000

>ms2peaks
50.003500 533685.600000
58.993900 16804.500000
62.003700 30241.900000
62.988800 32089.600000
63.011400 208107.400000
63.995500 77268.000000
64.006700 28605.000000
64.019300 63105.000000
65.003400 28571.500000
65.014600 230699.700000
65.998600 3101812.500000
68.014200 89550.600000
68.995900 25366.300000
70.009900 17664.800000
70.993900 1015205.200000
74.003700 763402.800000
75.011400 15044.700000
76.019200 30766.800000
77.014500 61186.300000
79.006400 24225.300000
84.001700 28254.000000
84.997000 53071.000000
86.003600 55203.000000
86.988800 541940.300000
87.011500 2350339.200000
89.014500 93700.400000
89.998600 414722.200000
91.006300 94487.000000
92.014100 73374.900000
93.009400 209983.000000
94.009900 23207.400000
94.993900 20373.100000
95.005200 25041.500000
96.997100 13962.200000
101.014500 76368.500000
101.998600 26685.100000
103.006400 133471.400000
105.021900 42815.700000
106.009900 108581.500000
106.994900 53583.100000
107.017700 642891.800000
108.001800 34321.400000
110.004800 143139.100000
111.000100 121004.800000
113.998500 1129384.800000
115.006400 261379.700000
119.017600 52920.600000
119.024900 22264.300000
122.004900 13814.900000
122.024700 15552.700000
123.012700 435951.600000
128.007900 26887.800000
130.995700 20386.200000
131.001200 37414.800000
134.004800 497114.000000
135.012700 126473.000000
137.004600 29493.300000
137.015900 63073.800000
138.000000 33915.900000
138.995100 22701.100000
139.023900 124691.800000
143.018600 21406.500000
148.008000 30379.500000
151.007600 45875.500000
154.011000 475090.800000
155.018900 702287.400000
158.022400 48876.200000
159.030100 680558.900000
160.038300 22412.100000
162.017200 174982.100000
165.010700 92024.900000
175.025100 2130249.200000
176.009100 185396.700000
190.012000 20689.800000
205.023000 853000.200000
206.006900 39092.600000

