>compound LU73631623
>parentmass 292.0858
>ionization [M-H]-
>formula C14H16ClN3O2
>rt 1056.360000
>profile orbitrap
#smiles_iso CC(C)(C)C(=O)C(N1C=NC=N1)OC2=CC=C(C=C2)Cl
#smiles_can CC(C)(C)C(=O)C(N1C=NC=N1)OC2=CC=C(C=C2)Cl
#inchikey WURBVZBTWMNKQT-UHFFFAOYSA-N
#pubchem_id 39385
#mb_accession LU055351,LU055352,LU055353,LU055354,LU055355,LU055356

>ms2peaks
68.025400 1898581.600000
126.995600 7063.300000
152.082900 13210.100000
178.017600 5287.900000
181.085700 9443.700000

>ms2peaks
66.009900 2162.100000
68.025400 1713667.900000
111.000800 6453.900000
126.995600 23124.100000
152.082900 27069.400000
181.086100 4921.800000
211.052800 2991.800000

>ms2peaks
66.009800 6068.700000
68.025400 1574701.900000
111.000600 7519.400000
126.995600 56802.200000
152.082900 38415.800000
178.017800 4758.700000
211.053300 3232.500000

>ms2peaks
66.009800 7837.200000
68.025400 1750503.200000
83.012500 2088.400000
111.000600 4880.800000
126.995600 88229.200000
152.083000 24810.500000

>ms2peaks
66.009900 8635.100000
68.025500 1516347.600000
83.012500 9054.200000
126.995700 80098.500000
152.083000 14569.600000

>ms2peaks
66.009800 14687.600000
68.025400 1297947.600000
83.012500 8552.500000
126.995600 45811.900000
152.082900 5441.500000

