>compound LU73075430
>parentmass 420.079
>ionization [M-H]-
>formula C19H20ClN3O4S
>rt 868.020000
>profile orbitrap
#smiles_iso CS(=O)(=O)C1=C(C=C(C=C1)[C@@H](C[C@H]2CCC(=O)C2)C(=O)NC3=NC=CN=C3)Cl
#smiles_can CS(=O)(=O)C1=C(C=C(C=C1)C(CC2CCC(=O)C2)C(=O)NC3=NC=CN=C3)Cl
#inchikey XEANIURBPHCHMG-SWLSCSKDSA-N
#pubchem_id 10432339
#mb_accession LU098551,LU098552,LU098553,LU098554,LU098555,LU098556

>ms2peaks
94.041300 7422.200000
263.074900 7882.200000
299.051400 2440577.000000
325.031000 25561.900000

>ms2peaks
63.962500 22575.800000
78.986000 5683.800000
81.034700 19581.400000
94.041100 31561.500000
95.050200 5079.700000
109.065800 7364.000000
157.102300 65066.000000
199.113000 46663.300000
202.993800 7141.000000
217.009700 7684.000000
263.074700 55795.500000
299.051400 624769.400000
325.030000 10410.800000

>ms2peaks
63.962400 70081.900000
78.985900 8011.900000
81.034600 24910.600000
94.041100 47145.100000
95.050200 9901.400000
109.065800 6959.300000
117.070800 5071.300000
131.086700 20693.200000
157.102200 193297.000000
199.112900 38196.000000
200.978300 8741.800000
202.993700 8923.300000
217.009500 3204.600000
263.074300 15481.900000
299.051200 34925.800000

>ms2peaks
63.962400 67934.500000
78.986000 14761.600000
81.034500 15123.600000
94.041100 44058.100000
95.050400 8466.900000
109.065900 2335.500000
117.071000 3819.600000
131.086600 15589.800000
157.102300 65132.400000
199.113000 4320.100000
200.978500 4191.200000

>ms2peaks
63.962400 83604.500000
67.030300 3934.900000
78.986000 19235.100000
81.034600 9255.900000
94.041100 35149.400000
95.050400 5512.200000
117.071100 2204.000000
157.102400 7295.700000

>ms2peaks
63.962500 97986.000000
67.030200 4462.500000
78.986000 14181.100000
81.034700 3886.500000
94.041100 21182.600000
95.050300 4010.000000

