>compound LU73507524
>parentmass 383.03929999999997
>ionization [M-H]-
>formula C17H18Cl2N2O2S
>rt 879.240000
>profile orbitrap
#smiles_iso CN[C@H]1CC[C@H](C2=C1C=C(C=C2)S(=O)(=O)N)C3=CC(=C(C=C3)Cl)Cl
#smiles_can CNC1CCC(C2=C1C=C(C=C2)S(=O)(=O)N)C3=CC(=C(C=C3)Cl)Cl
#inchikey HGBGXSPIBLZGHS-SJCJKPOMSA-N
#pubchem_id 9908126
#mb_accession LU062851,LU062852,LU062853,LU062854,LU062855,LU062856

>ms2peaks
208.044000 4359.700000
351.996400 3319.300000
383.039500 3105785.200000

>ms2peaks
77.965500 5393.700000
78.973400 5188.500000
79.981200 13635.000000
142.066100 3910.100000
144.082000 13637.700000
144.961800 32482.500000
173.108400 114266.300000
173.988300 56202.300000
194.028200 6635.300000
206.028200 3725.000000
208.043800 90297.200000
283.099700 5023.500000
311.085900 6567.900000
313.981600 66274.600000
319.077400 72539.600000
320.061300 5302.000000
323.965400 3302.100000
325.981600 2706.000000
337.982000 3100.300000
347.062900 20356.900000
351.997500 24251.300000
353.005000 37635.700000
355.008900 9555.200000
381.024100 12176.900000
383.039400 2145177.500000

>ms2peaks
61.970600 28989.700000
63.962500 10411.200000
77.965600 31307.200000
78.973300 33940.400000
79.981200 113138.400000
130.053600 7087.900000
130.066100 4146.900000
142.066300 35962.600000
143.061500 2645.200000
144.081900 35336.900000
144.961800 78171.400000
145.077200 12551.700000
173.108400 196933.700000
173.988300 84554.900000
174.092300 7080.400000
194.028200 65714.600000
206.028000 19800.100000
208.043900 52931.700000
209.039000 2108.500000
235.008800 22997.300000
249.995800 21817.700000
260.003700 2485.400000
283.100800 3717.600000
288.035600 5062.000000
297.963300 11332.100000
311.086000 8391.800000
313.981600 91216.500000
319.077200 22526.600000
320.061300 5400.200000
323.966000 15096.800000
325.982300 4475.300000
337.981400 49316.300000
347.062900 9345.700000
351.997200 251437.400000
353.005600 36162.700000
355.007600 11492.700000
381.024400 13574.700000
383.039500 255026.400000

>ms2peaks
61.970600 75049.700000
63.962400 34351.000000
77.965500 46265.900000
78.973300 57650.300000
79.981200 150040.900000
115.055400 9828.000000
129.058300 3392.700000
130.053500 9873.400000
130.066200 22398.700000
142.066200 101025.800000
143.061400 4028.200000
144.081900 16362.600000
144.961700 24112.400000
145.077100 10382.700000
173.108300 49168.000000
174.092400 6036.800000
194.028000 57813.700000
206.028000 30116.500000
208.043600 17110.800000
209.038600 3549.700000
216.082000 4098.500000
235.009100 6188.200000
249.996000 26660.000000
260.004000 26921.300000
260.988100 2885.500000
288.035000 25938.100000
297.962700 2440.700000
313.981000 3564.700000
323.965600 22499.800000
337.981400 35162.300000
351.997100 215811.500000

>ms2peaks
61.970600 159968.400000
63.962500 62095.800000
77.965600 60692.200000
78.973400 63809.300000
79.981200 149733.100000
115.055300 21049.300000
129.058500 12880.100000
130.053900 9605.600000
130.066300 22515.300000
142.066200 150934.900000
143.050400 10190.700000
143.061300 10313.600000
144.081700 14450.300000
144.961600 8182.800000
173.108100 5261.900000
194.028100 18446.300000
206.028000 16189.200000
208.043900 10842.300000
216.082000 5366.600000
249.995400 3570.700000
260.003700 21087.000000
260.987500 6096.600000
288.034900 8463.100000
323.965600 3955.200000
337.981400 3604.400000
351.997000 31943.900000

>ms2peaks
61.970600 206091.900000
63.962500 104081.200000
77.965500 70405.900000
78.973400 55317.100000
79.981200 129077.700000
115.055300 24781.000000
129.058700 11080.700000
130.053900 5038.800000
130.066400 7993.200000
142.066200 124756.800000
143.050000 10951.600000
143.061500 7511.200000
144.081900 12278.500000
216.082300 2974.400000
260.004100 3244.600000

