>compound LU73550070
>parentmass 427.1387
>ionization [M-H]-
>formula C22H19F3N4O2
>rt 1078.440000
>profile orbitrap
#smiles_iso CC1=CC2=C(C=C1C(F)(F)F)N(CC2)C(=O)NC3=CN=C(C=C3)OC4=C(N=CC=C4)C
#smiles_can CC1=CC2=C(C=C1C(F)(F)F)N(CC2)C(=O)NC3=CN=C(C=C3)OC4=C(N=CC=C4)C
#inchikey ZETBBVYSBABLHL-UHFFFAOYSA-N
#pubchem_id 443391
#mb_accession LU063051,LU063052,LU063053,LU063054,LU063055,LU063056

>ms2
198.053700 13049.600000
200.069200 9590030.000000
244.059100 127181.100000

>ms2
140.050600 48809.500000
160.056900 52235.700000
180.063000 60721.700000
198.053800 315239.300000
200.069200 13028738.000000
244.059100 217381.900000

>ms2
116.050600 9250.600000
140.050500 448610.800000
158.041100 35656.200000
160.056800 499836.500000
173.058300 80622.000000
180.063000 555834.600000
198.053700 2545125.800000
200.069100 8722800.000000
244.058900 135651.600000

>ms2
114.034800 4315.400000
116.050600 14061.600000
130.066200 4985.800000
133.045900 28864.200000
140.050600 726103.100000
144.045400 6066.300000
153.052200 5224.800000
158.041100 396565.900000
160.056800 738363.100000
173.058300 149098.500000
178.047400 243596.800000
180.063000 580255.900000
198.053600 3532562.000000
200.069200 2638411.000000
224.052000 4668.600000
244.058500 36064.200000

>ms2
114.034900 4136.700000
116.050600 7483.000000
130.066300 6565.500000
133.045900 59589.200000
138.034800 5156.800000
140.050600 614066.800000
158.041100 1542326.900000
160.056800 396200.400000
171.032500 3052.400000
173.058300 119634.700000
174.036100 3895.700000
178.047400 390656.500000
180.063100 213164.400000
198.053600 2395601.500000
200.069300 490027.200000
244.059300 10033.800000

>ms2
114.035100 10900.200000
130.066300 3606.100000
133.045900 39572.200000
138.035100 28457.300000
140.050600 302231.000000
153.052400 3010.700000
158.041200 2068064.000000
160.056800 68151.300000
173.058400 42896.300000
178.047500 207540.300000
180.063100 34612.400000
198.053600 751464.000000
200.069400 52216.400000

