>compound LU73879948
>parentmass 349.1809
>ionization [M-H]-
>formula C23H26O3
>rt 1228.260000
>profile orbitrap
#smiles_iso CC(=CC1C(C1(C)C)C(=O)OCC2=CC(=CC=C2)OC3=CC=CC=C3)C
#smiles_can CC(=CC1C(C1(C)C)C(=O)OCC2=CC(=CC=C2)OC3=CC=CC=C3)C
#inchikey SBNFWQZLDJGRLK-UHFFFAOYSA-N
#pubchem_id 4767
#mb_accession LU067251,LU067252,LU067253,LU067254

>ms2
305.191000 58618.600000
349.181000 588883.700000

>ms2
303.176200 3952.500000
305.191100 479496.900000
321.186400 2634.000000
349.180900 108507.100000

>ms2
303.175500 3276.500000
305.191100 187513.400000
321.184800 2170.100000
349.180300 3068.800000

>ms2
305.191600 10795.300000

