>compound LU73989521
>parentmass 403.9793
>ionization [M-H]-
>formula C13H10Cl2FN5O3S
>rt 943.920000
>profile orbitrap
#smiles_iso CCOC1=NC(=CC2=NC(=NN21)S(=O)(=O)NC3=C(C=CC=C3Cl)Cl)F
#smiles_can CCOC1=NC(=CC2=NC(=NN21)S(=O)(=O)NC3=C(C=CC=C3Cl)Cl)F
#inchikey QNXAVFXEJCPCJO-UHFFFAOYSA-N
#pubchem_id 3081304
#mb_accession LU059051,LU059052,LU059053,LU059054,LU059055,LU059056

>ms2
90.009800 11109.600000
153.021800 149722.400000
181.053200 5313780.500000

>ms2
64.006700 7470.800000
65.014500 40396.700000
90.009600 64427.000000
110.015900 46652.600000
132.007800 9732.100000
133.015500 43102.100000
153.021800 2488475.000000
181.053200 3703337.200000
276.009400 25447.500000

>ms2
64.006700 9421.700000
65.014500 286756.600000
65.998500 4673.200000
66.009800 8616.500000
69.045800 4419.600000
85.020800 4671.400000
90.009800 541996.100000
93.045800 14363.400000
110.016000 318104.700000
132.007600 11896.000000
133.015600 274814.800000
153.021800 4071216.800000
181.053200 923367.700000
276.009300 7960.500000

>ms2
64.006600 24577.500000
65.014500 617333.100000
65.998400 5557.100000
66.009600 11220.100000
66.035000 3673.000000
69.045800 3970.900000
85.020800 7910.000000
86.999900 3803.300000
90.009700 1896972.100000
93.045800 28099.400000
110.015900 630662.300000
111.000100 7236.300000
132.007900 8369.400000
133.015600 488038.700000
153.021800 2478572.000000
181.053100 101699.400000

>ms2
64.006700 55375.500000
65.014500 686167.400000
65.998600 16075.400000
66.009700 23581.200000
66.034900 5568.400000
69.045800 3965.800000
80.001700 4241.900000
85.020800 5610.200000
86.999900 4558.000000
90.009800 3001535.500000
93.045700 14732.900000
110.016000 450909.600000
110.999800 10871.700000
132.007700 5702.100000
133.015600 314933.500000
153.021800 829620.800000
228.007700 5456.200000

>ms2
64.006700 92422.600000
65.014500 771060.600000
65.998500 21946.700000
66.009700 30003.600000
66.034900 7271.300000
80.001600 5611.600000
90.009800 3955293.800000
93.045800 8963.500000
110.016000 259200.000000
111.000000 6377.300000
133.015600 158743.600000
153.021800 239168.200000

