>compound LU73351092
>parentmass 395.0279
>ionization [M-H]-
>formula C12H11F3N4O6S
>rt 886.740000
>profile orbitrap
#smiles_iso CN1C(=NN(C1=O)C(=O)NS(=O)(=O)C2=CC=CC=C2OC(F)(F)F)OC
#smiles_can CN1C(=NN(C1=O)C(=O)NS(=O)(=O)C2=CC=CC=C2OC(F)(F)F)OC
#inchikey GINFBXXYGUODAT-UHFFFAOYSA-N
#pubchem_id 3081367
#mb_accession LU014751,LU014752,LU014753,LU014754,LU014755,LU014756

>ms2peaks
113.023100 1639118.200000
128.046500 5510303.500000

>ms2peaks
113.023000 4470051.000000
128.046500 1839692.200000
146.938400 23686.300000

>ms2peaks
113.023000 6389447.500000
128.046500 340910.700000
146.938800 13717.500000

>ms2peaks
113.023100 5046032.500000
128.046500 24903.100000

>ms2peaks
113.023100 3800530.200000

>ms2peaks
113.023100 1732666.400000

