>compound LU74875774
>parentmass 360.1008
>ionization [M-H]-
>formula C19H20ClNO4
>rt 1038.660000
>profile orbitrap
#smiles_iso CC(C)(C(=O)O)OC1=CC=C(C=C1)CCNC(=O)C2=CC=C(C=C2)Cl
#smiles_can CC(C)(C(=O)O)OC1=CC=C(C=C1)CCNC(=O)C2=CC=C(C=C2)Cl
#inchikey IIBYAHWJQTYFKB-UHFFFAOYSA-N
#pubchem_id 39042
#mb_accession LU055951,LU055953,LU055954,LU055955,LU055956

>ms2
85.029500 2010366.900000
274.064100 8794825.000000

>ms2
85.029500 1258977.400000
93.034600 30900.500000
106.042300 6134.600000
107.050300 11429.900000
111.000700 94622.100000
119.050200 99456.200000
135.995900 7437.200000
154.006500 5770295.000000
162.056100 113652.700000
274.064100 1668561.000000

>ms2
85.029500 714409.600000
93.034600 49974.600000
106.042300 7579.200000
107.050200 16156.700000
111.000700 95981.000000
119.050200 69218.800000
135.995900 4079.900000
154.006500 2346823.000000
154.990500 5878.600000
162.056300 19630.000000
245.037500 5389.900000
274.064200 47491.300000

>ms2
85.029500 313969.600000
93.034600 66421.600000
106.042500 3866.900000
107.050400 12655.900000
111.000700 62237.700000
119.050300 44638.700000
154.006600 370329.300000
154.990500 3072.900000

>ms2
85.029500 96711.700000
93.034600 62242.900000
107.050200 10772.600000
111.000800 32455.900000
119.050300 27123.800000
154.006400 28651.100000

