>compound LU74289967
>parentmass 482.0563
>ionization [M-H]-
>formula C16H14F5N5O5S
>rt 933.660000
>profile orbitrap
#smiles_iso COC1=CN=C(N2C1=NC(=N2)NS(=O)(=O)C3=C(C=CC=C3OCC(F)F)C(F)(F)F)OC
#smiles_can COC1=CN=C(N2C1=NC(=N2)NS(=O)(=O)C3=C(C=CC=C3OCC(F)F)C(F)(F)F)OC
#inchikey SYJGKVOENHZYMQ-UHFFFAOYSA-N
#pubchem_id 11784975
#mb_accession LU046251,LU046252,LU046253,LU046254,LU046255,LU046256

>ms2
61.009500 37595.100000
81.015800 73221.300000
179.057500 230849.800000
296.052700 36461.500000
311.076600 36194.200000
322.055600 91789.900000
353.073700 23671.700000
386.017800 114064.200000
418.094300 199727.100000
462.049200 36453.500000
467.031900 47754.700000
482.056000 11300687.000000

>ms2
61.009500 1236821.900000
65.014600 4179.800000
66.009700 48887.400000
81.015800 792925.900000
81.993400 8792.400000
82.960800 13711.200000
88.006600 4569.000000
95.025000 12633.900000
103.968100 3910.400000
106.004700 5445.300000
109.004300 149413.600000
121.015500 6901.300000
124.014800 4365.000000
124.051300 3448.700000
135.007500 28799.400000
148.014400 6936.000000
149.010200 15069.400000
149.981500 3272.400000
150.018200 13312.000000
150.030900 32863.000000
150.042000 8503.100000
162.042100 30574.100000
164.034000 153067.100000
166.025800 10015.800000
170.022400 9747.300000
175.025000 17717.900000
176.009200 60960.500000
178.022100 9315.000000
178.037100 12452.300000
179.057500 1500663.500000
181.010600 8780.900000
185.022100 120989.900000
186.017200 9297.700000
188.046600 61985.200000
193.060500 446436.600000
194.067900 5712.900000
195.037600 108112.000000
200.020300 34570.200000
201.016800 32985.800000
205.028300 164460.700000
207.981000 9018.300000
210.028500 31263.700000
215.043700 40488.000000
221.984300 229973.900000
225.034900 10119.100000
226.023300 49162.600000
235.023300 3881.500000
251.031500 4628.500000
252.026300 22328.800000
264.026500 9625.900000
265.041100 36785.700000
268.064200 8947.500000
281.028300 81175.200000
282.049800 38710.400000
296.052700 253957.400000
306.024300 153441.900000
307.032300 574676.400000
311.076200 11322.300000
313.001100 11425.700000
321.047800 434707.200000
322.055700 424343.700000
327.988000 12627.900000
334.075600 10543.400000
336.071600 179573.200000
361.072400 13088.400000
370.994100 43363.700000
372.001600 8679.200000
378.088400 54960.500000
386.017800 496303.900000
398.037300 42984.700000
400.033500 9414.100000
418.094200 58694.100000
452.009300 542225.800000
462.050400 85923.100000
467.032600 119308.800000
482.056200 1061341.900000

>ms2
53.998500 4280.000000
57.975700 3636.800000
58.993800 8146.100000
61.009500 1281885.100000
63.962500 3046.300000
64.006700 6267.000000
65.014500 22089.500000
66.009800 175218.100000
77.965500 4527.700000
78.009700 12021.200000
80.001700 4831.200000
81.015800 302029.100000
81.993500 125392.800000
82.961000 17652.600000
88.006600 4091.200000
90.009600 15339.700000
92.995800 20707.200000
93.009300 10881.900000
94.004600 18114.100000
95.025100 24485.300000
107.012800 3874.600000
109.004300 862574.500000
121.015600 67122.300000
122.023700 13322.000000
123.007400 10859.600000
124.015200 22659.000000
124.051400 6498.500000
135.007500 155815.400000
137.021100 12223.900000
138.030800 5458.700000
139.038700 26930.000000
145.009500 19017.200000
145.020500 4356.600000
148.014200 17346.600000
149.010500 73701.600000
149.981800 5467.200000
150.030800 30960.800000
150.042000 7600.600000
151.002300 36306.300000
151.026100 31782.500000
152.019300 5965.300000
153.015900 2749.400000
154.011000 14793.300000
157.020700 5501.000000
157.027000 13371.300000
159.006000 4753.000000
161.022000 177507.300000
163.020000 8530.000000
164.034000 530374.400000
165.015900 54950.400000
165.028800 17391.700000
166.025800 44510.300000
170.022600 7303.400000
173.022600 9178.100000
175.025200 25729.400000
176.009100 89267.200000
177.027000 9294.600000
178.022300 7838.800000
178.037100 73047.400000
179.057500 425236.000000
181.010400 10258.300000
183.017600 56262.700000
185.022000 507997.600000
186.017300 59169.300000
188.046600 14841.500000
193.060500 354924.900000
194.068300 7476.300000
195.017800 8494.800000
195.037500 75665.900000
197.020700 117397.900000
201.016900 36065.300000
203.012300 4201.200000
205.028200 187540.500000
207.981000 7556.700000
208.013000 4817.100000
210.028400 55634.200000
215.044000 29325.700000
221.984200 55774.200000
223.024300 48391.900000
224.031500 501472.200000
225.016000 5577.600000
225.028100 6004.800000
225.039600 18779.800000
226.023200 46240.300000
240.026700 108390.900000
249.039200 17033.300000
250.023400 13958.300000
251.031400 5625.800000
252.026200 30029.700000
258.023200 8443.300000
264.026400 7466.100000
265.041200 27340.100000
267.026400 19207.000000
268.064300 7359.100000
279.012800 6841.000000
282.049800 45357.200000
287.993500 173302.400000
289.000800 15939.400000
289.022000 14512.400000
290.029400 17208.800000
292.009100 3064.900000
296.052700 29818.100000
300.013500 23073.700000
303.986800 62108.000000
306.024200 85262.200000
307.032300 110498.200000
308.040400 82131.100000
313.001200 6120.100000
321.047800 117296.700000
327.988000 9269.600000
334.076100 4037.100000
336.071200 18594.200000
353.073600 21397.000000
361.071900 6330.600000
370.994100 67124.800000
372.002400 10618.800000
386.017600 92992.800000
398.037800 19528.900000
452.009500 56317.000000

>ms2
53.998500 13147.500000
57.975700 4930.900000
58.993800 23025.800000
61.009500 853954.700000
63.962500 2850.300000
64.006700 8436.400000
65.014500 38016.900000
65.998500 20443.200000
66.009800 215250.700000
68.014200 10111.900000
77.965600 3181.700000
78.009700 23426.500000
80.001600 8530.200000
81.015700 72725.300000
81.993500 368627.000000
82.960900 12603.000000
88.006600 5343.900000
90.009800 34957.400000
92.025200 3483.800000
92.995800 56249.100000
93.009300 6844.000000
94.004700 22987.500000
95.025200 21881.500000
97.008500 12561.200000
98.036100 7489.900000
103.968500 4065.600000
107.012600 6973.400000
109.004300 712453.000000
113.003300 2913.600000
113.014500 6631.500000
114.009600 6799.100000
115.030300 4795.500000
116.025200 5033.000000
117.014700 17105.000000
121.010000 5448.700000
121.015500 69029.900000
122.023500 17001.700000
123.007400 5364.500000
124.015300 25904.900000
124.051600 2914.800000
126.030900 8324.100000
133.999600 11461.100000
134.004800 3670.200000
137.020700 73700.200000
139.038500 3066.000000
145.009500 117093.400000
145.020600 6067.500000
148.014100 47829.500000
149.010500 259277.800000
150.018300 22346.200000
150.030700 7807.900000
150.042000 4543.600000
151.002300 35286.900000
151.011500 5115.600000
151.025900 22782.900000
154.011100 18081.400000
154.028500 7468.300000
155.031500 6264.100000
157.020600 9435.600000
157.027000 34314.700000
159.006000 13267.400000
161.022000 283292.300000
162.042100 31547.600000
163.012000 5100.900000
163.020100 16814.100000
164.034000 468340.800000
165.015700 147158.900000
165.028800 10348.900000
166.025700 37208.200000
170.022400 10661.600000
171.031100 12658.200000
173.022500 4476.800000
175.025300 13692.300000
176.009100 75236.600000
177.014500 8646.700000
177.026900 16084.000000
178.022100 9255.000000
179.057500 58588.800000
181.010500 3399.000000
183.017800 73960.900000
183.026300 11618.400000
185.021900 449942.800000
186.017200 73541.300000
193.060400 32168.500000
195.017800 14891.900000
195.037900 24667.800000
197.020600 118958.900000
200.020200 56938.500000
201.016900 11275.500000
203.016900 7850.000000
204.025200 3823.000000
205.027800 53171.200000
208.012800 12775.300000
209.005300 5290.300000
210.028600 62764.400000
215.044000 8257.200000
220.019900 4865.100000
223.023800 83369.300000
223.035800 4586.800000
224.031500 686976.600000
225.016100 4404.400000
225.028100 5633.000000
225.039400 21200.600000
226.023400 36699.800000
240.014700 14186.400000
240.026800 10861.400000
249.039200 7791.300000
258.023300 7020.500000
277.021300 5848.200000
279.013000 5479.500000
281.028300 13613.000000
282.049400 28122.900000
287.993500 84552.600000
289.001700 10605.200000
289.021800 15785.900000
290.029600 11701.800000
293.016800 7414.200000
300.013400 21932.300000
303.987000 5639.600000
306.024200 7572.300000
308.040500 6341.500000
321.048000 3574.500000
370.994700 3730.400000

>ms2
53.998500 29380.500000
58.993800 27271.900000
61.009500 456649.700000
63.962500 3839.400000
64.006700 15300.800000
65.003400 3695.900000
65.014500 32521.500000
65.998700 23953.500000
66.009800 297100.900000
68.014300 11081.900000
70.993900 16992.900000
73.008400 4725.500000
74.003500 2673.700000
77.965600 3273.200000
78.009800 9261.200000
80.001600 14132.400000
81.015800 14246.800000
81.993500 433623.800000
82.960900 10330.800000
85.008500 2914.000000
88.006800 8543.200000
90.009800 46397.400000
92.025100 2629.800000
92.995800 59582.500000
93.009400 6107.700000
94.004800 14012.000000
95.025200 8668.700000
97.008400 59657.300000
98.003700 3492.500000
98.036100 7708.600000
103.968500 2611.500000
104.013100 4147.200000
107.012700 11449.700000
109.004300 298216.400000
112.006700 14092.300000
113.003300 9810.300000
113.014700 5797.100000
115.030200 4020.500000
116.025300 6103.300000
117.014600 72153.700000
121.009800 12047.900000
121.015600 105812.700000
122.023500 5180.500000
123.007300 4461.700000
124.015200 13918.100000
126.030900 3389.400000
131.005200 2817.100000
133.999700 5661.600000
134.004800 5865.900000
135.007500 113989.000000
135.025300 6531.700000
137.020800 133672.200000
138.030600 4706.200000
140.012900 6087.900000
141.015900 7055.300000
143.005300 14934.800000
143.036100 2792.700000
145.009600 222732.900000
145.026900 25856.300000
146.004500 3620.600000
148.014300 45078.600000
149.010500 362396.400000
150.018100 11481.900000
151.011600 4570.900000
152.019100 4713.500000
153.016000 2563.900000
154.010900 7118.700000
155.031500 14890.400000
157.020600 6082.200000
160.032000 2867.600000
161.022000 332734.900000
163.020200 7804.900000
164.034000 165294.500000
169.002000 3543.700000
171.031100 25457.700000
176.009200 26898.100000
177.014200 14660.000000
177.027000 8872.200000
179.057500 6056.800000
183.026300 7874.600000
185.022000 172385.000000
185.046700 18022.100000
186.017600 46228.000000
195.038100 3302.500000
197.020600 62857.900000
200.020300 24247.900000
203.018000 15353.700000
205.032300 9906.200000
208.013000 10896.500000
209.005200 2462.900000
210.028600 39220.100000
220.019900 4687.300000
223.023800 38867.600000
223.035800 3810.600000
224.031600 430263.700000
225.039500 11212.000000
226.023200 17722.100000
235.023200 16218.100000
240.014700 3332.300000
267.026400 5141.300000
277.021200 3517.600000
287.993600 5349.700000
289.002900 3364.000000
292.009200 10298.100000
293.016700 6619.900000

>ms2
53.998500 47929.800000
58.993800 36843.900000
61.009500 297467.500000
63.962500 7808.700000
64.006700 28495.400000
65.003500 5920.300000
65.014500 48336.800000
65.998700 33764.700000
66.009800 461730.800000
68.014200 9083.800000
70.993900 46008.300000
73.008400 26633.800000
74.003600 10963.800000
77.965400 7812.700000
78.009700 6682.500000
80.001700 21346.400000
81.015700 4335.200000
81.993500 430898.100000
82.960900 9521.000000
85.008300 5875.100000
88.006700 35692.200000
90.009800 85509.300000
92.025400 3265.600000
92.995800 61641.600000
94.004600 11999.100000
97.008400 202083.300000
98.003600 14577.500000
98.036000 5489.200000
104.013100 3610.500000
106.004600 4525.800000
109.004400 131103.800000
112.006700 31772.500000
113.003300 7841.700000
113.014700 6124.600000
114.009700 10423.400000
115.030200 7701.500000
117.014600 175410.500000
121.009600 50823.500000
121.015600 169602.400000
131.005100 7164.000000
135.007500 63026.800000
135.025200 6783.200000
137.020800 156042.200000
140.012900 11511.400000
141.015700 35205.300000
143.005200 35188.700000
143.036100 9425.300000
145.009500 237228.900000
145.026900 23946.700000
146.004600 4972.000000
148.014100 32081.900000
149.010400 285574.700000
150.017800 4680.400000
151.002300 7319.100000
154.028600 18934.900000
155.031400 10636.400000
157.020700 5951.400000
157.027200 9630.100000
159.006000 4016.100000
160.031900 4570.300000
161.022000 450546.600000
163.011800 20701.000000
164.034000 40849.600000
169.002100 6695.600000
177.027200 3263.100000
178.022300 15451.600000
183.017700 26123.700000
183.026700 5385.000000
185.021900 49605.100000
185.046700 8839.300000
186.017800 17703.300000
197.020700 24203.400000
203.017500 11769.600000
204.025300 11290.100000
205.033200 9363.400000
208.012700 6371.500000
210.028600 20707.700000
223.024000 7963.400000
224.031600 192782.400000
250.023400 8711.700000
289.021900 3157.300000

