>compound LU75586331
>parentmass 240.10300000000004
>ionization [M-H]-
>formula C15H15NO2
>rt 1165.860000
>profile orbitrap
#smiles_iso CC1=C(C(=CC=C1)NC2=CC=CC=C2C(=O)O)C
#smiles_can CC1=C(C(=CC=C1)NC2=CC=CC=C2C(=O)O)C
#inchikey HYYBABOKPJLUIN-UHFFFAOYSA-N
#pubchem_id 4044
#mb_accession LU032751,LU032752,LU032753,LU032754,LU032755,LU032756

>ms2
180.082200 21406.200000
194.097900 13686.700000
196.113200 8731793.000000
240.103100 8056759.500000

>ms2
179.086600 29852.200000
180.082200 71743.900000
192.082300 53985.400000
194.097800 70535.400000
196.113100 13884199.000000
240.103100 2254298.000000

>ms2
118.066200 27076.300000
179.086600 258899.300000
180.081900 559756.200000
192.082000 508582.100000
194.097600 391436.700000
196.113000 10412648.000000
240.103000 93246.300000

>ms2
65.039700 9248.300000
91.042700 6365.400000
92.050600 75260.900000
93.070900 5065.200000
116.050700 11505.700000
118.066300 56614.400000
120.081800 37988.000000
130.066200 5250.800000
144.082100 18166.100000
166.066200 9811.400000
179.074300 40081.600000
179.086600 438339.000000
180.081900 1041099.300000
181.089700 10182.300000
192.082000 1084346.000000
193.089200 10539.500000
194.097500 701149.400000
196.113100 4071152.200000
211.063700 6589.700000

>ms2
65.039600 13860.900000
66.035000 8078.800000
91.042900 4251.600000
92.050600 228191.800000
93.071100 7873.300000
116.050400 15454.400000
118.066300 33265.400000
120.045600 7389.600000
120.081800 79198.300000
129.071000 4439.300000
130.066200 7496.600000
143.074100 6436.200000
144.081900 31847.100000
154.066200 5546.800000
166.066200 10286.200000
175.063800 9606.800000
179.074200 74775.600000
179.086700 269629.700000
180.081900 711202.100000
181.089300 4982.100000
192.082000 639825.100000
193.089500 19783.300000
194.097500 449863.200000
196.113200 666501.000000
211.064100 24751.700000
225.079300 8690.800000

>ms2
65.039600 18911.900000
66.034900 6964.000000
91.042900 5414.900000
92.050600 449265.200000
93.071000 5537.100000
116.050600 8967.900000
118.066200 12425.800000
120.045400 5167.000000
120.081800 74165.100000
129.070800 3641.700000
130.066400 9571.600000
143.074100 3713.200000
144.081900 34767.600000
154.066500 6636.800000
166.066400 5114.000000
175.063500 6645.700000
179.074200 92753.200000
179.086800 87961.300000
180.081900 335213.800000
192.081900 232647.900000
193.089800 26520.500000
194.097500 193702.000000
196.113200 78794.600000
211.063700 36774.200000
225.079600 11593.400000

