>compound LU75970421
>parentmass 316.0979
>ionization [M-H]-
>formula C20H15NO3
>rt 919.320000
>profile orbitrap
#smiles_iso C1=CC=C2C(=C1)C(C(=O)N2)(C3=CC=C(C=C3)O)C4=CC=C(C=C4)O
#smiles_can C1=CC=C2C(=C1)C(C(=O)N2)(C3=CC=C(C=C3)O)C4=CC=C(C=C4)O
#inchikey SJDACOMXKWHBOW-UHFFFAOYSA-N
#pubchem_id 31315
#mb_accession LU062551,LU062552,LU062553,LU062554,LU062555,LU062556

>ms2peaks
222.056100 2647.500000
288.104400 1947.400000
316.097900 738105.700000

>ms2peaks
93.034600 7992.200000
118.029900 1863.600000
194.060900 8139.400000
222.056200 27078.900000
223.063900 18747.700000
286.087500 2284.300000
288.103600 7170.200000
316.097900 646203.400000

>ms2peaks
93.034600 44944.000000
118.030000 7990.700000
194.061100 45171.600000
221.048500 6465.800000
222.056200 52715.600000
223.063900 101338.900000
224.071900 3773.100000
286.087500 11732.500000
288.103100 4255.300000
315.090000 13438.100000
316.098000 212046.700000

>ms2peaks
93.034600 37318.100000
118.029700 5261.000000
194.061200 36534.000000
221.048000 7304.500000
222.056100 35560.300000
223.063900 79907.900000
224.071700 5764.200000
286.088000 7811.700000
315.090900 5784.600000
316.097500 11323.700000

>ms2peaks
93.034600 28201.400000
118.029900 3468.500000
166.066300 4397.600000
194.061000 22508.100000
221.048400 4608.300000
222.056200 43757.200000
223.063900 28450.800000
286.087400 3519.700000

>ms2peaks
93.034600 20798.600000
118.030000 4734.100000
166.066200 4186.100000
194.061200 17150.000000
221.048300 3181.500000
222.056100 29034.500000
223.063700 4727.000000

