>compound LU75955291
>parentmass 224.0724
>ionization [M-H]-
>formula C7H11N7S
>rt 1059.140000
>profile orbitrap
#smiles_iso CC(C)NC1=NC(=NC(=N1)SC)N=[N+]=[N-]
#smiles_can CC(C)NC1=NC(=NC(=N1)SC)N=[N+]=[N-]
#inchikey AFIIBUOYKYSPKB-UHFFFAOYSA-N
#pubchem_id 3032472
#mb_accession LU084951,LU084952,LU084953,LU084954,LU084955,LU084956

>ms2peaks
57.975700 1679.200000
66.009800 45797.600000
80.012800 2227.600000
87.002200 3484.000000
96.056700 3728.300000
134.047200 3428.900000
151.073700 8484.400000
153.011400 25225.100000
154.019400 8576.500000
169.055100 10423.800000
181.042700 5449.200000
196.066300 36633.900000
224.072500 93967.700000

>ms2peaks
57.975600 3429.000000
66.009800 46235.500000
80.012700 2248.100000
83.061500 4172.500000
87.002200 2144.400000
96.056700 4625.800000
123.067700 2231.700000
134.047100 3614.000000
137.988100 4530.400000
138.995700 2786.500000
151.074000 7764.300000
153.011400 18536.300000
154.019200 5960.300000
169.055400 5933.200000
181.042600 2178.100000
196.066200 15219.900000
224.072300 23055.200000

>ms2peaks
57.975600 12266.100000
66.009800 87666.000000
80.012900 10489.100000
83.061500 15806.700000
87.002200 1803.400000
96.056700 3087.400000
134.047300 7479.700000
138.996000 3250.900000
151.073800 4943.000000
153.011600 11338.500000
154.032000 2977.900000
169.055300 4640.200000
181.042300 2660.900000

>ms2peaks
57.975700 14386.100000
66.009800 84929.300000
80.012800 9747.800000
83.061500 17042.100000
134.047100 2958.900000
138.995900 1872.800000
154.031900 2871.600000

>ms2peaks
57.975700 13427.200000
66.009800 92811.200000
67.030300 3109.600000
71.978900 1779.000000
80.012800 10226.400000
83.061400 15046.900000
134.047600 1883.400000

>ms2peaks
57.975600 13075.400000
66.009800 101558.100000
67.030300 6348.600000
71.978700 1981.500000
80.012900 11315.500000
83.061400 13756.200000

