>compound LU75268912
>parentmass 326.7661
>ionization [M-H]-
>formula C6H3Br3O
>rt 1142.760000
>profile orbitrap
#smiles_iso C1=C(C=C(C(=C1Br)O)Br)Br
#smiles_can C1=C(C=C(C(=C1Br)O)Br)Br
#inchikey BSWWXRFVMJHFBN-UHFFFAOYSA-N
#pubchem_id 1483
#mb_accession LU131051,LU131052,LU131053,LU131054,LU131055,LU131056

>ms2
78.918800 77611.400000
326.766100 3535197.500000

>ms2
78.918900 1092105.000000
246.839800 5178.800000
326.766200 2023687.200000

>ms2
78.918900 2811117.200000
246.840100 13339.400000
326.766100 447725.300000

>ms2
78.918900 3145128.800000
246.840300 7199.300000
326.766000 37860.900000

>ms2
78.918900 3101124.000000

>ms2
78.918900 3140120.800000

