>compound LU76868554
>parentmass 228.0406
>ionization [M-H]-
>formula C6H8ClN7O
>rt 557.760000
>profile orbitrap
#smiles_iso C1(=C(N=C(C(=N1)Cl)N)N)C(=O)N=C(N)N
#smiles_can C1(=C(N=C(C(=N1)Cl)N)N)C(=O)N=C(N)N
#inchikey XSDQTOBWRPYKKA-UHFFFAOYSA-N
#pubchem_id 16231
#mb_accession LU108551,LU108552,LU108553,LU108554,LU108555,LU108556

>ms2peaks
65.014500 8033.400000
84.020300 3229.600000
107.036300 8406.900000
108.020300 31190.700000
143.013000 579741.900000
150.042100 10448.200000
168.008300 7748.600000
168.992300 35178.100000
186.018800 452292.400000
211.014100 43849.100000
228.040700 413465.500000

>ms2peaks
65.014500 40353.800000
66.009800 7907.100000
84.020300 1996.900000
90.009700 4638.100000
106.004900 2443.100000
107.036300 26178.600000
108.020400 142802.000000
133.015800 1846.300000
143.013000 736102.000000
150.042100 36577.700000
168.008100 15641.200000
168.992200 86207.700000
186.018800 559504.900000
187.002400 2733.800000
211.014100 43904.200000
228.040700 116777.400000

>ms2peaks
64.006600 1810.600000
65.014500 251364.100000
66.009800 63462.900000
90.009800 20083.000000
106.004700 17441.400000
107.036300 58276.400000
108.020300 463143.200000
133.015500 8064.100000
143.013000 464475.800000
150.042100 43151.400000
168.008000 13905.900000
168.992200 92013.900000
186.018800 236688.500000
187.002100 3460.300000
211.013800 6106.800000
228.040400 3415.100000

>ms2peaks
65.014500 549852.900000
66.009800 145107.900000
78.009900 2888.500000
90.009800 27078.800000
106.004700 17670.700000
107.036400 37651.900000
108.020300 401705.600000
133.015600 7378.400000
143.013000 153276.800000
150.042100 14293.900000
168.008500 5498.600000
168.992300 36640.500000
186.018800 41833.900000

>ms2peaks
65.014500 771169.100000
66.009800 194022.600000
78.009800 3189.900000
90.009800 34336.000000
106.004600 10754.500000
107.036300 19443.100000
108.020400 232012.300000
133.015800 2058.400000
143.012900 42658.000000
168.992500 7041.400000
186.018900 3786.700000

>ms2peaks
64.006700 3373.300000
65.014500 893150.200000
66.009800 218699.600000
78.009800 2625.500000
90.009800 39550.900000
106.004700 2723.400000
107.036300 5399.500000
108.020400 93429.000000
143.013000 5329.900000

