>compound LU76196771
>parentmass 311.2017
>ionization [M-H]-
>formula C21H28O2
>rt 1195.380000
>profile orbitrap
#smiles_iso CC[C@]12CC[C@H]3[C@H]([C@@H]1CCC2(C#C)O)CCC4=CC(=O)CC[C@H]34
#smiles_can CCC12CCC3C(C1CCC2(C#C)O)CCC4=CC(=O)CCC34
#inchikey WWYNJERNGUHSAO-CULCCENASA-N
#pubchem_id 16051930
#mb_accession LU085551,LU085552,LU085553,LU085554,LU085555,LU085556

>ms2
149.096900 173065.200000
311.201600 6086633.000000

>ms2
133.066200 5232.400000
149.097100 3346825.500000
296.177400 3946.200000
311.201500 3826127.000000

>ms2
133.065800 32915.900000
149.097100 4912050.000000
293.191700 5276.100000
311.201400 235318.600000

>ms2
119.050100 5390.000000
133.065900 170424.400000
149.097100 3444219.200000

>ms2
119.050200 25498.200000
133.065900 320490.500000
149.097200 1970663.900000

>ms2
119.050200 94730.600000
133.065900 779052.100000
149.097200 1730576.200000

