>compound LU76896198
>parentmass 154.9905
>ionization [M-H]-
>formula C7H5ClO2
>rt 991.680000
>profile orbitrap
#smiles_iso C1=CC(=CC=C1C(=O)O)Cl
#smiles_can C1=CC(=CC=C1C(=O)O)Cl
#inchikey XRHGYUZYPHTUJZ-UHFFFAOYSA-N
#pubchem_id 6318
#mb_accession LU043151,LU043152,LU043153,LU043154,LU043155,LU043156

>ms2peaks
111.000700 1448813.000000
126.995700 2961.600000
154.990600 524566.100000

>ms2peaks
111.000700 1193680.400000
126.995700 1698.900000
154.990500 422497.100000

>ms2peaks
111.000700 246826.800000
154.990500 30826.200000

>ms2peaks
111.000700 421154.100000
154.990500 32456.300000

>ms2peaks
111.000700 130012.400000
154.990400 7084.700000

>ms2peaks
111.000700 14286.000000

