>compound LU76320596
>parentmass 134.03600000000003
>ionization [M-H]-
>formula C6H5N3O
>rt 574.200000
>profile orbitrap
#smiles_iso C1=CC=C2C(=C1)N=NN2O
#smiles_can C1=CC=C2C(=C1)N=NN2O
#inchikey ASOKPJOREAFHNY-UHFFFAOYSA-N
#pubchem_id 75771
#mb_accession LU085251,LU085252,LU085253,LU085254,LU085255,LU085256

>ms2peaks
52.019200 6855.900000
78.034900 84658.500000
93.034500 4304.200000
105.022000 4493.300000
106.029900 32120.600000
134.036000 184882.500000

>ms2peaks
50.003400 1642.200000
52.019200 6560.600000
78.034900 78698.700000
93.034500 4323.700000
105.022000 5881.200000
106.029900 31985.900000
134.036000 176395.400000

>ms2peaks
52.019200 10243.800000
78.034900 65284.000000
93.034500 2775.500000
105.021900 4259.500000
106.029900 14921.000000
134.035900 90154.600000

>ms2peaks
50.003600 2601.000000
52.019200 11122.900000
78.034900 27368.300000
105.022000 3360.200000
106.029900 5904.800000
134.036100 19197.000000

>ms2peaks
50.003600 3228.500000
52.019200 7490.500000
78.034900 10548.100000
134.036000 4457.600000

>ms2peaks
50.003500 4947.900000
52.019200 6901.300000
78.034900 5442.800000

