>compound LU76658186
>parentmass 279.1139
>ionization [M-H]-
>formula C17H16N2O2
>rt 873.540000
>profile orbitrap
#smiles_iso CC(=O)NC1=CC2=C(C=C1)C3=C(C2)C=C(C=C3)NC(=O)C
#smiles_can CC(=O)NC1=CC2=C(C=C1)C3=C(C2)C=C(C=C3)NC(=O)C
#inchikey XBZBRCVCSVLJJZ-UHFFFAOYSA-N
#pubchem_id 9352
#mb_accession LU042551,LU042552,LU042553,LU042554,LU042555,LU042556

>ms2
236.095000 20462.000000
237.103200 71442.300000
279.113900 4809812.500000

>ms2
194.084800 15929.500000
195.093100 22626.200000
210.092300 29536.600000
221.071400 5768.400000
236.095400 74124.100000
237.103300 1104733.800000
238.088100 5631.600000
263.082400 18284.200000
279.113900 3672513.200000

>ms2
168.081800 30270.100000
193.077100 8532.000000
194.084900 256257.500000
195.092700 263495.300000
209.083800 2977.300000
210.092400 211042.600000
220.076800 8773.400000
221.071900 64322.900000
236.095500 286757.300000
237.103200 1674076.600000
238.087100 7051.200000
261.103100 3956.000000
263.082500 46276.200000
279.113800 619575.700000

>ms2
168.081900 129205.700000
193.077200 93317.400000
194.085000 726758.700000
195.092800 486909.700000
209.084600 5230.400000
210.092500 215969.200000
219.092600 6622.900000
220.064400 7791.600000
220.076800 7612.300000
221.072100 242045.100000
236.095600 311510.900000
237.103400 677984.800000
238.087800 4560.700000
261.103200 7765.600000
263.082600 45110.500000
279.114000 42821.200000

>ms2
166.066100 5749.800000
168.081900 96309.600000
178.066800 2965.900000
179.074000 5732.400000
180.069200 2550.400000
193.077100 206642.600000
194.084900 423602.400000
195.092700 217960.000000
205.077500 2316.000000
207.056600 4717.200000
210.092500 49793.100000
218.084700 2740.800000
219.092900 7434.300000
220.064600 16041.800000
220.076300 3454.200000
221.072100 181351.600000
236.095500 82720.000000
237.103400 73025.200000
261.103000 2201.900000
263.082000 17537.600000

>ms2
166.066100 14680.500000
168.082000 32451.900000
178.066300 2381.700000
179.074100 3998.500000
180.069500 3599.400000
193.077100 142973.500000
194.084900 113217.500000
195.092800 47876.200000
205.076900 4991.500000
207.056200 2886.700000
210.092100 4658.000000
218.085600 2158.300000
219.093400 1800.100000
220.064400 18754.600000
221.072200 58073.800000
236.095700 7272.300000
237.103200 3871.100000
263.083200 1878.700000

