>compound LU77950048
>parentmass 207.11390000000003
>ionization [M-H]-
>formula C11H16N2O2
>rt 871.680000
>profile orbitrap
#smiles_iso CC1=C(C=CC(=C1)OC(=O)NC)N(C)C
#smiles_can CC1=C(C=CC(=C1)OC(=O)NC)N(C)C
#inchikey IMIDOCRTMDIQIJ-UHFFFAOYSA-N
#pubchem_id 16247
#mb_accession LU066651,LU066652,LU066653,LU066654,LU066655,LU066656

>ms2
108.045500 120216.100000

>ms2
108.045600 34622.600000

>ms2
66.035000 1826.300000
67.019000 8060.700000
108.045500 99816.900000
143.050400 8254.300000

>ms2
66.034900 6396.800000
67.018900 9146.200000
108.045500 62199.700000
143.050300 11159.000000

>ms2
66.034900 10554.300000
67.019000 11508.100000
108.045500 34487.600000
143.050500 7570.800000

>ms2
66.035000 3268.000000
67.019100 3077.500000
108.045500 4086.000000
143.050200 3555.300000

