>compound LU77982155
>parentmass 227.0714
>ionization [M-H]-
>formula C14H12O3
>rt 1050.060000
>profile orbitrap
#smiles_iso C1=CC(=CC=C1/C=C/C2=CC(=CC(=C2)O)O)O
#smiles_can C1=CC(=CC=C1C=CC2=CC(=CC(=C2)O)O)O
#inchikey LUKBXSAWLPMMSZ-OWOJBTEDSA-N
#pubchem_id 445154
#mb_accession LU111051,LU111052,LU111053,LU111054,LU111055,LU111056

>ms2peaks
82.006000 42925.000000
92.026500 773487.200000
95.013900 686198.800000
106.006100 25324.800000
108.021700 661646.800000
123.008800 81965.000000
136.016600 20885246.000000
183.081500 436796.800000
227.071400 19094070.000000

>ms2peaks
68.998100 34470.300000
69.034700 27645.700000
70.006000 24256.100000
71.013800 25479.500000
79.018900 23167.900000
79.990400 18878.600000
82.006000 99420.800000
92.026700 836735.700000
95.013900 1459139.200000
106.005900 81613.600000
108.021700 1294112.200000
123.008800 198865.200000
136.016500 16377631.000000
183.081500 277337.900000
227.071400 4968899.000000

>ms2peaks
53.003300 12785.900000
66.011300 9381.000000
67.019000 36672.700000
68.998200 113091.400000
69.034600 81169.000000
70.006100 84745.600000
71.013900 55930.600000
72.993100 42439.500000
78.011200 32336.900000
79.019000 81448.900000
79.990300 49127.900000
80.998300 30992.500000
82.006100 286014.200000
83.013900 15715.500000
86.001000 15561.900000
91.019000 12488.700000
92.026800 2042994.400000
93.034600 33095.400000
95.013900 4258008.000000
97.029500 54104.600000
98.000800 10509.400000
106.006100 241345.900000
107.013900 35247.900000
107.050300 55588.400000
108.021700 3840250.500000
109.029600 15379.600000
121.029600 26790.000000
123.008800 515903.300000
136.016600 7950381.000000
183.081600 158398.600000
227.071400 344351.500000

>ms2peaks
53.003200 11913.500000
65.003300 16369.500000
66.011100 14373.100000
67.018900 39891.400000
68.998200 145102.400000
69.034600 117626.200000
70.006000 72230.100000
71.013900 82019.100000
72.993100 68271.200000
78.011200 25142.600000
79.018900 80667.000000
79.990400 61070.600000
80.998300 49085.000000
82.006000 377748.800000
83.013900 15179.300000
86.001100 22390.100000
91.019100 20557.000000
92.026800 1833635.200000
93.034600 53620.200000
95.013800 4997662.500000
97.029500 61297.200000
98.000900 27770.600000
106.006000 274232.100000
107.013900 31904.300000
107.050200 71120.200000
108.021700 4579805.000000
109.029300 14578.400000
121.029600 43357.800000
123.008800 636152.500000
125.024100 9027.700000
136.016500 1417142.800000
183.081400 25110.500000
227.071200 11296.400000

>ms2peaks
53.003300 20509.800000
65.003400 21132.000000
66.011100 12073.200000
67.019000 33628.100000
68.998200 132046.200000
69.034600 111018.500000
70.006000 76580.600000
71.013900 74108.100000
72.993100 52880.800000
78.011200 16110.300000
79.019000 76470.900000
79.990400 69030.900000
80.998200 40516.800000
82.006000 403422.300000
83.013900 11424.600000
86.001000 19217.700000
91.019100 35046.200000
92.026800 1914177.500000
93.034600 68625.300000
95.013900 4538246.000000
97.029500 56641.900000
98.001000 15577.600000
106.006100 276568.900000
107.014000 30713.600000
107.050200 23858.100000
108.021700 4408017.500000
109.029400 13548.600000
121.029700 45039.100000
123.008800 614219.400000
125.024300 10597.400000
136.016600 227763.800000

>ms2peaks
53.003200 14090.300000
65.003400 8509.900000
66.011300 10758.800000
67.019000 30874.800000
68.998200 87087.300000
69.034600 92450.500000
70.006100 67135.200000
71.013900 64347.400000
72.993100 38567.000000
78.011200 21542.900000
79.018900 50062.700000
79.990400 41076.600000
80.998300 26478.000000
82.006000 279001.400000
83.013800 10764.600000
86.001000 14918.500000
91.018900 33154.500000
92.026800 1670047.100000
93.034600 52826.000000
95.013900 3437158.200000
97.029500 44181.100000
98.001000 9805.900000
106.006000 168574.900000
107.014000 29484.300000
107.050200 7882.300000
108.021700 3361738.500000
109.029600 13588.400000
121.029600 37260.400000
123.008800 439249.800000
125.024600 8580.400000
136.016500 62552.600000

