>compound LU77202029
>parentmass 321.0816
>ionization [M-H]-
>formula C11H13F3N4O4
>rt 1136.520000
>profile orbitrap
#smiles_iso CCN(CC)C1=C(C=C(C(=C1[N+](=O)[O-])N)C(F)(F)F)[N+](=O)[O-]
#smiles_can CCN(CC)C1=C(C=C(C(=C1[N+](=O)[O-])N)C(F)(F)F)[N+](=O)[O-]
#inchikey OFDYMSKSGFSLLM-UHFFFAOYSA-N
#pubchem_id 34468
#mb_accession LU016951,LU016952,LU016953,LU016954,LU016955,LU016956

>ms2peaks
231.997200 36332.100000
249.000900 28511.800000
258.085300 54965.700000
274.080200 25500.600000
278.075900 21281.400000
321.081400 15956716.000000

>ms2peaks
59.013900 9780.300000
64.006700 14018.000000
65.014600 15529.200000
65.998500 65360.900000
88.000500 75918.300000
88.006700 28410.500000
89.014600 10047.500000
93.009500 7283.700000
95.005000 13515.100000
100.000500 10496.400000
102.009800 7530.400000
103.995300 41827.700000
106.041000 8107.400000
108.006800 8958.500000
108.990800 24695.900000
108.997100 7826.100000
109.020800 7658.700000
111.000000 17514.300000
112.000500 13504.100000
114.009700 7624.800000
115.017500 24149.400000
116.025300 9838.400000
120.006600 14250.600000
123.000000 9513.700000
124.008000 7721.900000
126.009600 7392.000000
127.011400 30889.600000
127.016900 8107.900000
130.999000 7938.100000
131.036300 14529.700000
132.020700 7226.600000
133.001800 19568.300000
133.007700 8407.700000
134.016000 42737.900000
135.000000 7994.600000
136.001600 69188.800000
136.007300 7764.300000
137.028100 21614.000000
139.011300 8100.300000
140.025600 7646.600000
141.033200 11496.400000
142.040900 10371.100000
144.006800 13628.900000
144.020300 7662.400000
145.001900 56602.200000
146.009900 63424.500000
146.016000 12728.300000
147.023900 14939.500000
148.007800 7647.200000
152.025700 11298.900000
155.006100 13511.200000
157.001800 46766.400000
159.011000 7913.500000
159.017400 35885.000000
160.001500 49630.600000
160.031800 20404.700000
160.996900 26986.700000
162.010800 26078.900000
163.031300 12720.400000
169.001900 7554.400000
169.028400 20968.700000
170.036000 28980.300000
171.017600 16932.800000
173.020700 11126.000000
174.004500 16159.900000
174.047200 12729.300000
175.012300 13968.400000
176.026700 16382.000000
178.022700 8649.100000
180.056800 10476.300000
184.012500 21804.500000
184.996900 124541.000000
185.033500 57649.300000
186.028400 16690.700000
187.012500 27446.600000
187.049100 24000.300000
188.007800 50331.800000
188.026900 15643.500000
188.082800 38472.000000
189.035200 39540.900000
190.012500 9385.800000
190.042200 43429.700000
192.037600 19247.300000
194.053800 7363.000000
196.032800 18331.900000
199.036200 10478.500000
200.007700 25938.200000
200.062600 7579.300000
201.999200 24723.800000
204.002800 16092.300000
205.024000 21411.200000
205.032800 7653.900000
208.032900 18481.900000
209.040800 22256.300000
210.048300 58349.600000
211.023100 7910.600000
212.027800 47617.800000
212.044000 33597.700000
214.023400 83827.900000
214.059700 19133.700000
215.031500 25824.200000
215.042600 7883.400000
216.002400 14435.900000
217.059500 7555.500000
217.994700 52325.700000
218.018400 71304.900000
219.033100 67663.100000
222.035700 23997.900000
224.032100 51464.700000
224.043900 7250.700000
225.023800 31846.000000
225.039600 28337.200000
227.018400 21188.800000
227.030800 9146.100000
228.026400 8106.200000
228.039100 72109.600000
229.034100 13668.100000
229.046800 13358.900000
230.001800 19285.900000
230.054600 53016.200000
231.013400 50286.400000
231.074900 75022.800000
231.997600 786333.700000
233.005300 10139.100000
233.029100 23218.300000
234.013000 57556.100000
238.079700 178427.500000
239.038600 22449.600000
240.075600 118570.200000
241.033700 32925.500000
242.042200 85976.300000
243.049900 48330.700000
244.021200 12880.400000
244.033700 10889.600000
245.029300 26136.100000
246.049500 17133.400000
249.000300 177578.000000
250.008300 63104.400000
256.021800 18084.700000
257.029000 28519.200000
258.037300 21224.500000
258.085900 385717.000000
260.065200 8932.500000
261.085000 20408.900000
269.065200 9573.200000
273.061000 56562.900000
274.032600 19469.200000
274.081000 295333.200000
275.040200 32630.200000
278.075800 230633.700000
286.068200 15872.900000
301.076000 12230.800000
303.071400 27694.400000
321.081500 7132156.000000

>ms2peaks
57.993400 10237.900000
59.013800 21261.600000
64.006600 38169.600000
64.019400 4591.400000
65.014500 56680.900000
65.998500 176853.700000
68.014200 3784.700000
68.995700 17217.900000
70.993900 7754.300000
74.003600 13669.600000
77.014600 5954.500000
79.990300 5070.200000
80.001700 5031.100000
84.997000 6304.500000
85.988400 5934.800000
88.000400 195404.100000
88.006700 99787.300000
89.014600 27252.700000
89.998500 14049.800000
90.009700 14365.800000
91.030200 10934.000000
92.025500 4878.300000
92.995700 8287.700000
93.009400 15172.100000
94.004700 9250.400000
95.005100 25819.100000
100.000400 26256.300000
101.014600 23722.200000
102.009700 13161.300000
103.017700 4325.800000
103.995400 55125.200000
104.001600 6576.700000
106.017100 5010.500000
106.041000 6894.300000
106.998800 8574.200000
107.005200 21716.100000
107.025100 7327.300000
108.006500 10703.700000
108.990700 33875.400000
108.997000 22168.300000
109.020800 12261.000000
110.004900 5597.100000
111.000000 39076.200000
112.000400 58173.300000
112.005000 4004.500000
112.006900 5850.300000
114.009700 30767.100000
115.017600 19229.100000
115.030100 16547.900000
116.025400 17570.800000
117.009600 12122.500000
117.020700 7377.300000
117.045700 5100.100000
118.004500 4205.800000
118.010400 3726.200000
119.004900 18945.800000
119.025000 25096.100000
120.006600 22785.600000
120.020300 9198.100000
121.008200 7999.600000
121.020600 6864.200000
122.004800 6652.200000
122.999700 9901.900000
124.007900 7303.900000
126.003600 28708.800000
126.009700 19342.400000
126.015300 7320.000000
127.011300 33131.800000
127.017500 22451.000000
127.029800 4904.200000
127.995300 12034.400000
128.001500 3722.400000
128.025500 10401.300000
129.003400 5349.300000
129.009400 7175.100000
129.033300 12163.400000
130.017000 4661.300000
130.028500 10080.600000
130.040900 12282.300000
130.998700 24669.800000
131.012100 5586.900000
131.036300 29772.800000
132.006700 8005.700000
133.002000 55369.700000
133.007600 6072.500000
133.020700 12446.000000
133.040900 7463.900000
134.016100 110825.000000
135.000000 23851.900000
135.036500 14501.700000
136.001500 105943.900000
136.020300 14962.900000
137.015600 15317.000000
137.028100 47109.000000
139.011200 33206.000000
140.025600 35475.100000
141.020700 8976.300000
141.033100 12230.000000
142.004700 7465.800000
142.041000 43004.100000
143.024800 19562.700000
144.006600 44379.000000
144.020200 15773.500000
145.001900 134845.300000
146.009700 82243.800000
146.016000 26231.400000
146.036100 12257.900000
146.993700 11396.700000
146.999800 7704.900000
147.024300 28163.300000
147.036400 10156.600000
148.007800 11208.000000
148.031800 5637.600000
149.003000 13992.800000
149.009200 6604.800000
150.023400 7924.300000
151.011200 13086.700000
151.030900 5795.400000
152.012900 5207.200000
152.025400 13704.200000
153.033100 9637.700000
154.028600 17959.000000
154.041100 8405.700000
155.006100 12227.300000
155.012700 18236.000000
155.024700 3686.400000
155.036100 19733.400000
156.020400 13208.200000
156.033000 4346.100000
157.001900 231077.200000
158.009700 10861.600000
158.015900 24043.600000
158.022600 16561.300000
158.035900 9545.000000
159.011000 9538.800000
159.017500 112686.800000
159.036300 9454.900000
160.001600 91814.300000
160.031700 40993.700000
160.996800 48761.100000
161.015700 8698.300000
161.039600 15088.100000
161.071800 20681.700000
162.011100 42558.800000
162.023500 14397.900000
162.047600 6634.800000
163.031400 29191.300000
164.006100 4572.400000
164.026100 5973.300000
165.010600 13770.300000
165.026800 11798.400000
166.022400 12474.400000
167.006300 10290.800000
167.030100 4942.100000
168.020200 14398.100000
169.001900 8680.300000
169.028500 23268.300000
170.009600 15376.600000
170.036000 72536.200000
171.017400 36218.200000
171.031300 10562.100000
172.001200 8092.200000
172.019000 9911.900000
172.031800 16363.100000
173.020700 15842.600000
173.039900 6230.400000
173.052000 9805.500000
174.004200 35176.900000
174.010900 5728.100000
174.047300 62836.700000
175.012300 12079.500000
175.018900 15625.700000
175.031100 12223.900000
177.010700 4220.200000
178.022100 33452.800000
179.026600 11612.800000
180.001600 10840.500000
180.021500 6271.700000
180.037700 4325.200000
180.056600 13665.600000
181.022100 14717.700000
184.012800 62036.300000
184.996800 103926.000000
185.033800 58387.900000
186.027800 28257.200000
187.012600 45855.200000
187.049000 40935.800000
188.007600 36435.200000
188.026100 31002.600000
188.082900 276995.400000
189.035300 44451.500000
190.012600 24409.500000
190.042100 59700.200000
191.007400 21081.700000
192.038000 74380.600000
194.017000 14129.100000
194.053400 8728.800000
195.024900 15326.100000
195.037300 10048.200000
196.032900 21271.200000
198.028200 8018.700000
199.036200 28137.000000
200.007500 17540.600000
200.062900 21933.900000
201.015400 9368.500000
201.028800 5667.000000
201.999600 75931.900000
203.007300 8516.800000
203.037500 7270.300000
204.002500 28516.700000
205.023000 22434.100000
205.033300 9067.600000
206.037000 5880.900000
208.032500 26522.700000
209.040500 10352.900000
210.028300 8446.300000
210.048200 29465.900000
211.023100 8452.300000
211.034800 6233.900000
212.027700 26836.900000
212.044200 34509.400000
213.052400 6650.200000
214.023200 103110.100000
214.035000 5641.500000
214.059900 10740.900000
215.031200 56337.600000
215.043700 16146.100000
216.002800 21666.700000
217.059700 8800.200000
217.994500 48637.000000
218.018200 73862.600000
219.032900 42285.500000
220.032500 5127.800000
221.028000 9423.600000
222.035100 8107.200000
224.031100 46151.400000
224.044200 9758.700000
225.022900 55372.900000
225.039400 44401.500000
225.083700 5879.900000
226.045900 11425.500000
227.018500 19910.200000
227.031600 11912.200000
228.026900 8265.700000
228.038900 102979.700000
229.010500 6445.000000
229.033800 9584.200000
229.046500 8517.300000
230.001900 14296.800000
230.018200 44723.600000
230.054400 71122.600000
231.013800 64211.700000
231.075000 178279.200000
231.997500 802303.800000
233.005700 8948.900000
233.028600 7360.000000
234.013200 24936.400000
238.079700 156662.400000
239.038700 10518.800000
240.039200 13080.000000
240.075400 66921.500000
241.034500 38217.200000
241.078700 5305.600000
242.042300 51935.100000
243.050200 10634.900000
244.021000 8603.900000
244.033800 13852.600000
245.029000 29862.400000
246.049900 15223.100000
249.000400 34982.800000
250.008400 33284.700000
256.021200 16114.600000
257.029200 51712.300000
258.036600 26989.800000
258.085900 94010.400000
259.021600 9518.000000
260.016100 7114.000000
260.065100 5381.800000
261.085800 15390.200000
269.065000 4936.600000
273.060900 13191.500000
274.032700 8526.700000
274.080900 118215.700000
275.040000 37041.300000
278.075700 56567.600000
301.074800 5694.100000
303.071100 4294.900000
321.081400 416417.400000

>ms2peaks
50.003600 16616.100000
57.993500 16765.900000
59.013800 20331.800000
64.006700 54068.500000
64.019300 7977.600000
65.014500 119968.000000
65.998500 307687.900000
68.014200 5387.400000
68.995700 33031.600000
70.994000 16727.300000
74.003600 32625.800000
76.000700 6277.800000
76.006800 8474.000000
76.019400 5120.800000
77.014600 7734.000000
79.990500 5818.600000
80.001600 6893.700000
81.002100 11386.000000
84.997000 5381.800000
85.988300 9989.700000
87.011800 5198.600000
88.000500 301536.600000
88.006700 161652.700000
89.014600 78102.100000
89.998500 42110.900000
90.009700 31889.100000
90.035100 15653.900000
91.030300 16636.400000
92.995700 13146.800000
93.009500 9883.900000
94.010000 7391.100000
95.005200 26718.700000
100.000500 49240.600000
101.014500 54750.000000
102.009800 15979.200000
103.017400 6520.100000
103.995300 53908.000000
104.001700 8943.300000
106.017500 4602.900000
106.041100 9651.000000
106.999000 4916.400000
107.005100 61159.400000
107.025100 4583.700000
108.006600 12198.800000
108.025600 7020.000000
108.990700 34959.400000
108.997000 42261.100000
109.020700 14395.600000
110.004800 5799.900000
111.000100 36939.600000
112.000500 139765.800000
112.006700 14533.500000
113.014700 18230.600000
114.009800 79197.400000
115.030200 56497.400000
116.025500 39661.600000
117.009400 14747.100000
117.020600 13879.000000
117.045900 7502.300000
119.004900 31124.800000
119.025200 28863.200000
120.006700 18607.900000
120.020500 5484.900000
121.008300 9057.500000
121.020800 8706.900000
122.004800 10304.200000
124.000400 13684.400000
124.007800 10672.700000
126.003600 40632.400000
126.009900 39382.100000
126.015300 7635.200000
127.011400 25212.000000
127.017700 60042.700000
127.030300 8167.700000
127.995400 12593.700000
128.025400 14837.000000
128.038100 5013.100000
129.003500 3979.700000
129.009500 9173.300000
129.033300 13391.700000
129.045900 13779.200000
130.017000 7360.000000
130.028500 9610.700000
130.041000 19908.700000
130.998900 89642.000000
131.004500 10613.100000
131.012600 6498.900000
131.036400 42367.600000
132.006800 9614.500000
132.020700 5394.100000
132.033100 5307.900000
133.002100 82348.300000
133.020900 24496.000000
133.040700 16243.800000
134.004900 11825.800000
134.016100 116526.400000
135.000000 26131.300000
135.036500 9056.500000
136.001600 73605.300000
136.007200 8221.400000
136.020300 40992.400000
137.015700 15343.300000
137.028100 27358.800000
138.010000 10753.000000
139.011400 79404.900000
139.017100 4634.900000
139.995400 13001.900000
140.025400 53628.500000
141.020700 11042.900000
141.033400 12808.700000
141.046300 7158.300000
142.041000 54012.600000
143.025100 32289.700000
144.006600 51059.600000
144.020600 16470.300000
145.001900 121393.500000
145.020800 10867.300000
146.009800 52805.100000
146.016100 36367.900000
146.036000 6146.300000
146.993800 16208.800000
147.000200 11897.900000
147.024000 49352.900000
147.036500 6389.100000
148.007900 15185.000000
148.031700 9710.100000
149.002900 16056.000000
150.023600 9169.500000
151.011700 39388.800000
151.031100 5405.700000
151.995400 8726.600000
152.012900 5741.300000
152.025600 13017.200000
153.027000 5312.100000
153.033500 12739.300000
154.011300 10949.000000
154.028700 28415.100000
154.041300 14695.400000
154.999300 6932.500000
155.006100 12823.800000
155.012700 24920.600000
155.025400 9502.600000
155.036200 33302.500000
156.020300 12122.100000
156.033000 6782.300000
157.001900 266166.800000
158.009500 15942.800000
158.016000 62086.600000
158.022600 19674.900000
158.035900 7553.400000
159.011100 12344.700000
159.017600 110075.800000
159.036800 12331.300000
160.001600 97140.500000
160.031600 67349.900000
160.996700 35295.400000
161.015700 12103.100000
161.039300 14147.900000
161.071900 13681.000000
162.011100 32104.900000
162.017600 9042.100000
162.023800 11283.300000
162.047400 5557.100000
163.031300 20081.100000
164.006700 18024.200000
164.026600 7067.500000
165.010600 5804.000000
165.027100 10435.300000
166.022100 15398.600000
167.006100 12311.800000
168.020400 23169.900000
169.002000 7654.900000
169.028500 8568.500000
170.009800 29711.700000
170.035900 48355.100000
171.017300 21326.300000
171.031200 7381.800000
172.001700 21294.100000
173.002700 7541.800000
173.020700 18836.200000
173.039300 15347.900000
173.052200 12919.800000
174.004100 38549.500000
174.047300 86493.000000
175.018800 41566.100000
175.031500 12947.500000
176.026800 25759.200000
178.022000 46664.000000
179.029600 7097.900000
180.001500 4749.400000
180.021500 7371.700000
180.037900 6180.500000
180.056700 9990.600000
181.021700 23820.600000
182.030000 6176.400000
184.012900 101191.400000
184.032000 7027.000000
184.997000 23000.300000
185.034700 23178.700000
186.018400 15446.000000
186.028700 15483.400000
187.012200 28003.000000
187.049400 13227.400000
187.996600 17918.100000
188.026700 42639.600000
188.083000 251439.000000
190.012500 16923.900000
190.042400 15082.900000
191.007100 34017.200000
191.029800 10711.500000
192.038000 108255.600000
194.017700 7101.500000
194.053000 5929.200000
195.025000 10673.400000
195.037300 9754.300000
196.032600 7483.100000
197.018600 7918.100000
198.028600 16716.400000
199.036100 31250.900000
200.008000 9420.400000
200.020300 12008.100000
200.063100 5927.700000
201.015500 15615.700000
201.028200 10679.700000
201.999500 76553.100000
203.007300 4916.500000
204.002500 36433.400000
205.016300 28759.200000
206.037200 6510.800000
208.033000 16639.500000
210.028800 9160.200000
211.024100 10753.200000
212.028000 6109.500000
212.044200 24224.100000
214.023500 59512.300000
214.035000 8654.600000
215.031200 68814.100000
215.042900 5805.900000
216.003100 8416.500000
217.016200 27138.400000
217.994400 14668.800000
218.018200 25474.200000
219.033100 19233.200000
221.027800 4410.200000
224.031600 27122.200000
224.042500 4298.500000
225.023600 28176.800000
225.039100 19612.700000
226.046200 5351.800000
227.019100 8003.100000
227.031700 10730.900000
228.026600 13486.200000
228.039200 60264.600000
229.010600 11695.300000
230.018700 22767.100000
230.054500 31616.600000
231.013100 26127.500000
231.075100 65065.700000
231.997600 194089.000000
234.013400 5913.500000
238.080200 14233.300000
240.039200 5437.800000
240.076500 6010.300000
241.034400 67551.000000
245.029100 9539.400000
246.049100 6694.400000
256.021100 4463.800000
257.029500 33328.400000
258.037200 11579.000000
259.020300 7985.800000
260.016600 8176.300000
274.081700 8317.600000
275.039300 6786.600000

>ms2peaks
50.003500 18709.600000
57.993500 7797.000000
59.013800 17349.000000
64.006700 43650.000000
64.019300 12530.900000
65.014500 156427.400000
65.998600 346749.800000
68.014200 4753.100000
68.995800 35809.400000
70.993900 17328.800000
74.003700 79085.500000
76.000400 4576.800000
76.006800 4600.600000
76.019200 3910.100000
77.014500 8051.000000
80.001700 6751.000000
81.002100 11150.200000
82.009800 7650.000000
86.003700 3401.600000
87.011400 8410.400000
88.000500 261329.100000
88.006700 140763.900000
88.019200 22305.100000
89.014600 120309.400000
89.998600 66610.400000
90.009800 26499.300000
90.034900 18930.000000
91.030100 9709.000000
92.025500 8019.100000
92.995800 17852.400000
93.009500 4384.500000
94.004500 2905.600000
94.009900 10060.500000
94.993900 3419.200000
95.005200 17177.300000
98.003800 6473.200000
100.000500 42839.700000
100.006700 5633.500000
100.019400 9916.700000
101.014600 48195.000000
102.009900 14417.600000
103.995400 25269.100000
104.001500 5047.800000
106.009800 7790.200000
106.017300 5498.500000
106.041100 4135.800000
107.005100 68354.900000
107.025100 5093.800000
108.006600 9272.800000
108.025500 6197.700000
108.990600 22107.200000
108.996900 26519.400000
109.020700 9491.800000
111.000000 23424.700000
112.000500 152208.600000
112.006800 30947.100000
113.014500 32640.500000
114.009800 106539.100000
115.017700 8078.600000
115.030200 50225.400000
116.014300 3423.300000
116.025400 30888.000000
116.995900 4687.300000
117.009500 10749.500000
117.020600 16852.700000
118.010700 3194.800000
119.005100 40205.000000
119.025400 17724.500000
120.006700 12860.900000
120.020700 5885.500000
121.008000 3339.500000
121.020700 11440.100000
121.028100 3713.200000
122.004900 7325.000000
124.000500 23408.300000
124.008000 3263.100000
125.014600 10801.100000
126.003500 26156.600000
126.009700 33732.600000
126.015300 4751.000000
127.011900 6790.700000
127.017600 39614.900000
127.030100 11761.200000
127.995300 9111.700000
128.025600 15044.600000
128.037900 4491.700000
129.033400 10786.200000
129.046000 5709.700000
130.017300 6871.900000
130.028600 6540.600000
130.041000 13527.500000
130.998800 110021.600000
131.004900 32845.300000
131.036300 27357.000000
132.006800 8881.500000
132.020400 3684.000000
132.032600 4551.000000
133.002100 40473.700000
133.007600 5932.400000
133.020900 25689.000000
133.040600 7507.900000
134.004800 9734.300000
135.000100 13763.500000
135.036400 8828.400000
136.001600 26970.000000
136.020400 35910.900000
137.015500 6184.100000
138.009800 25309.000000
139.011500 56463.900000
139.017100 4955.500000
139.030300 4690.300000
139.995500 7762.700000
140.025500 67236.600000
141.020800 14452.000000
141.033400 4570.300000
141.046100 4921.400000
142.004600 3235.900000
142.040900 31526.600000
143.005200 3175.000000
143.025200 20525.500000
144.006700 43089.600000
144.020300 12077.200000
145.002000 38687.400000
145.007900 6324.700000
145.021300 4004.600000
146.009700 19328.600000
146.016000 26147.900000
146.028900 4698.600000
146.993700 12427.100000
146.999900 6920.500000
147.023800 42135.000000
147.036300 4660.900000
148.007900 10676.800000
148.031500 4893.100000
149.002900 6541.900000
150.003500 10304.600000
151.011400 28872.000000
151.995400 8874.400000
152.013000 8913.200000
152.025500 14141.500000
153.026800 5317.200000
153.033200 5516.500000
154.010900 4617.800000
154.028700 20403.600000
154.041100 15557.200000
154.998900 11033.900000
155.006100 6724.100000
155.012600 26062.500000
155.024800 5099.600000
155.036300 27943.800000
156.020100 9943.900000
156.033100 7866.300000
157.001900 175109.300000
158.009500 13998.500000
158.016000 99954.700000
158.022200 6570.200000
159.011000 5073.700000
159.017500 45700.200000
159.024200 9187.600000
159.036500 12653.300000
160.001600 46028.300000
160.031700 49917.500000
160.997000 7690.300000
161.015500 21489.100000
161.039400 9012.800000
161.072100 6776.700000
162.010900 13505.800000
162.017600 6697.500000
162.024000 4505.200000
163.031500 4754.300000
164.006500 16909.300000
165.010100 3473.800000
165.020600 4284.200000
165.027300 5180.100000
166.022100 11604.700000
167.006300 9110.500000
168.020500 18774.700000
169.001700 7565.100000
170.009800 11551.300000
170.036000 13226.500000
171.017400 5909.800000
172.001600 12940.700000
172.019300 7211.800000
172.031900 22069.600000
173.003000 9697.000000
173.020800 9410.500000
173.039700 18785.500000
173.052300 4395.500000
174.004500 32561.700000
174.010700 2584.600000
174.047300 47513.400000
175.018700 30104.300000
175.031500 10221.200000
176.026400 5361.700000
177.010700 3996.300000
178.022300 42827.500000
179.030100 5661.000000
181.022000 13206.400000
183.018000 4505.500000
184.012900 69423.100000
184.030800 3644.400000
184.996600 4846.100000
186.018400 11401.200000
186.027500 5656.600000
187.012500 15346.800000
187.996700 7165.800000
188.026300 15430.300000
188.083000 66820.700000
189.035300 5901.200000
191.007800 7217.500000
191.030000 21568.100000
192.038000 53515.800000
194.017000 6353.300000
197.017400 10367.100000
198.028300 11129.100000
199.036000 14965.800000
200.020000 8571.300000
201.028600 5704.600000
201.999200 26481.200000
204.002700 14232.200000
205.016400 13795.400000
205.028700 8790.200000
210.028000 6270.100000
211.023700 9693.900000
212.044600 6659.800000
214.023500 17536.500000
215.031400 23332.100000
217.015600 15510.800000
218.018600 3712.100000
221.028200 4317.600000
223.020000 10927.800000
224.030400 10920.300000
224.042200 3195.800000
225.023200 4085.600000
225.039700 4004.300000
228.027100 4089.600000
228.038600 13555.100000
230.018200 10144.500000
231.075200 6143.600000
231.997300 16247.500000
241.034700 35446.100000
256.020500 4188.800000
257.029100 8283.600000

>ms2peaks
50.003500 40468.000000
57.993500 5930.600000
59.013800 13843.300000
64.006700 33101.500000
64.019300 13345.500000
65.014500 185400.300000
65.998500 324780.400000
68.995800 27124.000000
70.993900 10105.900000
74.003600 113904.900000
76.000500 4377.200000
76.019300 7207.600000
80.001600 5668.600000
81.002000 19452.200000
82.010000 5492.600000
86.003600 13559.700000
87.011500 9861.100000
88.000500 228195.800000
88.006700 159083.800000
88.019200 36830.700000
89.014500 134410.500000
89.998500 62543.700000
90.009800 38717.100000
90.035000 14000.300000
91.030100 7998.600000
92.025400 3289.800000
92.995700 19198.800000
93.009700 4765.700000
94.009800 8708.700000
94.994000 4675.900000
95.005100 16673.900000
98.003600 9344.100000
100.000500 34809.200000
100.006700 6967.000000
100.019400 5196.900000
101.014500 35950.800000
102.009800 8940.100000
103.995300 9587.100000
104.001700 4420.400000
106.009900 10801.400000
106.041000 3859.200000
107.005000 62322.300000
108.006500 3231.400000
108.025400 5323.400000
108.990600 15194.200000
108.996900 19276.400000
109.020900 6027.100000
110.004800 4500.600000
111.000000 10186.400000
112.000500 125802.500000
112.006700 50597.400000
113.014500 41725.100000
114.009700 124565.000000
115.017600 6525.900000
115.030100 46744.300000
116.014300 3138.600000
116.025400 33373.000000
116.995800 3462.200000
117.009400 8397.600000
117.020800 14528.900000
117.045900 6079.200000
119.005000 32217.500000
119.024800 9076.400000
120.006700 3423.800000
121.020800 5490.600000
124.000500 34151.500000
125.014500 8407.800000
126.003600 11993.900000
126.009700 16190.400000
126.015800 3273.900000
127.017600 32636.200000
127.030000 9557.800000
128.001400 3692.500000
128.025500 9656.100000
129.033500 4832.300000
129.045600 3488.400000
130.017200 4745.700000
130.028700 7291.500000
130.041100 14055.800000
130.998900 90862.600000
131.005100 34275.200000
131.012400 4845.900000
131.036100 18695.200000
132.006700 5921.000000
132.020300 3188.600000
133.002100 14053.200000
133.020700 26260.300000
134.004800 4533.400000
134.016100 49764.600000
135.000000 10881.700000
135.036400 6711.700000
136.001200 9848.900000
136.020100 16865.500000
137.015600 5242.800000
138.009800 40025.200000
139.011400 30855.800000
139.017300 5236.200000
139.030100 8417.600000
139.995400 3462.000000
140.025300 46880.000000
141.020700 12190.500000
142.041200 16272.500000
143.005200 3661.000000
143.025000 9866.000000
144.006500 21887.300000
144.020400 11282.300000
145.002100 6735.800000
145.008200 7094.500000
145.020900 5055.600000
146.009700 9593.500000
146.016000 12384.300000
146.029000 6238.400000
146.993900 7450.300000
147.023800 19914.900000
148.007800 9844.500000
150.003500 8828.300000
151.011400 20002.000000
151.995300 12283.700000
152.012900 7661.600000
152.025600 5966.400000
153.033100 8421.000000
154.028700 15550.300000
154.041300 10864.800000
154.998800 8399.100000
155.006100 4729.400000
155.012600 17490.100000
155.036300 17802.700000
157.001800 136540.900000
158.009800 5416.300000
158.016000 87301.800000
159.011100 9964.000000
159.017600 14437.800000
159.023900 4775.700000
159.036200 7804.600000
160.001500 15517.700000
160.031500 23233.800000
161.015400 14794.000000
161.040000 3505.300000
162.010900 6626.200000
162.017700 6995.000000
164.006700 15728.200000
165.020500 4851.000000
166.022400 4876.400000
167.006700 4932.400000
168.020500 7230.400000
170.009300 3927.800000
171.031100 3205.600000
172.001600 4647.600000
172.019400 3594.500000
172.031700 9470.000000
173.002800 4311.400000
173.039600 25189.700000
174.004400 10734.700000
174.047300 20926.700000
175.018800 15400.500000
175.031000 3687.800000
178.022200 21924.300000
179.029900 3626.500000
183.017700 5163.200000
184.013000 39570.400000
186.018300 7204.500000
187.012100 5994.700000
188.026800 9043.700000
188.083000 7884.200000
191.030300 11742.600000
192.038100 15467.500000
198.029000 8418.700000
200.020000 3664.700000
204.002800 5588.500000
205.017100 4615.300000
205.029300 12745.900000
210.028400 5390.600000
211.024000 3188.800000
212.044100 5621.700000
215.031300 5405.100000
217.016600 4479.500000
223.019800 6970.700000
224.030500 3686.900000
228.038800 3406.700000
241.034400 7045.100000
256.021300 3476.000000

