>compound LU77623451
>parentmass 300.0954
>ionization [M-H]-
>formula C16H13F2N3O
>rt 974.640000
>profile orbitrap
#smiles_iso C1=CC=C(C(=C1)C(CN2C=NC=N2)(C3=CC=C(C=C3)F)O)F
#smiles_can C1=CC=C(C(=C1)C(CN2C=NC=N2)(C3=CC=C(C=C3)F)O)F
#inchikey JWUCHKBSVLQQCO-UHFFFAOYSA-N
#pubchem_id 91727
#mb_accession LU070951,LU070952,LU070953,LU070954,LU070955,LU070956

>ms2peaks
68.025500 4545.600000
204.057900 89497.000000

>ms2peaks
68.025500 4087.400000
108.020200 4858.300000
162.036300 3115.600000
204.057900 67017.200000

>ms2peaks
68.025400 2314.900000
95.030500 2218.100000
108.020500 12815.400000
120.025700 3073.300000
162.036500 7880.800000
204.057900 22620.800000

>ms2peaks
65.998600 3197.400000
68.025500 5988.300000
95.030200 3333.800000
108.020300 11938.000000
120.025500 10475.000000
162.036300 6305.300000
204.057500 2844.300000

>ms2peaks
65.998600 7889.100000
68.025500 5078.100000
75.024000 2038.400000
81.033200 2605.300000
95.030300 3192.200000
108.020500 4943.700000
120.025700 7788.600000
145.066300 2309.800000
162.036500 3207.700000

>ms2peaks
65.998500 10518.300000
68.025400 6098.100000
75.024100 1966.600000
81.033400 2444.600000
120.025600 2566.900000
145.065800 3909.700000

