>compound LU78152554
>parentmass 231.00970000000004
>ionization [M-H]-
>formula C9H10Cl2N2O
>rt 1007.460000
>profile orbitrap
#smiles_iso CN(C)C(=O)NC1=CC(=C(C=C1)Cl)Cl
#smiles_can CN(C)C(=O)NC1=CC(=C(C=C1)Cl)Cl
#inchikey XMTQQYYKAHVGBJ-UHFFFAOYSA-N
#pubchem_id 3120
#mb_accession LU120051,LU120052,LU120053,LU120054,LU120055,LU120056

>ms2
149.975100 21331.800000
159.972600 691054.900000
185.951900 1606101.200000
214.978300 10151.700000
231.009600 9304683.000000

>ms2
149.975200 143705.500000
159.972600 1240143.200000
185.951900 3706770.000000
187.967400 19543.100000
214.978300 6489.200000
231.009700 5667464.000000

>ms2
113.998600 16497.200000
121.980200 13407.600000
149.975200 857136.100000
159.056700 6535.200000
159.972700 708947.200000
185.951900 3481852.000000
187.967700 26686.800000
214.978500 6776.300000
231.009700 951886.500000

>ms2
65.998500 5379.600000
86.003600 10606.300000
98.964300 30105.200000
113.998500 40231.400000
121.980300 110577.200000
123.996000 10197.400000
149.975200 1189312.000000
159.056600 3386.800000
159.972600 163328.400000
185.951900 1105736.400000
187.967500 13220.800000
214.978600 11403.300000
231.009700 67463.600000

>ms2
65.998600 7311.000000
70.969400 2276.800000
86.003600 41309.100000
98.964400 80762.600000
113.998500 60600.900000
121.980300 192178.000000
123.995700 9777.800000
149.975200 608683.200000
159.972600 23466.000000
185.951900 158735.000000
187.967300 3318.400000
214.978500 6987.600000
231.008400 2192.400000

>ms2
65.998500 3760.100000
70.969500 3525.200000
86.003600 109960.000000
98.964400 120584.400000
113.998500 64323.400000
121.980300 181694.900000
123.995800 3068.500000
149.975200 241966.100000
159.972500 5332.300000
185.952000 23978.200000
214.978400 6120.200000

