>compound LU78617061
>parentmass 194.9177
>ionization [M-H]-
>formula C6H3Cl3O
>rt 1114.740000
>profile orbitrap
#smiles_iso C1=C(C(=CC(=C1Cl)Cl)Cl)O
#smiles_can C1=C(C(=CC(=C1Cl)Cl)Cl)O
#inchikey LHJGJYXLEPZJPM-UHFFFAOYSA-N
#pubchem_id 7271
#mb_accession LU067751,LU067752,LU067753,LU067754,LU067755,LU067756,LU110751,LU110752,LU110753,LU110754,LU110755,LU110756

>ms2
158.941000 243733.500000
194.917700 1855603.200000

>ms2
158.941000 287827.200000
194.917700 1127774.800000

>ms2
122.964400 17638.000000
158.941000 1762473.900000
194.917600 1275558.000000

>ms2
122.964300 23721.500000
158.941000 441282.500000
194.917700 87017.300000

>ms2
94.969300 9491.900000
122.964400 21674.700000
158.941000 109426.200000
194.917500 4980.300000

>ms2
94.969500 18906.600000
122.964400 15858.200000
158.940900 19758.800000

>ms2
158.941000 1644938.200000
194.917600 11446436.000000

>ms2
158.941000 2048096.900000
194.917600 7977096.500000

>ms2
122.964300 58176.100000
158.941000 5938012.000000
194.917600 4420472.000000

>ms2
94.969300 27833.800000
122.964300 220783.700000
158.941000 3959750.800000
194.917700 763984.500000

>ms2
94.969500 115880.000000
122.964400 309179.800000
130.946100 11540.600000
158.941000 1530006.900000
194.917700 102901.600000

>ms2
94.969400 193553.100000
122.964400 207152.200000
130.946000 9372.800000
158.941100 265618.000000
194.917700 6375.700000

