>compound LU78810246
>parentmass 249.0227
>ionization [M-H]-
>formula C12H10O4S
>rt 811.740000
>profile orbitrap
#smiles_iso C1=CC(=CC=C1O)S(=O)(=O)C2=CC=C(C=C2)O
#smiles_can C1=CC(=CC=C1O)S(=O)(=O)C2=CC=C(C=C2)O
#inchikey VPWNQTHUCYMVMZ-UHFFFAOYSA-N
#pubchem_id 6626
#mb_accession LU055151,LU055152,LU055153,LU055154,LU055155,LU055156

>ms2
79.957400 51403.600000
92.027100 22116.500000
108.021500 72699.900000
155.988300 54373.400000
156.997000 23622.900000
184.052700 11900.300000
185.061200 27441.200000
249.022600 9975064.000000

>ms2
79.957400 475480.000000
92.027100 26537.700000
108.021700 697705.600000
139.993900 10704.400000
155.988700 301287.000000
156.997000 21252.800000
157.066200 11738.700000
184.053000 79187.200000
185.060900 151925.300000
249.022700 7684484.500000

>ms2
63.962500 9513.700000
79.957400 911932.200000
91.019000 6827.400000
92.026900 22995.700000
93.034500 34524.700000
95.013900 92910.600000
106.006200 6002.900000
108.021700 3461657.000000
109.029200 14395.700000
117.034700 10927.800000
123.008900 13988.300000
139.993700 27595.400000
141.001700 5402.500000
143.050200 13816.700000
155.988700 584550.600000
156.996100 24501.900000
157.065900 37205.100000
158.037300 5611.600000
184.053000 252568.800000
185.060800 220648.300000
249.022700 2607023.800000

>ms2
63.962500 19051.000000
68.998200 7188.900000
69.034500 8037.300000
79.957400 439566.600000
82.006000 10346.800000
91.018900 7583.800000
92.026700 36709.600000
93.034600 78684.500000
95.013900 348720.200000
106.006100 20722.900000
108.021600 5715096.000000
109.029200 19134.900000
117.034600 25260.600000
123.008800 47619.000000
139.993800 30287.700000
143.050300 14604.500000
155.988700 249011.600000
156.058200 16869.100000
156.996500 35334.800000
157.065900 22002.400000
184.052900 241923.900000
185.060800 68981.400000
249.022600 364028.300000

>ms2
63.962400 34706.000000
67.019100 6595.500000
68.998200 18306.200000
69.034600 13274.100000
71.013800 7389.900000
79.018900 5970.400000
79.957400 65894.200000
82.006000 23075.700000
92.026800 47677.600000
93.034600 112185.800000
95.013900 571988.100000
97.029500 9055.400000
106.006100 30306.500000
108.021700 5570268.500000
109.029300 13927.500000
117.034700 17677.500000
123.008800 74702.700000
136.016500 5676.500000
138.985800 8510.400000
139.993900 20754.000000
143.050200 9227.100000
155.988700 37203.400000
156.058300 21816.900000
156.996400 23993.700000
184.053000 131560.900000
185.060700 10737.900000
249.022600 19749.200000

>ms2
53.003200 3029.100000
63.962400 39338.300000
67.018900 3494.100000
68.998200 15098.100000
69.034700 11832.200000
71.013800 9404.800000
72.993100 6783.000000
79.018800 3485.500000
79.957400 6731.700000
79.990400 5114.800000
80.998100 4370.300000
82.006000 13416.900000
89.039700 2897.200000
92.026700 23810.200000
93.034600 83282.300000
95.013900 371846.100000
97.029500 6644.800000
98.000900 2955.700000
106.006100 19089.100000
108.021700 2697146.500000
109.029400 5948.800000
117.034600 7503.100000
123.008800 43393.300000
136.016500 2914.500000
138.986100 3306.400000
139.994100 9770.400000
143.049800 3172.800000
156.058000 6595.900000
156.996700 4013.200000
183.045100 2998.400000
184.053100 17782.800000

