>compound LU79981278
>parentmass 143.035
>ionization [M-H]-
>formula C6H8O4
>rt 770.700000
>profile orbitrap
#smiles_iso CCOC(=O)C=CC(=O)O
#smiles_can CCOC(=O)C=CC(=O)O
#inchikey XLYMOEINVGRTEX-UHFFFAOYSA-N
#pubchem_id 41331
#mb_accession LU024151,LU024152,LU024153,LU024154,LU024155,LU024156

>ms2
55.018900 5429.300000
57.034600 2242.000000
68.998200 1669.000000
69.034700 9109.100000
71.013900 205333.800000
71.050200 28327.300000
75.008800 4297.900000
81.034700 5878.100000
84.021700 24525.300000
99.045200 10201.100000
143.035000 10292.900000

>ms2
55.018900 3766.000000
57.034500 2237.900000
69.034700 10842.900000
71.013900 191920.900000
71.050300 21454.800000
75.008700 2287.000000
81.034600 4871.900000
84.021700 26862.900000
99.045300 7850.900000
143.035100 10718.900000

>ms2
55.018900 3466.600000
57.034500 1782.500000
69.034600 7094.800000
71.013900 83897.600000
71.050300 11309.700000
75.008600 2004.300000
81.034700 2885.100000
84.021600 12889.400000
99.045300 2120.400000
143.034700 1581.300000

>ms2
69.034500 2835.600000
71.013900 15690.900000
75.008800 2177.100000
84.021500 2268.700000

>ms2
55.018900 4105.900000
68.998200 1588.900000
69.034600 3440.200000
71.013900 40320.900000
71.050300 2469.400000
84.021700 4841.700000

>ms2
55.018900 1335.000000
69.034600 1479.200000
71.013900 23403.100000

