>compound LU79681594
>parentmass 213.0339
>ionization [M-H]-
>formula C8H10N2O3S
>rt 1034.640000
>profile orbitrap
#smiles_iso CC(=O)NS(=O)(=O)C1=CC=C(C=C1)N
#smiles_can CC(=O)NS(=O)(=O)C1=CC=C(C=C1)N
#inchikey SKIVFJLNDNKQPD-UHFFFAOYSA-N
#pubchem_id 5320
#mb_accession LU077651,LU077652,LU077653,LU077654,LU077655,LU077656

>ms2
85.029500 669143.000000
126.995600 2867131.800000
169.042500 4307.200000
213.032400 34803.200000

>ms2
85.029500 487313.600000
126.995600 2720074.200000
169.042600 6127.000000
213.032500 6674.800000

>ms2
85.029500 325609.700000
91.019000 4789.700000
126.995600 2849921.000000
169.042700 3895.500000

>ms2
85.029500 108969.600000
91.018900 16705.700000
126.995600 1881947.100000

>ms2
85.029500 54122.000000
91.018900 42015.000000
126.995600 1405203.100000

>ms2
85.029500 10672.200000
91.018900 29051.600000
126.995600 360866.800000

