>compound LU79175436
>parentmass 172.96810000000002
>ionization [M-H]-
>formula C3H7ClO4S
>rt 146.220000
>profile orbitrap
#smiles_iso C(C(CCl)O)S(=O)(=O)O
#smiles_can C(C(CCl)O)S(=O)(=O)O
#inchikey DDLBHIIDBLGOTE-UHFFFAOYSA-N
#pubchem_id 31360
#mb_accession LU030951,LU030952,LU030953,LU030954,LU030955,LU030956

>ms2peaks
75.008800 3608.300000
172.968200 13897.100000

>ms2peaks
75.008900 4250.700000
172.967600 7009.500000

>ms2peaks
75.008800 5549.200000
172.968000 1712.200000

>ms2peaks
75.008900 3533.700000
78.985900 3690.800000
79.957300 1993.000000

>ms2peaks
75.008800 2547.300000
79.957400 4547.800000

>ms2peaks
78.985900 1736.700000
79.957300 8269.100000

