>compound LU79947463
>parentmass 524.1165
>ionization [M-H]-
>formula C25H24ClN5O4S
>rt 952.380000
>profile orbitrap
#smiles_iso C1CC1N2CCC(CC2)NC(=O)C3=NC4=C(N3CC5=NOC(=C5)C6=CC=C(S6)Cl)C=CC(=C4)C(=O)O
#smiles_can C1CC1N2CCC(CC2)NC(=O)C3=NC4=C(N3CC5=NOC(=C5)C6=CC=C(S6)Cl)C=CC(=C4)C(=O)O
#inchikey PQDRCVHHJPMGKO-UHFFFAOYSA-N
#pubchem_id 53316387
#mb_accession LU060151,LU060152,LU060153,LU060154,LU060155,LU060156

>ms2
161.035700 12509.900000
183.962900 98745.800000
444.150400 40538.300000
524.116300 893648.200000

>ms2
65.998500 18987.300000
117.045900 10378.000000
118.983600 4514.200000
120.004200 2235.500000
147.986400 40363.400000
161.035800 10315.000000
183.962900 692308.200000
200.046500 2722.800000
255.125400 3530.300000
314.016300 99574.700000
315.995400 7325.700000
444.150000 68882.600000
524.115800 12139.700000

>ms2
56.980500 4049.000000
65.998600 191611.000000
80.980500 11236.500000
81.975700 2446.600000
116.957100 7858.300000
117.045900 33365.200000
118.983600 12611.800000
120.003900 9163.500000
147.986300 204102.300000
161.035600 9042.200000
183.963000 343186.700000
200.046800 2687.500000
255.125300 6641.200000
314.016200 3676.700000
315.995300 2858.000000

>ms2
56.980400 2345.900000
64.019300 2458.800000
65.998500 381007.800000
79.972600 3538.700000
80.980400 42144.400000
81.975600 2373.500000
115.030100 5380.600000
116.957100 27171.300000
117.045800 34185.000000
118.983500 7703.800000
120.003800 9044.400000
147.986300 174250.000000
183.962900 71314.500000
255.124900 2753.800000

>ms2
56.980500 2514.800000
65.998600 452916.800000
79.972600 11040.100000
80.980500 83358.000000
88.019400 2529.300000
104.980800 1777.300000
115.030200 9120.000000
116.957200 39200.500000
117.045900 32166.400000
118.983700 4358.500000
120.004000 5757.700000
147.986400 74816.600000
183.962900 7564.200000

>ms2
64.019200 2698.600000
65.998600 453073.200000
79.972700 35690.200000
80.980500 112513.100000
88.019400 2387.100000
104.980700 2418.500000
115.030200 12706.100000
116.957100 33672.700000
117.045800 22798.000000
118.983800 3187.300000
120.003900 2666.200000
147.986400 24517.100000

