>compound LU80725799
>parentmass 220.0979
>ionization [M-H]-
>formula C12H15NO3
>rt 863.680000
>profile orbitrap
#smiles_iso CCOC1=CC=C(C=C1)NC(=O)CC(=O)C
#smiles_can CCOC1=CC=C(C=C1)NC(=O)CC(=O)C
#inchikey WWROGCAUSKGAMX-UHFFFAOYSA-N
#pubchem_id 61053
#mb_accession LU100151,LU100152,LU100153,LU100154,LU100155,LU100156

>ms2peaks
57.034500 86810.300000
83.013800 1066368.400000
107.037600 169991.500000
136.076700 88121.700000
178.088900 1735.000000
191.058800 83802.800000
220.097900 305817.400000

>ms2peaks
57.034500 179070.700000
83.013800 2383819.800000
107.037700 775989.100000
136.076800 174193.700000
191.058900 77269.400000
220.097900 131960.700000

>ms2peaks
57.034600 48171.300000
83.013900 877016.800000
107.037700 641209.100000
136.076900 20024.800000
191.058900 2269.700000

>ms2peaks
57.034500 77967.800000
83.013900 1292709.100000
107.037700 1483786.500000
136.076700 4221.800000

>ms2peaks
57.034500 22589.600000
83.013900 370360.700000
107.037700 553554.500000
211.026000 3259.200000

>ms2peaks
57.034600 14494.100000
83.013900 241998.800000
107.037700 431229.000000

