>compound LU80169167
>parentmass 215.9647
>ionization [M-H]-
>formula C6H8AsNO3
>rt 146.220000
>profile orbitrap
#smiles_iso C1=CC(=CC=C1N)[As](=O)(O)O
#smiles_can C1=CC(=CC=C1N)[As](=O)(O)O
#inchikey XKNKHVGWJDPIRJ-UHFFFAOYSA-N
#pubchem_id 7389
#mb_accession LU040651,LU040652,LU040653,LU040654,LU040655,LU040656

>ms2
61.988300 2252.700000
106.911900 53420.100000
108.045500 2315.300000
122.906900 256800.300000
123.914900 7937.500000
124.922500 76768.900000
159.936700 5019.700000
215.964700 897954.700000

>ms2
61.988400 3707.700000
106.912000 176155.400000
108.045600 10041.400000
122.907000 583332.100000
123.914300 14158.200000
124.922500 199980.300000
159.936700 4737.400000
215.964700 709891.600000

>ms2
61.988400 4157.800000
106.912000 402478.600000
108.045600 7691.900000
122.906900 537274.700000
123.914700 40690.200000
124.922500 159597.000000
159.936800 7719.200000
215.964700 79034.900000

>ms2
61.988400 4318.300000
106.912000 606236.200000
108.045400 2981.100000
122.906900 459853.300000
123.914600 53042.600000
124.922500 54643.600000
159.936600 3840.300000
215.964700 6229.900000

>ms2
61.988300 3887.700000
106.912000 701110.700000
122.906900 367242.100000
123.914700 45289.100000
124.922500 10996.500000

>ms2
61.988400 3284.000000
106.912000 1206972.400000
122.906900 483960.700000
123.914700 43649.700000
124.922200 5163.400000

