>compound LU80453294
>parentmass 317.1619
>ionization [M-H]-
>formula C16H22N4O3
>rt 1059.670000
>profile orbitrap
#smiles_iso CCCC1=C(C=CC(=C1O)C(=O)C)OCCCCC2=NNN=N2
#smiles_can CCCC1=C(C=CC(=C1O)C(=O)C)OCCCCC2=NNN=N2
#inchikey MWYHLEQJTQJHSS-UHFFFAOYSA-N
#pubchem_id 3969
#mb_accession LU115351,LU115352,LU115353,LU115354,LU115355,LU115356

>ms2
193.086900 13648618.000000

>ms2
133.065700 16342.600000
149.097400 43155.900000
151.076500 141198.500000
163.040000 17189.300000
164.047600 27895.900000
177.055600 56313.200000
193.087000 13041232.000000
195.066100 21680.200000

>ms2
107.086600 106644.100000
120.058100 16526.600000
121.029400 13516.900000
133.065900 327483.700000
136.052900 29700.500000
149.097100 461044.800000
151.076400 1272371.100000
163.040000 119990.200000
164.047900 361019.400000
175.076400 146383.200000
177.055700 479314.100000
191.071700 17878.600000
193.086900 10216275.000000
195.066200 188268.100000
196.037300 43318.300000

>ms2
59.013700 5223.700000
65.039700 9842.500000
67.019000 12605.800000
81.034600 7185.600000
83.050200 67139.900000
91.055400 11062.300000
105.034400 4631.500000
105.071000 8425.800000
106.042400 4716.400000
107.050300 28818.000000
107.086600 423343.100000
108.021600 9666.100000
109.029400 50913.400000
119.050300 10989.200000
119.086600 6134.700000
120.058100 56439.800000
121.029500 88967.200000
122.037300 22990.000000
131.086500 8680.300000
133.066000 1073854.500000
135.045200 83025.700000
136.053000 268473.900000
146.037400 36360.500000
147.081500 15236.900000
149.097300 771654.100000
150.032300 10815.100000
151.076600 2048469.100000
152.048100 10973.400000
163.040200 342962.100000
164.048100 951915.800000
165.092200 11286.900000
175.076600 247789.300000
177.055900 545095.900000
178.027200 11213.300000
191.071500 47420.900000
193.087200 3909746.800000
195.066400 271789.800000
196.037800 110669.600000

>ms2
57.034500 4609.200000
59.013900 11083.600000
65.003300 7208.700000
65.039700 20548.400000
67.019000 47874.500000
79.055300 7279.800000
81.034700 35782.500000
83.050200 233105.300000
91.055400 21730.600000
93.034600 6811.200000
103.055000 6255.700000
104.026800 26193.400000
105.034500 42914.400000
105.070900 18035.000000
106.042500 14232.100000
107.050300 41974.400000
107.086600 650354.700000
108.021700 17315.200000
109.029500 76905.000000
109.066000 5804.800000
119.050100 25863.200000
119.086800 13243.500000
120.058000 93753.300000
121.029500 207373.700000
122.037300 76249.600000
123.045300 5577.900000
131.050300 5752.600000
131.086700 23793.100000
133.065900 1239501.100000
135.045200 240191.900000
136.052900 671920.400000
146.037300 74438.400000
147.081700 23992.000000
149.024400 132174.200000
149.097100 500292.200000
150.032300 19717.900000
151.076400 1342895.500000
152.048100 7807.400000
163.040100 576753.500000
164.047900 829553.100000
165.092000 16565.700000
175.076500 159192.200000
177.055700 282624.300000
191.071600 55190.500000
193.087000 863864.200000
195.066300 124406.400000
196.037600 85443.600000

>ms2
57.034500 11943.300000
59.013800 15217.100000
65.039800 20713.000000
67.019000 60049.100000
79.055200 8945.500000
81.034600 71711.400000
83.050300 295071.700000
91.055400 36494.000000
93.034600 25623.200000
95.050200 11820.100000
104.026800 87735.100000
105.034600 143005.400000
105.071000 29050.700000
106.042700 6370.900000
107.050300 23710.800000
107.086700 336465.100000
108.021800 15622.200000
109.029400 59817.700000
109.065800 8638.900000
119.050100 23347.600000
119.086600 13821.900000
120.058100 59012.400000
121.029500 252955.400000
122.037300 90022.500000
123.045200 5180.600000
131.086600 16502.300000
133.066000 543738.100000
135.045200 324778.700000
136.053000 486673.700000
146.037400 33066.000000
147.081700 16476.100000
149.024500 156968.100000
149.097200 132090.400000
150.032800 6756.700000
151.076600 382062.100000
163.040200 724270.800000
164.048100 300340.600000
165.092400 8833.400000
167.035000 35322.300000
175.076300 37081.500000
177.056000 63480.100000
178.027400 13875.000000
191.071400 15490.300000
193.087300 118912.700000
195.066300 28635.400000
196.038000 33604.800000

