>compound LU80992455
>parentmass 254.045
>ionization [M-H]-
>formula C9H10ClN5O2
>rt 739.200000
>profile orbitrap
#smiles_iso C1CN(C(=N1)N[N+](=O)[O-])CC2=CN=C(C=C2)Cl
#smiles_can C1CN(C(=N1)N[N+](=O)[O-])CC2=CN=C(C=C2)Cl
#inchikey YWTYJOPNNQFBPC-UHFFFAOYSA-N
#pubchem_id 86418
#mb_accession LU006051,LU006052,LU006053,LU006054,LU006055,LU006056

>ms2peaks
85.999800 3389.400000
126.011500 1799.400000
153.022600 244555.300000
207.044300 18368.700000
210.043900 29510.800000
254.045100 807016.900000

>ms2peaks
67.030200 2472.800000
85.999700 19436.100000
126.011900 2096.100000
153.022500 231071.000000
207.044500 4698.800000
210.044000 15657.300000
254.045100 174199.600000

>ms2peaks
67.030200 2817.400000
69.009600 2305.000000
85.999600 56125.700000
126.012100 1674.400000
153.022500 35891.200000
254.045100 8868.200000

>ms2peaks
69.009500 2489.800000
85.999600 72528.200000
153.022700 4906.100000

>ms2peaks
67.030200 2597.400000
85.999600 60288.800000

>ms2peaks
67.030200 1774.100000
85.999700 38702.800000

