>compound LU81941411
>parentmass 364.0528
>ionization [M-H]-
>formula C16H16ClN3O3S
>rt 899.520000
>profile orbitrap
#smiles_iso CC1CC2=CC=CC=C2N1NC(=O)C3=CC(=C(C=C3)Cl)S(=O)(=O)N
#smiles_can CC1CC2=CC=CC=C2N1NC(=O)C3=CC(=C(C=C3)Cl)S(=O)(=O)N
#inchikey NDDAHWYSQHTHNT-UHFFFAOYSA-N
#pubchem_id 3702
#mb_accession LU068751,LU068752,LU068753,LU068754,LU068755,LU068756

>ms2peaks
63.962400 4194.700000
78.973300 3458.900000
132.033000 11894.700000
168.009800 4418.400000
169.017600 5757.500000
189.973600 8255.700000
195.994700 5964.800000
215.953000 15960.000000
232.979400 28508.900000
328.076100 4825.500000
364.053100 3060039.200000

>ms2peaks
53.003200 11582.000000
61.970600 7016.600000
63.962400 63121.700000
65.003400 2267.200000
65.998500 5743.300000
68.014200 14834.600000
77.003300 26965.000000
77.965500 64216.800000
78.973300 47354.400000
79.981200 74347.900000
81.022000 11466.900000
90.034900 3511.200000
91.030300 2213.200000
92.014200 31126.900000
92.998100 9641.000000
93.021900 5253.800000
93.960400 21071.300000
96.009100 3160.900000
98.931300 11273.100000
103.990400 6410.800000
105.022000 39761.400000
106.006000 49036.100000
109.017000 4856.500000
112.980000 7955.000000
113.942300 6153.200000
114.949900 5410.000000
120.009000 9249.600000
120.033100 2705.200000
120.993100 50812.800000
123.008700 2943.800000
126.011600 49835.300000
127.990900 2329.900000
130.066200 6973.000000
131.025200 5821.900000
132.032900 288691.400000
141.982600 41706.500000
148.027800 68822.600000
151.007000 5896.900000
151.990700 7461.300000
152.989000 4088.000000
153.996900 5040.500000
164.022800 10246.200000
167.001700 26118.000000
168.009500 41011.600000
168.984000 4317.800000
169.017400 31727.900000
173.072000 25994.500000
178.991800 4089.200000
188.965700 97653.600000
189.973500 125535.000000
195.994700 31887.000000
197.002700 12140.700000
204.960600 23318.000000
214.968800 63200.400000
215.952700 163092.500000
230.963600 14661.600000
231.971800 4609.200000
232.979200 169635.100000
328.076200 15515.900000
364.052900 776387.300000

>ms2peaks
53.003300 13702.200000
61.970600 19608.800000
63.962500 68780.100000
65.003400 2961.100000
65.998600 11325.300000
68.014200 10414.200000
77.003300 35517.800000
77.965500 137836.800000
78.973400 58141.500000
79.981200 100744.100000
80.965200 4512.300000
81.021900 9239.800000
90.035000 11219.500000
91.030300 4755.100000
92.014200 44259.900000
92.998000 9406.800000
93.022200 7530.300000
93.960500 36178.800000
96.009000 2326.900000
98.931200 15134.600000
103.990400 7632.100000
105.022000 118806.200000
106.006000 64739.200000
107.991400 5542.900000
109.017000 3755.100000
112.980000 7530.000000
113.942300 8603.200000
114.950100 3921.100000
116.050500 6888.100000
120.009100 14885.000000
120.033000 25750.900000
120.993100 54226.000000
123.008600 4908.400000
125.003800 5687.700000
126.011600 94427.300000
127.990800 2935.700000
130.066300 16357.000000
131.025100 22449.100000
132.032900 213374.400000
132.081700 15085.500000
140.998800 4223.900000
141.982700 45393.400000
148.027900 54016.300000
151.006800 11164.500000
151.990900 14789.000000
152.989000 3184.500000
153.997000 9705.500000
164.022700 8762.500000
167.001800 17236.900000
168.009800 10361.200000
168.983900 4274.600000
169.017400 10579.800000
173.071800 6532.500000
178.992000 17734.100000
188.965700 86449.800000
189.973600 64722.300000
195.994500 2943.100000
197.002700 9463.300000
204.960600 28728.800000
214.968800 112069.800000
215.952800 35811.100000
230.963000 2784.500000
232.979500 22945.000000
364.052700 13835.600000

>ms2peaks
53.003300 5444.500000
61.970600 35863.200000
63.962400 50070.100000
64.019200 2580.100000
65.003300 3383.200000
65.998500 15510.800000
68.014200 3745.000000
77.003300 17237.900000
77.965500 289345.700000
78.973300 100716.800000
79.981200 91130.400000
80.965200 6699.400000
88.019300 4425.800000
89.027100 8478.300000
90.034900 17220.200000
91.030200 9565.000000
92.014200 23682.800000
92.998200 3873.400000
93.022100 2798.800000
93.960400 55861.000000
98.931300 10348.600000
103.990300 4543.300000
105.022000 99027.000000
106.006000 26805.200000
107.991300 11858.400000
112.980100 4447.000000
113.942300 2389.800000
115.030100 11407.900000
116.050600 11025.500000
120.009000 11086.500000
120.032800 23902.300000
120.993000 25672.400000
123.996000 4377.900000
125.003700 9314.900000
126.011500 24253.300000
130.066200 15795.700000
131.025100 40642.000000
132.032900 35549.700000
132.081900 5982.700000
140.998700 6084.400000
141.982600 22543.800000
148.027900 12713.300000
151.006800 30980.400000
168.984000 3358.400000
178.992100 31605.400000
188.965600 42783.200000
189.973400 11317.200000
204.960900 15272.800000
214.968700 48297.100000
215.953200 2726.000000

>ms2peaks
61.970600 58145.900000
63.962500 55880.000000
64.019300 3609.500000
65.998600 6548.500000
77.003300 2026.600000
77.965600 407802.100000
78.973400 150408.900000
79.981200 63136.400000
80.965100 13293.800000
88.019300 16175.700000
89.027000 10507.500000
90.035000 14730.300000
91.030200 12184.300000
92.014300 8408.700000
93.960500 82478.900000
103.030500 3256.100000
103.990300 2881.200000
105.022100 48006.600000
106.006100 8054.900000
107.991500 5609.700000
115.030100 28038.000000
116.050500 16724.100000
120.009300 5814.700000
120.032800 12679.000000
120.993200 6604.100000
123.995800 5032.900000
125.004000 7124.300000
126.011800 6187.500000
130.066300 21093.700000
131.025100 37470.800000
132.032900 4194.200000
140.998800 4831.300000
141.982800 3398.200000
151.007000 20071.300000
153.996900 3579.900000
178.992000 19511.800000
188.965700 8654.100000
204.960700 2397.200000
214.969000 7902.300000

>ms2peaks
61.970600 77821.500000
63.962500 77037.800000
65.998600 5719.400000
77.965500 440439.600000
78.973400 161305.800000
79.981200 43419.300000
80.965200 15327.500000
88.019300 35978.400000
89.027100 5145.800000
90.034800 9904.200000
91.030200 8203.300000
92.014200 2822.000000
93.960400 97155.200000
103.030200 3881.100000
105.021900 19958.400000
107.991400 4452.200000
115.030200 30062.600000
116.050600 17026.400000
120.009300 2284.900000
123.995900 5584.600000
130.066200 15515.900000
131.025100 17303.200000
151.007000 5407.900000
178.992200 5922.200000

