>compound LU81270488
>parentmass 245.15810000000002
>ionization [M-H]-
>formula C13H26O2S
>rt 1242.360000
>profile orbitrap
#smiles_iso CCCCCCCCCCCSCC(=O)O
#smiles_can CCCCCCCCCCCSCC(=O)O
#inchikey CZSSKBQAJULWPY-UHFFFAOYSA-N
#pubchem_id 4420067
#mb_accession LU015451,LU015452,LU015453,LU015454,LU015455

>ms2
59.013800 10480.900000
60.975300 16462.100000
63.962400 9534.300000
90.985900 7405.400000
185.137000 7912.300000
201.168100 26573.800000
245.158100 1231385.400000

>ms2
59.013800 9216.500000
60.975400 15717.600000
63.962500 7526.400000
90.985800 4419.100000
185.137200 2458.100000
201.168300 31599.100000
245.158100 55338.100000

>ms2
59.013900 2948.600000
60.975300 3010.200000
63.962300 2157.800000
201.168100 5838.400000

>ms2
59.013900 4681.300000
60.975400 21795.500000
63.962500 12139.000000
90.986200 2704.300000

>ms2
60.975500 7112.200000
63.962600 3921.000000

