>compound LU81491621
>parentmass 213.05569999999997
>ionization [M-H]-
>formula C13H10O3
>rt 1023.560000
>profile orbitrap
#smiles_iso C1=CC=C(C=C1)OC(=O)C2=CC=C(C=C2)O
#smiles_can C1=CC=C(C=C1)OC(=O)C2=CC=C(C=C2)O
#inchikey GJLNWLVPAHNBQN-UHFFFAOYSA-N
#pubchem_id 87250
#mb_accession LU087151,LU087152,LU087153,LU087154,LU087155,LU087156

>ms2
91.018800 311538.700000
93.034600 21926866.000000
135.008700 2770578.500000
169.065900 932980.000000
213.055600 47160380.000000

>ms2
91.019000 1207709.800000
93.034600 28782240.000000
121.029500 71655.900000
135.008800 7412546.000000
141.071000 41636.800000
169.065900 2950708.000000
171.045100 98314.500000
213.055700 38689156.000000

>ms2
65.039600 45903.500000
93.034500 31617728.000000
135.008800 55664.100000
213.055600 81902.900000

>ms2
65.039700 144661.300000
91.019100 69337.000000
93.034600 40389844.000000

>ms2
65.039700 413303.800000
91.019100 50744.800000
93.034600 36404132.000000

>ms2
65.039700 1115122.500000
75.024100 86571.600000
91.019100 36911.500000
93.034600 34797176.000000

