>compound LU81387909
>parentmass 460.22059999999993
>ionization [M-H]-
>formula C28H29F2N3O
>rt 952.140000
>profile orbitrap
#smiles_iso C1CN(CCC1N2C3=CC=CC=C3NC2=O)CCCC(C4=CC=C(C=C4)F)C5=CC=C(C=C5)F
#smiles_can C1CN(CCC1N2C3=CC=CC=C3NC2=O)CCCC(C4=CC=C(C=C4)F)C5=CC=C(C=C5)F
#inchikey YVUQSNJEYSNKRX-UHFFFAOYSA-N
#pubchem_id 16362
#mb_accession LU020553,LU020554,LU020556

>ms2
132.032800 21564.900000
133.040800 192231.000000
143.061400 4104.600000
159.056800 4067.800000
285.056300 2231.800000

>ms2
132.032900 33457.700000
133.040800 134762.800000
143.061900 3376.700000
159.056200 8742.700000
285.055400 1931.200000

>ms2
132.032800 17598.400000
133.040800 52920.500000
143.061300 4163.500000
159.056300 4454.500000

