>compound LU81504529
>parentmass 457.0776
>ionization [M-H]-
>formula C22H18O11
>rt 670.860000
>profile orbitrap
#smiles_iso C1[C@H]([C@H](OC2=CC(=CC(=C21)O)O)C3=CC(=C(C(=C3)O)O)O)OC(=O)C4=CC(=C(C(=C4)O)O)O
#smiles_can C1C(C(OC2=CC(=CC(=C21)O)O)C3=CC(=C(C(=C3)O)O)O)OC(=O)C4=CC(=C(C(=C4)O)O)O
#inchikey WMBWREPUVVBILR-WIYYLYMNSA-N
#pubchem_id 65064
#mb_accession LU080851,LU080852,LU080853,LU080854,LU080855,LU080856

>ms2peaks
125.024400 35584.100000
137.024300 5707.700000
161.024300 12482.700000
169.014300 929709.900000
193.014200 5785.400000
205.014200 2634.000000
269.046300 11409.900000
287.056500 21690.700000
305.066800 81581.600000
331.046100 28177.900000

>ms2peaks
123.008600 6036.900000
125.024400 202370.600000
137.024300 12665.600000
139.040100 6654.300000
149.024500 2431.400000
161.024300 33901.200000
165.019100 9843.300000
167.035000 7718.300000
169.014300 836525.200000
177.055400 2304.100000
179.035100 12819.600000
193.014000 24319.300000
201.056500 2159.000000
205.014300 2673.600000
219.066100 11055.700000
221.045800 3521.100000
269.045400 4843.400000
287.056500 4558.600000
305.066800 49674.800000
331.046500 4873.400000

>ms2peaks
57.034600 12137.600000
69.034600 6116.400000
81.034500 5632.900000
83.013900 4183.000000
95.014000 2608.900000
97.029400 6865.700000
105.034400 4066.600000
109.029500 6107.900000
123.008800 7256.300000
124.016600 4614.700000
125.024400 551412.400000
137.024400 17663.100000
139.040100 7235.700000
149.024600 3350.300000
151.040400 3297.900000
161.024400 39044.700000
164.011600 3047.700000
165.019500 11717.200000
167.035200 15549.300000
169.014200 367228.100000
177.055600 6942.700000
179.034800 8383.400000
193.014100 19734.400000
201.055300 3824.200000
219.066100 7423.200000
221.045400 3976.800000

>ms2peaks
57.034500 33766.600000
67.018900 4699.400000
69.034600 24062.400000
79.018900 2327.500000
81.034700 13382.100000
83.014000 9919.200000
95.013900 8415.700000
95.050300 3032.100000
97.029600 26690.100000
105.034700 12187.400000
107.013800 12541.800000
109.029400 11471.200000
121.029600 4318.000000
123.008700 6312.600000
124.016600 6433.800000
125.024400 618155.100000
133.029400 3146.800000
137.024200 17003.200000
139.040100 10079.000000
149.024800 3271.200000
149.060900 2401.400000
151.039700 3674.100000
161.024400 17692.900000
164.011500 5429.700000
165.019400 9503.900000
167.035000 7476.000000
169.014200 78809.100000
177.055800 5678.500000
179.034600 2268.200000
193.014500 9264.800000

>ms2peaks
57.034600 32677.100000
67.019000 5861.100000
69.034600 28619.300000
79.018900 4596.700000
81.034600 9817.700000
83.013900 11117.200000
93.034600 6528.800000
95.013900 9704.900000
95.050300 7285.100000
97.029500 23448.100000
105.034600 8764.400000
107.014000 15392.600000
109.029500 10967.400000
121.029400 4459.500000
123.008700 7068.200000
124.016500 13014.000000
125.024400 249370.300000
133.029600 2658.400000
137.024600 8915.000000
139.039900 4629.900000
149.024300 2264.600000
149.061500 2040.500000
161.024500 5627.500000
165.019500 3628.600000
169.014100 4671.400000
177.055300 2472.500000

>ms2peaks
57.034600 30956.800000
67.019000 6366.800000
69.034600 36576.500000
79.018900 5554.900000
81.034600 5463.800000
83.014000 6438.300000
93.034600 3437.400000
95.013900 7280.300000
95.050300 9819.800000
97.029600 21466.800000
107.013800 10752.700000
109.029500 10507.100000
123.008800 3150.700000
124.016600 14468.900000
125.024400 91229.400000
133.029500 2307.000000
137.024600 5179.400000

