>compound LU82123788
>parentmass 359.9892
>ionization [M-H]-
>formula C14H7ClF3NO5
>rt 1123.560000
>profile orbitrap
#smiles_iso C1=CC(=C(C=C1C(F)(F)F)Cl)OC2=CC(=C(C=C2)[N+](=O)[O-])C(=O)O
#smiles_can C1=CC(=C(C=C1C(F)(F)F)Cl)OC2=CC(=C(C=C2)[N+](=O)[O-])C(=O)O
#inchikey NUFNQYOELLVIPL-UHFFFAOYSA-N
#pubchem_id 44073
#mb_accession LU044551,LU044552,LU044553,LU044554,LU044555,LU044556

>ms2
156.003700 484584.200000
157.006900 411391.800000
176.032700 18441.800000
177.036300 14689.700000
194.983000 21472.700000
315.999200 105731.900000

>ms2
137.011800 5471.800000
194.983000 29287.500000
198.029600 4125.500000
315.998800 6234.000000

>ms2
84.990700 145016.500000
85.994100 8988.500000
110.041000 9175.300000
136.020500 16285.600000
137.012200 4998.700000
156.003800 5661.500000
157.007000 7700.300000
176.032900 50304.400000
177.036300 39722.400000
183.036200 6896.200000
194.983000 44506.800000
198.029500 2944.300000
222.029800 6540.800000

>ms2
68.995600 5019.000000
84.990700 234297.900000
85.994000 14018.300000
110.041300 9361.500000
116.014100 2354.100000
128.031600 2510.400000
136.020400 50576.300000
174.976700 5108.500000
176.032900 10526.500000
177.036100 9261.200000
183.036200 22281.600000
194.983100 40121.600000
222.030200 4383.200000

>ms2
68.995800 3846.600000
84.990700 276380.300000
85.994100 19868.800000
88.019300 3304.400000
110.041100 7681.800000
116.014100 9236.200000
128.031800 2509.600000
136.020400 44963.400000
163.030800 2254.900000
174.976500 3842.000000
183.036200 14955.500000
190.041200 4121.200000
194.983000 16193.900000

>ms2
68.995800 6426.200000
84.990700 281123.100000
85.994100 19735.300000
88.019300 6974.000000
110.041200 3369.400000
116.014200 12014.600000
136.020400 18939.600000
163.029600 2219.000000
174.976600 2259.300000
190.041900 2574.500000
194.982900 3295.300000

