>compound LU82105688
>parentmass 162.0309
>ionization [M-H]-
>formula C7H5N3O2
>rt 604.500000
>profile orbitrap
#smiles_iso C1=CC2=C(C=C1[N+](=O)[O-])NC=N2
#smiles_can C1=CC2=C(C=C1[N+](=O)[O-])NC=N2
#inchikey XPAZGLFMMUODDK-UHFFFAOYSA-N
#pubchem_id 7195
#mb_accession LU092251,LU092252,LU092253,LU092254,LU092255,LU092256

>ms2
91.030300 19282.300000
92.037900 13662.700000
115.030200 13197.300000
116.037600 30920.400000
119.024900 13058.800000
132.032800 1559205.000000
162.030800 12958016.000000

>ms2
91.030200 13232.400000
115.030200 13736.800000
116.037600 37222.100000
132.032900 1496972.500000
162.030900 12911808.000000

>ms2
91.030200 120309.900000
92.038000 64233.500000
95.025100 22964.100000
104.038100 81671.800000
108.033000 53069.900000
115.029800 26484.500000
116.037900 140940.800000
118.041100 15276.300000
119.025000 97435.900000
132.032900 5117318.500000
147.020100 10387.800000
162.030900 9271906.000000

>ms2
65.014600 10574.900000
65.998500 8276.500000
67.030200 14704.900000
68.014200 6876.000000
91.030200 295815.000000
92.038000 158052.000000
93.022100 16729.900000
95.025100 47132.000000
104.038000 260932.900000
105.021700 7625.600000
107.025200 8523.100000
108.032900 151608.800000
115.030100 130582.000000
116.038000 297715.100000
118.040900 16130.800000
119.025100 262406.300000
132.032900 6062986.000000
147.020100 23511.100000
162.030900 3655891.500000

>ms2
64.019300 9411.300000
65.014600 8851.300000
65.998500 13554.200000
67.030200 19885.000000
68.014200 12280.300000
88.019300 8319.300000
91.030200 466834.200000
92.038000 226367.400000
93.022000 22306.500000
95.025100 76334.900000
104.038100 537677.600000
105.022100 22136.900000
107.025200 11258.700000
108.033000 252143.000000
115.030200 786802.900000
116.038000 407462.600000
118.041100 5235.500000
119.025100 454241.900000
132.032900 5001050.000000
147.020100 30844.200000
162.031000 1244088.200000

>ms2
64.019200 29267.500000
65.014600 11688.900000
65.998400 16544.600000
67.030100 20560.500000
68.014200 11871.500000
88.019200 25658.900000
91.030200 435328.100000
92.038000 204496.800000
93.022000 18874.600000
95.025100 83207.900000
97.004100 2832.000000
104.038000 537934.700000
105.022000 35258.600000
106.017400 5637.500000
107.025100 11437.800000
108.032900 220060.800000
115.030100 2038295.200000
116.038000 375589.500000
119.025100 411035.500000
120.033100 4312.600000
132.032900 2454127.200000
135.020100 4334.200000
147.020100 29724.300000
162.030900 257714.400000

