>compound LU82764935
>parentmass 393.0668
>ionization [M-H]-
>formula C19H11F5N2O2
>rt 1142.760000
>profile orbitrap
#smiles_iso C1=CC(=CC(=C1)OC2=C(C=CC=N2)C(=O)NC3=C(C=C(C=C3)F)F)C(F)(F)F
#smiles_can C1=CC(=CC(=C1)OC2=C(C=CC=N2)C(=O)NC3=C(C=C(C=C3)F)F)C(F)(F)F
#inchikey WYEHFWKAOXOVJD-UHFFFAOYSA-N
#pubchem_id 91735
#mb_accession LU059451,LU059452,LU059453,LU059454,LU059455,LU059456

>ms2
65.003300 31029.700000
66.035000 5391.800000
68.995800 9566.700000
85.009500 45039.200000
96.025600 5253.200000
143.011400 3582.600000
161.021800 24610.500000
185.051900 61460.000000
229.041700 5274.600000
252.044200 123627.000000
272.050500 673509.400000
289.058100 3095.300000
296.033900 21348.100000
302.060200 3829.900000
309.064500 236574.900000
321.047400 4559.500000
325.059400 29833.200000
327.054700 6868.200000
327.075300 10573.500000
328.062800 2785.000000
329.070700 1172525.400000
345.065500 18954.100000
346.049200 5265.900000
349.076700 27970.500000
353.054200 303279.700000
355.050000 2926.500000
373.060500 641179.400000
393.066900 1291684.400000

>ms2
65.003300 73407.500000
66.035000 7859.400000
68.995800 30721.100000
76.019300 4373.800000
85.009500 19923.600000
96.025600 35815.900000
140.015700 2512.900000
143.011500 16601.800000
152.015800 3667.400000
160.038300 3204.400000
161.022000 59793.900000
176.015000 3520.200000
185.052000 313283.500000
186.036200 13569.000000
211.031500 6668.300000
228.033700 4341.700000
229.041800 34607.400000
238.048600 6304.000000
252.044200 163157.000000
259.066300 2845.300000
263.043800 4279.200000
269.051900 3899.100000
272.050500 1682441.800000
276.028000 13968.800000
289.058300 76011.700000
293.052800 16816.800000
296.033900 11112.500000
297.064500 10704.200000
302.060100 27794.900000
305.053300 5987.500000
309.064600 302099.800000
321.047500 4770.400000
324.051000 5264.100000
325.059400 118062.600000
326.043200 4101.700000
327.054500 7752.600000
327.075200 3354.700000
328.062900 30109.500000
329.070800 778763.400000
333.047800 19325.300000
335.044100 11236.700000
336.035600 3997.500000
345.065500 74190.500000
346.049900 9459.500000
349.076600 8745.300000
352.045300 3223.900000
353.054300 408944.100000
355.049600 13366.200000
373.060500 177314.300000
393.068100 6690.300000

>ms2
65.003300 72229.400000
66.034900 4044.100000
68.995800 37883.800000
76.019400 3871.700000
85.009500 4469.400000
89.003200 4075.400000
94.029900 4994.400000
96.025500 71907.000000
109.009400 3628.500000
140.015500 2687.900000
143.011300 17215.400000
152.015400 7003.600000
160.038500 2962.200000
161.021900 70539.900000
166.029900 10245.800000
176.015100 4416.900000
183.036800 2532.300000
185.052000 451922.800000
186.036000 47419.200000
198.036600 2854.300000
200.039300 10099.400000
201.047100 7911.600000
209.034800 4760.900000
211.031700 10673.400000
212.031600 25588.300000
228.033900 9147.000000
229.041800 64458.900000
232.037700 35609.300000
235.048800 14671.300000
238.048800 17541.200000
250.027500 2488.100000
252.044200 766684.400000
257.051800 9741.000000
259.067500 4966.400000
263.019900 5173.800000
263.044300 18494.300000
264.050200 3614.600000
267.031400 9438.200000
268.044700 6620.400000
269.052100 52479.100000
270.035100 30105.300000
271.031000 2964.500000
272.050500 977857.600000
276.028200 13539.100000
277.058100 6134.000000
284.034100 6974.200000
285.047100 30999.700000
288.051200 4036.700000
289.058300 121948.400000
293.053100 11906.500000
296.056300 6010.800000
297.064300 26567.200000
301.041400 4313.200000
302.059700 21937.800000
305.053300 21374.500000
307.048700 8464.300000
308.056300 2593.800000
309.064600 117315.800000
313.041400 14104.700000
321.047400 2728.900000
324.051500 31913.000000
325.059400 117569.900000
326.042200 4264.500000
327.055000 6586.600000
327.075400 2883.400000
328.063100 43831.900000
329.070700 110041.700000
333.048600 19852.600000
335.043900 34057.600000
336.035400 6646.600000
345.065100 27955.500000
346.049500 6827.300000
352.046300 7239.700000
353.054300 106340.700000
355.050000 5040.700000
373.060200 23132.600000

>ms2
50.003500 3630.600000
62.988800 3604.800000
65.003300 58907.100000
66.035000 2818.800000
68.995700 26574.000000
73.008400 3628.100000
76.019300 6285.800000
85.009400 2475.700000
89.003300 8690.700000
92.995700 2785.100000
94.029900 8855.500000
96.025500 92219.100000
108.025500 4328.200000
109.009600 4761.400000
121.009600 2526.200000
136.020500 2491.000000
143.011300 10795.100000
152.015400 16686.700000
159.036500 3053.300000
161.022000 78173.400000
165.045800 63122.900000
166.029800 39076.500000
176.015500 2591.000000
180.032900 16269.800000
181.041000 2844.000000
183.011900 4510.000000
183.036400 3744.300000
185.033200 23052.800000
185.052000 405142.900000
186.036100 33746.700000
188.031800 9062.600000
192.025700 15959.000000
195.036800 3890.500000
198.035900 2897.200000
200.039300 15709.600000
201.047000 12896.700000
202.047100 3066.500000
209.034900 10563.900000
211.031600 6901.300000
212.031700 332122.100000
215.042900 2845.100000
217.034800 6749.200000
218.041000 2439.200000
228.034400 7774.300000
229.041900 45600.100000
230.042600 3434.600000
232.037900 151370.300000
235.025300 7950.500000
235.048700 16833.300000
237.045900 8779.600000
238.048800 9218.400000
242.041800 4279.500000
243.013900 4016.900000
243.037700 7370.700000
249.046000 16682.600000
250.029000 11333.100000
252.044200 972574.600000
257.052100 29681.300000
263.020000 18427.800000
263.043600 22788.300000
264.050500 3591.800000
265.040400 16247.000000
267.032200 10710.700000
268.044600 10089.500000
269.051900 56589.800000
270.034800 88973.200000
271.031700 2627.600000
272.050500 164243.200000
276.028600 4138.300000
277.057800 12565.200000
282.053500 4113.800000
283.050300 6986.600000
284.035300 7198.600000
285.046900 42058.300000
288.049700 13661.900000
289.058500 42129.200000
296.056700 15552.700000
297.064500 13362.900000
301.042000 4742.200000
305.053200 8373.900000
307.048800 16291.400000
308.056900 6573.600000
309.064000 17508.700000
313.041900 5838.700000
324.051300 23783.600000
325.059600 29163.700000
329.070800 7477.600000
335.043800 20355.300000
336.036500 4769.100000
353.055200 7885.200000

>ms2
50.003600 5353.200000
62.988900 3560.600000
65.003300 48984.000000
65.998600 3435.100000
66.034900 3513.900000
68.995700 20820.600000
73.008400 16448.300000
74.003700 2975.600000
76.019300 10693.100000
88.019200 5448.300000
89.003300 11015.600000
92.014200 2467.600000
92.995800 5111.400000
93.014700 4632.100000
94.029900 14463.800000
96.025500 94477.000000
98.003500 2448.200000
108.025400 8188.800000
114.034900 2348.600000
121.009600 12810.600000
128.032000 3808.700000
135.036200 6018.100000
136.020600 6205.100000
138.035000 10319.500000
140.015500 2570.200000
141.015800 6068.900000
143.011600 5985.000000
152.015400 17109.600000
153.045900 5119.300000
159.036400 14805.400000
160.037500 4473.300000
161.021900 65927.200000
165.045800 163050.700000
166.029800 32719.700000
172.019600 12728.300000
180.033100 12216.400000
181.040900 9376.600000
182.041000 5635.600000
183.036200 3610.600000
185.033100 21141.600000
185.052000 290463.000000
186.036400 10396.800000
188.031500 10649.900000
192.025500 172354.400000
195.036300 14198.800000
200.039400 9653.300000
201.047000 4504.700000
202.047300 9155.400000
209.034700 9211.800000
210.016300 2257.300000
211.031500 5077.200000
212.031700 677170.500000
213.047200 3337.500000
215.042700 3914.900000
217.034400 7415.500000
220.037900 3732.100000
222.035000 3990.400000
223.031100 4116.600000
228.035500 2519.200000
229.041900 19885.400000
230.022600 25716.100000
230.041900 9098.300000
232.038000 117506.100000
235.025500 9754.900000
235.048400 14223.800000
238.048100 4052.800000
243.014000 3580.800000
243.037100 3835.400000
250.028300 13069.800000
252.044200 374291.300000
257.052200 20151.000000
263.020000 19396.300000
263.043400 17515.300000
265.040500 15553.300000
267.036100 10144.100000
268.044300 12622.900000
269.051900 22417.900000
270.034800 81977.400000
272.051000 8960.500000
282.054000 2474.000000
283.050400 3176.700000
284.038800 3757.300000
285.046900 18054.000000
288.049900 5771.300000
296.056900 6821.100000
307.049200 8334.100000
324.051900 6057.700000
335.043100 3597.400000

>ms2
50.003500 11990.400000
65.003300 37186.500000
65.998600 5908.400000
66.034900 3234.600000
68.995800 16009.600000
73.008400 36147.700000
74.003600 8371.100000
76.019300 12092.300000
88.019300 9252.100000
89.003500 10466.900000
92.014200 4931.900000
92.995800 2488.900000
93.014500 5538.700000
94.029800 15863.700000
96.025500 71851.700000
98.003500 12187.400000
108.025500 17915.300000
114.035000 4231.200000
121.009500 15692.200000
128.031600 8562.800000
135.036500 21401.400000
136.020100 2602.500000
138.035100 15808.100000
140.015300 3041.300000
141.015800 7664.000000
143.011100 2811.000000
152.015500 10334.500000
153.046000 6858.400000
159.036400 36038.500000
160.038100 14452.000000
161.021900 35855.000000
165.045800 194109.800000
172.019400 59584.700000
180.033300 5423.900000
181.040800 7547.500000
182.041200 9368.600000
183.012000 4367.400000
183.036800 7182.100000
185.033400 6468.900000
185.052000 112521.400000
186.035900 3516.800000
188.031500 2429.700000
192.025600 441250.000000
195.036500 20974.100000
202.047500 5826.800000
209.034400 4299.000000
210.016200 10097.300000
212.031800 464016.000000
213.047000 5502.000000
218.040600 2712.300000
220.037600 2425.500000
222.035200 2481.800000
223.031800 2771.400000
229.042000 4392.000000
230.022200 49708.100000
230.041800 3370.300000
232.037900 37335.800000
235.025300 3108.200000
235.048200 4736.600000
237.046000 19178.100000
242.042100 2777.000000
243.014000 3285.000000
249.045800 7551.700000
250.028900 9159.200000
252.044000 49554.300000
257.052400 8906.000000
263.020000 9379.600000
263.044000 5523.000000
265.040600 9407.800000
267.036000 7294.300000
268.044200 7417.100000
270.034600 33346.800000
288.051200 2301.000000

