>compound LU83776122
>parentmass 349.0362
>ionization [M-H]-
>formula C20H14O2S2
>rt 1165.860000
>profile orbitrap
#smiles_iso C1=CC2=C(C=CC(=C2)SSC3=CC4=C(C=C3)C=C(C=C4)O)C=C1O
#smiles_can C1=CC2=C(C=CC(=C2)SSC3=CC4=C(C=C3)C=C(C=C4)O)C=C1O
#inchikey AHXGXXJEEHFHDK-UHFFFAOYSA-N
#pubchem_id 22463
#mb_accession LU037051,LU037052,LU037053,LU037054,LU037055,LU037056

>ms2
174.014500 4756172.500000
175.022300 245568.300000

>ms2
174.014500 4476535.000000
175.022200 417644.100000

>ms2
143.050300 5009.100000
146.019500 41583.700000
174.014400 4767602.000000
175.022200 547555.100000

>ms2
115.055100 4273.100000
143.050200 19550.100000
146.019600 236669.500000
147.027600 4054.000000
174.014400 3153026.800000
175.022200 380840.000000

>ms2
115.055200 8498.600000
130.042400 5386.800000
141.034600 6131.400000
143.050200 56863.900000
146.019600 494320.000000
147.027600 10652.800000
174.014400 1971463.600000
175.022300 195402.900000

>ms2
115.055300 5716.300000
130.042300 8049.300000
141.034700 16646.400000
143.050200 55527.700000
146.019600 384982.500000
147.027600 4365.900000
174.014500 830497.800000
175.022300 56231.800000

