>compound LU83589012
>parentmass 380.0686
>ionization [M-H]-
>formula C17H14F3N3O2S
>rt 1077.900000
>profile orbitrap
#smiles_iso CC1=CC=C(C=C1)C2=CC(=NN2C3=CC=C(C=C3)S(=O)(=O)N)C(F)(F)F
#smiles_can CC1=CC=C(C=C1)C2=CC(=NN2C3=CC=C(C=C3)S(=O)(=O)N)C(F)(F)F
#inchikey RZEKVGVHFLEQIL-UHFFFAOYSA-N
#pubchem_id 2662
#mb_accession LU045451,LU045453,LU045454,LU045455,LU045456

>ms2
316.106700 306641.200000
380.068500 16943290.000000

>ms2
61.970600 119931.500000
63.962400 35501.100000
65.014600 7309.400000
68.995700 3999406.500000
75.005100 6288.600000
77.014400 11100.900000
77.965500 272462.000000
78.973300 46418.900000
79.981200 401168.900000
88.000400 143737.000000
103.030300 19546.000000
105.045700 10710.700000
106.053700 26826.000000
108.006700 99581.500000
115.030100 6203.800000
116.050600 14408.500000
117.045900 8899.100000
129.045800 29916.700000
130.053500 130388.100000
131.038100 5942.500000
132.025600 5135.000000
135.036600 5716.500000
139.030200 121480.700000
142.040800 4795.400000
155.042700 18431.700000
155.049200 7855.500000
159.036400 571895.800000
179.042600 840407.400000
180.026400 25605.500000
198.072400 13938.900000
207.093100 21996.200000
218.097600 14859.300000
219.092800 22083.700000
220.088000 14797.300000
220.100500 24932.100000
221.095900 224122.800000
221.108300 71331.800000
222.080700 9373.800000
222.092500 7689.000000
222.103700 21970.400000
224.056600 25646.600000
225.064600 326482.100000
228.081900 27053.400000
229.077100 38963.500000
232.087700 7012.000000
245.096100 43385.400000
246.103600 197901.100000
247.111400 952459.500000
249.083300 226003.200000
251.098800 41220.300000
255.080800 31383.700000
256.088000 291117.900000
257.071900 14428.800000
267.086600 7513.200000
268.094300 189873.300000
269.090200 126535.100000
274.078600 9011.200000
275.086500 116452.400000
276.094100 1809392.100000
277.078300 61287.100000
287.070400 4423.200000
295.092500 101184.700000
296.100300 907023.500000
297.084200 16673.400000
307.075600 5905.900000
315.098900 80726.600000
316.106500 1228060.500000
317.090400 117558.500000
380.068500 402319.800000

>ms2
61.970600 459671.200000
63.962400 143372.400000
65.014500 16134.000000
68.995800 4612310.500000
77.014600 5437.200000
77.965500 630257.400000
78.973300 147050.400000
79.981200 713041.900000
88.000400 223085.700000
88.019300 24839.400000
105.045800 5734.500000
106.053600 41637.200000
108.006600 44750.500000
108.025500 13980.500000
112.019400 16891.900000
115.030100 22576.700000
116.050500 23996.200000
117.046000 17344.800000
129.045800 28334.100000
130.053600 221566.300000
131.037700 26422.000000
132.025600 21710.500000
139.030200 459101.300000
142.041100 13450.000000
155.042400 11703.000000
155.049100 24110.700000
156.056900 40395.600000
157.046000 26695.000000
159.036400 757699.700000
160.020500 21153.100000
166.040600 5397.300000
177.052000 39467.900000
178.066500 6405.500000
179.042600 277966.700000
180.026600 26971.300000
183.012200 8808.300000
184.015300 8639.900000
198.040900 87819.500000
198.072300 14252.700000
205.076900 8948.400000
207.092900 21505.700000
218.097700 11909.100000
219.093100 9425.700000
220.088100 21341.700000
220.100800 23494.200000
221.096000 133426.500000
221.108300 18818.500000
222.081400 21140.800000
222.092100 7279.600000
222.104100 13758.600000
224.056600 44570.900000
227.074400 7150.600000
229.077000 84197.700000
232.088100 9515.200000
245.095800 31692.500000
246.103600 43445.100000
247.111400 312429.200000
248.074900 22161.400000
249.083300 223544.200000
251.099000 18511.100000
254.073000 10372.900000
255.080300 62670.000000
256.088100 178747.800000
257.072100 11418.100000
267.086200 4617.300000
268.094700 15498.900000
269.090300 32684.900000
274.078900 15693.400000
275.086600 92610.200000
276.094200 510922.500000
277.077900 62098.500000
295.091800 11444.200000
296.100500 57887.800000
297.084000 5914.300000
307.076600 9856.800000
315.098600 16714.200000
316.105700 23191.700000
317.090300 17278.300000

>ms2
61.970600 906358.800000
63.962500 352891.200000
64.019200 20308.700000
65.014500 34318.000000
68.995800 3476902.800000
74.003500 6851.900000
75.004900 4901.900000
77.965600 810308.800000
78.973400 183682.000000
79.981200 623599.100000
88.000500 207085.900000
88.019300 84442.200000
89.014500 13009.300000
103.042800 9400.500000
106.053500 13003.100000
107.037800 5025.700000
108.006700 11357.200000
108.025500 22920.100000
112.019300 57660.700000
115.030200 29438.400000
116.050500 16744.100000
117.045900 19567.800000
118.030000 4458.400000
129.045900 33478.300000
130.053700 81649.000000
131.037600 20234.100000
132.025400 40662.900000
135.036400 5088.000000
138.022300 9797.100000
139.030200 596698.000000
140.013800 4425.900000
142.040900 5868.100000
155.048900 35626.100000
155.061400 7577.000000
156.056800 41704.900000
157.046000 115122.300000
159.036400 332511.200000
160.020200 21140.200000
177.052200 97391.400000
178.066500 5453.300000
179.042800 36110.500000
180.026600 11062.900000
183.012100 11668.500000
184.015200 5870.000000
198.041000 29965.100000
198.072300 7426.400000
199.025000 4203.900000
205.077300 11062.500000
207.092900 8531.200000
219.092900 3913.800000
220.101100 9123.500000
221.096300 26397.100000
221.107600 6830.200000
224.057000 27293.300000
225.064500 300410.100000
227.074200 9451.500000
228.081700 7163.400000
229.076900 46928.600000
232.087600 7728.500000
245.095900 15589.600000
246.103100 8312.900000
247.111500 26816.500000
248.075600 43040.100000
249.083400 104133.900000
255.080400 48702.900000
256.088200 45207.800000
274.078300 13746.200000
275.086600 34635.400000
276.094300 61481.900000
277.078100 20763.700000
287.070400 8262.100000
307.076100 3976.700000

>ms2
61.970600 1172398.100000
63.962500 602014.400000
64.019300 44511.900000
65.014600 46661.000000
68.995800 2435654.000000
74.003700 13722.800000
75.005200 4581.300000
77.965500 856136.000000
78.973400 198356.300000
79.981200 416658.600000
88.000400 156677.200000
88.019300 137209.100000
89.014600 23804.600000
103.043000 4440.400000
106.053700 5536.700000
107.037800 4533.600000
108.025600 19786.800000
112.019300 108192.900000
115.030100 19338.100000
116.050900 8993.400000
117.046000 14354.600000
118.030200 7412.700000
129.045900 26675.400000
130.053800 21009.900000
131.037700 12007.200000
132.025500 27977.200000
138.022600 5219.600000
139.030200 378041.700000
140.014500 4824.700000
142.041400 8439.400000
155.048900 21621.300000
155.061800 4929.100000
156.057100 13019.000000
157.046000 124635.800000
159.036400 93216.300000
160.020900 16384.000000
166.041500 4939.800000
177.052100 67615.700000
178.066600 6130.700000
183.012500 6188.100000
198.041700 7821.600000
222.081000 4720.700000
224.057600 11547.800000
225.064600 84734.300000
248.075700 30283.500000
249.083100 24823.800000
254.073500 8324.900000
255.081400 14620.000000

