>compound LU83758408
>parentmass 189.9468
>ionization [M-H]-
>formula C6H3Cl2NO2
>rt 592.620000
>profile orbitrap
#smiles_iso C1=CC(=NC(=C1Cl)C(=O)O)Cl
#smiles_can C1=CC(=NC(=C1Cl)C(=O)O)Cl
#inchikey HUBANNPOLNYSAD-UHFFFAOYSA-N
#pubchem_id 15553
#mb_accession LU016751,LU016752

>ms2
101.951900 2915.500000
145.957000 20492.700000

>ms2
101.951900 3587.500000
145.956900 11492.000000

