>compound LU83094168
>parentmass 316.0551
>ionization [M-H]-
>formula C12H10F3N3O4
>rt 1000.140000
>profile orbitrap
#smiles_iso CC1(C(=O)N(C(=O)N1)C2=CC(=C(C=C2)[N+](=O)[O-])C(F)(F)F)C
#smiles_can CC1(C(=O)N(C(=O)N1)C2=CC(=C(C=C2)[N+](=O)[O-])C(F)(F)F)C
#inchikey XWXYUMMDTVBTOU-UHFFFAOYSA-N
#pubchem_id 4493
#mb_accession LU027951,LU027952,LU027953,LU027954,LU027955,LU027956

>ms2peaks
84.045600 77307.900000
205.023100 2716145.500000
273.049500 1761546.200000
301.031600 166610.800000
316.055000 39576700.000000

>ms2peaks
84.045500 608880.900000
110.024800 85712.000000
173.009300 22144.600000
190.012100 158909.200000
199.038000 22382.600000
202.012100 318723.300000
204.027800 160003.500000
205.022900 12171481.000000
206.006700 18631.900000
226.049000 34907.300000
230.018100 18260.700000
231.002000 54179.600000
232.010100 115738.000000
242.043400 23072.200000
243.050700 22486.300000
254.031300 22094.600000
273.049300 16992502.000000
301.031500 920618.400000
316.054900 12394283.000000

>ms2peaks
55.018900 268092.200000
65.998500 56823.800000
68.995800 28440.900000
70.994000 23708.200000
74.003700 26774.700000
84.045500 339420.400000
86.988800 64120.200000
93.009400 22522.600000
101.014300 19727.000000
110.024700 41128.600000
126.034900 30246.500000
141.045800 75909.800000
154.011000 25755.200000
155.018800 26214.500000
165.010600 42219.400000
169.040700 42074.600000
173.009400 53894.600000
174.017500 20754.000000
175.025000 228029.000000
175.043700 26091.200000
182.005900 88148.900000
185.022100 21275.100000
185.035500 23598.000000
186.016900 54511.400000
186.036100 25114.200000
189.016900 38172.800000
190.012100 520108.600000
199.026900 19307.600000
199.037600 346245.600000
200.033100 35465.600000
200.045500 70831.300000
200.069300 51955.800000
202.012200 1802011.100000
203.047000 49884.400000
204.027800 251378.400000
205.022900 6811101.000000
206.006900 348845.300000
206.042600 91677.800000
208.021400 24860.900000
209.029500 19831.500000
211.025000 29594.600000
212.032500 20591.400000
214.012200 21368.700000
214.048200 18703.700000
215.032700 35163.100000
215.056000 23953.700000
222.037100 141277.700000
225.040500 62798.800000
226.048500 321040.500000
227.032700 40652.300000
227.056300 257014.500000
228.027900 136539.000000
230.043300 98973.700000
231.002000 72134.700000
232.009900 182008.400000
242.043400 378930.300000
243.015000 28407.100000
243.051100 147575.500000
245.054300 42231.200000
254.031000 91520.200000
255.038800 36293.200000
257.030600 35472.500000
258.025300 62030.100000
271.033800 79491.500000
273.049300 17287548.000000
301.031500 356803.800000
316.054800 425077.200000

>ms2peaks
50.003600 24891.200000
55.018900 755526.800000
65.014600 10982.500000
65.998600 192566.100000
68.995800 46589.000000
70.993900 67486.300000
74.003700 51216.300000
77.014600 30620.700000
84.045500 121107.500000
86.988800 91549.400000
89.014600 12147.000000
89.998400 25807.100000
90.034900 11155.600000
91.006300 18437.800000
92.014100 27216.200000
93.009500 30494.300000
100.019300 24525.200000
101.014700 42748.100000
107.017600 18886.400000
108.990600 15162.500000
110.004800 9310.300000
111.000000 21016.800000
113.998900 19040.300000
114.035000 25812.600000
115.030100 11263.700000
118.029700 20216.500000
120.009400 9620.100000
123.012500 22351.900000
126.016200 27635.200000
126.034800 50206.700000
134.004800 27003.100000
135.012600 32466.700000
135.025000 9917.600000
138.016200 13964.100000
138.995200 8363.200000
139.030300 11327.500000
141.045900 109459.600000
142.029800 29473.400000
143.013800 8947.600000
146.023500 28724.800000
149.028400 13019.600000
154.011000 128984.400000
155.018800 83391.800000
155.037600 18874.900000
156.026900 15949.300000
156.045500 61607.300000
157.041000 12984.500000
158.023700 9897.700000
158.040800 22839.300000
158.061400 11875.000000
160.038000 249032.100000
161.999300 46350.900000
162.017000 14801.300000
163.001400 10922.200000
165.010400 66649.100000
166.011100 10269.000000
166.029900 26306.700000
167.037700 14662.600000
169.040900 33605.800000
170.024800 8979.400000
173.009400 61281.000000
173.048300 19737.200000
174.017300 38697.300000
174.036500 14978.900000
175.025000 547809.900000
175.043500 35325.500000
176.009100 105587.700000
179.031500 107953.800000
180.026600 22179.600000
182.005900 542882.100000
183.042500 97725.000000
184.038000 20248.300000
185.009300 35441.700000
185.022000 122605.700000
185.035900 15007.100000
186.017300 106529.600000
186.036100 164527.200000
187.043900 69594.800000
187.996700 23848.400000
188.032500 20818.600000
189.016800 61333.700000
190.012200 854782.100000
192.026800 11607.400000
194.042000 19454.000000
195.014000 14081.000000
198.053900 48539.300000
199.037600 1265377.800000
200.022900 13614.400000
200.032900 77286.300000
200.045500 102146.900000
200.069000 55317.200000
201.005000 21104.700000
202.012200 3594494.200000
203.047200 49987.100000
204.027500 127460.500000
205.023000 2087183.200000
206.007000 707139.100000
206.042300 233856.100000
207.025800 15499.000000
208.021600 45854.700000
209.029300 40667.200000
211.025100 46252.000000
211.037300 23642.800000
212.032900 64922.800000
214.012000 25769.100000
214.048800 33395.400000
215.032600 42940.100000
215.055700 25702.700000
222.037200 341813.300000
225.040800 87251.400000
226.048600 934189.800000
227.056300 501796.400000
228.027800 213833.300000
229.048200 14053.300000
230.043400 95137.000000
231.002600 60276.000000
232.009500 49812.300000
241.035600 15868.900000
242.043500 507122.900000
243.015400 12943.000000
243.038300 20241.100000
243.051100 107945.500000
245.054000 21338.900000
254.031000 50344.800000
255.039500 26569.100000
257.031200 23647.100000
258.025300 53435.600000
271.033700 68567.300000
273.049400 4347702.500000
301.031000 15918.300000

>ms2peaks
50.003500 48577.600000
55.018900 799508.900000
65.014600 14940.700000
65.998500 254882.800000
68.995700 49527.500000
70.993800 75292.200000
74.003700 64105.900000
76.019200 9358.200000
77.014600 11740.700000
84.045500 25242.500000
86.988800 71534.300000
87.011500 42122.400000
89.014500 8443.400000
89.998500 30794.700000
90.034800 10282.600000
91.006300 14624.900000
92.014100 23157.500000
92.995700 8813.000000
93.009400 21870.600000
98.003500 17263.400000
100.019300 18951.500000
101.014400 29121.900000
106.009700 37951.400000
107.017600 28753.000000
108.990600 20013.600000
110.004800 8340.500000
110.024900 9947.400000
111.000000 12239.800000
113.998500 62962.900000
114.015800 8584.400000
114.034700 33385.000000
115.030100 10834.500000
116.014000 11860.900000
118.009900 111889.700000
118.029600 11942.600000
120.009100 10706.400000
123.012500 27195.300000
126.016000 110374.700000
126.034900 22539.400000
131.001400 8799.900000
131.030200 49613.800000
132.025300 9535.200000
134.004700 160925.600000
134.041000 16280.800000
135.012800 14827.700000
135.025000 12627.400000
136.020500 21832.100000
138.015900 95328.500000
138.035000 42482.000000
139.030400 11648.100000
141.045900 40980.100000
142.030000 11346.800000
143.013400 35239.800000
145.029300 14484.200000
146.022700 31017.200000
149.028400 15481.500000
151.007500 11546.600000
154.011000 287409.900000
155.018800 53856.800000
155.037500 25661.400000
156.026500 15123.400000
156.045500 88794.000000
157.040600 13114.700000
158.022300 30589.200000
158.041000 42845.400000
158.060900 12170.600000
159.025000 32643.200000
160.038000 944256.000000
161.999600 140189.800000
162.017100 11581.400000
163.001000 13862.000000
163.036400 24560.600000
166.011000 30464.100000
166.029800 57002.400000
167.037500 29996.800000
173.009400 40359.100000
173.048100 16715.300000
174.017200 30720.000000
175.025000 333525.000000
176.009100 187771.000000
178.047400 9771.700000
179.031400 279381.500000
180.026800 41899.600000
182.005900 1292551.200000
183.042600 265899.400000
184.037900 41582.200000
185.009400 29077.800000
185.021800 152906.900000
186.017200 344459.800000
186.036000 426206.600000
187.043900 76584.400000
187.996600 23482.800000
188.033400 23589.300000
189.017200 12462.200000
190.012100 353364.200000
192.026500 28162.300000
194.041800 22627.400000
195.014000 10936.600000
198.053400 86362.000000
199.037600 1013313.600000
200.022800 9100.400000
200.032700 40967.500000
200.045100 27196.500000
200.069400 8871.900000
201.004700 14946.300000
202.012200 2650384.000000
204.027600 30398.700000
205.023000 355592.300000
206.007000 336714.200000
206.042200 369507.200000
207.026200 12216.300000
208.021700 42120.000000
209.029000 15853.800000
211.025500 22604.600000
211.037500 35963.300000
212.032500 96384.800000
214.048500 18397.200000
215.031900 13949.300000
215.056800 12150.000000
222.037300 218603.900000
224.033100 14304.600000
225.040700 50792.000000
226.048500 1242489.200000
227.032300 10518.200000
227.056400 188601.000000
228.027800 92370.000000
229.048000 34161.800000
230.043300 34357.900000
231.002400 18921.400000
232.009000 8995.200000
241.036100 18056.800000
242.043500 180390.200000
243.051100 25378.900000
254.031400 15041.500000
271.034100 21815.200000
273.049400 300868.600000

>ms2peaks
50.003500 67910.400000
55.018900 586375.900000
65.998600 260431.300000
68.995800 73778.900000
70.993900 43740.000000
74.003700 75191.700000
76.019300 33048.700000
86.988700 37270.300000
87.011400 107818.600000
89.998500 39642.200000
92.995700 20103.500000
93.009500 16086.300000
98.003700 99343.400000
100.019400 20457.700000
106.009900 103252.100000
107.017600 30688.300000
108.990800 17972.500000
110.004700 13538.600000
111.000200 12028.700000
113.998500 154738.300000
114.016100 24662.700000
114.034600 12689.700000
116.014100 19051.200000
118.009900 299385.200000
118.030200 16078.100000
123.012400 22674.300000
126.016100 233848.600000
131.000900 10199.100000
131.030200 108530.100000
132.025500 22717.400000
134.004800 318241.700000
134.041200 26242.600000
135.024900 16522.800000
136.020100 11031.600000
138.016100 145554.300000
138.034900 114965.800000
142.030100 11825.800000
143.011000 94317.500000
145.029300 20864.300000
146.022200 22855.600000
154.011000 288548.600000
155.019100 27739.100000
155.037800 17125.400000
156.045500 85688.500000
158.022400 31736.600000
158.041100 82497.100000
159.024500 68447.900000
160.038000 1086356.200000
161.999700 223417.100000
162.016900 11493.200000
163.036500 61869.500000
166.010900 51605.900000
166.029900 97598.400000
173.009300 29981.200000
173.048400 14027.400000
174.017900 13975.300000
174.036000 55872.800000
175.025100 105899.200000
176.009000 160866.200000
178.047600 15310.800000
179.031400 260767.000000
180.026800 33040.800000
182.006000 1091365.100000
183.042700 303187.400000
184.037800 13209.000000
185.009400 10755.600000
185.021800 102046.200000
186.017200 335444.900000
186.036000 700818.900000
187.043900 30625.200000
190.012000 38385.400000
192.026500 51308.800000
194.041800 14795.100000
198.053300 58648.000000
199.026900 22736.900000
199.037600 435504.000000
202.012200 940618.700000
204.027800 15228.800000
205.023300 65843.400000
206.007000 90301.200000
206.042400 356456.600000
211.037400 21704.100000
212.032600 37764.700000
222.037600 83272.500000
225.040300 19439.400000
226.048600 533473.100000
227.056400 34952.500000
228.028500 17414.500000
230.043600 18539.800000
242.043700 22181.200000

