>compound LU83279260
>parentmass 156.9965
>ionization [M-H]-
>formula C6H6O3S
>rt 323.220000
>profile orbitrap
#smiles_iso C1=CC=C(C=C1)S(=O)(=O)O
#smiles_can C1=CC=C(C=C1)S(=O)(=O)O
#inchikey SRSXLGNVWSONIS-UHFFFAOYSA-N
#pubchem_id 7371
#mb_accession LU136951,LU136952,LU136953,LU136954,LU136955,LU136956

>ms2peaks
79.957300 156299.100000
93.034600 290348.300000
156.996500 4205635.500000

>ms2peaks
79.957300 171573.200000
93.034600 324276.800000
156.996500 4462382.000000

>ms2peaks
79.957400 785963.900000
80.965200 3925.000000
93.034600 998371.200000
156.996500 3540600.000000

>ms2peaks
65.039700 8125.500000
79.957400 2098570.000000
80.965100 11016.800000
93.034600 1586961.800000
156.996400 1856456.100000

>ms2peaks
65.039700 21777.400000
79.957400 2878809.500000
80.965100 15276.500000
93.034600 1431219.200000
156.996400 598521.100000

>ms2peaks
65.039600 46145.900000
79.957400 3440259.500000
80.965100 22618.800000
93.034600 1077905.400000
156.996500 166483.600000

