>compound LU83352888
>parentmass 573.361
>ionization [M-H]-
>formula C35H47FN4O2
>rt 880.500000
>profile orbitrap
#smiles_iso CCN1C(=CC(=N1)CC2=CC=CC=C2)C3CCN(CC3)C[C@H]4C[C@@H](C[C@@H]4C5=CC(=CC=C5)F)N(C)[C@H](C(C)C)C(=O)O
#smiles_can CCN1C(=CC(=N1)CC2=CC=CC=C2)C3CCN(CC3)CC4CC(CC4C5=CC(=CC=C5)F)N(C)C(C(C)C)C(=O)O
#inchikey ZTENZJJCFACIAK-ADWVOTLJSA-N
#pubchem_id 5481119
#mb_accession LU121851,LU121852,LU121853,LU121854,LU121855,LU121856

>ms2
573.361100 752739.300000

>ms2
95.030200 4468.000000
109.045900 2633.600000
130.087400 3484.100000
157.077100 3971.600000
159.061300 6976.800000
173.077300 36361.300000
185.108400 6327.800000
211.123800 3089.700000
240.150900 37439.900000
260.182100 19422.900000
266.166400 8902.500000
573.361200 687129.600000

>ms2
95.030300 2988.800000
109.045900 6293.400000
130.087400 2496.900000
157.077100 31370.600000
159.061700 7698.800000
173.077300 23326.900000
185.108400 8875.200000
211.124300 8307.300000
240.150800 62305.100000
260.182600 3638.900000
266.166300 4700.900000

>ms2
157.077300 8241.200000
173.077400 2975.000000
211.123800 2931.800000
240.151100 9938.500000

>ms2
157.076900 10127.600000
240.150800 8540.900000

>ms2
157.077100 3495.800000

