>compound LU84452917
>parentmass 397.0823
>ionization [M-H]-
>formula C15H18N4O7S
>rt 932.220000
>profile orbitrap
#smiles_iso CCCOC1=NN(C(=O)N1C)C(=O)NS(=O)(=O)C2=CC=CC=C2C(=O)OC
#smiles_can CCCOC1=NN(C(=O)N1C)C(=O)NS(=O)(=O)C2=CC=CC=C2C(=O)OC
#inchikey JTHMVYBOQLDDIY-UHFFFAOYSA-N
#pubchem_id 177355
#mb_accession LU139051,LU139052,LU139053,LU139054,LU139055,LU139056

>ms2
113.023100 1017572.300000
114.030800 5944.300000
156.077800 2160038.500000
189.947000 2681.000000
353.048500 5600.100000

>ms2
113.023100 3035053.200000
114.030800 16343.400000
156.077900 401103.200000
189.946600 3193.300000
353.048200 8168.000000

>ms2
113.023100 1740177.900000
114.030800 5386.800000
156.078000 11822.500000
353.048100 5375.800000

>ms2
113.023100 2312432.000000
114.030800 4330.100000

>ms2
113.023100 1620829.000000
114.030800 4087.800000

>ms2
113.023100 822897.400000

