>compound LU84393174
>parentmass 530.2183999999999
>ionization [M-H]-
>formula C31H33NO7
>rt 1113.540000
>profile orbitrap
#smiles_iso CCCCC1=NC2=C(C=C1)[C@@H]([C@H]([C@@H]2C3=C(C=C(C=C3)OC)C[C@H](C)C(=O)O)C(=O)O)C4=CC5=C(C=C4)OCO5
#smiles_can CCCCC1=NC2=C(C=C1)C(C(C2C3=C(C=C(C=C3)OC)CC(C)C(=O)O)C(=O)O)C4=CC5=C(C=C4)OCO5
#inchikey IUHMIOAKWHUFKU-YINIXLNUSA-N
#pubchem_id 186002
#mb_accession LU031151,LU031152,LU031153,LU031154,LU031155,LU031156

>ms2peaks
450.208400 11913.400000
468.217700 90818.200000
486.228800 211766.400000
512.207700 84601.200000
530.218400 7952105.000000

>ms2peaks
73.029500 13144.100000
91.018900 3291.600000
93.034600 8931.400000
107.050400 4984.400000
109.029400 8628.900000
121.029400 7341.500000
147.044900 2863.400000
147.081700 7736.600000
150.092200 10621.100000
173.060700 20100.000000
174.068700 3999.200000
193.087000 18218.700000
238.123700 21449.300000
240.066800 7124.400000
240.139100 16744.400000
250.124200 6931.900000
254.118800 3099.400000
263.131400 3401.600000
264.139400 19684.300000
266.118800 17212.600000
266.154800 9535.700000
268.134300 24429.700000
279.163100 15580.200000
284.129100 15579.000000
292.134400 21390.100000
294.149800 15463.900000
304.133800 2968.400000
318.150600 3870.500000
320.201900 3323.900000
331.157900 3751.300000
364.134500 8455.100000
370.182200 5458.600000
378.113400 52958.600000
380.201600 4133.200000
382.218300 6966.400000
384.160600 44227.300000
384.233400 6258.200000
385.169300 11969.400000
392.129500 6986.000000
393.137100 34739.200000
394.180900 4242.200000
396.159600 4083.000000
396.196400 5819.700000
397.204500 21541.000000
398.181600 2912.300000
398.212600 9502.600000
399.184300 4804.500000
399.219900 16040.300000
405.176400 2849.600000
407.188300 11814.200000
408.197900 7307.600000
409.205100 17358.300000
410.143600 3563.800000
410.175900 8565.600000
410.212600 18334.600000
412.192100 8069.300000
412.227800 73683.100000
413.235300 31204.800000
414.209700 9085.900000
414.243500 96638.400000
420.196800 97010.800000
423.150300 4115.700000
423.183600 12841.600000
424.191200 16531.800000
425.199600 54669.800000
426.206400 32122.100000
427.215100 568560.100000
434.175300 25046.900000
435.183500 56727.700000
436.192700 5295.600000
438.171000 21425.600000
438.207100 72344.800000
439.215200 63929.600000
440.223100 93718.600000
442.238800 109845.500000
450.207500 111163.200000
452.187000 32609.600000
453.194600 829393.500000
456.218100 175442.200000
468.217800 780182.900000
484.213000 109103.900000
486.228400 1291141.200000
512.207500 446855.600000
530.218400 607245.400000

>ms2peaks
65.003300 6006.300000
65.039700 2615.600000
73.029500 15991.700000
91.018900 34774.600000
93.034600 46597.500000
107.050300 8095.000000
108.021800 4246.700000
109.029500 18279.000000
119.050100 7476.500000
121.029400 32781.800000
131.050500 4611.400000
133.065900 8864.700000
135.081700 11517.900000
145.029600 3392.800000
147.045100 6658.400000
147.081800 11465.800000
150.092300 3529.000000
158.037100 6306.400000
159.045000 5389.200000
161.060800 7899.200000
173.060800 10726.400000
174.068400 5514.200000
193.086900 6102.700000
195.068800 4356.500000
221.084300 2362.600000
238.123700 29263.700000
240.067000 6272.300000
240.139400 33770.500000
250.123700 25763.900000
254.118500 4699.800000
263.131700 22739.500000
264.139400 51159.500000
266.119300 14821.400000
266.154600 22453.000000
268.134000 9427.000000
274.123200 2952.600000
279.162600 13488.400000
284.128900 6260.300000
288.138900 5031.400000
292.134300 28389.500000
294.149700 4048.300000
304.134400 8575.300000
318.149200 14234.900000
320.202800 3063.900000
326.155300 2924.700000
331.156800 10500.600000
350.118700 3010.200000
354.150200 13563.200000
355.157400 27009.000000
356.165500 39925.100000
364.133600 8284.500000
366.149200 2412.700000
368.165300 14678.100000
370.180600 20540.200000
378.113500 30345.700000
378.152700 3013.500000
380.202300 4008.200000
382.144300 13646.000000
382.218700 4903.300000
383.152700 9715.800000
384.160400 94890.000000
384.233600 4798.200000
385.167400 8769.700000
392.128900 7838.600000
393.136900 4160.100000
394.181100 25509.000000
396.160500 13211.300000
396.196500 34911.500000
397.204600 49527.100000
398.176400 22274.300000
398.212200 53491.600000
399.184100 4211.800000
399.220900 4155.200000
405.173000 8736.500000
406.181100 39624.600000
407.188600 27751.000000
408.160400 9636.400000
408.196500 19412.800000
409.203900 9274.200000
410.139800 19897.600000
410.176000 20339.800000
410.212200 11690.700000
412.191700 32557.200000
412.227900 24275.600000
413.236300 3036.300000
414.210200 2332.100000
414.244000 12953.900000
420.196700 17839.800000
423.150800 4746.300000
423.183500 30291.000000
424.191800 93941.900000
425.199700 52788.400000
426.207500 72570.500000
427.215100 39929.800000
434.175800 61866.700000
435.183600 52064.400000
436.191200 9908.000000
438.171100 15706.700000
438.207200 13062.400000
439.214200 20584.200000
440.222800 14027.600000
450.207100 2946.200000
452.186600 34885.800000
453.194600 233871.800000
456.218000 7759.100000
468.217300 9623.900000
484.212200 5780.100000
486.228000 4580.400000
512.208800 5089.300000

>ms2peaks
65.003300 3586.700000
91.018900 9682.700000
93.034600 13588.900000
107.050400 2572.400000
121.029500 6284.500000
133.065800 2061.000000
135.081400 4539.400000
220.076200 2846.100000
221.084500 2801.400000
250.124400 4320.900000
263.131500 7596.900000
264.140200 3985.400000
274.125500 2153.600000
354.150900 6373.400000
355.158000 7699.800000
356.165600 5663.600000
368.167100 3357.400000
378.154000 2368.300000
382.144700 2307.000000
383.153000 2548.600000
396.197300 7002.400000
398.213500 4668.700000
406.180300 3876.000000
408.160900 2505.700000
424.193000 3604.000000
434.176000 3569.400000

>ms2peaks
65.003300 3302.900000
91.018900 7203.900000
93.034600 6489.300000
119.050300 2555.000000
135.081600 2018.200000
220.077000 5223.000000
221.083700 2245.500000
354.149600 2124.100000

>ms2peaks
65.003300 47367.200000
65.039700 9311.200000
91.019000 35116.800000
93.034600 82192.300000
107.050100 3654.300000
108.021600 3834.200000
119.050200 16725.700000
121.029300 17028.900000
131.050600 3924.100000
133.065900 9641.300000
135.081600 10014.800000
145.029500 17010.100000
158.037400 4010.200000
159.045100 6537.200000
161.060800 2886.700000
195.068800 2170.600000
220.076700 38826.100000
221.084900 10352.100000
250.123700 4533.900000
263.131400 2288.300000
288.140000 3500.900000
326.154800 3122.900000
350.119000 2126.100000
354.150100 6435.500000
366.149400 4617.900000
378.148500 2449.400000

