>compound LU84486017
>parentmass 126.9972
>ionization [M-H]-
>formula C4H4N2OS
>rt 177.570000
>profile orbitrap
#smiles_iso C1=CNC(=S)NC1=O
#smiles_can C1=CNC(=S)NC1=O
#inchikey ZEMGGZBWXRYJHK-UHFFFAOYSA-N
#pubchem_id 1269845
#mb_accession LU076151,LU076152,LU076153,LU076154,LU076155,LU076156

>ms2peaks
57.975600 906878.600000
126.997100 191491.100000

>ms2peaks
57.975600 986987.000000
126.997100 212323.500000

>ms2peaks
57.975600 815073.200000
126.997100 106257.100000

>ms2peaks
57.975700 1035728.300000
126.997100 31423.100000

>ms2peaks
57.975600 1124792.500000
65.014400 1881.800000
93.009300 2388.000000
126.997100 7622.000000

>ms2peaks
57.975700 817992.900000
65.014600 2929.900000
93.009500 2379.600000

