>compound LU84075732
>parentmass 311.2017
>ionization [M-H]-
>formula C21H28O2
>rt 1193.900000
>profile orbitrap
#smiles_iso CC[C@]12CC[C@H]3[C@H]([C@@H]1CC[C@]2(C#C)O)CCC4=CC(=O)CC[C@H]34
#smiles_can CCC12CCC3C(C1CCC2(C#C)O)CCC4=CC(=O)CCC34
#inchikey WWYNJERNGUHSAO-XUDSTZEESA-N
#pubchem_id 13109
#mb_accession LU028251,LU028252,LU028253,LU028254,LU028255,LU028256

>ms2peaks
149.096800 178211.400000
311.201600 6696832.500000

>ms2peaks
149.097100 4102110.000000
311.201500 4552861.000000

>ms2peaks
133.065800 56655.300000
149.097000 9038585.000000
293.192200 14786.600000
311.201600 467380.300000

>ms2peaks
133.066000 399340.300000
149.097200 8027279.000000

>ms2peaks
119.050300 38083.000000
133.065900 750485.100000
149.097200 4652199.000000

>ms2peaks
119.050300 84221.300000
133.066000 779723.100000
149.097200 1756300.400000
277.160700 3049.000000

