>compound LU84284474
>parentmass 307.0282
>ionization [M-H]-
>formula C14H12O6S
>rt 890.040000
>profile orbitrap
#smiles_iso COC1=C(C=C(C(=C1)O)C(=O)C2=CC=CC=C2)S(=O)(=O)O
#smiles_can COC1=C(C=C(C(=C1)O)C(=O)C2=CC=CC=C2)S(=O)(=O)O
#inchikey CXVGEDCSTKKODG-UHFFFAOYSA-N
#pubchem_id 19988
#mb_accession LU026051,LU026052,LU026053,LU026054,LU026055,LU026056

>ms2peaks
79.957700 13060.300000
227.071800 22527.000000
292.005200 11114.800000
307.028100 10201459.000000

>ms2peaks
79.957300 121787.400000
80.965200 17164.900000
145.029300 32218.000000
154.042300 17058.700000
158.037000 10634.900000
190.027200 9476.300000
197.024500 6285.000000
198.032300 25931.700000
200.048000 7262.900000
210.031900 19667.600000
211.039900 15927.700000
212.048300 13253.600000
226.027400 9494.800000
227.071400 402073.400000
228.042900 131617.700000
228.981100 86026.300000
263.002000 8022.800000
264.010000 41365.700000
290.996900 81329.300000
292.005000 79388.800000
307.028200 4340740.500000

>ms2peaks
63.962400 42372.800000
65.003300 6908.700000
68.998200 9593.700000
79.957400 1296179.400000
80.965200 228488.800000
91.018900 2802.700000
94.980900 4633.900000
95.014000 4214.200000
110.000900 7434.000000
121.029500 22250.800000
122.000700 2631.800000
123.008700 14325.700000
139.055000 2899.800000
145.029500 190956.900000
149.024600 14086.100000
149.995900 36896.200000
154.042400 83731.900000
155.050200 15729.000000
156.058200 6027.100000
158.037200 65470.200000
159.045000 4564.300000
160.016700 9693.100000
169.029600 31887.400000
169.065700 3015.600000
172.053000 9152.200000
175.040000 3849.600000
181.014500 6018.100000
182.037400 346491.200000
183.045100 24556.500000
184.052800 72660.400000
184.991100 4990.000000
185.024400 12291.900000
185.962800 37249.800000
186.032100 26187.800000
190.027200 48313.700000
195.045200 3822.500000
197.024300 72864.300000
198.032200 160509.400000
199.039900 44870.600000
200.047900 249876.700000
200.986300 35793.400000
201.994300 11647.000000
210.032300 101507.700000
211.040000 737869.400000
212.047800 308165.100000
213.019400 6760.500000
213.055800 10903.700000
213.957800 209328.300000
226.027100 48578.400000
227.071400 1426501.000000
228.042800 1034170.800000
228.981100 552986.100000
263.002000 170780.500000
264.009800 330135.100000
275.001900 23428.000000
290.996900 756627.200000
292.004900 87699.800000
293.012300 8053.800000
307.028200 1816858.400000

>ms2peaks
63.962400 98829.000000
64.970400 5956.000000
65.003200 33831.600000
68.998200 34467.000000
71.967500 3700.800000
79.957400 2140188.000000
80.965200 389698.100000
82.005900 6494.300000
91.019000 12172.800000
93.034700 3367.200000
94.006100 12038.200000
94.980900 5022.900000
95.013900 29861.900000
96.993300 3297.800000
97.983100 4651.600000
104.965100 4195.800000
105.034600 7946.300000
108.021600 6047.500000
110.000900 35090.000000
110.975900 5145.300000
113.978100 10324.900000
117.972900 7154.400000
121.029500 38056.400000
122.000900 13046.700000
123.008700 54641.700000
128.965200 12846.400000
130.042400 5653.500000
134.975700 3848.200000
135.008800 6914.800000
139.055300 15506.300000
145.029500 105076.300000
149.024500 21448.700000
149.995800 121450.800000
154.042400 22997.200000
155.050200 55092.900000
156.057900 15646.200000
157.029500 3863.200000
157.967800 21419.400000
158.037100 41885.500000
158.975700 10188.000000
159.045100 2958.800000
160.016800 3237.800000
167.050100 32190.500000
169.029600 25614.100000
169.065600 3585.600000
171.045300 10138.500000
172.052900 17637.400000
173.962700 4569.300000
175.040100 5174.900000
181.014500 8873.900000
182.037400 666012.800000
183.045100 162594.400000
184.052900 168989.400000
184.991200 5718.100000
185.024400 14558.000000
185.962800 144023.000000
186.032400 16267.100000
190.027300 12760.800000
195.045200 10869.200000
197.024800 18219.800000
198.032200 63463.100000
199.040100 202128.000000
200.047900 383299.400000
200.986400 54632.900000
201.993900 6001.700000
210.032000 25793.800000
211.040000 2033279.800000
212.047900 160837.200000
213.019200 4993.000000
213.055500 9690.100000
213.957700 369283.900000
226.027400 12537.200000
227.035400 44645.700000
227.071400 299819.200000
228.042800 470470.800000
228.981100 259279.600000
263.001900 329847.300000
264.009800 120660.900000
275.002200 12930.400000
290.996900 668876.600000
292.004600 6544.200000
293.012000 8250.700000
307.028200 94815.600000

>ms2peaks
63.962400 128796.400000
64.970300 7092.100000
65.003300 41301.600000
66.011100 2679.000000
68.998200 32476.500000
71.967600 14370.400000
75.023900 2982.600000
79.957400 2070584.600000
80.965200 322138.900000
82.006000 3191.400000
89.003400 4067.300000
91.019000 18195.100000
93.034600 6512.100000
94.006000 12466.300000
94.980800 5104.700000
95.013800 54898.200000
96.993300 3185.100000
97.983200 7167.600000
101.039700 6354.900000
104.965400 3654.600000
105.034600 7377.100000
106.005900 4969.100000
108.021900 4300.000000
110.000900 47292.100000
110.975600 3132.300000
113.978100 13737.400000
117.973000 6389.900000
121.029500 22647.300000
122.001100 6807.500000
123.008800 53852.000000
127.055200 4074.600000
128.965100 18743.100000
129.034700 9880.900000
130.042100 2570.700000
131.050200 5193.400000
134.975500 2915.400000
135.008900 7444.800000
139.055300 18850.000000
143.050200 8666.600000
145.029600 92927.800000
147.045100 10197.600000
149.024600 10783.000000
149.995900 91416.300000
153.019100 4053.900000
154.042600 7186.500000
155.050200 95238.500000
156.058200 6221.700000
157.029100 2717.400000
157.968100 22807.100000
158.037000 12393.400000
158.975900 7409.200000
167.050200 149925.900000
169.029600 23167.100000
169.066100 3796.600000
171.045300 16326.100000
172.052900 6840.500000
173.962600 3327.900000
181.014400 3410.000000
182.037400 183397.600000
183.045200 326443.200000
184.053000 72895.000000
184.991700 4576.000000
185.024900 3263.200000
185.962900 90334.800000
195.045700 15229.000000
198.032300 5864.000000
199.040100 145115.100000
200.047900 92008.100000
200.986400 13866.800000
210.032700 4139.900000
211.040100 1627263.200000
212.047800 11968.800000
213.055200 4163.700000
213.957800 117278.300000
226.027000 3679.300000
227.035100 44394.800000
227.071200 12094.500000
228.043000 44560.800000
228.981100 31876.500000
263.002000 149586.300000
264.010400 5791.200000
275.002000 2549.900000
290.997000 142684.100000

>ms2peaks
63.962400 117381.800000
64.970300 9196.900000
65.003300 35912.000000
66.011200 4891.100000
68.998200 28964.000000
71.967600 28018.800000
79.957400 1890729.200000
80.965200 257256.500000
89.003300 4159.800000
91.018900 21497.200000
93.034600 6215.500000
94.006000 5695.600000
95.013900 55602.200000
96.993000 2158.900000
97.983200 5675.200000
101.039700 24500.900000
105.034700 3291.200000
106.006000 2858.600000
108.021600 4833.900000
110.000900 27618.300000
110.975500 2079.500000
113.978100 5534.300000
121.029400 9959.300000
122.000800 2278.300000
123.008800 44599.300000
127.055300 9450.000000
128.965100 12124.700000
129.034600 23251.300000
131.050300 3650.100000
134.975800 2888.400000
135.008900 6888.200000
139.055400 18095.500000
143.050100 7382.300000
145.029500 79291.800000
147.045200 21750.400000
149.024400 5743.800000
149.995800 37076.600000
153.019500 2723.200000
154.043000 3076.100000
155.050200 71430.200000
157.967600 5095.500000
158.036900 2507.400000
158.976000 3076.200000
167.050200 202085.700000
169.029500 31545.800000
171.045100 14194.000000
175.039600 1982.800000
182.037300 25543.500000
183.045100 308030.800000
184.052900 12167.900000
185.963100 20223.100000
195.045000 8289.200000
198.031800 3745.700000
199.040100 45343.900000
200.047900 7201.000000
210.032100 8385.600000
211.040100 757260.600000
213.957600 17595.500000
226.027200 2697.700000
227.035000 7391.300000
263.001800 15136.300000
290.996500 6546.500000

