>compound LU85160101
>parentmass 218.1034
>ionization [M-H]-
>formula C9H17NO5
>rt 484.780000
>profile orbitrap
#smiles_iso CC(C)(CO)[C@H](C(=O)NCCC(=O)O)O
#smiles_can CC(C)(CO)C(C(=O)NCCC(=O)O)O
#inchikey GHOKWGTUZJEAQD-ZETCQYMHSA-N
#pubchem_id 6613
#mb_accession LU087051,LU087052,LU087053,LU087054,LU087055,LU087056

>ms2
59.013800 5328.300000
71.013900 109479.600000
71.050300 18154.400000
88.040400 1168334.600000
99.045200 7011.200000
116.035400 6632.100000
116.071700 8922.100000
129.055700 7450.500000
146.082300 558108.300000
218.103400 412540.200000

>ms2
59.013800 13146.600000
71.013900 167267.500000
71.050300 74016.100000
72.009100 2071.700000
72.045500 3064.800000
88.040400 1447270.900000
99.045200 27789.700000
116.035400 12822.500000
116.071700 27797.200000
129.055900 12666.200000
146.082300 981906.900000
218.103400 185242.900000

>ms2
59.013800 23142.700000
71.013900 122554.500000
71.050300 265169.200000
72.009000 10924.200000
72.045600 5283.600000
88.040400 748782.800000
98.061100 2741.400000
99.045200 84810.000000
116.035100 8537.800000
116.071700 49106.200000
129.055800 17861.100000
146.082300 531936.100000
218.103000 6004.400000

>ms2
59.013900 31765.600000
60.009100 1704.800000
71.013900 106858.400000
71.050300 416271.800000
72.009200 22009.800000
72.045500 5706.900000
88.040400 395006.900000
98.061200 9196.500000
99.045200 136198.200000
116.035100 3903.800000
116.071700 33341.500000
129.055600 6698.700000
146.082300 140373.100000

>ms2
59.013800 24166.900000
60.009100 2067.500000
71.013900 47713.100000
71.050300 333700.500000
72.009100 17203.100000
88.040400 144745.800000
98.061200 4085.000000
99.045200 88993.500000
116.071700 10317.200000
146.082300 21394.800000

>ms2
59.013800 13993.000000
71.013900 22251.100000
71.050300 241288.300000
72.009200 9321.900000
88.040400 56800.400000
99.045200 49589.200000

