>compound LU85071482
>parentmass 328.0301
>ionization [M-H]-
>formula C18H13Cl2NO
>rt 1103.760000
>profile orbitrap
#smiles_iso C1=CC(=CN=C1)C(C2=CC=C(C=C2)Cl)(C3=CC=C(C=C3)Cl)O
#smiles_can C1=CC(=CN=C1)C(C2=CC=C(C=C2)Cl)(C3=CC=C(C=C3)Cl)O
#inchikey NBNTWDUNCHRWMT-UHFFFAOYSA-N
#pubchem_id 28768
#mb_accession LU111751,LU111752,LU111753

>ms2peaks
111.000800 11716.900000
188.027400 17745.600000
215.014500 8278.900000
216.022100 108425.800000
247.980200 10228.300000
248.988000 57802.900000

>ms2peaks
111.000700 22628.000000
188.027000 3705.200000
215.014600 18458.400000
216.022100 41048.400000
247.980100 15552.000000
248.988700 5816.000000

>ms2peaks
111.000700 13618.400000
215.014500 5779.200000
216.022500 6356.900000
247.979900 2620.200000

