>compound LU85579399
>parentmass 164.1081
>ionization [M-H]-
>formula C10H15NO
>rt 1052.400000
>profile orbitrap
#smiles_iso CCCCOC1=CC=C(C=C1)N
#smiles_can CCCCOC1=CC=C(C=C1)N
#inchikey UBRIHZOFEJHMIT-UHFFFAOYSA-N
#pubchem_id 20352
#mb_accession LU031651,LU031652,LU031653,LU031654,LU031655,LU031656

>ms2peaks
120.045500 65851.500000
135.069100 134712.200000
136.076900 21555.100000
164.108100 365860.600000

>ms2peaks
120.045400 69399.100000
135.069000 149577.700000
136.076800 27077.500000
164.108000 377119.800000

>ms2peaks
93.034700 1707.300000
107.037800 2970.800000
108.045500 3359.400000
120.045400 269865.400000
134.061200 4683.700000
135.069000 175306.200000
136.076800 27309.900000
164.108000 124345.500000

>ms2peaks
65.039700 2611.300000
93.034700 1673.600000
107.037600 5348.400000
108.045500 7074.200000
120.045500 419325.800000
134.061200 12492.300000
135.069000 75979.500000
136.076900 14504.700000
164.108100 24548.800000

>ms2peaks
93.034600 8476.500000
107.037700 6230.900000
108.045600 6291.400000
118.029800 2919.500000
119.050200 3776.900000
120.045500 493040.600000
134.061200 19748.800000
135.069000 15588.900000
136.076700 6588.600000

>ms2peaks
65.039600 3646.800000
93.034700 26199.100000
107.037700 6008.600000
108.045400 4502.900000
118.029900 6337.600000
119.050100 2635.200000
120.045500 416145.900000
134.061300 15702.800000
135.068700 2243.200000
136.076900 1654.900000

