>compound LU85628097
>parentmass 171.0234
>ionization [M-H]-
>formula C6H8N2O2S
>rt 810.300000
>profile orbitrap
#smiles_iso C1=CC(=CC=C1N)S(=O)(=O)N
#smiles_can C1=CC(=CC=C1N)S(=O)(=O)N
#inchikey FDDDEECHVMSUSB-UHFFFAOYSA-N
#pubchem_id 5333
#mb_accession LU057651,LU057652,LU057653,LU057654,LU057655,LU057656

>ms2peaks
61.970700 1842.500000
63.962400 8792.900000
77.965400 2260.700000
78.973200 7744.600000
79.981200 25324.700000
107.061500 2356.200000
108.045500 2774.300000
171.023400 545839.800000

>ms2peaks
63.962500 7003.900000
77.965400 1825.300000
78.973400 5801.100000
79.981200 24234.000000
107.061300 3629.100000
171.023400 508851.000000

>ms2peaks
61.970600 13715.600000
63.962400 18010.200000
77.965500 9440.700000
78.973400 44236.000000
79.981200 100383.400000
108.045500 6338.400000
171.023400 250092.800000

>ms2peaks
61.970600 35706.500000
63.962500 24623.600000
77.965600 15575.600000
78.973400 71766.800000
79.981200 132375.400000
108.045400 2304.500000
171.023400 61775.000000

>ms2peaks
61.970600 82201.100000
63.962500 45744.900000
77.965500 26542.000000
78.973400 101202.500000
79.981200 135968.200000
108.045700 2008.800000
171.023500 12278.700000

>ms2peaks
61.970600 102597.300000
63.962500 70781.400000
77.965500 26463.700000
78.973400 98834.100000
79.981200 79081.600000
108.045700 2021.800000

