>compound LU86097128
>parentmass 160.9566
>ionization [M-H]-
>formula C6H4Cl2O
>rt 1088.040000
>profile orbitrap
#smiles_iso C1=CC(=C(C=C1Cl)O)Cl
#smiles_can C1=CC(=C(C=C1Cl)O)Cl
#inchikey RANCECPPZPIPNO-UHFFFAOYSA-N
#pubchem_id 66
#mb_accession LU090651,LU090652,LU090653,LU090654,LU090655,LU090656

>ms2peaks
89.003200 10172.200000
124.980000 300573.900000
160.956700 2051932.900000

>ms2peaks
89.002900 6360.000000
124.980000 205638.900000
160.956700 1426672.000000

>ms2peaks
89.003300 163751.800000
124.979900 1614705.400000
160.956600 3295722.800000

>ms2peaks
89.003300 147657.500000
124.980000 475936.800000
160.956700 334486.200000

>ms2peaks
61.008500 7241.200000
77.003300 10323.800000
89.003300 691107.300000
124.980000 755596.100000
160.956700 223161.700000

>ms2peaks
61.008300 8680.300000
77.003300 20311.700000
89.003300 440347.600000
124.979900 192917.400000
160.956600 25523.800000

