>compound LU86632778
>parentmass 409.22319999999996
>ionization [M-H]-
>formula C22H34O7
>rt 1049.640000
>profile orbitrap
#smiles_iso CC(=O)O[C@H]1[C@H]([C@@H]2[C@]([C@H](CCC2(C)C)O)([C@@]3([C@@]1(O[C@@](CC3=O)(C)C=C)C)O)C)O
#smiles_can CC(=O)OC1C(C2C(CCC(C2(C3(C1(OC(CC3=O)(C)C=C)C)O)C)O)(C)C)O
#inchikey OHCQJHSOBUTRHG-KGGHGJDLSA-N
#pubchem_id 47936
#mb_accession LU040851,LU040852,LU040853,LU040854,LU040855,LU040856

>ms2peaks
57.034600 2189.100000
59.013800 994849.100000
97.065800 3169.900000
123.045100 8348.000000
125.060800 5866.800000
139.040200 7793.500000
139.076200 3569.900000
153.091900 8955.700000
179.107900 3862.800000
180.079100 8124.400000
191.071500 3650.600000
191.144100 3564.500000
213.113100 3508.800000
232.110500 4762.000000
235.133600 5385.500000
257.154900 3583.800000
271.170400 15171.400000
273.149200 8347.400000
275.165700 41433.200000
281.138700 2070.000000
295.170200 2988.700000
313.181200 36723.000000
331.191600 67152.300000
349.202100 104094.400000
367.212600 106535.100000
409.223400 264884.200000

>ms2peaks
57.034600 9739.600000
59.013800 1297563.800000
71.013800 4204.800000
73.029500 5366.000000
83.050100 3085.700000
85.029600 2571.000000
95.050200 14047.300000
97.066000 16974.500000
107.050200 3500.200000
109.065700 2551.700000
111.045100 3034.200000
122.037300 4503.700000
123.045100 25828.500000
123.081600 4469.900000
125.060800 5762.400000
135.081400 4815.100000
137.097100 4633.700000
139.039900 5469.600000
139.076400 8084.300000
151.076200 4965.900000
151.112600 2993.100000
153.092100 8564.400000
163.112600 3598.100000
165.092700 2853.400000
167.107700 3381.300000
173.097000 3290.600000
179.107800 9470.800000
180.079200 13419.500000
189.091400 2037.500000
189.128000 3114.400000
191.144000 8435.200000
192.078500 2787.400000
205.123300 5497.200000
207.138500 3177.700000
213.112900 6584.400000
215.144300 4542.100000
217.159500 4545.500000
232.110800 11108.600000
235.133700 7545.500000
257.154900 14108.000000
271.170100 11501.000000
273.149700 7701.200000
275.164800 13708.700000
281.138700 2244.700000
295.169300 3771.300000
313.181000 25418.900000
331.191300 19751.200000
349.201800 13575.600000
367.212400 92252.700000
409.223100 8498.700000

>ms2peaks
57.034600 16839.500000
59.013800 1110074.000000
71.013800 5809.000000
71.050100 2476.600000
73.029500 10473.600000
80.026800 2611.200000
83.050100 6564.700000
85.029500 4261.900000
95.050200 15121.000000
97.065900 26639.500000
107.050200 6314.000000
109.029500 2992.700000
109.065800 3253.400000
111.045000 3313.800000
111.081500 3317.000000
121.066000 4815.300000
122.037300 6674.100000
123.045200 15904.000000
123.081400 5898.100000
125.060700 2298.300000
137.097000 7338.500000
139.076300 8944.300000
149.096900 3631.800000
151.076500 2420.700000
151.112900 11205.500000
153.091900 2396.600000
163.113100 9325.000000
165.092100 3229.600000
167.107500 2503.300000
173.097100 5308.600000
179.107600 9769.200000
189.092200 3696.200000
189.128600 2321.000000
191.070700 2402.400000
191.144000 6766.200000
192.079300 2162.700000
205.123400 3534.600000
207.139100 2875.600000
213.113300 2275.300000
215.144200 7090.100000
217.159900 3286.100000
232.110300 6844.200000
257.154400 8033.000000
313.181800 4079.500000
367.212100 12329.400000

>ms2peaks
57.034600 16527.600000
59.013800 944908.200000
71.013800 2794.500000
71.050300 3119.300000
73.029600 4722.800000
83.050200 2177.600000
85.029500 2078.800000
95.050300 10123.800000
97.066000 11559.300000
107.050400 6425.000000
109.029600 3496.500000
109.065900 3407.400000
111.081500 3013.800000
121.065800 5322.100000
122.037600 4749.700000
123.045000 4921.800000
123.081500 5552.700000
135.082000 2555.500000
137.097200 7112.100000
139.076300 5535.500000
149.097800 3489.100000
151.076800 4179.100000
151.112900 6678.100000
161.097500 5039.000000
163.112900 8010.400000
173.097200 3610.400000
179.107600 2066.700000
189.092600 2711.600000
205.123600 1917.400000

>ms2peaks
57.034600 7620.500000
59.013800 676649.900000
73.029500 3591.900000
80.026700 2253.000000
83.050200 3371.000000
95.050300 6151.600000
97.065900 7202.400000
107.050400 3637.000000
111.081700 2352.500000
121.066000 2843.600000
122.037400 2970.600000
123.045300 3034.100000
123.081500 2927.300000
149.097200 2445.600000
151.076300 3372.500000
161.096600 2065.700000

>ms2peaks
57.034600 6697.100000
59.013800 559309.100000
73.029500 2249.400000
83.050800 2239.500000
95.050200 3402.700000
121.065800 2694.000000
122.037400 2204.700000
135.081500 3294.400000

