>compound LU86087306
>parentmass 165.0557
>ionization [M-H]-
>formula C9H10O3
>rt 926.580000
>profile orbitrap
#smiles_iso COC1=C(C=C(C=C1)C=O)OC
#smiles_can COC1=C(C=C(C=C1)C=O)OC
#inchikey WJUFSDZVCOTFON-UHFFFAOYSA-N
#pubchem_id 8419
#mb_accession LU101651,LU101652,LU101653,LU101654,LU101655,LU101656

>ms2
82.005900 13909.300000
91.018800 13435.800000
92.026500 167327.400000
93.034600 1624307.500000
95.013800 159947.700000
107.050100 14626.500000
108.021700 163447.300000
119.013700 25313.700000
121.029300 15362.600000
121.065800 10428.000000
123.008600 19707.000000
136.016600 2102371.500000
137.024300 4341821.000000
165.055600 7076411.500000

>ms2
82.006000 15698.600000
92.026600 221268.800000
93.034600 1704051.200000
95.013900 163671.900000
107.050400 8233.600000
108.021700 161143.300000
119.013800 29762.500000
121.029200 11713.000000
121.065800 13242.600000
123.008900 20341.700000
136.016600 2207916.500000
137.024400 4367796.500000
165.055700 7049580.500000

>ms2
68.998200 14438.400000
69.034600 11740.000000
70.006100 14491.000000
71.013800 7251.900000
72.993200 6047.500000
79.019100 4899.700000
82.006000 64609.100000
91.018900 66335.700000
92.026800 565156.400000
93.034600 4168672.200000
95.013800 623929.900000
106.006100 23888.500000
107.014000 5694.900000
107.050300 10093.200000
108.021700 573424.100000
119.013700 54476.300000
121.029600 40239.300000
123.008700 80205.700000
136.016600 2082370.000000
137.024400 3477452.500000
165.055700 1777676.800000

>ms2
53.003200 5820.400000
65.039600 10744.300000
67.019100 9618.700000
68.998100 21620.200000
69.034600 22843.800000
70.006100 20569.700000
71.013900 14252.800000
78.011200 7473.500000
79.019000 12902.500000
79.990400 10850.500000
80.998100 6792.100000
82.006100 105478.800000
91.019000 148298.300000
92.026800 749892.000000
93.034600 5129834.500000
95.013900 919278.600000
97.029500 12652.800000
106.006000 47976.400000
107.014000 6321.400000
107.050200 8667.000000
108.021700 917695.800000
109.029300 5792.400000
119.013900 36907.900000
121.029600 49117.700000
123.008800 116489.600000
136.016600 809802.800000
137.024400 1356277.500000
165.055700 281937.100000

>ms2
65.039600 38367.200000
67.019000 9169.300000
68.998200 26409.600000
69.034600 26632.100000
70.006000 29583.000000
71.013800 19500.700000
72.993100 10500.500000
78.011200 6620.700000
79.018900 13439.600000
79.990300 7136.400000
80.998300 10638.800000
82.006000 110938.100000
91.019000 211036.000000
92.026800 775282.700000
93.034600 5227943.000000
95.013800 1132990.000000
97.029500 12854.000000
106.006100 65140.500000
107.013900 12366.500000
107.050200 13349.700000
108.021700 1066371.000000
109.029100 7659.900000
119.013600 21790.100000
121.029500 63052.900000
123.008800 146593.100000
136.016500 227359.700000
137.024400 344167.200000
165.055700 31699.700000

>ms2
53.003300 5566.800000
65.039700 96895.900000
67.019000 9739.800000
68.998200 23007.900000
69.034600 27584.100000
70.006100 7400.000000
71.013900 19892.600000
72.993200 7305.300000
79.019000 9086.200000
79.990400 8548.800000
80.998300 5848.600000
82.006100 64371.600000
91.019000 188442.000000
92.026900 326201.200000
93.034600 4099526.000000
95.013800 972626.200000
97.029500 17802.600000
98.001200 5980.500000
106.006100 50238.400000
107.050300 7802.300000
108.021700 920208.900000
109.029300 4239.900000
121.029600 45256.800000
123.008800 119026.700000
136.016700 38580.200000
137.024500 65879.900000

