>compound LU86922958
>parentmass 325.0055
>ionization [M-H]-
>formula C13H11ClN2O4S
>rt 1040.580000
>profile orbitrap
#smiles_iso COC1=CC(=NC(=N1)SC2=C(C(=CC=C2)Cl)C(=O)O)OC
#smiles_can COC1=CC(=NC(=N1)SC2=C(C(=CC=C2)Cl)C(=O)O)OC
#inchikey QEGVVEOAVNHRAA-UHFFFAOYSA-N
#pubchem_id 91781
#mb_accession LU040051,LU040052,LU040053,LU040054,LU040055,LU040056

>ms2peaks
155.046300 46892.300000
193.017400 31598.700000
234.019700 5378.300000
281.015900 54024.100000

>ms2peaks
65.998500 2971.400000
150.011600 10293.900000
155.046300 30381.600000
193.017300 44623.300000
234.020000 28969.500000
281.015900 19143.600000

>ms2peaks
65.998500 6061.200000
79.030200 2183.900000
150.011500 15052.200000
155.046300 13439.700000
164.998500 4708.700000
183.012000 19773.800000
184.020100 9544.200000
193.017500 7869.100000
216.009900 9602.700000
234.020200 6718.700000

>ms2peaks
65.998600 11461.500000
79.030300 2186.500000
79.957200 2793.300000
150.011700 13482.600000
155.046400 2529.100000
164.998800 2836.900000
183.012200 70035.700000
184.020000 12085.700000
193.017300 2222.900000
197.027600 7592.100000
216.010100 14305.100000

>ms2peaks
65.998500 11174.700000
79.030200 2253.100000
79.957500 5706.000000
119.050200 10259.000000
150.011600 3892.100000
164.999000 2040.600000
183.012100 96786.100000
184.020500 2264.100000
197.027900 6416.300000
216.009600 2254.100000

>ms2peaks
65.998600 7070.400000
79.957400 13640.400000
119.050300 27353.700000
150.011600 2464.400000
183.012200 64457.600000
197.027100 3816.400000

