>compound LU86441252
>parentmass 213.0339
>ionization [M-H]-
>formula C8H10N2O3S
>rt 493.650000
>profile orbitrap
#smiles_iso CC(=O)NC1=CC=C(C=C1)S(=O)(=O)N
#smiles_can CC(=O)NC1=CC=C(C=C1)S(=O)(=O)N
#inchikey PKOFBDHYTMYVGJ-UHFFFAOYSA-N
#pubchem_id 8482
#mb_accession LU086651,LU086652,LU086653,LU086654,LU086655,LU086656

>ms2
77.965500 268177.600000
78.973300 8147.300000
79.957300 5507.700000
79.981400 5629.300000
92.050500 5397.100000
106.053600 16401.300000
133.053600 6477.400000
134.061100 228313.100000
149.048100 11018.300000
149.072000 203266.800000
171.023300 124811.500000
197.015200 6670.400000
213.033900 3007181.800000

>ms2
63.962400 3076.900000
77.965500 415835.600000
78.973200 22078.100000
79.957300 9597.600000
79.981200 8092.500000
92.050600 16066.500000
93.960400 8492.700000
94.029700 4660.200000
106.053600 48248.300000
107.061400 4414.800000
122.024900 9351.900000
133.053300 5863.400000
134.061200 394166.500000
136.040500 2621.700000
149.048300 30467.400000
149.072000 308295.000000
150.056000 3805.300000
171.023400 195484.600000
172.007500 3080.400000
197.002700 3257.100000
197.015300 6806.200000
213.033900 1749952.200000

>ms2
61.970600 4056.000000
63.962500 9052.600000
77.965500 473784.100000
78.973400 81596.800000
79.957300 5180.500000
79.981100 31189.500000
80.965300 2737.600000
92.050600 133102.100000
93.960400 28342.000000
94.029900 15913.000000
106.029800 5120.100000
106.053700 102204.400000
107.037700 3149.600000
107.061500 9714.900000
118.029900 2058.600000
122.024700 36380.200000
133.040900 5524.200000
133.053300 16908.500000
134.061200 501002.600000
136.040300 9801.200000
148.064100 3744.800000
149.048200 51538.700000
149.072000 205052.700000
150.019700 4939.100000
150.056000 5969.000000
164.036200 2098.300000
171.023400 131318.200000
172.007300 4294.500000
181.991900 2855.800000
197.015100 5788.400000
213.034000 321091.300000

>ms2
61.970600 34259.500000
63.962400 27005.600000
68.014200 3991.600000
77.965500 646617.300000
78.973400 202160.700000
79.957500 5593.000000
79.981200 93785.900000
80.965200 17397.200000
90.035000 2650.400000
91.042700 6533.800000
92.050600 560099.100000
93.034500 4414.400000
93.960400 110462.800000
94.029800 47152.300000
96.009100 9166.100000
105.045700 3065.700000
106.029800 11936.100000
106.053600 139597.300000
107.037700 23965.800000
107.061400 13026.600000
118.029800 25209.800000
122.024700 123854.300000
123.032500 6270.400000
133.040900 7057.700000
133.053300 20460.000000
134.024700 24968.000000
134.061100 431905.100000
136.040400 32206.900000
148.064300 6750.000000
149.048200 78984.900000
149.071900 87380.800000
150.019500 8473.800000
150.056000 5385.300000
153.996600 4988.900000
155.004200 9855.900000
164.035300 3504.900000
171.023300 70038.600000
181.991600 10957.100000
197.002500 4105.800000
213.033900 43935.400000

>ms2
61.970600 87956.500000
63.962400 55209.500000
68.014100 2237.100000
77.965600 461644.500000
78.973400 219853.200000
79.981200 89001.600000
80.965200 16923.700000
90.034900 5669.600000
91.042800 23266.200000
92.050600 839862.000000
93.034600 7241.400000
93.960400 122904.000000
94.029800 46346.500000
96.009100 5086.000000
105.045900 3588.000000
106.029800 13213.600000
106.053600 45181.100000
107.037700 41301.000000
107.061500 5860.100000
118.029800 57967.600000
122.024800 114015.300000
123.032700 4305.500000
133.040800 8569.000000
133.053100 14498.200000
134.024800 49577.800000
134.061100 142533.600000
136.040400 30236.000000
148.064300 3792.600000
149.048200 36486.200000
149.072100 12392.500000
150.019900 12875.800000
153.996800 7239.100000
155.004700 6979.800000
164.035500 2769.400000
171.023700 8726.300000
181.991600 4421.200000

>ms2
61.970600 135030.300000
63.962500 102498.000000
68.014400 2938.100000
77.965600 365914.400000
78.973400 205405.400000
79.981200 80084.400000
80.965200 8853.900000
82.029900 3190.700000
90.034900 10832.500000
91.042800 57204.000000
92.050600 829409.800000
93.034600 8985.200000
93.960500 70560.100000
94.029900 31383.800000
96.009000 5290.800000
106.029900 13473.000000
106.053700 13470.500000
107.037700 41441.600000
118.029900 86432.400000
122.024800 59470.200000
123.032600 3040.400000
133.040700 7731.200000
133.053300 20122.500000
134.024800 45173.100000
134.061200 35210.700000
136.040300 17264.700000
149.048300 12902.800000
150.019600 3182.500000
153.996800 3289.700000
155.004300 3951.900000

