>compound LU86622434
>parentmass 332.0823
>ionization [M-H]-
>formula C14H15N5O3S
>rt 1038.600000
>profile orbitrap
#smiles_iso CC(C)OC1=C(SC2=C1C=C(C=C2)OC)C(=O)NC3=NNN=N3
#smiles_can CC(C)OC1=C(SC2=C1C=C(C=C2)OC)C(=O)NC3=NNN=N3
#inchikey TVVXHFWWAYXBNC-UHFFFAOYSA-N
#pubchem_id 159289
#mb_accession LU118751,LU118752,LU118753,LU118754,LU118755,LU118756

>ms2peaks
77.039400 2767.600000
110.010800 196198.300000
121.029500 1203833.600000
122.032800 717765.900000
123.033000 11298.900000
124.037000 4145.700000
156.987400 24402.500000
157.990700 11635.000000
179.016800 3302.100000
244.018400 9469.900000
247.018000 43112.200000
272.024700 40252.600000
275.036500 25872.900000
276.044400 17914.700000
289.065300 839648.900000
290.035300 39968.500000
332.083100 900119.800000

>ms2peaks
82.004700 8584.700000
84.031400 1951.100000
110.010800 255157.900000
110.991000 4417.600000
121.029500 10143.100000
122.032800 4790.200000
138.986000 3520.900000
154.980800 3396.900000
163.993800 3462.900000
164.017900 11126.000000
178.009100 4396.600000
179.017300 166691.900000
188.989300 2642.900000
203.028800 3980.600000
204.012400 38481.800000
206.040800 2522.500000
221.064000 16500.300000
228.995300 5412.600000
231.994600 17279.500000
244.018400 15237.700000
246.010500 268656.100000
247.018300 575389.700000
272.024500 6472.100000
289.065300 1122863.800000
290.035500 8019.400000
332.082100 19684.100000

>ms2peaks
53.998500 13410.100000
56.980400 3016.400000
77.039400 3564.800000
82.004700 19705.600000
82.996100 35019.700000
84.031600 3785.700000
95.014000 3427.500000
110.010800 409130.700000
110.991100 20374.300000
112.997600 9224.000000
114.001100 7512.500000
121.029500 1596427.200000
122.032800 973082.000000
122.990900 20758.600000
124.037100 8402.100000
134.991100 2820.200000
138.014500 12901.100000
138.985800 9840.400000
147.998900 3681.000000
148.993900 21219.800000
150.986300 2318.900000
154.980800 35437.200000
156.987600 46657.200000
157.990900 26156.800000
161.035700 9299.600000
162.038900 8777.100000
162.985700 25616.100000
163.993800 139244.500000
164.017400 31811.100000
172.994400 3124.100000
178.009500 25099.600000
179.017200 967566.000000
188.005200 10826.000000
188.989000 81334.800000
194.004200 30701.300000
196.993300 7576.400000
202.992300 3021.200000
203.028100 6727.700000
204.012400 218816.700000
206.040700 27349.600000
221.064300 29011.800000
228.994800 18447.700000
230.987100 12825.800000
231.994700 172462.000000
244.017700 5274.300000
246.010500 960625.800000
247.018200 762512.800000
274.042400 35164.400000
275.037300 10158.800000
276.043800 4988.300000
289.065300 217476.200000

>ms2peaks
53.998500 32621.300000
56.980500 9003.800000
82.004700 8398.300000
82.996100 115071.700000
93.034500 7208.200000
95.013900 13272.100000
110.010800 288474.800000
110.991000 86673.800000
112.997900 18268.400000
114.001200 9474.300000
121.029500 651173.800000
122.032900 357920.100000
122.991000 63469.700000
123.033400 6243.000000
124.037000 5135.500000
134.991100 16056.600000
138.014500 48078.100000
138.985900 32232.400000
147.999000 9955.700000
148.994100 58170.300000
150.986000 6096.800000
154.009300 11296.000000
154.980900 129363.200000
156.988000 16262.500000
157.991000 12652.300000
160.994300 3461.500000
161.035900 4210.100000
162.038400 3854.400000
162.986000 468575.600000
163.993800 863485.600000
172.994100 8168.100000
178.009600 82974.600000
179.017300 787915.400000
188.005000 15566.300000
188.989100 224119.400000
190.981000 8102.700000
191.017500 16832.700000
194.004400 130534.300000
196.993400 2874.100000
202.992000 15012.700000
204.012500 84540.600000
206.040800 23870.700000
221.064200 3353.600000
228.995400 6131.300000
230.986900 21695.100000
231.994800 137501.000000
246.010500 236555.400000
247.018400 96751.600000
274.041800 5215.900000
289.065300 4287.800000

>ms2peaks
53.998500 7936.100000
82.996200 14333.000000
93.034500 7140.200000
95.013800 2283.900000
106.996000 3387.600000
108.021700 4122.200000
110.010800 24145.400000
110.991000 13733.900000
112.997700 18538.900000
114.001000 10228.400000
121.029500 195303.600000
122.032900 112210.000000
122.991000 8095.400000
134.991100 36459.400000
138.014500 6376.100000
138.986100 3720.300000
147.998900 2459.500000
148.994000 8328.000000
150.985500 1799.300000
154.008800 1906.700000
154.980800 15377.200000
156.987600 6469.300000
162.986000 286528.100000
163.993800 277188.600000
178.009500 9798.700000
179.017200 47703.100000
188.004400 2103.400000
188.989000 34790.000000
190.981000 4225.100000
191.017200 4068.800000
194.004300 13423.300000
231.994900 5267.700000
246.010400 2497.200000

>ms2peaks
53.998500 29974.300000
56.980400 7206.900000
82.996000 11172.500000
93.034400 3385.200000
95.013900 5597.000000
106.996100 72178.100000
108.021800 22964.100000
110.010800 40714.000000
110.991000 35180.000000
112.997700 7776.900000
114.001000 5532.100000
121.029500 39005.300000
122.032800 19763.100000
122.991000 11164.300000
134.991100 586506.600000
138.014500 5614.600000
138.985600 4301.300000
147.998800 7945.800000
148.994100 33148.800000
150.985900 25597.700000
154.980800 13337.900000
160.994300 5660.200000
162.986000 1133673.900000
163.993800 986326.300000
172.994200 2139.600000
178.009500 10291.500000
179.017500 26840.200000
188.005100 3116.800000
188.989100 54066.900000
190.980800 6542.500000
191.017300 7834.800000
194.004100 11386.600000
202.991600 3518.500000

