>compound LU86066329
>parentmass 221.1183
>ionization [M-H]-
>formula C13H18O3
>rt 1138.020000
>profile orbitrap
#smiles_iso CCCCCCOC(=O)C1=CC=C(C=C1)O
#smiles_can CCCCCCOC(=O)C1=CC=C(C=C1)O
#inchikey ULULAZKOCFNOIM-UHFFFAOYSA-N
#pubchem_id 14127
#mb_accession LU138451,LU138452,LU138453,LU138454,LU138455,LU138456

>ms2peaks
92.026900 297911.800000
93.034600 720707.600000
95.013900 98422.600000
108.021700 80605.400000
120.022000 59659.600000
136.016600 2502243.000000
137.024400 3105532.000000
177.128600 40882.000000
221.118300 38595200.000000

>ms2peaks
82.006000 19569.800000
91.018900 18514.500000
92.026300 235900.300000
93.034600 1326984.200000
95.013900 263434.500000
99.081700 18970.100000
108.021700 233612.200000
119.013700 54864.400000
121.029500 39730.500000
123.008800 27281.600000
136.016600 3494371.800000
137.024400 3489673.500000
177.128500 32688.900000
221.118300 16303643.000000

>ms2peaks
53.003300 14709.700000
59.013800 10836.800000
67.019000 30319.500000
68.998200 71979.100000
69.034500 47841.800000
70.006000 43395.900000
71.013800 44525.000000
72.993200 29317.200000
78.011100 12875.000000
79.018900 43141.000000
79.990400 33193.800000
80.998100 21812.400000
82.006000 202019.600000
86.000800 15774.200000
91.019000 277481.800000
92.026800 1291021.000000
93.034600 8316435.500000
95.013800 2482668.200000
97.029700 28662.200000
99.081600 212622.500000
106.006000 131361.700000
106.042300 47463.100000
107.014100 18793.400000
108.021700 2255613.500000
119.013800 259935.300000
121.029500 278056.400000
123.008800 319619.800000
125.024800 10300.400000
136.016600 8646542.000000
137.024400 6558039.500000
177.128300 45642.700000
221.118300 6146740.500000

>ms2peaks
53.003300 17359.500000
65.003300 21217.500000
65.039600 15645.000000
67.019000 38677.000000
68.998200 92323.300000
69.034600 95407.600000
70.006100 57036.200000
71.013800 59644.400000
72.993200 49236.400000
78.011300 20539.000000
79.018900 69434.300000
79.990400 59911.800000
80.998300 36553.100000
82.006000 289596.700000
86.001000 14394.000000
91.019000 726800.000000
92.026800 1479343.800000
93.034600 9640819.000000
95.013800 3768482.200000
97.029600 58063.200000
97.066000 14143.600000
98.001300 15944.900000
99.081500 693099.400000
106.006000 205728.300000
106.042500 25797.600000
107.013900 28181.200000
108.021700 3498597.800000
119.013800 129053.700000
121.029500 357549.200000
123.008800 503096.600000
136.016500 2648573.500000
137.024300 1941144.800000
149.024000 12597.600000
221.118200 388817.100000

>ms2peaks
53.003300 12944.500000
65.003300 21729.400000
65.039700 77177.100000
67.019000 32280.400000
68.998200 128886.500000
69.034600 108048.900000
70.006000 61502.100000
71.013900 61113.700000
72.993100 46786.500000
78.011200 13054.300000
79.018900 74912.600000
79.990400 40163.700000
80.998300 34712.300000
82.006000 298330.000000
86.001000 15830.100000
91.019000 840552.800000
92.026800 1339584.800000
93.034600 9176684.000000
95.013800 4075576.000000
97.029700 60823.900000
97.066000 23989.400000
98.001100 17396.400000
99.081600 780960.100000
106.006000 209613.500000
107.013900 27036.400000
108.021700 3858927.800000
109.029400 13933.300000
119.014000 46528.400000
121.029500 349398.800000
123.008800 510499.300000
136.016500 471357.900000
137.024400 369922.000000
149.023800 12222.500000
221.117900 17444.500000

>ms2peaks
65.003300 19192.800000
65.039700 190635.500000
67.018900 25221.200000
68.998200 105625.800000
69.034600 92424.300000
70.006000 50237.500000
71.013800 68510.000000
72.993100 40740.400000
79.018800 68463.600000
79.990300 42180.500000
80.998300 27072.600000
82.006100 240422.600000
86.001000 10461.100000
91.019000 681032.800000
92.026800 1051847.900000
93.034600 7560782.500000
95.013800 3464552.500000
97.029600 47252.300000
97.066000 36413.300000
98.001100 13584.800000
99.081600 529902.600000
106.006000 180173.600000
107.013800 32600.000000
108.021700 3253448.800000
109.029300 9918.500000
119.013800 10214.600000
121.029600 245549.200000
123.008800 437644.300000
125.024200 8411.500000
136.016700 60956.200000
137.024300 64894.100000
149.024400 10947.400000

