>compound LU87662992
>parentmass 266.9985
>ionization [M-H]-
>formula C13H10Cl2O2
>rt 1103.040000
>profile orbitrap
#smiles_iso C1=CC(=C(C=C1Cl)CC2=C(C=CC(=C2)Cl)O)O
#smiles_can C1=CC(=C(C=C1Cl)CC2=C(C=CC(=C2)Cl)O)O
#inchikey MDNWOSOZYLHTCG-UHFFFAOYSA-N
#pubchem_id 3037
#mb_accession LU113751,LU113752,LU113753,LU113754,LU113755,LU113756

>ms2
126.995600 11064567.000000
231.021600 95866.600000
266.998500 32773146.000000

>ms2
126.995600 28535718.000000
231.021900 161169.200000
248.987600 57952.500000
266.998600 9481219.000000

>ms2
126.995500 37867272.000000
231.021500 93420.900000
266.998500 587594.400000

>ms2
91.018900 176293.000000
126.995600 31611388.000000

>ms2
91.018900 446403.500000
126.995600 20252718.000000

>ms2
91.019000 673536.100000
126.995600 10936616.000000

