>compound LU87712933
>parentmass 121.06590000000001
>ionization [M-H]-
>formula C8H10O
>rt 1165.020000
>profile orbitrap
#smiles_iso CCC1=CC(=CC=C1)O
#smiles_can CCC1=CC(=CC=C1)O
#inchikey HMNKTRSOROOSPP-UHFFFAOYSA-N
#pubchem_id 12101
#mb_accession LU045151,LU045152,LU045153,LU045154,LU045155,LU045156

>ms2peaks
106.042400 15088.000000
119.050400 3598.000000
120.058000 15387.000000
121.065900 3464773.200000

>ms2peaks
106.042400 18024.800000
120.058300 17455.600000
121.065900 3577356.200000

>ms2peaks
106.042400 18223.700000
119.050300 5988.400000
120.058300 18931.500000
121.065900 3149855.500000

>ms2peaks
79.055300 3272.500000
93.071100 3065.100000
106.042400 22580.400000
119.050200 6707.700000
120.058100 15063.400000
121.065900 1902301.100000

>ms2peaks
67.019100 1782.500000
79.055300 2223.600000
91.055200 1935.800000
93.071000 3264.100000
106.042300 17359.200000
119.050100 11654.100000
120.058100 13523.600000
121.065900 910841.600000

>ms2peaks
67.018900 1911.500000
79.055200 2622.100000
91.055100 1867.500000
93.071100 2412.900000
106.042300 10499.700000
119.050200 8653.400000
120.058100 6304.200000
121.065900 318410.700000

