>compound LU87175737
>parentmass 389.1507
>ionization [M-H]-
>formula C23H22N2O4
>rt 1121.340000
>profile orbitrap
#smiles_iso CC1=C(N=C(O1)C2=CC=CC=C2)CCOC3=CC=CC4=C3C=CN4CCC(=O)O
#smiles_can CC1=C(N=C(O1)C2=CC=CC=C2)CCOC3=CC=CC4=C3C=CN4CCC(=O)O
#inchikey OMSPUVWUIHNYCS-UHFFFAOYSA-N
#pubchem_id 10134976
#mb_accession LU026651,LU026652,LU026653,LU026654,LU026655,LU026656

>ms2
131.038200 105868.400000
132.045600 12597.800000
317.129500 5155736.000000
389.150800 3143995.500000

>ms2
120.045500 30011.800000
131.037600 4497997.000000
132.045400 646904.100000
144.045500 52640.900000
145.053400 6638.000000
146.061300 9429.500000
158.061100 8444.100000
172.077000 14096.900000
196.076900 46080.000000
317.129500 4714951.500000
389.150900 11465.800000

>ms2
119.050200 8438.000000
120.045300 21534.800000
131.037600 8404990.000000
132.045300 595241.900000
144.045500 52749.600000
145.053200 9466.400000
146.060900 9375.000000
158.061200 12474.000000
172.076900 24469.900000
196.077100 24866.600000
317.129400 172788.400000

>ms2
104.050600 16935.300000
119.050300 10559.500000
131.037600 9001417.000000
132.045400 378813.200000
144.045600 34464.200000
158.061300 9103.900000

>ms2
104.050700 26263.600000
119.050500 7416.200000
131.037600 6570958.500000
132.045400 211796.300000
144.045700 22074.300000

>ms2
103.042800 8290.200000
104.050700 29165.900000
131.037700 3792097.000000
132.045400 104904.500000
144.045700 18450.100000

