>compound LU87560251
>parentmass 118.02980000000001
>ionization [M-H]-
>formula C7H5NO
>rt 790.320000
>profile orbitrap
#smiles_iso C1=CC=C(C(=C1)C#N)O
#smiles_can C1=CC=C(C(=C1)C#N)O
#inchikey CHZCERSEMVWNHL-UHFFFAOYSA-N
#pubchem_id 11907
#mb_accession LU028551,LU028552,LU028553,LU028554,LU028555,LU028556

>ms2
64.019200 21764.500000
90.035000 1007232.800000
118.029800 11663426.000000

>ms2
64.019400 16017.000000
90.035000 953018.400000
118.029800 11345072.000000

>ms2
64.019200 22375.600000
90.034900 1210735.100000
118.029800 11725878.000000

>ms2
64.019300 76755.700000
76.019300 15459.900000
90.034900 2457394.800000
118.029800 8657465.000000

>ms2
50.003500 33673.200000
64.019300 175818.700000
65.003300 8493.300000
65.998600 9916.800000
74.003600 5885.900000
76.019300 20987.500000
90.034900 2761386.200000
91.018900 13460.000000
118.029900 4638630.000000

>ms2
50.003500 85380.300000
64.019300 281411.500000
65.003300 15554.600000
65.998400 7108.900000
67.018900 6310.200000
74.003400 5966.300000
76.019300 19303.400000
90.034900 2142936.800000
91.019000 16150.400000
118.029900 1999516.400000

