>compound LU88392248
>parentmass 188.9863
>ionization [M-H]-
>formula C6H6O5S
>rt 199.500000
>profile orbitrap
#smiles_iso C1=CC(=C(C=C1O)S(=O)(=O)O)O
#smiles_can C1=CC(=C(C=C1O)S(=O)(=O)O)O
#inchikey IKQCSJBQLWJEPU-UHFFFAOYSA-N
#pubchem_id 17507
#mb_accession LU135551,LU135552,LU135553,LU135554,LU135555,LU135556

>ms2
79.957200 34629.900000
80.965200 41752.100000
95.013900 2597.100000
109.029500 5179.500000
123.008800 31572.300000
125.024500 3027.300000
188.986300 1431677.200000

>ms2
79.957300 55608.900000
80.965200 70077.200000
95.014000 4367.500000
109.029400 11330.200000
123.008800 30514.600000
125.024200 3136.600000
188.986400 1320029.100000

>ms2
69.034600 2358.500000
79.957400 221926.500000
80.965200 179051.100000
83.013600 2209.300000
85.029600 2962.800000
95.013800 13806.400000
97.029500 4391.400000
108.021600 5143.900000
109.029400 48521.800000
123.008800 31335.400000
125.024400 12170.900000
188.986300 631906.400000

>ms2
69.034600 12372.100000
79.957400 683205.500000
80.965200 285892.500000
83.013900 4709.500000
85.029500 6755.500000
95.013900 32433.700000
97.029500 12318.800000
108.021700 33700.800000
109.029500 103508.400000
123.008800 28937.400000
125.024500 16939.600000
188.986300 280252.300000

>ms2
69.034600 15559.100000
79.957400 736000.800000
80.965200 167600.700000
83.014000 4081.600000
85.029500 5057.900000
95.013800 22150.500000
97.029500 10420.900000
108.021700 62606.700000
109.029400 64065.900000
123.008800 10143.900000
124.016500 3335.700000
125.024400 8341.300000
188.986300 49939.400000

>ms2
69.034600 10356.400000
79.957400 669240.700000
80.965200 85001.900000
83.013900 2784.500000
85.029500 1590.900000
95.013900 13484.500000
97.029600 7272.500000
108.021700 69719.500000
109.029400 24606.100000
123.008700 3885.400000
124.016900 3348.600000
125.024300 3160.500000
188.986300 5857.400000

