>compound LU88510777
>parentmass 341.0254
>ionization [M-H]-
>formula C18H12Cl2N2O
>rt 1040.880000
>profile orbitrap
#smiles_iso C1=CC=C(C(=C1)C2=CC=C(C=C2)Cl)NC(=O)C3=C(N=CC=C3)Cl
#smiles_can C1=CC=C(C(=C1)C2=CC=C(C=C2)Cl)NC(=O)C3=C(N=CC=C3)Cl
#inchikey WYEMLYFITZORAB-UHFFFAOYSA-N
#pubchem_id 213013
#mb_accession LU131651,LU131652,LU131653,LU131654,LU131655,LU131656

>ms2
111.996000 1884370.600000
155.985800 74669.100000
202.043100 10112.700000
228.022200 155335.700000
341.025200 5982772.500000

>ms2
111.995900 4423071.000000
155.985800 171367.600000
202.042900 15957.400000
228.022200 240128.100000
305.048800 8910.000000
341.025300 324451.900000

>ms2
111.996000 1369916.500000
155.985800 57935.400000
228.022300 57075.500000
305.050500 4209.000000
341.025800 2692.100000

>ms2
111.996000 268319.600000
155.985900 10670.200000
164.050400 4379.100000
228.022000 6044.600000

>ms2
111.996000 38024.100000
164.050700 1890.400000

>ms2
111.995900 5569.500000
164.050900 2197.400000

