>compound LU88439134
>parentmass 264.0812
>ionization [M-H]-
>formula C12H15N3O2S
>rt 962.700000
>profile orbitrap
#smiles_iso CCCSC1=CC2=C(C=C1)N=C(N2)NC(=O)OC
#smiles_can CCCSC1=CC2=C(C=C1)N=C(N2)NC(=O)OC
#inchikey HXHWSAZORRCQMX-UHFFFAOYSA-N
#pubchem_id 2082
#mb_accession LU045351,LU045352,LU045353,LU045354,LU045355,LU045356

>ms2peaks
189.000300 25275.500000
221.026400 37267.000000
232.055000 174181.700000
264.081300 136851.600000

>ms2peaks
189.000300 174251.700000
221.026500 91100.200000
232.055100 148176.300000
264.081500 19733.200000

>ms2peaks
189.000300 355710.200000
221.026400 32076.500000
232.054900 18351.300000

>ms2peaks
57.975700 6159.600000
133.993900 1757.400000
159.997600 7211.700000
161.005300 31863.200000
189.000200 362230.600000
221.026000 4266.600000

>ms2peaks
57.975700 26196.500000
81.975800 4304.900000
94.983500 2014.700000
159.997600 29784.000000
161.005400 58525.600000
189.000300 212004.100000

>ms2peaks
57.975700 49951.700000
81.975800 4226.400000
94.983700 2549.500000
133.994300 4084.100000
159.997600 50695.400000
161.005400 41061.600000
189.000300 70754.800000

