>compound LU88557653
>parentmass 223.00709999999995
>ionization [M-H]-
>formula C10H8O4S
>rt 466.020000
>profile orbitrap
#smiles_iso C1=CC2=C(C=CC(=C2)S(=O)(=O)O)C=C1O
#smiles_can C1=CC2=C(C=CC(=C2)S(=O)(=O)O)C=C1O
#inchikey VVPHSMHEYVOVLH-UHFFFAOYSA-N
#pubchem_id 7117
#mb_accession LU023451,LU023452,LU023453,LU023454,LU023455,LU023456,LU133151,LU133152,LU133153,LU133154,LU133155,LU133156

>ms2peaks
79.957500 11210.200000
158.037000 2040.300000
159.045500 14566.300000
223.007000 1995949.000000

>ms2peaks
79.957000 28838.900000
143.050100 13618.400000
158.037300 5821.800000
159.045300 75593.400000
223.007000 1970511.900000

>ms2peaks
79.957300 228071.300000
80.965100 3613.900000
131.050200 4064.000000
143.050200 78282.900000
158.037300 135014.900000
159.045200 403227.400000
195.012400 3439.300000
221.999300 4300.900000
223.007000 1141783.000000

>ms2peaks
79.957400 603391.800000
80.965200 9345.900000
130.042100 4447.300000
131.050200 12810.900000
141.034800 2700.800000
143.050200 87175.900000
158.037300 420536.500000
159.045100 378511.800000
195.012100 2556.000000
221.999200 8092.900000
223.007000 287880.400000

>ms2peaks
79.957400 930818.500000
80.965200 21856.300000
115.055400 3313.700000
130.042400 15153.000000
131.050200 9566.900000
141.034500 2640.600000
143.050200 71347.600000
158.037400 569057.400000
159.045200 149449.600000
195.012700 2584.400000
221.999200 4179.600000
223.007000 50139.900000

>ms2peaks
79.957400 1030949.100000
80.965200 33400.700000
115.055300 9981.800000
130.042400 20750.700000
131.050700 3940.400000
141.034600 2539.200000
143.050100 36368.900000
158.037300 394047.700000
159.045200 25732.500000
223.007200 3435.600000

>ms2peaks
79.957500 9075.200000
159.045600 9112.900000
223.007000 1557522.200000

>ms2peaks
79.957100 22532.000000
143.050200 7291.200000
158.037300 6737.900000
159.045200 59092.500000
223.007100 1484777.800000

>ms2peaks
79.957400 201882.900000
80.965200 2581.700000
141.034900 2065.400000
143.050200 61589.400000
158.037300 97876.900000
159.045200 324454.700000
195.012100 3499.900000
221.999500 4706.200000
223.007100 944612.600000

>ms2peaks
79.957400 528174.200000
80.965100 10042.500000
130.042400 3778.900000
131.050400 9088.000000
141.034700 3753.900000
143.050300 80453.200000
158.037400 347021.500000
159.045200 301898.500000
195.011900 4012.100000
221.999400 3606.900000
223.007200 258920.400000

>ms2peaks
79.957400 733824.200000
80.965200 18293.800000
115.055300 5459.900000
130.042400 7604.600000
131.050400 11195.100000
141.034700 5386.100000
143.050200 63256.200000
158.037300 444824.600000
159.045200 115018.600000
195.011800 2550.900000
221.999200 5559.200000
223.007100 41365.000000

>ms2peaks
79.957400 834693.800000
80.965100 22785.300000
115.055200 9155.200000
130.042300 17729.800000
131.050300 4413.500000
141.034200 2185.200000
143.050200 30435.000000
158.037300 324663.800000
159.045100 26778.400000
223.007200 5498.100000

