>compound LU89669646
>parentmass 407.1513
>ionization [M-H]-
>formula C25H20N4O2
>rt 1014.240000
>profile orbitrap
#smiles_iso COC1=CC=C(C=C1)C(=O)NC2=NC3=CC=CC=C3C(=C2C#N)NCC4=CC=CC=C4
#smiles_can COC1=CC=C(C=C1)C(=O)NC2=NC3=CC=CC=C3C(=C2C#N)NCC4=CC=CC=C4
#inchikey FFHQNQNMELQOEF-UHFFFAOYSA-N
#pubchem_id 10201497
#mb_accession LU063151,LU063152,LU063153,LU063154,LU063155,LU063156

>ms2peaks
302.093400 14406.400000
380.140100 39040.900000
392.126900 21008.200000
407.151200 11892774.000000

>ms2peaks
65.014500 246039.000000
93.034600 16330.800000
108.021700 13579.200000
118.030000 7680.900000
128.050500 27028.400000
131.061500 11637.100000
142.041100 8803.000000
150.056000 19457.600000
168.056700 16227.600000
169.040700 8687.000000
171.056200 8264.100000
174.056100 34366.900000
175.051200 5842.200000
181.051800 7124.400000
183.043800 26008.900000
208.039000 11163.700000
209.046800 154507.300000
244.087600 7597.800000
247.087600 5832.100000
251.082500 59698.500000
257.060000 8466.700000
259.087300 8182.000000
260.058900 11454.600000
272.083100 381697.700000
272.106800 135981.700000
274.062500 10446.900000
274.098300 6454.300000
275.082800 108560.300000
277.098100 81602.500000
287.070100 40842.800000
287.094100 7523.900000
288.078000 126282.400000
289.085900 55811.200000
298.085800 24515.100000
299.093800 538758.600000
301.073100 356154.000000
302.093500 750474.600000
303.100700 21381.200000
304.095600 15447.600000
315.088800 328381.200000
316.096500 165332.400000
320.104000 6417.700000
353.130300 9292.800000
364.110300 26866.100000
365.117200 11997.300000
366.124400 66613.800000
374.117000 58703.400000
380.140500 891875.200000
389.140800 178278.800000
391.120700 8543.200000
392.128000 602560.400000
406.144900 5910.600000
407.151300 5631697.500000

>ms2peaks
64.006700 15865.100000
65.014500 573022.400000
65.998500 7539.600000
90.009700 10133.500000
93.034600 88681.500000
95.013900 4197.100000
102.035000 2904.500000
108.021700 30259.200000
116.038300 3608.100000
117.045800 5918.200000
118.029800 45274.200000
128.050600 46480.900000
130.029800 2787.900000
131.037800 3263.100000
131.061400 7254.100000
141.045800 15109.900000
142.041100 29994.200000
143.061600 12147.900000
145.040600 5936.300000
150.056000 13632.100000
156.032900 53167.100000
159.032900 12584.700000
160.027800 5571.300000
166.041100 53059.600000
167.048800 5344.400000
168.056700 158045.300000
169.040700 16800.500000
170.035900 12825.700000
171.056400 87307.500000
174.056000 43784.100000
175.051000 12280.200000
179.048700 3807.600000
180.043900 20168.300000
180.056700 70662.900000
181.052000 49282.400000
182.036000 50068.200000
182.059900 6786.600000
183.043800 86705.300000
194.036100 29616.800000
195.067900 13955.200000
199.051100 3518.600000
207.031200 114130.300000
208.039000 96834.800000
209.046800 414098.700000
229.077600 2420.500000
230.085600 4438.900000
231.080400 7394.200000
232.064500 17839.800000
232.088000 17367.600000
233.072400 3067.000000
235.051300 11028.800000
235.063600 5133.100000
236.059100 8504.600000
244.088200 36972.700000
245.058300 2551.700000
245.071900 5917.500000
245.095300 6094.200000
246.066800 11211.900000
247.088100 13337.000000
249.067100 9729.900000
251.082600 38680.200000
255.080700 7873.500000
256.088100 9852.600000
257.059500 162759.000000
258.067000 6543.100000
259.050700 4062.800000
259.074700 8793.100000
259.088100 12681.400000
260.059100 135883.500000
260.083500 10890.600000
261.066900 32480.200000
262.074600 7585.100000
271.099000 281605.200000
272.083100 555883.000000
272.106700 260854.700000
273.054400 10696.800000
273.078100 65596.300000
274.062200 39885.500000
274.098600 7452.900000
275.082700 171761.000000
277.098600 31725.900000
286.062200 44274.500000
287.070100 76250.100000
287.093900 31238.800000
288.077800 199282.600000
289.085700 30654.800000
298.085600 22150.700000
299.093700 439180.700000
300.065200 121960.300000
301.073000 400635.400000
302.093500 168613.800000
303.101100 5393.400000
304.096600 66844.400000
315.088800 698600.100000
316.095700 8315.100000
320.104800 2727.900000
347.106600 3288.600000
348.113700 5294.800000
353.130300 4583.100000
362.094300 8086.700000
364.109500 161540.400000
364.133300 20262.200000
365.115700 7282.300000
366.124700 27881.700000
373.109600 29015.300000
374.117500 73015.000000
375.125300 4085.100000
380.140400 123369.500000
389.140800 22140.600000
391.119800 13229.800000
392.127900 73882.000000
407.151400 98001.200000

>ms2peaks
64.006600 30990.500000
65.014500 737191.100000
65.998500 64566.200000
90.009600 19913.800000
93.034600 140206.600000
95.013800 7468.500000
102.034900 9212.700000
108.021600 14086.600000
117.045900 8946.200000
118.029800 76806.200000
128.050500 28312.400000
130.029700 12858.900000
131.037500 9107.700000
131.061400 4062.900000
141.045800 40539.300000
142.040900 106104.000000
143.061300 3904.700000
153.045800 7691.900000
155.049000 7552.500000
156.032900 302927.200000
159.032500 30353.900000
160.027900 13164.400000
166.041000 198313.900000
167.048900 4050.000000
168.056700 325778.500000
169.040600 12091.100000
170.035800 10701.800000
171.056300 66839.100000
174.056000 9400.500000
175.050900 5472.800000
179.048900 5173.000000
180.044100 329246.400000
180.056600 31047.200000
181.052000 85881.600000
182.036000 157212.900000
183.043700 31699.100000
184.027800 3714.400000
193.051500 6547.800000
194.035900 37694.800000
194.059200 3671.800000
195.067500 41287.800000
199.051600 4611.400000
201.017800 6257.800000
204.069100 7584.300000
207.031100 686486.500000
208.038900 81134.400000
209.046800 451986.100000
217.076800 6361.800000
218.072900 3680.800000
219.056400 3952.700000
228.070200 2603.900000
229.065000 13590.600000
229.076300 4369.900000
230.072300 2732.500000
230.085000 6208.400000
231.056300 7881.700000
231.080300 17214.800000
232.064200 83108.700000
232.087100 24402.100000
233.047900 10474.600000
233.071700 9620.900000
234.043000 3690.500000
235.051200 31550.100000
235.063400 4679.300000
236.058900 8365.000000
242.072300 3499.700000
244.087900 81432.500000
245.059500 3283.300000
245.071500 4448.700000
245.083300 7013.000000
245.095500 4286.000000
246.067100 20029.700000
247.050700 7052.600000
249.067400 3360.000000
251.082800 8104.500000
255.080200 93758.700000
256.088300 11184.100000
257.059400 518811.400000
258.067000 18068.100000
259.051000 25048.700000
259.074500 14194.400000
260.058900 143453.300000
260.083300 8567.200000
261.066900 53442.200000
271.098900 343194.400000
272.070000 93949.000000
272.083200 104504.000000
272.106700 37028.800000
273.054400 55237.500000
273.078100 174043.800000
274.062200 50032.800000
275.082600 41696.400000
286.062100 132241.800000
287.070100 8664.000000
287.093900 15641.900000
288.077900 106834.300000
298.085300 4841.200000
299.057600 29076.400000
299.093700 72265.600000
300.065100 369144.300000
301.072900 100330.900000
304.096400 7949.900000
315.088800 272920.300000
346.098300 7789.900000
347.105600 4988.500000
348.113700 4751.800000
362.093200 22191.100000
364.109200 60262.500000
373.109200 29637.000000
374.116800 6128.300000
391.121600 3376.000000

>ms2peaks
50.003600 4085.600000
64.006700 41226.400000
65.014500 709848.600000
65.998500 170875.100000
80.001600 4269.700000
90.009800 38479.900000
93.034600 130469.400000
95.013900 8951.600000
102.034900 13078.600000
108.021700 9471.900000
115.030100 8217.000000
117.045700 21760.300000
118.029900 133028.100000
126.035200 4429.800000
127.030500 6500.500000
128.038100 4968.000000
128.050700 24474.800000
130.029900 15559.300000
131.037700 15376.300000
139.030000 3458.800000
140.025500 12662.200000
141.033300 4881.300000
141.045800 70246.000000
142.041100 170289.300000
152.025400 3931.700000
153.033200 2808.700000
153.045600 4855.200000
155.025200 11685.600000
155.048800 6807.200000
156.033000 455345.400000
159.032500 21846.200000
160.028000 11617.400000
166.041100 298766.900000
168.056700 193550.700000
169.040600 6159.100000
170.036200 8393.800000
171.056700 9041.800000
180.044200 754898.800000
181.028400 3434.700000
181.052100 50178.800000
182.036000 176342.200000
183.020200 14321.100000
183.043800 3661.900000
184.027500 5177.800000
193.052200 7104.000000
194.036100 14362.800000
194.059700 4263.800000
195.067600 29212.600000
201.018200 8072.300000
204.069100 24859.500000
207.031200 808099.800000
208.038800 17848.900000
209.046800 173442.600000
217.077300 12976.000000
218.061200 6194.500000
218.072300 8059.100000
219.056500 8073.800000
222.056500 4024.000000
228.069500 12617.000000
229.064500 117741.300000
230.072500 5655.900000
231.057000 17197.500000
231.079900 31622.900000
232.064100 56473.500000
232.088100 8580.600000
233.048500 6045.300000
233.072500 10118.800000
234.043600 3765.800000
234.056200 5055.600000
235.051300 28010.600000
244.088000 99258.700000
245.059400 26503.200000
245.071100 4864.200000
245.083300 11179.900000
246.067800 18088.400000
247.052100 6712.700000
255.080200 96772.300000
257.059500 378988.300000
258.067300 11428.400000
259.051000 25640.700000
259.075500 4463.400000
260.059200 23869.800000
260.082900 7636.400000
261.067100 32977.800000
271.062800 14329.600000
271.099000 134979.000000
272.070400 186997.000000
273.054700 76111.700000
273.078400 54166.700000
274.062100 16152.600000
286.062200 95524.700000
288.077500 33827.900000
298.049000 4785.800000
299.057300 66285.700000
299.093900 3576.700000
300.065200 119981.900000
301.073700 7949.600000
315.088500 18333.900000
346.098100 3805.700000
362.093200 15759.600000
364.109800 3843.500000
373.110700 4824.500000

>ms2peaks
50.003600 2964.400000
64.006700 56758.500000
65.014500 710163.000000
65.998500 207691.900000
80.001600 2850.600000
90.009800 44089.300000
93.034600 128845.800000
95.013900 8771.900000
102.035000 11944.800000
108.021600 5508.400000
115.030300 20390.400000
117.045800 34971.600000
118.029800 146645.700000
126.035000 2519.100000
127.030200 14402.500000
128.038000 24609.800000
128.050400 15143.600000
130.029800 6499.000000
131.037600 13744.800000
139.029900 14359.600000
140.025400 33673.900000
141.033300 8216.600000
141.045800 79831.700000
142.041000 192838.600000
145.040800 3317.500000
152.025400 16268.000000
153.033500 11411.900000
155.025100 33258.200000
155.048800 8485.800000
156.032900 416533.000000
159.032600 7141.100000
160.027500 5409.300000
166.041000 273865.400000
168.056700 59375.200000
169.040900 3338.700000
170.036100 11440.200000
180.044100 815979.400000
181.028300 3986.600000
181.051500 13346.100000
182.036000 132820.300000
183.020100 18141.200000
193.051700 9243.900000
194.036200 2463.500000
195.067800 9020.900000
204.069000 26504.600000
207.031200 530656.100000
209.046900 41250.400000
217.076700 17186.300000
218.061300 4788.600000
218.072400 8258.300000
219.056700 7712.400000
222.058300 2710.000000
228.069500 14216.300000
229.064400 230776.400000
230.072700 2728.800000
231.057500 13701.000000
231.080000 28633.100000
232.064300 22809.300000
233.048500 3275.300000
233.071900 9637.800000
234.044000 3603.400000
234.056100 5605.500000
235.051100 17032.300000
242.072700 4023.900000
244.087800 69396.400000
245.059200 48329.800000
245.082700 3799.500000
246.067600 3870.000000
255.080200 27111.900000
257.059500 104829.000000
258.066900 12995.200000
259.050900 14318.200000
260.081600 3329.600000
261.066900 12424.200000
271.062700 21521.800000
271.099000 18234.900000
272.070300 108200.300000
273.054200 28170.800000
286.062300 55860.000000
288.078200 3722.100000
298.048300 5735.200000
299.057400 44738.400000
300.066000 9857.700000
362.094800 5118.500000

