>compound LU89285788
>parentmass 313.05490000000003
>ionization [M-H]-
>formula C17H12ClFN2O
>rt 1039.560000
>profile orbitrap
#smiles_iso C1=CC=C(C(=C1)C(C2=CC=C(C=C2)F)(C3=CN=CN=C3)O)Cl
#smiles_can C1=CC=C(C(=C1)C(C2=CC=C(C=C2)F)(C3=CN=CN=C3)O)Cl
#inchikey SAPGTCDSBGMXCD-UHFFFAOYSA-N
#pubchem_id 91683
#mb_accession LU124451,LU124452,LU124453,LU124454,LU124455,LU124456

>ms2peaks
167.050300 4717.900000
168.058200 4582.600000
169.065900 21198.600000
171.045300 6071.600000
198.055500 2182.600000

>ms2peaks
57.034600 23814.200000
59.050200 18938.300000
117.034200 2023.900000
156.058000 15928.000000
165.034600 24606.600000
167.050300 80462.200000
168.057900 5379.000000
169.065900 192065.700000
171.045200 73638.300000
182.037200 11534.200000
183.044900 5250.600000
184.052900 36610.000000
198.056200 27217.300000
199.040300 18172.200000
210.056200 11496.600000

>ms2peaks
57.034600 56106.800000
59.050200 26007.300000
117.034600 3325.000000
127.055200 7025.100000
139.055400 12519.000000
156.058100 56678.700000
165.034600 135716.800000
167.050200 48095.900000
168.058100 6298.800000
169.065900 227221.000000
171.045200 87921.000000
182.037400 7950.400000
183.045200 26267.600000
184.053000 52437.600000
198.056000 25298.500000
199.040100 17372.800000
210.055800 2819.600000

>ms2peaks
57.034600 56428.400000
59.050200 16423.300000
101.039700 2690.200000
117.034600 6362.600000
127.055400 5177.800000
137.039500 2033.200000
139.055400 23153.800000
141.070700 5632.800000
156.058100 43742.000000
165.034600 180983.900000
167.050300 9851.500000
169.065900 221348.500000
171.045200 41114.100000
182.037500 5655.500000
183.045200 22372.300000
184.052800 15452.400000
198.055900 4033.300000
199.040400 8776.300000

>ms2peaks
57.034600 51655.800000
59.050200 7171.300000
93.034500 5345.500000
101.039600 10140.100000
113.039600 4440.300000
115.055500 4036.700000
117.034600 7410.200000
121.029500 1775.100000
137.039600 5617.700000
139.055500 17791.500000
141.071100 14719.700000
153.034600 2976.700000
156.058200 13154.000000
165.034600 115386.900000
167.050200 4170.000000
169.065900 211847.800000
171.045300 15254.700000
183.045300 18540.500000
184.053000 3852.800000
199.040500 2379.700000

>ms2peaks
57.034600 44093.400000
93.034600 16409.800000
101.039700 18211.900000
113.039400 8497.800000
115.055400 16343.200000
117.034700 10089.300000
121.029700 7089.000000
137.039700 11771.500000
139.055400 7624.400000
141.071000 50876.400000
153.034800 5134.700000
156.057700 2001.500000
165.034600 55608.600000
167.050500 3073.100000
169.065900 219387.500000
171.045400 7434.200000
183.045100 13916.800000
184.052600 2186.900000
199.040400 2048.400000

