>compound LU90068796
>parentmass 375.1274
>ionization [M-H]-
>formula C18H18F2N4O3
>rt 996.480000
>profile orbitrap
#smiles_iso CC(C)(CNC1=NC=C2C(=CC(=O)N(C2=N1)C)OC3=C(C=C(C=C3)F)F)O
#smiles_can CC(C)(CNC1=NC=C2C(=CC(=O)N(C2=N1)C)OC3=C(C=C(C=C3)F)F)O
#inchikey KOKXXPKAPFSRCR-UHFFFAOYSA-N
#pubchem_id 60196437
#mb_accession LU022551,LU022552,LU022553,LU022554,LU022555,LU022556

>ms2peaks
129.015500 23607.400000
176.046600 3735.200000
297.079800 5447.100000
303.069900 34510.200000
317.085500 787670.900000
375.127500 3377074.500000

>ms2peaks
103.030200 29781.700000
113.021000 5360.200000
118.041200 4718.300000
129.015800 1001134.200000
130.041100 4109.500000
135.067500 6420.200000
148.051600 3951.400000
159.067400 3123.800000
175.062800 3535.400000
176.046500 150232.100000
177.054600 3324.700000
185.052000 3446.200000
187.062300 18696.900000
188.070400 22326.000000
190.049900 9183.100000
191.033500 4309.500000
203.057400 38999.100000
204.065300 19250.700000
213.047000 5353.400000
232.069100 2702.000000
236.053500 3946.700000
241.042100 5697.000000
242.073400 7484.600000
243.057900 4985.700000
254.037100 34771.300000
255.045000 13091.200000
261.048200 10170.900000
270.068500 107826.400000
282.055900 2856.700000
283.063900 5209.600000
288.059200 8723.700000
290.074700 118184.100000
297.079200 67561.400000
303.069800 158902.500000
317.085500 2188916.200000
359.096300 13869.300000
375.127500 266724.400000

>ms2peaks
76.019300 7339.000000
89.003200 6634.300000
93.014700 3711.700000
103.030200 55398.100000
108.056800 3499.000000
109.009600 6578.200000
111.025000 4738.100000
113.020800 28591.200000
118.041100 17255.000000
119.024800 2199.400000
127.020100 16613.900000
129.015700 1596044.200000
130.040900 15809.600000
131.049300 2356.700000
132.056800 11225.900000
135.067600 14033.900000
136.020600 3719.400000
138.036000 7554.900000
142.047300 4442.500000
146.036100 3105.100000
148.051600 33138.500000
158.035900 13206.500000
159.067700 4329.300000
160.039500 2092.100000
173.046900 6398.300000
175.062400 21567.100000
176.046500 902508.400000
177.054300 35921.400000
185.052400 10281.800000
186.036600 4273.900000
187.062100 14365.800000
188.070400 22959.300000
190.049600 89805.200000
191.033900 2831.200000
203.057400 158220.500000
204.065300 18284.400000
213.046400 13262.100000
216.046600 22583.700000
228.057700 14886.500000
232.068800 4218.200000
236.054400 12093.200000
241.041900 20260.000000
242.073500 20720.100000
243.057400 8923.700000
254.037200 158670.200000
255.044900 45269.900000
261.048000 25935.500000
268.053500 16904.200000
270.068600 96671.400000
281.047500 4958.900000
282.055600 3495.400000
283.063800 20838.100000
288.058700 6248.700000
290.074500 43777.000000
297.079200 28969.300000
303.070000 81517.200000
317.085300 144619.700000
359.096400 5783.900000

>ms2peaks
74.003500 2373.500000
76.019300 8776.500000
89.003300 23840.700000
91.030300 4751.200000
93.014600 29734.200000
103.030200 32646.200000
105.033300 2695.300000
105.046000 4837.000000
106.017200 10880.000000
108.056800 6467.100000
109.009600 33996.000000
111.025000 6310.000000
113.020900 35077.100000
115.030300 3342.000000
117.009500 7721.400000
118.041200 14747.600000
119.025200 4911.200000
120.032800 2432.900000
127.020000 12556.500000
129.015800 937383.900000
130.040900 10137.400000
131.048600 2386.200000
132.056700 11200.900000
133.028000 11864.300000
135.067700 3066.000000
136.020500 7094.200000
138.036200 6013.300000
142.047500 5357.200000
146.036100 4512.200000
148.051700 177621.500000
158.036000 9200.800000
159.068100 2061.600000
162.054700 5811.000000
173.046900 8847.400000
175.062500 35681.700000
176.046500 856242.300000
177.054300 20003.800000
185.051800 6130.500000
190.049700 123763.500000
198.023200 3297.800000
199.030900 3223.100000
203.057500 140234.600000
204.065200 2628.500000
213.046800 6973.200000
216.046500 14291.300000
227.026000 4064.200000
228.057900 6824.800000
241.042100 6987.000000
242.073300 4860.800000
254.037300 91281.400000
255.044400 9751.200000
268.053800 3205.000000
270.068800 5461.500000
281.047900 4887.200000
283.064000 2264.200000
303.069500 3869.600000

>ms2peaks
64.019400 2886.100000
74.003600 5547.400000
76.019300 4792.500000
83.030200 2838.000000
89.003300 87894.200000
91.030200 8717.900000
93.014600 61220.800000
95.030600 3361.700000
103.030200 24616.200000
105.033300 8328.400000
105.045800 7355.400000
106.017300 26601.500000
108.056700 4623.500000
109.009500 95932.400000
111.025200 5976.400000
113.020800 23884.800000
115.030300 4070.600000
117.009500 9847.600000
118.041100 24955.700000
119.025000 4954.400000
120.033000 4719.600000
121.040900 3948.500000
127.020000 9161.300000
129.015800 767945.600000
130.041000 11364.300000
132.020200 4140.500000
132.056600 8303.600000
133.028200 91983.600000
136.020400 11903.700000
138.036100 10344.000000
142.047500 3671.100000
146.036100 8462.100000
147.031300 4877.900000
148.051700 675894.900000
158.035600 10213.600000
162.054700 12446.300000
173.046800 7689.800000
175.026400 4609.400000
175.062500 76066.600000
176.046600 658262.100000
177.053900 7374.200000
185.051900 5537.000000
186.036600 3568.500000
190.049700 93271.000000
198.023500 2438.100000
199.031400 3098.600000
203.057600 101394.400000
206.035900 3713.100000
213.046500 5089.200000
227.025800 2274.600000
254.037300 87465.100000

>ms2peaks
64.019200 7992.500000
74.003600 4355.100000
76.019200 6845.300000
83.030200 4151.500000
89.003300 203119.200000
91.030300 11065.600000
93.014600 66418.300000
95.030400 2276.200000
103.030300 10822.200000
105.033300 13200.300000
105.045900 13289.100000
106.017300 59612.100000
109.009500 121369.400000
111.025200 4941.400000
113.020900 8364.500000
117.009400 8213.500000
118.041100 68219.800000
119.025200 6097.400000
121.040700 5035.000000
127.020000 7334.900000
129.015800 454165.500000
130.041000 6882.700000
132.020400 8195.500000
133.028200 319496.800000
146.035900 9692.800000
147.031400 12762.300000
148.051700 863720.400000
158.035200 4932.600000
160.039000 8433.100000
162.054800 11898.200000
173.046800 4686.900000
175.026100 5268.600000
175.062500 74989.400000
176.046600 251892.500000
177.054400 2546.100000
190.049600 27837.600000
198.023400 2868.500000
203.057600 33767.500000
206.035600 4054.000000
227.026500 3491.700000
254.037200 39712.000000

