>compound LU90525507
>parentmass 261.9338
>ionization [M-H]-
>formula C6H6AsNO6
>rt 415.380000
>profile orbitrap
#smiles_iso C1=CC(=C(C=C1[As](=O)(O)O)[N+](=O)[O-])O
#smiles_can C1=CC(=C(C=C1[As](=O)(O)O)[N+](=O)[O-])O
#inchikey XMVJITFPVVRMHC-UHFFFAOYSA-N
#pubchem_id 5104
#mb_accession LU042251,LU042252,LU042253,LU042254,LU042255,LU042256

>ms2
106.911900 23345.600000
122.906800 8073.400000
123.008700 2095.800000
153.006800 21041.900000
214.932900 5143.200000
243.923300 340805.800000
261.933900 89586.400000

>ms2
106.912000 96377.800000
122.907000 20766.900000
123.008800 16255.700000
153.006900 116633.500000
214.933200 19246.300000
243.923300 204567.200000
261.934000 17690.200000

>ms2
95.013900 18398.800000
106.912000 114225.600000
122.907000 43119.900000
123.008800 108379.800000
153.006800 162819.500000
214.932800 5448.400000
243.923200 22230.500000

>ms2
69.034600 2662.300000
95.013900 70073.600000
106.912000 102882.900000
122.906900 45683.300000
123.008800 146070.800000
153.006700 54667.400000

>ms2
68.998300 2208.000000
69.034700 3678.500000
95.013900 88214.900000
106.912000 96496.100000
122.907000 45393.900000
123.008800 72587.200000
153.006900 6481.900000

>ms2
68.998300 6002.800000
69.034600 4289.900000
95.013900 69835.000000
106.912000 100137.200000
122.906900 43859.000000
123.008800 23959.000000

