>compound LU91102730
>parentmass 301.14449999999994
>ionization [M-H]-
>formula C18H22O4
>rt 1027.260000
>profile orbitrap
#smiles_iso CC(CC1=CC(=C(C=C1)O)O)C(C)CC2=CC(=C(C=C2)O)O
#smiles_can CC(CC1=CC(=C(C=C1)O)O)C(C)CC2=CC(=C(C=C2)O)O
#inchikey HCZKYJDFEPMADG-UHFFFAOYSA-N
#pubchem_id 4534
#mb_accession LU061151,LU061152,LU061153,LU061154,LU061155,LU061156

>ms2peaks
122.037800 12105.900000
149.061400 9453.900000
301.144500 8294490.500000

>ms2peaks
108.021800 13572.200000
109.029500 20678.700000
121.029400 2565.800000
122.037300 54305.000000
123.045200 21629.500000
124.016400 6106.900000
125.024400 5526.800000
137.024500 9197.400000
149.024000 2062.000000
151.003600 5238.100000
154.027200 15110.000000
177.092000 6771.400000
273.150000 14772.200000
301.144500 1538593.400000

>ms2peaks
81.034500 4179.000000
83.050300 15701.300000
93.034600 12476.700000
95.050200 7534.000000
107.014000 3440.900000
108.021700 523257.800000
109.029500 541701.800000
111.008700 9483.100000
121.029600 34258.500000
122.037300 2109646.000000
123.045100 413497.700000
124.016500 248932.100000
125.024400 10840.500000
135.045200 68717.000000
136.016500 70051.800000
137.024400 484682.800000
149.060600 60230.800000
151.003000 3869.800000
151.076300 21657.500000
153.019300 45077.100000
154.027200 648685.200000
173.118100 7964.500000
175.076700 4187.300000
177.092100 75587.000000
191.107800 18804.500000
243.099700 3071.800000
245.154600 17018.200000
273.149700 213723.000000
301.144500 2432426.500000

>ms2peaks
65.003300 2797.900000
81.034500 12876.200000
83.050300 18575.500000
93.034500 5765.200000
95.050200 7295.800000
107.013900 3475.300000
108.021700 167987.400000
109.029500 156924.500000
111.008900 2314.300000
121.029600 13072.100000
122.037300 583286.000000
123.045100 92026.800000
124.016500 68247.600000
125.024500 3351.200000
135.045100 43861.700000
136.016600 16421.200000
137.024400 141476.100000
149.024400 2502.400000
149.060700 37916.900000
151.076600 3204.700000
153.019300 14487.900000
154.027200 214710.800000
173.117800 2480.500000
175.075900 2506.800000
177.091900 8138.100000
191.108400 2340.300000
245.154800 6179.800000
273.149900 15209.300000
301.144500 47847.100000

>ms2peaks
93.034600 2076.400000
95.050300 4492.500000
108.021800 49428.700000
109.029500 50761.100000
121.029500 2270.300000
122.037400 81292.000000
123.045200 19794.600000
124.016600 11061.100000
135.045200 24623.500000
136.016500 3234.900000
137.024500 18600.000000
149.060700 15290.600000
154.027200 35987.300000

>ms2peaks
65.003200 3002.900000
81.034600 2677.400000
93.034600 4615.200000
95.050200 3123.200000
108.021700 38538.000000
109.029500 44210.000000
121.029400 7447.800000
122.037300 29923.200000
123.045100 12543.500000
124.016400 3985.800000
135.045300 27147.000000
137.024300 5912.500000
149.060900 15724.700000
154.027200 6871.500000

