>compound LU91426188
>parentmass 407.0427
>ionization [M-H]-
>formula C16H13ClF4N2O4
>rt 1086.480000
>profile orbitrap
#smiles_iso CCOC(=O)COC1=C(C=C(C(=C1)N2C(=O)C(=C(C=N2)C(F)(F)F)C)F)Cl
#smiles_can CCOC(=O)COC1=C(C=C(C(=C1)N2C(=O)C(=C(C=N2)C(F)(F)F)C)F)Cl
#inchikey DNUAYCRATWAJQE-UHFFFAOYSA-N
#pubchem_id 3083546
#mb_accession LU018551,LU018552,LU018553,LU018554,LU018555,LU018556

>ms2
279.985700 12806.600000
285.005000 43718.700000
300.982000 6973.600000
313.000000 16198.100000
318.993100 4296.200000
320.988000 9356.900000
330.003700 2223.800000
340.994600 60499.200000
347.023800 16563.900000
351.059700 7047.400000
361.000900 14497.100000
387.036600 67853.600000
407.042800 317841.000000

>ms2
110.004600 3305.100000
137.015400 9941.600000
237.010400 2029.900000
244.992200 5460.000000
256.991900 2995.400000
272.987400 27966.700000
277.022900 4320.600000
279.985700 19455.400000
285.004800 29916.800000
300.982000 37908.600000
312.999500 20147.200000
318.992800 6122.000000
320.988300 22282.900000
330.003300 3633.900000
340.994500 89720.900000
347.023700 3507.700000
351.060300 12238.500000
361.002600 3368.700000
387.036600 6143.400000
407.043600 6510.400000

>ms2
65.998600 5410.300000
89.014600 4375.200000
89.998700 4612.500000
110.004800 6338.900000
122.964200 8515.600000
137.015700 19785.600000
159.017700 4222.900000
166.978000 2499.600000
176.020200 11030.000000
181.021200 2352.200000
209.015800 6254.600000
209.976000 7150.700000
216.996900 2789.600000
229.022200 2313.500000
231.984600 9558.400000
237.010600 13227.000000
244.992300 13778.900000
249.028000 8121.600000
256.991800 1983.100000
272.987500 29532.000000
277.023300 4186.000000
300.982300 7679.600000
320.988200 3070.500000
340.994300 4514.600000

>ms2
64.019400 3408.800000
65.998600 5744.300000
89.014500 21151.200000
89.998700 9854.100000
110.004800 9520.200000
122.964400 10840.000000
137.015700 22159.000000
159.017200 5230.100000
161.014800 2713.600000
166.977700 2026.900000
176.020400 19873.700000
181.020800 5926.600000
207.018100 4911.200000
209.015700 9178.100000
209.976500 5301.900000
216.996900 2492.900000
229.021900 2506.700000
231.984700 7573.700000
237.010700 8646.200000
244.992500 7402.500000
249.028100 2876.900000

>ms2
64.019200 2508.200000
65.998500 7204.300000
89.014500 36856.700000
89.998500 16018.600000
94.969300 2326.700000
110.004600 6274.400000
122.964300 4716.000000
137.015500 12077.400000
159.017500 5862.500000
161.014400 3920.800000
176.020000 10519.000000
180.015300 2429.700000
181.020900 12128.800000
209.015400 2649.300000
216.996600 2628.200000
231.984600 3497.900000

>ms2
64.019200 2563.200000
65.998600 6434.500000
89.014600 41277.300000
89.998700 14912.500000
94.969400 4237.800000
110.004600 2666.500000
122.964200 2338.000000
137.015900 6330.200000
159.017400 2103.600000
161.014700 4481.900000
176.020400 3371.300000
180.015200 4080.100000
181.020700 5894.400000
207.017700 2634.500000

