>compound LU91627125
>parentmass 270.2075
>ionization [M-H]-
>formula C15H29NO3
>rt 1182.960000
>profile orbitrap
#smiles_iso CCCCCCCCCCCC(=O)N(C)CC(=O)O
#smiles_can CCCCCCCCCCCC(=O)N(C)CC(=O)O
#inchikey BACYUWVYYTXETD-UHFFFAOYSA-N
#pubchem_id 7348
#mb_accession LU068351,LU068352,LU068353,LU068354,LU068355,LU068356

>ms2
88.040400 18528570.000000
181.159900 25878.000000
183.175400 35366.800000
208.207100 31873.600000
226.217700 2416863.800000
252.197800 21155.700000
270.207600 8878241.000000

>ms2
86.061200 74403.800000
88.040400 23522968.000000
181.159800 154005.600000
183.175400 273533.700000
208.207100 96352.100000
224.202000 35165.900000
226.217700 2551269.800000
252.196500 24669.300000
270.207500 682770.400000

>ms2
70.029800 20142.000000
86.061200 41819.000000
88.040400 14372943.000000
179.144300 17803.500000
181.159800 226103.300000
183.175400 498437.000000
208.207200 25227.800000
224.201800 45006.200000
226.217700 207158.700000

>ms2
57.034500 18026.800000
66.034900 12337.100000
70.029900 23665.200000
80.026800 19889.700000
83.050300 27382.600000
86.024800 16603.500000
86.061200 27061.700000
88.040400 11611151.000000
96.045600 15363.200000
179.144200 65107.100000
181.159900 220569.400000
183.175400 251011.100000
197.191300 14279.000000
224.202800 19075.200000

>ms2
55.018900 5531.600000
57.034600 10571.800000
66.035000 8313.600000
70.029800 7872.900000
80.026800 22491.500000
81.034700 7400.300000
83.050200 8042.200000
86.024800 15194.600000
86.061000 5980.100000
88.040400 5235759.000000
96.045600 10244.000000
155.144700 6388.700000
179.144100 26856.600000
181.160000 48913.500000
183.175800 17892.400000

>ms2
70.030000 7884.400000
80.026800 11626.400000
88.040400 2357135.200000
181.159400 7683.500000

