>compound LU91789669
>parentmass 283.11999999999995
>ionization [M-H]-
>formula C15H16N4O2
>rt 908.490000
>profile orbitrap
#smiles_iso CCN1C2=C(C(=N1)C)N=C(CNC2=O)C3=CC=C(C=C3)O
#smiles_can CCN1C2=C(C(=N1)C)N=C(CNC2=O)C3=CC=C(C=C3)O
#inchikey BEOZJBLIRPRMJM-UHFFFAOYSA-N
#pubchem_id 135418174
#mb_accession LU085451,LU085452,LU085453,LU085454,LU085455,LU085456

>ms2peaks
283.120200 1262686.600000

>ms2peaks
93.034500 6928.200000
131.037700 29840.700000
132.046100 2260.200000
159.032600 9180.700000
177.078700 2957.300000
190.086300 5645.100000
215.059400 17670.400000
228.114600 2315.600000
253.073300 38838.900000
254.081000 54421.100000
255.088900 43298.500000
255.125200 4958.400000
283.120200 1309645.100000

>ms2peaks
93.034600 56287.600000
106.041000 14459.100000
117.034400 2161.900000
118.029900 8580.100000
120.020300 25070.000000
130.029700 8031.700000
131.037600 200834.200000
132.045500 4067.700000
134.072400 3875.200000
144.045500 7338.200000
157.053400 2155.900000
158.048400 3051.700000
159.032500 25361.900000
160.040200 2463.300000
162.054900 4929.400000
173.035800 4043.400000
175.062600 8109.400000
183.068400 2173.100000
185.036200 3472.400000
186.044100 2427.300000
187.051000 1774.900000
190.085900 10881.300000
198.080300 3533.000000
199.075300 9818.100000
199.087600 5015.400000
211.075100 3202.100000
212.083400 13946.800000
225.066900 21260.700000
228.114000 28604.600000
237.078300 7327.200000
239.057400 2589.400000
253.073100 490441.300000
254.081000 116938.200000
255.088700 115815.600000
255.125000 7037.000000
267.088700 5794.500000
283.120000 408333.300000

>ms2peaks
64.006600 1676.900000
93.034600 56660.000000
93.045700 3120.000000
106.041100 28000.400000
117.034500 3555.200000
118.029800 27354.100000
120.020300 40086.100000
120.044700 3008.900000
123.045200 4478.700000
130.029900 6788.500000
131.037600 167865.800000
132.045400 7211.400000
143.025000 5691.800000
144.045400 10538.200000
146.024300 2130.800000
149.046700 5575.200000
156.032900 4825.600000
157.040600 2993.700000
157.053000 3789.300000
158.048400 7706.000000
159.032500 16539.800000
159.056200 3719.000000
160.040500 3469.000000
162.055000 5614.400000
169.040800 2119.600000
171.056300 4781.000000
175.062700 7674.300000
177.077800 2563.800000
182.048000 2103.500000
183.055500 2720.700000
185.035600 4813.100000
185.071400 2439.000000
186.043300 5865.300000
190.085800 3576.100000
196.051900 2021.000000
197.072000 9049.300000
198.057200 2919.500000
198.067300 6850.300000
198.079900 11081.300000
199.074900 21155.600000
199.086000 3382.100000
212.046500 3901.500000
212.083000 5214.500000
223.075400 3998.900000
224.059000 6286.400000
225.067000 182213.600000
228.113800 9594.200000
237.078000 3467.500000
238.049900 6444.300000
253.073100 503330.100000
254.081200 21289.500000
255.088800 33244.800000
267.089000 7307.100000
283.119900 19046.000000

>ms2peaks
64.006800 2395.100000
65.014500 8650.800000
90.009700 4685.700000
93.034600 61654.900000
106.041100 26308.500000
117.034600 7209.100000
118.029900 50606.200000
120.020400 26727.900000
130.029900 5363.600000
131.037700 87892.200000
132.045500 25163.700000
143.025100 42259.200000
144.045700 12958.600000
145.040900 11119.600000
155.037800 2666.800000
156.033100 17159.100000
157.040900 15356.900000
157.053300 5190.600000
158.048700 7555.000000
158.060900 1974.800000
159.032600 4987.400000
160.041000 2411.800000
163.027700 2211.300000
169.041000 5064.900000
170.061300 7365.800000
171.056400 6561.200000
173.035500 5248.700000
175.062600 6060.700000
182.048500 8212.800000
183.056300 6064.100000
183.069900 2207.800000
184.051900 5246.800000
185.035700 6004.100000
186.043600 6433.700000
187.051400 2115.500000
195.056700 8188.000000
196.064500 4153.800000
197.072100 33290.800000
198.056100 5756.900000
198.067300 8176.700000
198.080000 6833.500000
199.075400 10179.700000
199.085900 1770.000000
210.043300 2936.400000
211.039100 2500.100000
212.046500 5278.700000
222.067300 4967.000000
223.051000 3248.600000
224.059200 36127.100000
225.067100 237340.200000
237.077300 2053.500000
238.049800 19636.900000
253.073200 164246.600000
255.088800 4266.400000
267.089600 3005.700000

>ms2peaks
64.006700 4870.200000
65.014600 8825.400000
90.009900 3711.300000
93.034600 36106.600000
106.041100 14641.200000
117.034600 6794.200000
118.029900 70320.500000
120.020400 11702.200000
130.029600 2130.900000
131.037700 40717.900000
132.045500 28210.000000
143.025100 57010.300000
144.045500 11574.900000
145.040900 15882.700000
147.056400 3491.200000
149.046900 1857.200000
155.037600 7322.000000
156.033000 21741.600000
157.040700 16139.400000
157.052400 1975.200000
159.032300 2201.100000
169.041000 6344.100000
170.061200 8836.600000
171.056500 4388.200000
173.035600 2833.100000
182.048500 12647.000000
183.056200 6393.200000
184.051100 3108.300000
185.035700 1981.800000
186.042700 1986.400000
195.056200 9500.500000
196.064200 5300.300000
197.072000 23933.600000
198.056300 2938.400000
198.067500 3700.400000
198.079600 2849.900000
199.050900 2881.900000
199.075500 2258.100000
210.044000 3159.700000
211.039000 2753.000000
212.046000 1916.500000
222.067700 2949.000000
223.051300 2149.300000
224.059300 33739.000000
225.067100 79668.800000
238.049100 11948.500000
253.073600 15491.200000

