>compound LU92838888
>parentmass 150.0561
>ionization [M-H]-
>formula C8H9NO2
>rt 648.240000
>profile orbitrap
#smiles_iso CC(=O)NC1=CC=CC=C1O
#smiles_can CC(=O)NC1=CC=CC=C1O
#inchikey ADVGKWPZRIDURE-UHFFFAOYSA-N
#pubchem_id 11972
#mb_accession LU069551,LU069552,LU069553,LU069554,LU069555,LU069556

>ms2
107.037700 8037.100000
108.045400 4384420.000000
132.045400 25113.100000
150.056000 198267.000000

>ms2
107.037600 8541.600000
108.045500 3884388.000000
132.045300 18881.500000
150.056000 186008.500000

>ms2
107.037700 26660.400000
108.045400 4809461.500000
132.045400 28253.400000
150.056100 37956.000000

>ms2
81.034500 5957.100000
91.018900 7236.600000
107.037700 134066.900000
108.045500 4137884.800000
132.045400 20443.400000
134.024700 4416.800000

>ms2
65.039700 7910.800000
81.034700 10883.100000
90.035000 13389.700000
91.019000 21753.700000
107.037800 462331.000000
108.045500 3876715.800000
132.045500 9691.100000
134.024800 4341.600000

>ms2
65.039700 9312.300000
67.019000 4430.700000
78.034900 5382.500000
81.034600 17340.100000
90.035000 21515.600000
91.019000 54784.500000
95.013700 4092.300000
107.037700 1024360.600000
108.045500 3045345.200000
132.045500 6102.500000
134.024900 4404.200000

