>compound LU92807588
>parentmass 455.08930000000004
>ionization [M-H]-
>formula C26H20N2O2S2
>rt 1133.280000
>profile orbitrap
#smiles_iso C1=CC=C(C=C1)C(=O)NC2=CC=CC=C2SSC3=CC=CC=C3NC(=O)C4=CC=CC=C4
#smiles_can C1=CC=C(C=C1)C(=O)NC2=CC=CC=C2SSC3=CC=CC=C3NC(=O)C4=CC=CC=C4
#inchikey ZHMIOPLMFZVSHY-UHFFFAOYSA-N
#pubchem_id 67271
#mb_accession LU068151,LU068152,LU068153,LU068154,LU068155,LU068156

>ms2
112.985700 3974.400000
228.049000 876594.600000

>ms2
112.985600 9467.100000
134.007300 6967.000000
210.037900 11900.900000
228.049000 1001952.800000
254.028500 4361.500000

>ms2
112.985700 8919.700000
123.014700 2489.900000
134.007000 82138.100000
150.002000 2702.100000
210.038400 38422.800000
228.048900 671345.500000
254.028000 10194.500000

>ms2
57.975600 4069.100000
106.996200 5050.700000
123.014800 17465.700000
134.007000 308722.700000
150.002100 9246.900000
210.038300 27317.600000
228.048900 219508.500000
254.028100 4690.700000

>ms2
57.975600 9246.800000
106.996100 7765.400000
123.014800 33497.400000
134.007000 352197.100000
150.001600 9850.500000
210.038400 4468.100000
228.048900 30214.600000

>ms2
57.975700 31770.200000
106.996200 6117.900000
123.014800 28910.400000
134.007000 276395.700000
150.002000 10777.300000
228.048400 2602.000000

