>compound LU92264954
>parentmass 418.8045
>ionization [M-H]-
>formula C9H6Cl6O4S
>rt 1124.460000
>profile orbitrap
#smiles_iso C1C2C(COS(=O)(=O)O1)C3(C(=C(C2(C3(Cl)Cl)Cl)Cl)Cl)Cl
#smiles_can C1C2C(COS(=O)(=O)O1)C3(C(=C(C2(C3(Cl)Cl)Cl)Cl)Cl)Cl
#inchikey AAPVQEMYVNZIOO-UHFFFAOYSA-N
#pubchem_id 13940
#mb_accession LU056251,LU056252,LU056253,LU056254,LU056255,LU056256

>ms2
79.957300 4803.500000
96.960100 2778131.000000

>ms2
79.957400 22165.500000
96.960100 4029162.000000
207.957300 7687.000000

>ms2
79.957400 52878.600000
96.960100 4189211.500000

>ms2
79.957300 143245.300000
96.960100 3783539.800000
207.960900 9459.200000

>ms2
79.957400 314736.100000
96.960100 3484488.000000

>ms2
79.957400 716176.900000
96.960100 3186402.200000

