>compound LU92413754
>parentmass 341.03839999999997
>ionization [M-H]-
>formula C12H14N4O4S2
>rt 909.180000
>profile orbitrap
#smiles_iso COC(=O)NC(=S)NC1=CC=CC=C1NC(=S)NC(=O)OC
#smiles_can COC(=O)NC(=S)NC1=CC=CC=C1NC(=S)NC(=O)OC
#inchikey QGHREAKMXXNCOA-UHFFFAOYSA-N
#pubchem_id 3032791
#mb_accession LU080551,LU080552,LU080553,LU080554,LU080555,LU080556

>ms2
132.056700 6006.100000
149.017800 87931.900000
158.035900 30207.900000
190.062300 41909.500000

>ms2
81.045900 3678.800000
132.056900 8527.200000
149.017900 112610.200000
158.035900 43654.800000
189.066600 8188.300000
190.062200 22629.700000

>ms2
81.045700 6576.300000
117.045700 7066.800000
132.056600 10711.200000
149.017900 118936.400000
158.036000 65925.900000
189.066700 6428.200000
190.062100 4647.300000

>ms2
81.045800 5699.700000
117.045800 24651.800000
132.056700 6701.700000
149.017800 86956.800000
158.036000 57807.600000

>ms2
57.975800 4101.700000
81.045800 4105.300000
117.045800 55762.200000
132.056800 4070.200000
149.017900 57714.600000
158.036000 49872.600000

>ms2
57.975700 11352.900000
81.045900 2683.100000
117.045900 56604.800000
149.017900 24043.800000
158.036000 22144.300000

