>compound LU92712882
>parentmass 299.2592
>ionization [M-H]-
>formula C18H36O3
>rt 1209.480000
>profile orbitrap
#smiles_iso CCCCCCC(CCCCCCCCCCC(=O)O)O
#smiles_can CCCCCCC(CCCCCCCCCCC(=O)O)O
#inchikey ULQISTXYYBZJSJ-UHFFFAOYSA-N
#pubchem_id 7789
#mb_accession LU039851,LU039852,LU039853,LU039854,LU039855,LU039856

>ms2
299.259200 1162509.900000

>ms2
113.097200 54258.200000
169.159700 44006.700000
253.253700 75798.000000
281.248700 173541.300000
297.243800 82751.700000
299.259000 6772563.500000

>ms2
111.081700 5000.000000
113.097200 125795.800000
127.112800 23483.500000
139.112900 5640.100000
167.144000 28609.100000
169.159700 101292.900000
183.175400 7710.400000
211.170100 6239.300000
213.149800 10852.000000
253.253700 138418.500000
281.248600 188916.600000
297.243600 113818.200000
299.259100 1690594.200000

>ms2
57.034600 4093.300000
111.081700 5141.800000
113.097200 30757.000000
127.113000 9091.700000
139.113000 3896.800000
167.144000 14966.100000
169.159900 15765.000000
183.175900 2164.800000
211.170700 2071.900000
213.149600 2569.200000
253.253600 12375.100000
281.248600 10924.700000
297.243600 9020.100000
299.259200 38231.700000

>ms2
57.034600 1797.200000
111.081600 1835.200000
113.097300 4598.300000
167.144100 2708.400000

>ms2
57.034600 1691.200000

