>compound LU92969702
>parentmass 508.9710999999999
>ionization [M-H]-
>formula C17H8Cl2F8N2O3
>rt 1166.880000
>profile orbitrap
#smiles_iso C1=CC(=C(C(=C1)F)C(=O)NC(=O)NC2=CC(=C(C=C2Cl)OC(C(C(F)(F)F)F)(F)F)Cl)F
#smiles_can C1=CC(=C(C(=C1)F)C(=O)NC(=O)NC2=CC(=C(C=C2Cl)OC(C(C(F)(F)F)F)(F)F)Cl)F
#inchikey PWPJGUXAGUPAHP-UHFFFAOYSA-N
#pubchem_id 71777
#mb_accession LU019551,LU019552,LU019553,LU019554,LU019555,LU019556

>ms2peaks
146.987300 46899.400000
156.026700 181739.700000
201.946900 456265.400000
285.945500 2482.100000
302.998000 58066.400000
325.958000 2088062.200000
350.953100 91324.800000
408.998900 8793.200000
452.988300 196319.300000

>ms2peaks
113.020600 21736.500000
130.992700 15504.700000
146.987300 41796.600000
156.026900 13470.700000
173.951800 9957.500000
174.959700 1223854.600000
175.967500 3783.400000
201.946800 441867.900000
249.968800 6214.100000
258.000000 35292.800000
265.939400 22283.700000
285.945600 108109.400000
294.961100 7058.700000
302.997800 63703.000000
305.951700 108805.600000
325.957900 1090708.500000
338.974200 252758.500000
350.953300 62940.500000
408.999200 7095.700000
452.988000 11392.100000

>ms2peaks
93.014600 15213.600000
113.020800 55774.600000
130.992500 57834.100000
146.987500 74829.000000
165.970100 28763.600000
173.952000 8321.300000
174.959700 2457461.000000
175.967500 4219.600000
185.952000 7529.400000
199.955000 53459.700000
201.946900 279980.500000
203.983500 9504.500000
216.950400 2932.100000
249.968900 7063.500000
257.999900 16722.600000
265.939300 42802.100000
285.945600 49191.500000
294.961000 10834.900000
302.998000 52891.200000
305.951700 17794.600000
338.974400 41928.700000
350.953000 5434.300000

>ms2peaks
74.003400 4376.400000
93.014600 40177.000000
113.020800 68318.300000
130.992600 46615.000000
146.987600 76565.200000
165.970100 50931.200000
174.959700 1203624.800000
185.952000 12095.600000
199.955000 43195.800000
201.946900 77447.300000
201.968000 16657.000000
203.983500 7768.700000
211.031000 3073.300000
216.950400 3728.700000
265.939400 5593.100000
302.997900 6817.200000

>ms2peaks
73.008300 6776.900000
74.003600 2683.300000
93.014700 95673.700000
103.006300 3958.900000
113.020900 42610.300000
130.992700 18669.100000
146.987600 59338.600000
165.970100 17049.200000
174.959800 248949.500000
185.952100 9226.300000
199.955000 13647.000000
201.946800 6008.600000
201.968000 10377.600000

>ms2peaks
73.008400 17359.900000
74.003800 4241.800000
93.014600 144377.900000
103.006300 1767.400000
113.020900 24010.500000
130.992700 6154.800000
146.987500 31812.200000
165.970300 3923.900000
174.959700 29730.800000
201.967800 3155.600000
211.031000 2085.000000

