>compound LU92987625
>parentmass 435.8801
>ionization [M-H]-
>formula C14H8Br2F3NO2
>rt 1243.380000
>profile orbitrap
#smiles_iso C1=CC(=CC(=C1)NC(=O)C2=C(C(=CC(=C2)Br)Br)O)C(F)(F)F
#smiles_can C1=CC(=CC(=C1)NC(=O)C2=C(C(=CC(=C2)Br)Br)O)C(F)(F)F
#inchikey VYKKDKFTDMVOBU-UHFFFAOYSA-N
#pubchem_id 20906
#mb_accession LU046951,LU046952,LU046953,LU046954,LU046955,LU046956

>ms2peaks
78.919100 32033.500000
248.855400 65454.500000
435.879800 22131288.000000

>ms2peaks
78.918900 4206029.000000
160.037800 48270.100000
161.022000 23713.800000
168.929400 473625.200000
186.017500 22017.400000
207.873800 29489.900000
248.855600 5207362.500000
273.851400 19900.700000
355.954300 57131.500000
435.879900 13700031.000000

>ms2peaks
78.918900 3364023.500000
89.003200 8285.700000
160.037900 109471.500000
161.021900 8206.300000
168.929400 561051.100000
186.017000 7205.600000
232.037200 4360.600000
246.839700 19422.300000
248.855500 866002.700000
273.851000 3463.600000
355.953000 14719.700000
417.868500 4528.000000
435.879900 199785.500000

>ms2peaks
78.918800 14718273.000000
89.003200 190444.700000
120.025500 24852.100000
160.037900 722837.800000
161.022200 32940.000000
168.929400 2161337.000000
246.839800 57567.400000
248.855500 488693.800000

>ms2peaks
78.918900 889027.400000
89.003300 14495.300000
120.025600 6725.000000
160.037900 31036.000000
168.929400 53007.600000

>ms2peaks
78.918900 4697588.000000
89.003300 72119.600000
120.025500 56171.200000
140.031900 5006.400000
160.038000 125430.700000
161.022000 4750.100000
168.929500 98314.500000
207.872900 9315.700000

