>compound LU92393875
>parentmass 215.12889999999996
>ionization [M-H]-
>formula C11H20O4
>rt 1002.720000
>profile orbitrap
#smiles_iso C(CCCCC(=O)O)CCCCC(=O)O
#smiles_can C(CCCCC(=O)O)CCCCC(=O)O
#inchikey LWBHHRRTOZQPDM-UHFFFAOYSA-N
#pubchem_id 15816
#mb_accession LU047651,LU047652,LU047653,LU047654,LU047655,LU047656

>ms2peaks
57.034600 8344.600000
125.097400 16179.100000
153.128500 1706043.000000
171.139300 56262.500000
197.118400 4022192.500000
215.128800 7463632.500000

>ms2peaks
57.034500 32605.600000
125.097200 44281.500000
151.112700 19796.900000
153.128500 3784648.200000
171.139100 107182.700000
197.118300 6217862.500000
215.128800 5228954.000000

>ms2peaks
55.018800 4299.300000
57.034500 121199.500000
69.034700 16272.500000
71.050300 22427.100000
80.026600 4503.300000
83.050400 16936.600000
97.065800 4272.200000
99.081600 10909.100000
125.097100 126574.300000
137.097100 8275.700000
151.112800 73710.500000
153.128500 3451546.800000
171.139100 73247.500000
197.118300 2620206.200000
215.128800 1084979.800000

>ms2peaks
55.019000 2085.800000
57.034500 73763.500000
69.034600 11128.300000
71.050300 18525.100000
80.026700 15274.100000
81.034600 4504.600000
83.050300 20079.100000
97.065900 8657.300000
99.081600 8241.100000
125.097100 63617.000000
137.097200 3734.100000
151.112800 76469.600000
153.128400 864642.600000
171.139100 13057.700000
197.118300 385608.200000
215.128800 188807.300000

>ms2peaks
57.034600 20194.800000
69.034600 4106.100000
71.050300 5802.300000
80.026700 18758.400000
81.034500 3599.700000
83.050100 4031.500000
97.065900 4032.100000
125.097300 13227.200000
151.112900 19057.000000
153.128500 93298.400000
197.118300 36396.100000
215.128800 15890.000000

>ms2peaks
57.034600 4716.100000
80.026800 3575.000000
151.112800 1577.900000
153.128400 2784.400000

