>compound LU93704688
>parentmass 335.05119999999994
>ionization [M-H]-
>formula C15H10F6O2
>rt 1057.500000
>profile orbitrap
#smiles_iso C1=CC(=CC=C1C(C2=CC=C(C=C2)O)(C(F)(F)F)C(F)(F)F)O
#smiles_can C1=CC(=CC=C1C(C2=CC=C(C=C2)O)(C(F)(F)F)C(F)(F)F)O
#inchikey ZFVMWEVVKGLCIJ-UHFFFAOYSA-N
#pubchem_id 73864
#mb_accession LU038051,LU038052,LU038053,LU038054,LU038055,LU038056

>ms2peaks
68.995900 109288.800000
161.021900 78501.800000
265.048200 6450738.000000
266.056400 24373.300000
315.045100 195432.000000
335.051300 24041174.000000

>ms2peaks
68.995700 2046652.500000
161.022000 417323.000000
245.041600 94465.000000
246.049800 56736.800000
265.048100 33207268.000000
266.055400 144794.900000
275.032500 101200.600000
295.038600 228027.600000
315.045100 851250.100000
335.051300 3533475.200000

>ms2peaks
68.995700 3879174.200000
108.990600 31601.700000
111.025100 266827.000000
161.021900 411281.400000
195.045000 191536.200000
198.048500 44291.400000
205.029400 57364.900000
215.051400 191103.100000
217.046900 34502.600000
225.035700 470679.700000
227.031100 85711.500000
244.034000 318703.300000
245.041800 880214.100000
246.049300 141857.300000
247.036600 37259.900000
255.026800 128585.400000
265.048000 26869318.000000
266.055500 33142.500000
275.032400 139273.700000
295.038600 395136.700000
315.045300 168639.500000
335.050700 29365.100000

>ms2peaks
68.995800 5424287.500000
84.990600 20175.700000
108.021700 136039.400000
108.990600 25235.300000
111.025200 1322438.000000
141.034700 14511.700000
149.039700 160193.100000
153.034500 108129.200000
161.022000 274892.700000
167.050200 95063.800000
169.045900 235484.200000
171.045100 29172.900000
177.034600 991843.000000
178.042500 14783.500000
185.040700 55847.200000
187.056500 258724.400000
195.045100 850064.000000
196.053100 61964.900000
197.040800 1481845.500000
199.037100 35832.900000
201.035800 35523.300000
205.029500 456701.300000
207.025200 90080.700000
213.035900 138275.500000
215.051500 961981.200000
216.039200 139525.400000
217.047000 173635.100000
221.023800 14566.700000
223.040200 53190.100000
223.059500 60195.000000
224.027900 135255.800000
225.035800 1834166.900000
227.031600 227070.500000
235.019900 45901.300000
237.053600 17872.200000
241.030600 36519.100000
244.034100 1724825.600000
245.041900 2178394.500000
246.049600 42056.700000
247.037400 35980.200000
255.026500 151155.800000
265.048200 12176363.000000
275.032400 69969.900000
295.038500 61333.300000

>ms2peaks
91.018900 44281.900000
108.021600 3993.800000
167.050500 9376.900000
195.045200 124935.400000
196.052900 4138.900000
223.040100 224065.000000

>ms2peaks
68.995800 7497022.500000
91.018900 110520.200000
108.021600 26773.800000
108.990700 12678.500000
111.025100 1470907.600000
141.034700 125846.900000
149.039600 2511054.500000
161.021900 38015.500000
167.050200 1004035.800000
169.045900 328795.800000
171.045200 21251.600000
177.034600 2738332.200000
178.042500 99460.500000
185.040700 46314.400000
187.056500 284960.000000
195.045100 1087878.500000
196.053300 17453.500000
197.040800 438918.200000
198.048200 35699.300000
201.035800 11055.600000
205.029500 178155.600000
207.025100 108142.300000
216.039200 748891.900000
217.046800 35929.100000
221.024000 9443.100000
223.059300 45212.000000
224.027900 398920.800000
225.035700 272318.200000
227.031200 51722.100000
244.034000 644541.900000
245.041800 156241.200000
265.047800 181742.000000

