>compound LU93447706
>parentmass 360.0256
>ionization [M-H]-
>formula C15H11ClF3NO4
>rt 1116.840000
>profile orbitrap
#smiles_iso CC(C(=O)O)OC1=CC=C(C=C1)OC2=C(C=C(C=N2)C(F)(F)F)Cl
#smiles_can CC(C(=O)O)OC1=CC=C(C=C1)OC2=C(C=C(C=N2)C(F)(F)F)Cl
#inchikey GOCUAJYOYBLQRH-UHFFFAOYSA-N
#pubchem_id 50895
#mb_accession LU038451,LU038452,LU038453,LU038454,LU038455,LU038456

>ms2peaks
71.013900 1112708.900000
252.027800 35107.000000
280.059100 24826.000000
288.004500 14220687.000000

>ms2peaks
71.013900 736371.300000
108.021500 27524.100000
162.017200 26626.600000
179.983300 101077.900000
195.977700 64927.800000
197.993800 27325.000000
208.037800 7686.300000
213.072200 8488.100000
224.032600 23255.500000
232.021200 8770.200000
242.043100 6033.800000
252.027800 672844.900000
253.035200 7894.000000
280.058800 13245.300000
288.004400 5299821.000000

>ms2peaks
69.034600 7722.400000
71.013900 416798.200000
97.029600 3190.800000
108.021700 166378.500000
162.017200 52475.000000
170.022300 11484.500000
179.983400 282184.900000
184.020500 11622.300000
195.978200 281958.500000
196.038100 32052.700000
197.021800 13703.800000
197.993900 47763.900000
204.026400 19191.400000
208.037800 22949.400000
212.015500 2725.300000
213.072000 6387.400000
214.048800 9046.300000
223.973400 9550.600000
224.032900 82186.000000
232.021400 31791.600000
242.043800 15203.300000
252.027800 546020.100000
253.035600 21428.800000
288.004500 216756.800000

>ms2peaks
67.019000 2849.600000
69.034600 16555.100000
71.013900 253677.200000
95.030200 3561.600000
97.029600 11768.400000
108.021700 333469.100000
117.034500 3867.800000
156.025500 8837.400000
162.017200 21660.300000
164.014400 1977.800000
168.025700 3872.600000
170.022300 84689.700000
175.971800 7839.100000
176.032000 9921.200000
177.015700 7493.200000
179.983400 106246.100000
184.020300 37693.100000
188.031500 3071.500000
195.978300 793636.800000
196.037400 48041.100000
197.021900 36836.100000
197.993800 11169.200000
204.026600 76932.100000
208.037500 15021.700000
212.015400 10411.600000
214.049100 10455.300000
224.032900 66513.700000
232.021500 53768.200000
242.043200 4318.600000
252.027900 174698.600000
253.035700 14359.700000

>ms2peaks
67.019000 5647.300000
69.034500 20479.500000
71.013900 166903.900000
95.030300 3812.800000
97.029600 14432.400000
108.021700 487575.100000
126.035000 3487.800000
127.018900 9952.000000
136.019300 7732.300000
142.011100 6488.000000
147.024800 3157.300000
150.016100 2615.700000
156.025600 40766.200000
162.016800 16245.100000
164.014200 13037.800000
168.025700 7711.700000
170.022300 195723.600000
175.972000 45191.700000
176.031700 19185.800000
177.015900 32341.800000
179.983200 12459.700000
182.024600 5627.100000
184.020300 61035.300000
188.031400 4711.200000
195.978200 884001.600000
197.022000 34647.900000
204.026600 59978.200000
208.038100 5081.500000
212.015000 18179.200000
214.049100 4769.800000
224.033000 21029.900000
232.021600 23662.200000
252.027800 31512.200000

>ms2peaks
67.019000 6017.600000
69.034700 11240.100000
71.013900 98633.100000
95.030400 3382.600000
97.029600 7620.300000
108.021700 437077.000000
117.034600 4250.700000
126.035000 9881.400000
127.019000 52183.400000
136.019200 33940.200000
142.010800 10097.200000
147.025100 3627.000000
150.016100 13231.500000
156.025600 71036.900000
162.016900 4596.500000
164.014500 13720.200000
168.025100 5911.600000
170.022400 222379.700000
175.972000 60796.200000
176.031800 18862.200000
177.015900 39493.100000
182.024400 4825.200000
184.020200 35715.100000
195.978300 426475.300000
204.026600 23829.100000
212.015400 7580.500000
232.021300 4400.000000
252.027900 4419.700000

