>compound LU93847461
>parentmass 284.0556000000001
>ionization [M-H]-
>formula C10H12ClN5O3
>rt 648.780000
>profile orbitrap
#smiles_iso C1[C@@H]([C@H](O[C@H]1N2C=NC3=C(N=C(N=C32)Cl)N)CO)O
#smiles_can C1C(C(OC1N2C=NC3=C(N=C(N=C32)Cl)N)CO)O
#inchikey PTOAARAWEBMLNO-KVQBGUIXSA-N
#pubchem_id 20279
#mb_accession LU134351,LU134352,LU134353,LU134354,LU134355,LU134356

>ms2
107.036400 2752.700000
131.023900 8468.500000
132.031600 103194.300000
134.047400 3908.800000
167.000400 2545.000000
168.008300 307752.000000
194.023700 20645.100000
248.078900 435646.200000
284.055600 1836833.100000

>ms2
59.013900 6286.200000
66.009800 6484.300000
105.020500 2039.800000
107.036400 17167.500000
131.023800 75804.200000
132.031600 862887.200000
134.047300 11730.300000
158.047200 13257.300000
167.000600 6991.900000
168.008300 549576.600000
194.024000 46866.400000
248.079000 671390.900000
284.055800 450514.700000

>ms2
59.013800 5726.900000
66.009800 55466.500000
78.009900 4217.800000
90.009800 4491.000000
105.020700 26207.000000
107.036300 30566.500000
131.023800 175289.300000
132.031600 1477407.400000
134.047400 7356.300000
158.047200 37350.000000
167.000600 15021.000000
168.008300 283145.000000
194.023900 43073.900000
248.079000 126850.800000
284.055700 19314.700000

>ms2
59.013800 5174.900000
66.009800 210253.400000
78.009800 11805.800000
90.009700 8320.600000
105.020700 47777.400000
107.036300 24474.200000
131.023800 240578.000000
132.031600 1042211.700000
158.047100 33119.000000
167.000400 17176.600000
168.008300 81409.400000
194.024000 10834.100000
248.079200 7748.800000

>ms2
59.013800 4363.000000
66.009800 269652.200000
78.009800 10581.200000
90.009800 11880.800000
104.012900 3929.100000
105.020700 40970.600000
107.036300 10956.200000
131.023800 206551.300000
132.031600 385848.900000
158.047100 11238.800000
167.000100 9768.100000
168.008300 17427.100000

>ms2
59.013800 2167.300000
66.009800 314875.500000
78.009700 9307.800000
90.009800 12120.000000
104.012800 5403.500000
105.020700 25962.400000
107.036300 7507.800000
131.023700 152419.200000
132.031600 127031.400000
158.047800 1824.500000
167.000100 4641.900000
168.008400 3226.100000

