>compound LU93320177
>parentmass 358.0227
>ionization [M-H]-
>formula C12H8F3N5O3S
>rt 835.680000
>profile orbitrap
#smiles_iso COC1=NC=C(C2=NC(=NN21)S(=O)(=O)NC3=C(C=CC=C3F)F)F
#smiles_can COC1=NC=C(C2=NC(=NN21)S(=O)(=O)NC3=C(C=CC=C3F)F)F
#inchikey QZXATCCPQKOEIH-UHFFFAOYSA-N
#pubchem_id 11700495
#mb_accession LU038651,LU038652,LU038653,LU038654,LU038655,LU038656

>ms2peaks
66.009900 7938.400000
167.037400 5674990.000000
279.038200 16612.600000
294.061200 35905.100000
358.022900 1254196.100000

>ms2peaks
55.030100 29283.700000
66.009600 30195.600000
83.005100 25031.400000
90.009800 10987.700000
104.012800 13136.700000
104.025400 14880.800000
111.000100 12999.700000
140.026700 18724.500000
152.014000 132034.800000
167.037400 7520859.500000
231.035900 12847.600000
279.036700 11379.800000

>ms2peaks
55.030100 154802.400000
64.006700 53919.000000
66.009700 231428.400000
77.014400 8140.500000
80.001600 17277.800000
80.025300 5269.700000
83.005100 146704.800000
85.020700 8926.400000
90.009800 106564.500000
97.020800 15802.300000
99.036400 5580.200000
104.012800 160681.500000
104.025400 63722.800000
110.015900 60212.400000
111.000000 34123.800000
113.015700 5953.300000
119.036200 6004.900000
120.020200 9691.400000
124.019100 6804.900000
124.031500 4760.600000
132.007700 45292.700000
138.010700 8159.900000
140.026600 67986.300000
147.031100 10040.400000
148.002500 4772.100000
152.013900 741370.600000
167.037400 4637364.500000
231.036000 11085.800000

>ms2peaks
55.030100 169554.300000
58.009800 5421.100000
58.993800 7879.200000
60.025500 6255.900000
64.006700 233797.800000
65.014600 4647.500000
66.009800 599391.300000
77.014500 9650.700000
80.001600 68638.300000
80.025200 4353.600000
83.005100 260812.300000
85.020700 13827.100000
87.000100 2880.500000
90.009800 288314.000000
92.025500 4359.600000
97.008200 4058.500000
97.020800 12016.000000
99.036400 7587.800000
104.012900 486893.500000
104.025400 68832.400000
107.012600 6611.500000
109.008100 5092.500000
110.016000 80598.600000
110.999900 24185.600000
113.015600 7456.900000
119.036300 5812.500000
120.020300 11211.200000
124.019000 30355.700000
124.031400 3250.600000
132.007700 84667.800000
137.026800 6426.100000
138.010800 7208.000000
140.026600 47527.800000
147.031200 10139.500000
148.002500 7485.600000
152.014000 827936.600000
160.031800 3089.500000
167.037400 1679046.200000
231.035400 3034.100000

>ms2peaks
55.030100 123731.700000
58.009800 7158.100000
58.993800 24869.400000
60.025400 6043.800000
64.006700 449546.800000
65.014600 8741.100000
66.009800 941822.500000
77.014600 10067.200000
80.001600 148092.100000
83.005100 298764.800000
85.020700 8070.400000
87.000000 8490.300000
90.009800 450044.200000
92.025500 5189.300000
95.005100 6879.000000
97.008200 18392.400000
97.020700 8176.600000
99.036600 3518.800000
104.012900 762286.900000
104.025300 38405.000000
107.012400 5740.400000
109.008300 4317.800000
110.016000 80746.500000
111.000000 9210.200000
113.015600 8531.400000
119.036200 4278.000000
120.020300 7493.600000
124.019000 66705.800000
132.007700 59962.600000
137.026900 3045.000000
140.026700 23415.100000
147.031000 2292.100000
148.002500 6584.800000
152.014000 448277.600000
153.021800 6164.100000
153.027600 3905.200000
160.031800 4262.700000
167.037400 452293.500000

>ms2peaks
55.030100 62397.800000
58.009900 5401.200000
58.993800 43253.500000
60.025500 5888.800000
64.006700 495315.000000
65.014600 7799.900000
66.009800 1004861.500000
77.014500 3056.800000
80.001600 153116.300000
83.005100 196704.900000
85.020700 4604.300000
87.000200 1917.200000
90.009800 447505.100000
92.025500 2453.800000
95.005200 5554.000000
97.008200 20396.500000
97.020800 2200.700000
104.012900 603766.000000
107.012400 3110.500000
110.015900 48045.100000
110.999900 3280.500000
113.015500 2576.800000
120.020300 2246.900000
124.019000 74064.700000
132.007700 23607.100000
140.026300 2872.500000
152.014000 122261.200000
153.021700 6145.200000
153.027600 4188.900000
167.037400 77013.600000

