>compound LU93660527
>parentmass 221.0819
>ionization [M-H]-
>formula C12H14O4
>rt 963.310000
>profile orbitrap
#smiles_iso CC(C)(C)OC(=O)C1=CC=CC=C1C(=O)O
#smiles_can CC(C)(C)OC(=O)C1=CC=CC=C1C(=O)O
#inchikey PBUQZKXKYSAJDO-UHFFFAOYSA-N
#pubchem_id 134976
#mb_accession LU081851,LU081852,LU081853,LU081854,LU081855,LU081856

>ms2
57.034500 134136.900000
73.065900 674162.200000
75.023600 20545.000000
77.039600 26174.200000
93.034600 15580.000000
119.013900 12323.800000
121.029400 11191865.000000
147.008700 3475266.200000
165.019300 933818.200000
179.034700 12466.400000
221.081900 2598871.200000

>ms2
57.034500 191394.500000
73.065900 619205.800000
75.023900 47122.200000
77.039300 23909.000000
93.034600 59169.600000
103.018900 20962.100000
119.013900 52486.400000
121.029500 11520434.000000
147.008800 2952608.800000
165.019300 576316.000000
179.034900 12633.800000
221.081900 529793.600000

>ms2
57.034500 331148.200000
73.065900 412482.200000
75.024000 317271.000000
77.039500 22856.400000
93.034600 279370.400000
103.018900 174090.400000
108.021600 10241.400000
119.013900 234575.500000
121.029500 9445661.000000
147.008800 2050537.600000
165.019300 276906.800000
179.035000 11381.100000
221.082000 9592.600000

>ms2
57.034600 434573.400000
65.039700 19659.600000
73.065900 180825.700000
75.024100 1260071.500000
77.039600 13679.600000
91.018900 5150.200000
93.034600 357756.100000
103.019000 326528.900000
108.021700 16389.200000
119.013900 296645.600000
121.029500 4695273.000000
147.008800 835014.100000
165.019300 152265.400000

>ms2
57.034600 348280.100000
65.039600 9644.700000
73.065900 41833.100000
75.024000 1854696.500000
77.039500 8894.500000
93.034600 156639.500000
103.018900 248068.600000
108.021700 10591.300000
119.013800 145982.000000
121.029500 1441701.600000
147.008800 218378.700000
165.019300 26039.400000

>ms2
57.034600 241994.100000
65.039700 6518.400000
73.065900 10911.900000
75.024100 1692793.400000
77.039500 4353.400000
91.018700 3801.300000
93.034600 45884.400000
103.019000 66610.800000
108.021700 7871.000000
119.013900 29467.700000
121.029500 323131.000000
147.008800 29617.100000
165.020000 7372.900000

