>compound LU93771844
>parentmass 247.00469999999999
>ionization [M-H]-
>formula C9H10Cl2N2O2
>rt 1045.560000
>profile orbitrap
#smiles_iso CN(C(=O)NC1=CC(=C(C=C1)Cl)Cl)OC
#smiles_can CN(C(=O)NC1=CC(=C(C=C1)Cl)Cl)OC
#inchikey XKJMBINCVNINCA-UHFFFAOYSA-N
#pubchem_id 9502
#mb_accession LU004851,LU004852,LU004853,LU004854,LU004855,LU004856

>ms2
123.996200 1871.800000
159.972700 226378.600000
185.952100 4806.600000
214.978600 15729.600000
231.981400 17387.600000

>ms2
123.996000 2726.600000
149.975300 2007.100000
159.972600 161803.500000
185.951900 6106.900000
214.978700 17298.700000
231.981700 10784.000000

>ms2
123.996100 3853.700000
149.974800 2081.100000
159.972600 92869.100000
214.978500 29486.000000

>ms2
123.996000 5997.100000
159.972700 23387.800000
199.955200 5809.800000
214.978500 23062.800000

>ms2
159.973200 2733.600000
199.954700 9343.400000
214.978500 10430.600000

>ms2
199.955000 8056.700000
214.978100 1768.700000

