>compound LU93299397
>parentmass 307.0976
>ionization [M-H]-
>formula C19H16O4
>rt 1046.880000
>profile orbitrap
#smiles_iso CC(=O)CC(C1=CC=CC=C1)C2=C(C3=CC=CC=C3OC2=O)O
#smiles_can CC(=O)CC(C1=CC=CC=C1)C2=C(C3=CC=CC=C3OC2=O)O
#inchikey PJVWKTKQMONHTI-UHFFFAOYSA-N
#pubchem_id 54678486
#mb_accession LU037751,LU037752,LU037753,LU037754,LU037755,LU037756,LU128951,LU128952,LU128953,LU128954,LU128955,LU128956

>ms2
57.034500 163595.500000
161.024500 6137388.000000
223.077000 93001.100000
250.063600 773306.600000
307.097600 43771160.000000

>ms2
57.034500 3160769.800000
83.013900 176263.700000
93.034500 56937.800000
117.034500 398654.300000
133.065800 238526.500000
135.045000 26665.600000
157.066000 96729.100000
161.024400 23734296.000000
187.076400 85593.100000
206.073100 25741.700000
221.060900 30855.700000
221.096800 95277.600000
223.076500 761958.600000
245.096800 28904.500000
247.076600 44251.400000
248.084300 41408.400000
250.063500 12454069.000000
261.092100 45117.900000
263.107700 198945.700000
289.086900 168804.300000
307.097600 12728947.000000

>ms2
57.034500 6434855.500000
83.013800 238106.800000
93.034600 260011.300000
101.039800 19490.500000
108.021800 24972.700000
115.055400 24418.500000
117.034500 3352442.200000
119.050100 37824.500000
130.042200 81530.600000
133.029500 25892.400000
133.065900 238597.700000
135.045100 49925.600000
141.071400 16263.600000
143.050200 22465.100000
145.066000 47155.300000
157.065800 236041.600000
161.024400 14320323.000000
187.076100 73823.500000
195.081500 100755.800000
205.066100 30607.800000
206.073500 441613.900000
219.081500 57855.600000
221.060600 96950.700000
221.096900 151369.300000
222.068600 147912.800000
223.076400 625665.800000
233.097400 15945.600000
237.091600 27372.000000
243.081000 26073.400000
245.097200 41056.100000
247.077100 34948.600000
248.084500 48584.600000
249.056300 23810.900000
250.063400 13686400.000000
261.092000 113483.000000
263.108000 26833.400000
289.087400 55231.600000
307.097500 557878.900000

>ms2
57.034600 6306209.000000
83.013900 182775.100000
91.055400 18195.400000
93.034600 434094.900000
95.013800 11843.100000
101.039700 94393.300000
108.021600 36797.400000
115.055300 36772.200000
117.034600 6929548.500000
119.050200 51414.100000
129.070900 25615.300000
130.042300 107520.500000
133.029400 11650.400000
133.065900 78984.000000
135.045100 29965.900000
141.070900 38171.000000
143.050300 32685.600000
145.029300 22509.800000
145.065800 44673.700000
147.045300 22336.300000
156.057900 9903.900000
157.066100 97401.000000
161.024400 4825918.500000
187.076400 35749.300000
193.066000 41349.000000
195.081400 168808.100000
205.065700 74808.100000
206.073700 609087.900000
219.081400 76329.000000
221.060500 75893.600000
221.096900 55005.200000
222.068800 108349.900000
223.076600 158997.100000
233.097000 29342.200000
237.092200 15860.700000
243.081700 9522.100000
245.097100 27483.500000
247.076100 10511.800000
248.084800 12102.100000
249.055900 39423.000000
250.063600 2534913.500000
261.091800 47569.900000
274.063900 10774.800000

>ms2
57.034500 5385655.000000
65.039800 10972.400000
83.013900 119819.100000
89.039600 14785.600000
91.055000 12033.700000
93.034600 404818.600000
95.013800 14936.800000
101.039700 137009.200000
108.021800 27729.200000
115.055600 61737.400000
117.034600 7295360.000000
119.050200 43094.400000
129.071200 17406.300000
130.042200 32446.600000
133.029800 11805.500000
133.065700 23644.800000
135.045100 19744.000000
141.071000 28541.100000
143.050300 25607.200000
145.029400 15346.700000
145.066000 25807.600000
147.045200 18360.000000
157.065700 23778.000000
161.024500 1163529.100000
193.065900 112843.100000
195.081400 107539.500000
205.065700 90167.200000
206.073700 178677.800000
219.081500 55525.000000
221.060600 44553.900000
223.076300 23449.600000
233.095600 12774.400000
249.055800 71720.800000
250.063700 132835.000000
261.091300 10301.400000

>ms2
57.034600 3792071.200000
65.039600 15442.800000
83.013800 52547.800000
89.039800 17263.300000
93.034600 321029.300000
95.013800 23336.900000
101.039700 152148.300000
108.021700 21441.800000
115.055400 44756.400000
117.034600 4591439.000000
119.050300 31519.100000
135.045200 12927.600000
141.071100 25712.700000
143.050400 25573.700000
145.029500 11181.400000
145.066200 8948.900000
161.024500 153790.100000
193.065900 91451.500000
195.082100 14896.900000
205.065800 37623.400000
206.074200 11936.800000
219.081900 20959.000000
221.061500 17118.500000
249.055700 42590.900000
250.064000 9168.600000

>ms2
57.034400 129564.900000
161.024400 5640040.500000
223.076600 91090.600000
250.063500 706859.800000
307.097400 39335204.000000

>ms2
57.034600 3198374.200000
83.013900 152680.500000
93.034600 74998.600000
117.034500 429610.900000
133.065800 232031.100000
157.066000 124716.200000
161.024400 23213524.000000
187.076400 78794.500000
221.060900 40592.500000
221.097200 100792.100000
223.076600 741420.000000
245.097000 29400.500000
247.076000 55989.500000
248.085000 23418.100000
250.063600 11973182.000000
261.091500 59445.500000
263.107800 170325.800000
289.087000 148060.200000
307.097600 13232978.000000

>ms2
57.034500 6497786.500000
83.013800 229000.500000
91.055100 19454.300000
93.034600 258237.200000
108.021600 29451.100000
117.034600 3317500.800000
119.050200 28093.400000
130.042300 90206.800000
133.065900 241804.100000
135.045200 57641.400000
143.050400 21177.800000
145.066000 34724.100000
157.065800 230619.700000
161.024400 14318750.000000
187.076400 74862.700000
193.065800 23637.800000
195.081400 125723.800000
205.065600 22525.400000
206.073600 432697.900000
219.081500 68402.100000
221.060800 91807.500000
221.097100 139801.200000
222.068500 164712.000000
223.076500 614002.600000
233.096600 18624.500000
245.096900 32689.000000
247.076200 41255.100000
248.084400 59361.700000
249.055900 33644.100000
250.063500 13378523.000000
261.091700 120676.600000
263.108500 51791.200000
289.087500 59936.600000
307.097400 523365.000000

>ms2
57.034600 6101895.500000
83.013900 175770.700000
91.055300 22815.700000
93.034600 392056.000000
95.013800 17521.500000
101.039700 77235.500000
108.021600 31843.100000
115.055300 40079.700000
117.034600 6889838.000000
119.050300 40205.400000
129.071000 20442.700000
130.042300 115375.500000
133.029200 19402.400000
133.065900 81281.200000
135.045300 33035.500000
141.071100 42310.100000
143.050200 21699.400000
145.029500 22172.300000
145.066000 58610.500000
147.045200 20354.700000
157.066000 94741.000000
161.024500 4749335.500000
187.076200 26997.100000
193.066100 57555.000000
195.081500 183840.500000
205.066100 80316.500000
206.073700 546154.100000
219.081400 104521.900000
221.060900 88944.700000
221.097200 59195.900000
222.068600 99352.200000
223.076600 160228.100000
233.096700 28510.200000
245.097300 16966.100000
247.075700 11199.400000
249.055900 53194.200000
250.063600 2306779.200000
261.092200 53163.400000

>ms2
57.034600 5044416.500000
65.039700 16658.300000
83.013900 101303.800000
91.055300 14754.900000
92.026900 20226.000000
93.034600 391245.800000
95.013700 13582.400000
101.039600 157874.500000
108.021800 26014.400000
115.055300 58157.400000
117.034600 7110127.500000
119.050000 49506.900000
121.029200 10041.300000
129.071200 13699.900000
130.042400 33880.900000
133.065800 22249.900000
135.045200 20646.200000
141.070800 39762.800000
143.050300 39333.000000
145.066000 26935.300000
147.045100 17500.000000
157.065900 31234.800000
161.024500 1097934.800000
165.071200 8879.700000
193.065900 80933.300000
195.081600 102092.600000
205.065900 69230.500000
206.073700 154550.100000
219.081700 52373.700000
221.061100 29496.500000
222.069200 12361.900000
223.075500 9472.200000
233.097100 19628.500000
249.055800 84456.900000
250.063800 150421.100000

>ms2
57.034600 3751872.200000
65.039700 15925.800000
83.013900 60879.100000
92.026800 18677.300000
93.034600 286244.000000
95.013800 16848.800000
101.039700 144970.100000
108.021700 28516.700000
115.055500 55055.900000
117.034600 4437229.000000
119.050200 31159.100000
141.070900 22139.300000
143.050200 21524.600000
145.029800 9883.000000
157.065800 10861.300000
161.024600 162326.200000
165.070600 9418.400000
193.066000 89503.500000
195.081500 35731.300000
205.066100 30697.900000
206.074300 8957.200000
219.081900 22881.300000
221.061000 26578.900000
249.055900 34611.800000

