>compound LU93303937
>parentmass 352.28569999999996
>ionization [M-H]-
>formula C21H39NO3
>rt 1308.600000
>profile orbitrap
#smiles_iso CCCCCCCC/C=C\CCCCCCCC(=O)N(C)CC(=O)O
#smiles_can CCCCCCCCC=CCCCCCCCC(=O)N(C)CC(=O)O
#inchikey DIOYAVUHUXAUPX-KHPPLWFESA-N
#pubchem_id 6912870
#mb_accession LU033651,LU033652,LU033653,LU033654,LU033655,LU033656

>ms2
88.040400 1028545.800000
308.296100 57599.200000
352.285800 2224939.200000

>ms2
86.061300 5651.000000
88.040400 1627372.000000
265.253600 11770.600000
308.295900 70460.800000
352.285600 56519.200000

>ms2
86.061200 3488.200000
88.040400 998915.400000
265.253700 8921.100000

>ms2
86.061000 2527.900000
88.040400 1512605.600000
265.254000 2413.800000

>ms2
88.040400 287056.800000

>ms2
88.040400 110407.800000

