>compound LU93538564
>parentmass 204.9577
>ionization [M-H]-
>formula C6H4Cl2N2O2
>rt 1023.240000
>profile orbitrap
#smiles_iso C1=C(C=C(C(=C1Cl)N)Cl)[N+](=O)[O-]
#smiles_can C1=C(C=C(C(=C1Cl)N)Cl)[N+](=O)[O-]
#inchikey BIXZHMJUSMUDOQ-UHFFFAOYSA-N
#pubchem_id 7430
#mb_accession LU017951,LU017952,LU017953,LU017954

>ms2
168.981000 4343.200000
174.959700 28002.100000
204.957700 1377216.200000

>ms2
138.983100 3255.300000
168.981000 10527.300000
174.959700 53173.700000
204.957700 1290730.800000

>ms2
103.006400 4073.200000
138.983100 25935.000000
168.981000 46996.400000
174.959700 99570.800000
204.957600 686521.200000

>ms2
103.006400 9228.400000
138.983000 42443.700000
168.981100 45356.400000
174.959700 46824.300000
204.957700 154909.200000

