>compound LU94364505
>parentmass 612.3555
>ionization [M-H]-
>formula C36H47N5O4
>rt 915.120000
>profile orbitrap
#smiles_iso CC(C)(C)NC(=O)[C@@H]1CN(CCN1C[C@H](C[C@@H](CC2=CC=CC=C2)C(=O)N[C@@H]3[C@@H](CC4=CC=CC=C34)O)O)CC5=CN=CC=C5
#smiles_can CC(C)(C)NC(=O)C1CN(CCN1CC(CC(CC2=CC=CC=C2)C(=O)NC3C(CC4=CC=CC=C34)O)O)CC5=CN=CC=C5
#inchikey CBVCZFGXHXORBI-PXQQMZJSSA-N
#pubchem_id 5362440
#mb_accession LU017851,LU017852,LU017853,LU017854,LU017855,LU017856

>ms2
130.066500 3076.000000
148.077000 11321.000000
275.187900 35046.400000
419.281000 9729.700000
463.271600 653268.900000
566.349400 3182.300000
584.360700 89325.000000
594.345000 242988.300000
612.355400 2735296.000000

>ms2
68.050400 2580.100000
83.061400 3746.400000
92.050500 34231.300000
94.029800 2484.500000
114.092400 9456.900000
117.070900 4964.200000
118.066200 7797.100000
119.050300 4096.800000
119.061400 27843.200000
126.092400 10506.300000
130.066100 158357.700000
133.076700 4552.100000
142.087200 18296.900000
143.086500 10670.300000
143.118800 13912.900000
144.045500 10181.000000
146.060900 3684.000000
148.076800 128500.000000
149.060500 3845.600000
155.119000 68174.400000
157.134400 3176.900000
162.092500 18002.700000
167.119100 23429.800000
174.056100 4234.900000
180.114000 6069.600000
202.088000 6079.500000
202.098500 3581.400000
214.123900 14847.400000
219.125100 5096.300000
234.160900 9186.900000
250.123600 10406.900000
252.139200 14056.200000
266.154700 21834.600000
275.187800 1669439.200000
276.139400 6887.800000
419.281600 57720.100000
463.271400 499792.000000
566.350700 16027.900000
584.360300 82226.200000
594.346500 9067.100000
612.356500 13296.900000

>ms2
56.050500 6827.200000
57.034500 3112.500000
58.029800 9070.300000
66.034900 2737.900000
68.050600 19075.300000
70.029800 5789.700000
72.045500 4754.000000
81.045800 9548.600000
83.061500 4421.200000
84.045500 5257.100000
91.055300 9762.600000
92.050600 201668.200000
94.029800 12529.800000
98.097400 3662.000000
100.076800 5463.600000
109.040700 15629.900000
114.092400 18152.700000
117.045700 18127.500000
117.071000 9644.900000
118.066500 11605.100000
119.061500 132744.800000
126.092400 23455.200000
128.050500 6103.200000
130.066200 148603.300000
131.050300 4840.500000
131.061500 4157.600000
133.077200 16210.500000
140.107900 3146.300000
141.103200 3677.100000
142.087100 11992.100000
143.086500 9277.900000
143.119000 36022.600000
144.045500 11834.400000
145.065600 6475.400000
145.077100 4620.500000
146.061000 10075.900000
147.056400 2976.400000
147.092600 6874.100000
148.076800 72140.500000
149.060900 3526.400000
155.119000 83384.300000
156.045400 2177.300000
157.134500 7172.800000
162.092500 45196.800000
167.119000 54674.700000
174.055900 3722.800000
180.114300 8335.200000
202.087400 2511.200000
202.098500 4990.000000
214.123700 3576.100000
219.124900 22906.400000
234.160300 3093.500000
250.124000 4489.100000
252.140000 4672.100000
266.155000 3570.100000
275.187900 390722.100000
276.138900 2691.400000

>ms2
56.050500 10392.900000
57.034600 2776.200000
58.029800 10668.100000
66.035100 2775.400000
68.050600 18198.500000
70.029900 8391.000000
72.045500 3391.000000
81.022000 2812.400000
81.045900 8083.500000
84.045600 5351.100000
87.056500 7091.800000
91.055400 7532.300000
92.050600 152296.800000
94.030000 8688.300000
98.097400 2354.300000
109.040700 10631.200000
114.092500 6485.800000
115.055500 3068.700000
117.045900 44658.800000
117.071200 5335.500000
118.066300 4342.900000
119.061500 96932.900000
126.092400 20496.600000
128.050600 10587.500000
130.066200 66160.100000
131.050100 3887.600000
131.061600 7102.600000
133.077300 5796.400000
140.108400 2240.800000
141.103300 3760.000000
142.087400 2356.800000
143.118900 22211.200000
144.045600 4145.000000
145.066000 8277.900000
145.077200 7137.600000
146.061300 6457.700000
147.056300 3009.100000
147.093000 2328.600000
148.076900 18871.500000
155.119000 25598.300000
156.045700 3253.500000
157.134500 2359.400000
162.092500 19927.400000
167.119000 12192.600000
180.114200 4817.700000
219.125000 10450.300000
275.187700 29190.000000

>ms2
52.019200 3143.000000
56.050500 14717.500000
57.034500 2417.400000
58.029800 8660.000000
68.050500 7073.000000
70.029800 9974.700000
81.022000 3749.000000
84.045600 5194.300000
87.056400 6143.700000
91.055500 2745.300000
92.050600 84409.900000
94.029900 6142.700000
100.076800 2139.600000
109.040800 2610.000000
115.055300 3760.900000
117.045900 51073.900000
117.071100 3390.400000
119.050400 3557.900000
119.061400 33878.400000
126.092400 8285.500000
128.050500 10763.800000
130.066300 17181.100000
131.050300 3617.000000
131.061700 4232.000000
143.118800 5130.200000
145.065900 2948.200000
145.077200 2860.500000
146.061100 3006.900000
147.056400 3541.000000
148.077000 3892.700000
162.092600 3388.500000

>ms2
52.019100 2814.400000
56.050600 8353.800000
57.034600 3080.000000
58.029900 4651.100000
66.035100 2203.800000
68.050700 3722.300000
70.029900 7371.300000
72.045600 2482.000000
81.022000 3602.300000
84.045300 2627.200000
92.050600 39313.600000
94.029700 3840.700000
115.055200 2532.800000
117.045900 36322.300000
119.050300 3227.300000
119.061400 6912.200000
126.092400 2283.200000
128.050600 6597.000000
131.061600 2517.400000

