>compound LU94110536
>parentmass 132.0567
>ionization [M-H]-
>formula C7H7N3
>rt 517.680000
>profile orbitrap
#smiles_iso C1=CC=C2C(=C1)NC(=N2)N
#smiles_can C1=CC=C2C(=C1)NC(=N2)N
#inchikey JWYUFVNJZUSCSM-UHFFFAOYSA-N
#pubchem_id 13624
#mb_accession LU106751,LU106752,LU106753,LU106754,LU106755,LU106756

>ms2peaks
131.049100 2655.700000
132.056700 1148798.900000

>ms2peaks
131.049100 3742.600000
132.056700 1606786.400000

>ms2peaks
131.049200 4363.700000
132.056700 1569187.400000

>ms2peaks
131.049000 8684.800000
132.056700 776116.900000

>ms2peaks
131.049000 5547.500000
132.056700 209405.400000

>ms2peaks
131.049000 5446.300000
132.056700 101481.900000

