>compound LU94223717
>parentmass 182.0046
>ionization [M-H]-
>formula C4H10NO3PS
>rt 343.860000
>profile orbitrap
#smiles_iso CC(=O)NP(=O)(OC)SC
#smiles_can CC(=O)NP(=O)(OC)SC
#inchikey YASYVMFAVPKPKE-UHFFFAOYSA-N
#pubchem_id 1982
#mb_accession LU070251,LU070252,LU070253,LU070254,LU070255,LU070256

>ms2peaks
58.029800 40659.000000
62.964100 10285.800000
78.959000 21590.700000
94.990300 8712.600000
101.975100 3008.700000
103.990700 40083.100000
134.001100 2590.200000
136.016900 43069.000000
140.978100 106826.300000
182.004600 37625.400000

>ms2peaks
58.029800 45430.800000
62.964100 10059.100000
78.959100 26264.000000
94.990300 9691.500000
101.975000 4310.900000
103.990800 38397.700000
134.001600 2290.100000
136.016900 32598.600000
140.978100 92742.000000
182.004700 24781.800000

>ms2peaks
58.029800 44766.700000
62.964100 10002.000000
78.959100 32574.000000
94.990500 4624.900000
101.975300 3316.500000
103.990800 13609.600000
136.017100 3527.500000
140.978100 26410.900000

>ms2peaks
58.029800 49643.100000
62.964200 17635.100000
78.959100 66166.000000
94.990300 6131.800000
101.975100 3365.900000
103.990700 6909.800000
140.978000 14263.800000

>ms2peaks
58.029800 40326.700000
62.964200 16525.200000
78.959100 59539.200000
94.990400 4556.900000

>ms2peaks
58.029800 32450.900000
62.964100 18277.100000
78.959100 70361.500000
94.990500 3241.900000
101.974900 2324.600000
140.978200 1981.800000

