>compound LU94410484
>parentmass 165.0921
>ionization [M-H]-
>formula C10H14O2
>rt 986.640000
>profile orbitrap
#smiles_iso CC(C)(C)C1=CC(=C(C=C1)O)O
#smiles_can CC(C)(C)C1=CC(=C(C=C1)O)O
#inchikey XESZUVZBAMCAEJ-UHFFFAOYSA-N
#pubchem_id 7381
#mb_accession LU129051,LU129052,LU129053,LU129054,LU129055,LU129056

>ms2
148.053000 297231.700000
149.060700 185573.800000
165.092000 17479550.000000

>ms2
148.053000 313944.300000
149.060800 201247.400000
165.092000 17768880.000000

>ms2
148.053000 1280196.500000
149.060700 881133.400000
165.092000 15418431.000000

>ms2
108.021700 9205.800000
121.065700 9954.300000
148.053000 1332997.200000
149.060800 1455354.900000
164.084500 12141.500000
165.092100 6916049.000000

>ms2
106.042300 4114.900000
108.021800 12902.000000
109.029400 6212.700000
121.065900 9489.900000
133.029300 6598.900000
135.045100 5318.600000
148.053000 580814.800000
149.060700 2011520.100000
164.084600 8144.300000
165.092000 1730735.800000

>ms2
106.042300 20355.500000
108.021700 19203.100000
109.029400 7916.700000
121.066000 22769.600000
133.029300 17421.700000
135.045400 17001.000000
148.053000 221950.600000
149.060700 2913480.000000
164.084100 7717.800000
165.092100 284757.800000

