>compound LU94224082
>parentmass 170.0281
>ionization [M-H]-
>formula C7H9NO2S
>rt 970.080000
>profile orbitrap
#smiles_iso CC1=CC=CC=C1S(=O)(=O)N
#smiles_can CC1=CC=CC=C1S(=O)(=O)N
#inchikey YCMLQMDWSXFTIF-UHFFFAOYSA-N
#pubchem_id 6924
#mb_accession LU089951,LU089952,LU089953,LU089954,LU089955,LU089956

>ms2
78.973300 4501.300000
79.981100 9294.400000
106.066300 65401.500000
170.028200 199717.000000

>ms2
78.973400 3189.800000
79.981200 8924.500000
106.066200 68352.200000
170.028200 202986.600000

>ms2
61.970500 4208.100000
63.962400 2658.200000
77.965500 3192.900000
78.973300 14078.000000
79.981100 34194.400000
106.066200 135310.700000
107.050400 3018.500000
122.061100 2055.700000
170.028100 87004.000000

>ms2
61.970600 11913.300000
63.962500 5942.600000
77.965600 7261.700000
78.973300 34063.300000
79.981200 45061.100000
106.066200 104251.400000
107.050200 4083.900000
122.061200 7049.400000
132.009300 3708.200000
170.028000 18322.100000

>ms2
61.970600 27626.800000
63.962400 14726.500000
76.019200 2205.000000
77.965600 10139.900000
78.973400 43559.000000
79.981200 40564.800000
106.066200 49526.400000
107.050100 4178.900000
122.061100 5884.200000
132.009200 2315.800000
170.027900 3270.300000

>ms2
61.970600 37486.400000
63.962400 23131.000000
76.019300 2107.500000
77.965600 11420.000000
78.973400 37271.600000
79.981200 26940.600000
106.066200 21997.800000
107.050300 3381.100000
122.061300 6726.900000

