>compound LU94629350
>parentmass 274.1197
>ionization [M-H]-
>formula C14H17N3O3
>rt 813.720000
>profile orbitrap
#smiles_iso CC1=CC(=C(N=C1)C2=NC(C(=O)N2)(C)C(C)C)C(=O)O
#smiles_can CC1=CC(=C(N=C1)C2=NC(C(=O)N2)(C)C(C)C)C(=O)O
#inchikey PVSGXWMWNRGTKE-UHFFFAOYSA-N
#pubchem_id 91770
#mb_accession LU061651,LU061652,LU061653,LU061654,LU061655,LU061656

>ms2
187.075100 230619.100000
188.083100 4862.000000
189.103400 3256.200000
215.106200 5991.400000
230.129900 1893801.100000
274.119900 172331.000000

>ms2
187.075200 1002273.800000
188.083000 21489.400000
189.103200 7990.400000
215.106400 26292.000000
230.129900 737063.800000
274.119700 2757.000000

>ms2
186.067500 15172.000000
187.075100 947009.000000
188.083200 12990.700000
200.082900 12885.500000
215.106700 19173.400000
230.129900 37391.400000

>ms2
186.067300 189994.900000
187.075100 998083.900000
188.083000 6688.700000
200.082900 78938.200000
215.106200 15558.100000

>ms2
186.067300 121990.800000
187.075100 95377.800000
200.082900 27612.900000

>ms2
186.067300 120245.400000
187.075000 17037.400000
200.082700 11180.200000

