>compound LU94971873
>parentmass 292.1918
>ionization [M-H]-
>formula C17H27NO3
>rt 1074.900000
>profile orbitrap
#smiles_iso CCCCCCCCC(=O)NCC1=CC(=C(C=C1)O)OC
#smiles_can CCCCCCCCC(=O)NCC1=CC(=C(C=C1)O)OC
#inchikey RGOVYLWUIBMPGK-UHFFFAOYSA-N
#pubchem_id 2998
#mb_accession LU096451,LU096452,LU096453,LU096454

>ms2peaks
156.139300 1287856.500000
200.129200 8887.900000

>ms2peaks
58.029700 2147.300000
152.035500 4274.600000
156.139400 1036555.900000
200.129300 6407.900000

>ms2peaks
58.029800 10249.400000
124.040600 2035.400000
152.035100 4120.800000
156.139300 447843.100000
200.129300 5604.200000

>ms2peaks
58.029800 8416.300000
124.040300 2302.700000
156.139300 77400.600000

