>compound LU95424511
>parentmass 285.0436
>ionization [M-H]-
>formula C15H11ClN2O2
>rt 1002.540000
>profile orbitrap
#smiles_iso C1=CC=C(C=C1)C2=NC(C(=O)NC3=C2C=C(C=C3)Cl)O
#smiles_can C1=CC=C(C=C1)C2=NC(C(=O)NC3=C2C=C(C=C3)Cl)O
#inchikey ADIMAYPTOBDMTL-UHFFFAOYSA-N
#pubchem_id 4616
#mb_accession LU079951,LU079952,LU079954,LU079955,LU079956

>ms2peaks
127.006700 5807.000000
130.007200 4306.400000
179.001900 6575.900000
241.054400 2215.500000
242.037800 10759.300000
257.048700 201344.600000
258.032900 5921.900000
285.042500 1503674.100000

>ms2peaks
126.011900 4090.100000
127.006700 8058.600000
130.007200 4284.700000
154.006700 10433.700000
179.001700 29410.800000
229.050700 3136.300000
239.035600 2402.800000
241.029900 11340.100000
241.051500 2499.200000
242.037900 42796.400000
257.048800 141912.800000
258.032800 10250.100000
285.041400 818732.900000

>ms2peaks
63.024100 7223.600000
65.003300 4591.900000
65.039700 1876.600000
67.019000 3182.000000
83.013900 7051.800000
89.039600 2390.900000
91.019000 4602.700000
91.030200 2328.500000
93.034600 30571.900000
95.013900 3585.000000
107.013900 9138.500000
109.029500 7893.000000
117.034600 13448.400000
119.050300 2231.100000
121.029600 1895.900000
123.045100 4491.600000
126.011500 5392.600000
127.006700 4435.500000
130.042300 2362.700000
131.050200 3539.600000
133.029400 3754.600000
135.008700 6921.900000
137.024400 7243.900000
143.050400 15480.400000
145.029500 9129.500000
151.007400 13679.900000
154.006700 1805.300000
154.042300 7204.300000
155.050300 4000.700000
156.058300 3139.600000
157.029400 3203.100000
157.065900 7506.400000
158.037400 2299.800000
159.045200 15129.200000
161.024400 6772.600000
167.050200 4878.200000
171.045200 7669.200000
173.024600 3798.500000
179.001900 9171.600000
183.045100 3960.500000
184.052600 3380.600000
185.060700 15040.200000
187.040300 17958.800000
211.040100 12078.000000
214.027200 6102.300000
227.035200 7416.100000
229.050700 8608.600000
239.035100 14895.900000
241.030200 14928.000000
242.038000 3149.700000
255.030100 6137.800000
257.046500 2299.500000
285.040600 44929.200000

>ms2peaks
63.024000 10471.400000
65.003300 6720.300000
67.019000 3150.000000
83.013900 7645.300000
91.018900 4352.700000
91.030100 2019.800000
93.034600 26258.100000
95.013800 4449.700000
107.013800 4695.600000
108.021700 5552.400000
109.029500 4876.600000
117.034700 19491.500000
121.029300 3373.300000
126.011500 2827.000000
130.042300 2196.900000
131.050300 4020.500000
133.029500 2504.400000
135.008700 4294.300000
137.024100 3101.600000
143.050200 10541.900000
145.029700 8143.600000
151.006800 10939.900000
154.042500 2726.400000
155.050000 2948.000000
156.057900 3818.500000
157.029100 2836.100000
157.065600 4286.600000
158.037100 5214.300000
159.045000 11606.800000
161.024400 6723.500000
167.050400 4359.500000
171.045100 4638.300000
173.024300 2441.300000
179.001900 2363.700000
183.045000 5010.700000
184.052800 2580.100000
185.060600 5042.500000
187.040300 4525.800000
211.039800 6176.300000
214.026900 1792.700000
227.035000 6291.900000
239.034800 4420.400000
241.029600 3879.800000
255.030000 4994.100000

>ms2peaks
63.024000 10619.400000
65.003300 16442.800000
65.039700 3376.300000
67.018900 3766.200000
83.013900 2285.200000
89.039800 1609.800000
91.019000 3674.100000
91.030200 1810.000000
93.034600 21719.600000
95.013800 3131.500000
107.013900 2572.000000
108.021600 7124.700000
109.029400 2197.000000
117.034600 21171.100000
119.050200 2537.300000
123.045300 1892.900000
130.042300 3829.600000
131.049900 2132.200000
143.050300 5995.200000
145.029400 7088.700000
151.006800 5402.300000
154.042500 2389.500000
155.050300 2473.000000
156.058300 2324.000000
158.037400 3950.200000
159.045200 5437.700000
161.024500 3410.500000
183.044900 4979.600000
211.040200 2023.900000

