>compound LU96047565
>parentmass 179.0714
>ionization [M-H]-
>formula C10H12O3
>rt 996.350000
>profile orbitrap
#smiles_iso CCCOC(=O)C1=CC=C(C=C1)O
#smiles_can CCCOC(=O)C1=CC=C(C=C1)O
#inchikey QELSKZZBTMNZEB-UHFFFAOYSA-N
#pubchem_id 7175
#mb_accession LU098951,LU098952,LU098953,LU098954,LU098955,LU098956

>ms2
82.006000 18799.800000
91.019100 18015.800000
92.026400 210707.400000
93.034600 1347388.400000
95.013900 251550.200000
108.021700 216776.500000
119.013900 58322.400000
121.029400 33188.300000
123.008700 34631.200000
136.016600 3714733.500000
137.024400 3438318.800000
179.071400 14363358.000000

>ms2
57.034500 13725.700000
82.006200 24658.300000
91.018900 23269.400000
92.026400 220682.800000
93.034600 1617516.200000
95.013900 322542.500000
106.006000 19228.700000
108.021700 293100.700000
119.013800 54341.000000
121.029400 30584.100000
123.008800 40354.700000
135.081500 17379.300000
136.016600 4102296.000000
137.024400 3543745.200000
151.076100 12365.600000
179.071400 12194039.000000

>ms2
55.019100 4472.700000
57.034500 84251.000000
59.050200 18900.000000
67.018900 10597.900000
68.998200 38097.400000
69.034700 30861.100000
70.006100 15583.800000
71.013900 22003.000000
72.993100 16309.100000
79.019000 15654.500000
79.990400 17287.700000
80.998400 10628.800000
82.006000 88218.400000
83.013900 6864.600000
91.019000 138066.500000
92.026800 447787.500000
93.034600 3987847.800000
95.013900 1266804.600000
97.029600 18813.800000
98.001100 5363.400000
106.006100 54749.100000
106.042500 10806.300000
107.014000 6352.000000
108.021700 1160360.100000
109.029600 8114.500000
119.013800 112222.700000
121.029500 105590.600000
123.008800 160417.700000
135.081600 16183.000000
136.016600 4264368.000000
137.024400 3100051.200000
151.076500 21419.900000
179.071400 3101614.200000

>ms2
53.003300 9002.200000
57.034600 229330.600000
59.050300 24084.800000
65.003300 5958.800000
65.039700 14099.800000
67.019000 14681.200000
68.998200 46656.600000
69.034700 43461.900000
70.006100 18592.000000
71.013900 30579.100000
72.993100 20652.300000
78.011100 6540.200000
79.018900 28076.500000
79.990500 22520.700000
80.998300 13696.400000
82.006100 126759.500000
83.014000 6967.200000
86.001100 10314.100000
91.019000 295627.200000
92.026800 575500.600000
93.034600 4547435.000000
95.013900 1879761.900000
97.029600 27076.000000
98.001000 12134.800000
106.006100 101431.000000
107.013900 16156.700000
108.021700 1675866.900000
109.029100 8172.000000
119.013800 81017.700000
121.029600 126837.000000
123.008800 227890.300000
136.016600 1516333.600000
137.024400 1020533.900000
151.076600 25471.400000
179.071400 413460.400000

>ms2
53.003300 8140.800000
57.034600 408556.500000
59.050200 25301.000000
65.003300 7889.200000
65.039600 33954.800000
67.018900 20416.000000
68.998200 60448.700000
69.034600 53507.400000
70.006100 16135.900000
71.013900 40535.600000
72.993100 22520.700000
78.011300 5254.100000
79.019000 23785.700000
79.990500 29805.200000
80.998200 14434.700000
82.006100 135726.700000
83.013700 6287.600000
86.001000 7927.800000
91.019000 404276.700000
92.026800 444938.700000
93.034600 4287397.000000
95.013900 2049690.600000
97.029600 31442.600000
98.001100 10836.700000
106.006000 123208.300000
107.014000 12045.600000
108.021700 1965838.000000
109.029600 11300.700000
119.014000 38142.900000
121.029500 142913.600000
123.008800 251690.500000
125.024400 7227.400000
136.016500 334614.000000
137.024400 219567.400000
151.076600 14488.800000
179.071500 32426.700000

>ms2
53.003300 8070.600000
57.034500 417291.300000
59.050300 16802.800000
65.003300 10135.000000
65.039700 72999.400000
67.019000 14030.400000
68.998200 37430.200000
69.034600 47032.800000
70.006100 9474.500000
71.013800 25378.200000
72.993200 20889.300000
79.018900 20953.900000
79.990400 17484.000000
80.998300 12658.700000
82.006100 95945.200000
86.001000 8471.300000
91.019000 308340.800000
92.026800 318177.600000
93.034600 3273003.200000
95.013900 1579045.500000
97.029700 23659.600000
98.001100 7010.000000
106.006100 86732.600000
107.013700 9930.000000
108.021700 1552733.800000
109.029400 4389.300000
121.029600 86408.200000
123.008800 188562.200000
136.016600 49930.100000
137.024500 36483.800000

