>compound LU96383154
>parentmass 313.134
>ionization [M-H]-
>formula C13H22N4O3S
>rt 465.960000
>profile orbitrap
#smiles_iso CNC(=C[N+](=O)[O-])NCCSCC1=CC=C(O1)CN(C)C
#smiles_can CNC(=C[N+](=O)[O-])NCCSCC1=CC=C(O1)CN(C)C
#inchikey VMXUWOKSQNHOCA-UHFFFAOYSA-N
#pubchem_id 5039
#mb_accession LU041451,LU041452,LU041453,LU041454,LU041455,LU041456

>ms2
60.009100 3771.700000
111.998900 3452.300000
116.046600 24134.800000
142.062200 108149.700000
170.064600 100721.600000

>ms2
55.030100 2320.900000
60.009100 13082.700000
111.998800 19493.100000
116.046600 29237.400000
142.062200 47334.900000
170.064600 64983.600000

>ms2
55.030200 3535.600000
60.009100 19010.800000
111.998900 43763.400000
116.046600 21527.700000
142.062300 15466.400000
170.064600 13575.900000

>ms2
55.030200 3663.900000
60.009100 20088.300000
111.998800 32655.900000
116.046700 9106.300000
142.061900 2193.000000

>ms2
55.030200 2711.700000
60.009100 15044.500000
110.991300 1995.300000
111.998900 12889.600000
116.046600 3365.700000

>ms2
55.030200 2687.100000
60.009100 13529.600000
110.991000 1819.900000
111.998900 4726.200000

