>compound LU96800335
>parentmass 497.9461999999999
>ionization [M-H]-
>formula C8H2F17NO2S
>rt 1150.320000
>profile orbitrap
#smiles_iso C(C(C(C(C(F)(F)S(=O)(=O)N)(F)F)(F)F)(F)F)(C(C(C(F)(F)F)(F)F)(F)F)(F)F
#smiles_can C(C(C(C(C(F)(F)S(=O)(=O)N)(F)F)(F)F)(F)F)(C(C(C(F)(F)F)(F)F)(F)F)(F)F
#inchikey RRRXPPIDPYTNJG-UHFFFAOYSA-N
#pubchem_id 69785
#mb_accession LU056351,LU056352,LU056353,LU056354,LU056355,LU056356

>ms2peaks
77.965500 624144.000000
168.989800 11436.100000
477.938200 19378.800000
497.946100 6917964.500000

>ms2peaks
63.962500 23105.500000
77.965600 2536649.000000
82.960800 15768.600000
118.992500 8622.900000
168.989400 36603.500000
293.970900 3362.100000
477.940100 11990.600000
497.946300 273821.800000

>ms2peaks
63.962400 41156.400000
77.965500 2479381.500000
82.960900 8997.300000
118.992600 7349.500000
151.991000 30690.400000
168.989200 26687.000000
293.970900 16644.300000

>ms2peaks
61.970600 2299.100000
63.962400 67512.000000
77.965500 2208325.000000
82.960900 8317.000000
118.992400 5256.600000
151.991100 3748.900000

>ms2peaks
61.970600 2926.100000
63.962500 94848.300000
77.965500 1657586.000000

>ms2peaks
61.970600 3878.600000
63.962500 145972.700000
77.965500 1518352.600000

