>compound LU97794739
>parentmass 195.06629999999998
>ionization [M-H]-
>formula C10H12O4
>rt 1022.250000
>profile orbitrap
#smiles_iso COC1=CC(=C(C=C1C=O)OC)OC
#smiles_can COC1=CC(=C(C=C1C=O)OC)OC
#inchikey IAJBQAYHSQIQRE-UHFFFAOYSA-N
#pubchem_id 20525
#mb_accession LU074651,LU074652,LU074653,LU074654,LU074655,LU074656

>ms2peaks
119.050200 29795.400000
124.016500 3449.800000
163.040100 148585.300000
181.050800 22233.700000
195.065100 3636.700000

>ms2peaks
195.066200 337076.200000

>ms2peaks
119.050200 142736.100000
163.040000 52142.800000
181.050900 6300.000000

>ms2peaks
119.050200 60835.400000
163.040400 4977.000000

>ms2peaks
65.003300 2243.000000
119.050200 47013.300000

>ms2peaks
65.003300 4108.100000
119.050200 13248.200000

