>compound LU97270455
>parentmass 278.151
>ionization [M-H]-
>formula C14H21N3O3
>rt 907.200000
>profile orbitrap
#smiles_iso CC(C)(C)NC(=O)OC1=CC=CC(=C1)NC(=O)N(C)C
#smiles_can CC(C)(C)NC(=O)OC1=CC=CC(=C1)NC(=O)N(C)C
#inchikey OWNAXTAAAQTBSP-UHFFFAOYSA-N
#pubchem_id 312440
#mb_accession LU047151,LU047152,LU047153,LU047154,LU047155,LU047156

>ms2peaks
134.024800 95844.100000
179.082700 126809.900000

>ms2peaks
134.024800 173573.700000
179.082700 73007.300000

>ms2peaks
134.024800 132643.300000
179.082700 22710.300000

>ms2peaks
91.019000 2314.800000
111.056500 1946.200000
134.024700 110188.200000
179.082600 3612.000000

>ms2peaks
91.019100 4722.000000
111.056400 3124.900000
134.024800 58114.000000

>ms2peaks
91.018900 6977.600000
111.056500 1575.000000
134.024800 28629.500000

