>compound LU97394512
>parentmass 197.0608
>ionization [M-H]-
>formula C13H10O2
>rt 970.440000
>profile orbitrap
#smiles_iso C1=CC=C(C=C1)C(=O)OC2=CC=CC=C2
#smiles_can C1=CC=C(C=C1)C(=O)OC2=CC=CC=C2
#inchikey FCJSHPDYVMKCHI-UHFFFAOYSA-N
#pubchem_id 7169
#mb_accession LU074451,LU074452,LU074453,LU074454,LU074455,LU074456

>ms2
197.060800 194059.900000

>ms2
101.060700 1968.100000
197.060800 200689.600000

>ms2
91.018900 2366.200000
101.060700 1633.800000
108.021700 1845.900000
197.060900 169065.600000

>ms2
91.019000 7860.300000
95.013700 4127.000000
108.021600 7026.900000
169.065900 4850.300000
195.045300 3554.700000
197.060800 91694.700000

>ms2
91.018900 8890.400000
95.013900 6153.100000
108.021600 8087.500000
169.065900 2122.400000
197.060800 26932.700000

>ms2
91.019000 8434.600000
95.013900 9709.000000
108.021800 8081.600000
195.044900 1854.300000
197.060800 6066.000000

