>compound LU98819786
>parentmass 349.1234
>ionization [M-H]-
>formula C25H18O2
>rt 1114.440000
>profile orbitrap
#smiles_iso C1=CC=C2C(=C1)C3=CC=CC=C3C2(C4=CC=C(C=C4)O)C5=CC=C(C=C5)O
#smiles_can C1=CC=C2C(=C1)C3=CC=CC=C3C2(C4=CC=C(C=C4)O)C5=CC=C(C=C5)O
#inchikey YWFPGFJLYRKYJZ-UHFFFAOYSA-N
#pubchem_id 76716
#mb_accession LU061954,LU061955

>ms2
65.003100 4650.000000
67.019000 4334.100000
68.998200 2028.200000
69.034600 2221.300000
71.013900 3865.900000
83.013900 3883.400000

>ms2
65.003400 1983.400000
67.019100 4743.300000
68.998300 3387.700000
69.034600 2451.200000
71.013600 1698.700000
83.013900 3434.900000

