>compound LU99105298
>parentmass 248.00140000000002
>ionization [M-H]-
>formula C6H8ClN5O2S
>rt 750.900000
>profile orbitrap
#smiles_iso CN=C(NCC1=CN=C(S1)Cl)N[N+](=O)[O-]
#smiles_can CN=C(NCC1=CN=C(S1)Cl)N[N+](=O)[O-]
#inchikey PGOOBECODWQEAB-UHFFFAOYSA-N
#pubchem_id 213027
#mb_accession LU005051,LU005052,LU005053,LU005054,LU005055,LU005056

>ms2
55.030100 55744.200000
57.975700 4063431.800000
61.004400 150957.300000
85.040700 7205.300000
85.999700 13371.600000
95.025100 53472.900000
111.002300 271319.800000
117.952400 19689.900000
122.036000 52748.600000
125.989500 6668.300000
129.041800 15174.800000
135.997300 4432.500000
137.005300 7713.900000
138.013100 8333.300000
139.021000 7586.900000
139.026200 115750.600000
141.012700 9501.200000
149.046700 8478.500000
150.000400 19975.900000
151.008400 46108.700000
163.008300 6414.100000
164.016100 8476.900000
165.024000 356048.300000
166.031900 185722.600000
168.023700 86311.900000
195.021900 91846.500000
212.024800 99143.700000
248.001500 305355.700000

>ms2
55.030100 92061.500000
57.975700 3763123.000000
61.004300 176346.500000
83.991400 4180.000000
85.040800 8885.600000
85.999600 10630.900000
95.025100 60156.600000
111.002300 205854.400000
117.952400 49179.800000
119.036400 5751.600000
122.036000 36507.900000
125.989500 6551.100000
129.041500 5113.800000
135.997400 6378.700000
137.005400 6956.300000
138.013100 6446.100000
139.020800 8253.100000
139.026200 31278.100000
141.013000 7959.800000
149.046800 4007.400000
150.000600 89640.500000
151.008400 54100.400000
163.008900 6463.100000
165.024100 396443.600000
166.031900 50089.000000
168.023800 29982.900000
195.022100 24390.200000
212.024900 10717.100000
248.001400 13989.800000

>ms2
55.030200 5256.300000
57.975700 132833.800000
61.004400 8821.100000
95.025200 2001.000000
111.002300 6115.200000
117.952500 2973.300000
150.000700 10706.400000
151.008400 2241.700000
165.024000 15892.700000

>ms2
55.030100 147509.100000
56.980400 24270.000000
57.975600 2918033.500000
61.004300 164118.000000
68.014300 3879.100000
79.017500 6173.700000
81.975600 4528.700000
83.991300 6036.100000
85.999700 6786.800000
86.006900 4875.600000
90.009700 5932.300000
92.025500 22454.600000
95.025100 28608.600000
96.986600 3005.400000
107.012600 4426.800000
111.002200 121373.100000
113.017600 3689.000000
117.020500 5377.500000
117.952300 72026.200000
119.036500 11086.700000
122.036000 15565.000000
122.989700 10970.800000
123.997400 5710.900000
125.989300 3970.600000
132.044000 8539.000000
133.051800 12492.600000
135.997400 6417.000000
138.013000 7276.800000
148.992700 34383.300000
150.000500 291816.500000
151.008200 17766.900000
163.008300 5391.500000
165.024000 126083.600000

>ms2
55.030100 147727.300000
56.980400 47679.100000
57.975700 2620821.800000
61.004400 122200.900000
64.006700 4670.100000
65.014500 3075.700000
79.017600 19365.700000
81.975600 3977.500000
83.991200 5948.300000
85.999700 3379.900000
86.007100 2713.500000
90.009800 15886.600000
91.017600 3019.000000
92.025500 31009.900000
95.025100 10776.600000
96.986500 3894.000000
107.012300 3198.800000
111.002300 77319.600000
117.020600 7798.000000
117.952400 42077.300000
119.036200 8863.600000
122.035600 3275.400000
122.989900 13124.200000
123.997400 4816.100000
125.989100 3878.500000
132.044500 4561.400000
133.052000 8566.300000
135.997400 4274.800000
138.013000 3089.200000
148.992800 51301.100000
150.000600 166232.300000
151.008500 5620.900000
163.007900 2772.600000
165.024000 30252.100000

>ms2
55.030100 125140.500000
56.980400 60925.100000
57.975700 2336841.000000
61.004300 88347.100000
64.006700 6472.000000
65.014600 4215.400000
79.017600 27691.000000
81.975700 8309.000000
83.991400 7107.800000
85.999600 2485.700000
90.009800 18913.200000
91.017500 2429.500000
92.025400 26757.800000
95.025100 5833.800000
96.986500 4138.900000
107.012500 5720.900000
111.002200 40966.600000
117.020800 12392.300000
117.952300 15903.900000
119.036100 3922.300000
122.989800 10238.900000
123.997800 2622.100000
125.989400 2479.900000
133.051900 3843.800000
135.997600 4433.100000
148.992700 57603.200000
150.000600 62486.600000
165.024000 6173.900000

