>compound LU99752034
>parentmass 396.0532
>ionization [M-H]-
>formula C14H24NO4PS3
>rt 1092.180000
>profile orbitrap
#smiles_iso CC(C)OP(=S)(OC(C)C)SCCNS(=O)(=O)C1=CC=CC=C1
#smiles_can CC(C)OP(=S)(OC(C)C)SCCNS(=O)(=O)C1=CC=CC=C1
#inchikey RRNIZKPFKNDSRS-UHFFFAOYSA-N
#pubchem_id 12932
#mb_accession LU137951,LU137952,LU137953,LU137954,LU137955,LU137956

>ms2
213.018000 41430.900000

>ms2
110.913300 9841.600000
170.970800 4790.400000
213.017900 35716.800000

>ms2
110.913400 30617.700000
170.971100 6898.600000
213.017900 7409.100000

>ms2
94.936000 1805.500000
110.913400 42863.300000

>ms2
110.913300 37929.700000

>ms2
94.936200 2393.200000
110.913500 28943.300000

