>compound LU99209178
>parentmass 165.9791
>ionization [M-H]-
>formula C7H5NS2
>rt 913.080000
>profile orbitrap
#smiles_iso C1=CC=C2C(=C1)NC(=S)S2
#smiles_can C1=CC=C2C(=C1)NC(=S)S2
#inchikey YXIWHUQXZSMYRE-UHFFFAOYSA-N
#pubchem_id 697993
#mb_accession LU022651,LU022652,LU022653,LU022654,LU022655,LU022656,LU049451,LU049452,LU049453,LU049454,LU049455,LU049456

>ms2
57.975700 102285.200000
102.034900 74585.400000
134.007000 943400.800000
165.979000 14368418.000000

>ms2
57.975700 98501.300000
102.035000 80942.400000
134.007000 1005223.900000
165.979000 15888377.000000

>ms2
57.975600 713449.900000
63.944700 61663.300000
90.034900 20755.500000
102.034900 463695.800000
134.007000 3948947.800000
164.971300 23874.200000
165.979000 11175374.000000

>ms2
57.975600 2282036.800000
63.944700 154355.400000
90.035000 24842.000000
102.034900 887029.600000
134.007000 6648617.000000
138.968300 7459.300000
164.971200 45717.800000
165.979000 5893191.000000

>ms2
57.975700 5262191.000000
63.944700 271120.500000
90.035000 22770.500000
102.034900 856731.100000
134.007000 6675589.000000
164.971100 45954.500000
165.979000 2192997.000000

>ms2
57.975700 6488271.000000
63.944700 242124.500000
90.035100 9353.600000
102.035000 470918.300000
120.999200 7908.200000
134.007000 4584606.000000
164.971100 34684.800000
165.979000 576335.500000

>ms2
57.975700 78989.000000
102.034900 56833.600000
134.007000 695169.600000
165.979000 11037202.000000

>ms2
57.975700 73375.400000
102.034900 53391.100000
134.007000 687358.100000
165.979000 11225113.000000

>ms2
57.975600 472261.200000
63.944600 41784.600000
90.034800 9944.500000
102.034900 322266.400000
134.007000 2679075.200000
164.971300 20816.200000
165.979000 7771796.500000

>ms2
57.975600 1613317.500000
63.944700 92596.800000
90.034800 17721.300000
102.034900 620874.400000
134.007000 4600173.000000
138.967900 6735.200000
164.971200 33626.800000
165.979000 4129365.800000

>ms2
57.975700 3772154.800000
63.944700 174274.800000
90.034800 12213.900000
102.035000 580357.000000
134.007000 4606524.000000
138.968100 7179.700000
164.971500 29650.600000
165.979100 1482076.600000

>ms2
57.975700 4699197.500000
63.944700 178550.900000
90.034900 13113.500000
102.034900 322938.900000
134.007000 3285460.000000
164.971300 25265.400000
165.979100 387270.300000

