>compound LU99628046
>parentmass 423.2388
>ionization [M-H]-
>formula C23H36O7
>rt 984.960000
>profile orbitrap
#smiles_iso CC[C@H](C)C(=O)O[C@H]1C[C@@H](C=C2[C@H]1[C@H]([C@H](C=C2)C)CC[C@H](C[C@H](CC(=O)O)O)O)O
#smiles_can CCC(C)C(=O)OC1CC(C=C2C1C(C(C=C2)C)CCC(CC(CC(=O)O)O)O)O
#inchikey TUZYXOIXSAXUGO-PZAWKZKUSA-N
#pubchem_id 54687
#mb_accession LU065951,LU065952,LU065953,LU065954,LU065955,LU065956

>ms2peaks
57.034500 3262.300000
59.013800 496830.600000
85.029500 184129.800000
101.060800 380547.200000
141.071000 17500.600000
199.112800 49404.600000
217.123200 7620.300000
225.127800 3176.200000
243.068800 4563.300000
267.139100 2896.400000
285.149600 29947.900000
287.059000 36536.800000
303.160300 792837.900000
321.170800 1195079.900000

>ms2peaks
57.034500 8717.100000
59.013800 910772.400000
85.029500 318286.000000
101.060800 793462.800000
141.071000 68159.800000
199.113000 28228.100000
217.123800 6268.700000
225.129000 2563.400000
243.068800 34309.300000
267.138800 3662.600000
285.150400 4597.900000
287.059600 8073.700000
303.160100 86224.600000
321.170700 28247.100000

>ms2peaks
57.034500 6938.800000
59.013800 873395.600000
85.029500 211060.800000
101.060800 986273.600000
141.071100 31749.000000
159.081400 3934.500000
199.113000 4745.200000
241.053300 10113.400000
243.068900 20719.600000

>ms2peaks
57.034500 4871.600000
59.013800 695701.900000
85.029500 70960.700000
101.060800 696953.700000
141.071300 7546.200000
159.081700 4330.800000
241.052700 3136.900000

>ms2peaks
57.034700 2994.100000
59.013800 511955.800000
85.029500 25093.500000
101.060800 344793.700000
159.081900 2758.100000

>ms2peaks
57.034400 1623.300000
59.013800 342776.000000
85.029500 6407.500000
101.060800 121672.600000

