>compound LU99275501
>parentmass 284.0962
>ionization [M-H]-
>formula C13H19NO4S
>rt 1027.800000
>profile orbitrap
#smiles_iso CCCN(CCC)S(=O)(=O)C1=CC=C(C=C1)C(=O)O
#smiles_can CCCN(CCC)S(=O)(=O)C1=CC=C(C=C1)C(=O)O
#inchikey DBABZHXKTCFAPX-UHFFFAOYSA-N
#pubchem_id 4911
#mb_accession LU020851,LU020852,LU020853,LU020854,LU020855,LU020856

>ms2peaks
60.993100 19496.600000
63.962300 242464.100000
64.970300 1244548.200000
79.957300 9884.100000
139.993500 72485.700000
141.001600 4566006.500000
164.075000 405940.100000
198.059400 4843578.000000
240.106400 2470097.500000
256.101400 14830.300000
284.096200 6738117.500000

>ms2peaks
56.980300 4184.900000
60.993100 34519.400000
63.962400 2540944.200000
64.970300 1078724.400000
66.011300 5713.600000
77.039700 6013.400000
79.019000 21245.100000
79.957400 81397.600000
91.019000 7867.700000
93.034600 35083.200000
95.013900 44665.600000
107.013700 5476.900000
108.021700 18886.900000
110.991000 8459.800000
123.008900 9545.600000
139.993800 562642.600000
141.001600 3401592.500000
154.980900 8486.200000
155.988700 118313.100000
164.075100 1952051.800000
198.059400 3466037.000000
240.106400 1724356.200000
256.102100 13123.900000
284.096300 542967.200000

>ms2peaks
63.023900 10190.200000
63.962400 7149231.500000
64.970200 2758038.800000
66.011000 23214.500000
67.018900 20790.100000
79.018900 52077.700000
79.957400 226149.700000
91.018900 139581.000000
93.034500 37879.400000
95.013900 135626.300000
107.013900 20564.000000
108.021600 82878.700000
110.991000 26059.400000
123.008600 27556.800000
126.985900 8096.300000
139.993700 1736100.800000
141.001600 550112.100000
154.981100 18177.300000
155.988700 291926.300000
164.075000 3369850.800000
198.059400 525222.200000
240.106300 336373.500000
284.096600 43577.800000

>ms2peaks
56.980500 8021.300000
62.016200 17483.300000
63.024000 39212.000000
63.962500 6668934.000000
64.970300 4531403.000000
66.011100 19026.400000
67.019000 47909.600000
69.034500 9634.100000
79.019000 52586.400000
79.957400 195407.400000
89.003400 32317.400000
91.019000 679291.800000
92.026700 17272.200000
93.034600 21063.200000
95.013900 134880.000000
107.013800 8805.000000
108.021700 94562.100000
110.990900 12483.200000
123.008700 26153.600000
138.986100 7372.500000
139.993800 1107021.000000
141.001500 20665.800000
154.980800 14969.500000
155.988700 189462.300000
164.075100 805927.400000
198.059700 21215.700000
240.106800 11566.700000

>ms2peaks
56.980400 4482.300000
62.016200 20630.600000
63.024000 53992.700000
63.962400 3826901.800000
64.970300 2919373.800000
66.011100 19145.700000
67.018900 43425.200000
69.034600 10930.200000
79.019000 20315.600000
79.957400 111335.200000
82.006100 4333.100000
89.003300 40580.400000
90.011200 8663.600000
91.018900 710661.500000
92.026800 11094.700000
93.034700 13206.800000
95.013900 76559.400000
107.013700 4693.400000
108.021700 70365.200000
110.991100 4884.200000
123.008900 9484.000000
138.986300 3884.700000
139.993800 178158.000000
154.981100 5027.800000
155.988600 41834.300000
164.075100 47591.100000

>ms2peaks
62.016200 19649.600000
63.024000 58319.900000
63.962400 4207842.500000
64.970300 2942213.200000
66.011100 6756.400000
67.019000 40506.300000
69.034700 4882.700000
79.019000 17297.500000
79.957400 71875.200000
82.006100 6890.700000
89.003300 37520.500000
90.011100 5545.500000
91.018900 662275.600000
92.026800 11772.700000
93.034600 10349.000000
95.013900 56558.000000
108.021700 55456.500000
123.008700 4354.600000
139.993800 46587.100000
155.989000 11493.000000
164.075300 4259.800000

