>compound LU99371619
>parentmass 296.1405
>ionization [M-H]-
>formula C17H19N3O2
>rt 744.660000
>profile orbitrap
#smiles_iso CNCC1=CC=C(C=C1)NC(=O)C2=CNC3=C2C(=O)CCC3
#smiles_can CNCC1=CC=C(C=C1)NC(=O)C2=CNC3=C2C(=O)CCC3
#inchikey XFJIYNUISLDNLP-UHFFFAOYSA-N
#pubchem_id 9839190
#mb_accession LU053851,LU053852,LU053853,LU053854,LU053855,LU053856

>ms2
134.061000 45369.000000
266.105000 14999.100000
296.140400 8068960.500000

>ms2
122.061200 12125.900000
134.061200 1260488.600000
135.092800 108137.200000
160.040300 6841.400000
266.106100 216976.200000
280.109900 6624.600000
296.140400 6579264.000000

>ms2
65.998600 9251.100000
92.050600 12967.200000
104.050600 13963.200000
106.066200 97300.300000
107.037700 7790.000000
121.017000 6666.400000
122.061100 361747.800000
132.045400 15577.700000
133.053400 5270.000000
134.061100 4119288.800000
135.092700 825485.700000
148.040400 40089.700000
149.048100 87301.400000
159.056500 21934.500000
160.040300 51162.100000
170.004000 13112.800000
179.082300 13644.500000
201.994000 5037.200000
265.098000 12294.100000
266.106100 681250.300000
267.114000 7838.300000
280.109600 10713.700000
296.140400 1560449.000000

>ms2
65.003300 6188.200000
65.998500 34266.100000
66.035000 4013.400000
80.050600 13034.200000
81.022000 10134.500000
92.050600 51156.500000
96.045500 6716.900000
103.042800 35257.400000
104.050600 56055.200000
106.066200 383375.500000
107.037500 18530.900000
108.045500 7547.100000
109.016900 4932.100000
116.050400 12276.200000
120.045600 12509.700000
121.017000 9799.600000
122.061100 1296289.400000
132.045600 44051.200000
133.053600 6918.100000
134.061100 3603503.200000
135.092700 735907.100000
148.040400 80877.300000
149.048200 131735.100000
159.032800 8175.800000
159.056500 19496.000000
160.040400 43589.900000
170.004500 9549.800000
179.082800 8558.100000
201.993500 5116.400000
265.098400 8029.800000
266.106100 191891.400000
280.108700 7328.700000
296.140300 80281.300000

>ms2
63.011500 2405.900000
65.003200 12793.500000
65.998500 63235.500000
66.034900 8636.400000
76.019300 3265.700000
78.034800 5207.500000
79.055300 2626.100000
80.014200 7275.500000
80.050600 27778.900000
81.022100 12100.200000
92.050600 97717.800000
94.029800 3778.000000
96.045600 27847.200000
102.034900 5098.500000
103.042800 92073.800000
104.050600 95983.400000
105.021900 12508.800000
105.058500 3289.400000
106.066200 607343.200000
107.037700 11391.100000
107.050200 3395.100000
108.045500 13103.700000
109.016800 2975.100000
116.050600 14576.000000
118.029600 2591.900000
119.037600 4994.500000
119.061500 10470.800000
120.045400 12560.600000
121.017000 2852.900000
122.061200 1590629.800000
131.037600 9790.700000
132.045500 97198.800000
133.053400 9602.800000
133.077100 4987.600000
134.061200 2343795.500000
135.092800 275173.800000
136.040600 5589.500000
148.040400 34086.600000
149.048300 51003.700000
159.032700 8110.000000
159.056600 17775.500000
160.040400 17895.300000
170.004500 5274.600000
179.082400 5453.300000
266.105900 14519.600000
296.140500 2709.600000

>ms2
55.018700 2258.800000
63.011500 2970.000000
65.003300 11697.600000
65.998500 67692.300000
66.035000 15232.200000
76.019300 8965.300000
78.034900 5404.300000
79.055300 2958.500000
80.014200 12926.300000
80.050600 35244.600000
81.022000 7034.900000
92.050600 103487.700000
94.029800 4574.800000
96.045500 56676.000000
102.034800 6766.000000
103.042800 130747.800000
104.050600 93288.100000
105.022000 16746.200000
105.058300 5434.400000
106.066200 562881.700000
107.037500 4922.000000
107.050200 2969.500000
108.045500 9242.300000
116.050700 21606.800000
118.029700 3252.500000
119.037400 5347.000000
119.061300 14964.100000
120.045400 7777.800000
122.061100 949860.200000
131.037700 18556.900000
132.045500 110139.600000
133.053400 6622.400000
133.077300 3308.200000
134.061100 1140007.200000
135.092800 51630.100000
136.040500 4696.600000
148.040500 12033.900000
149.048300 13829.000000
159.032600 5082.100000
159.056400 7652.400000
160.040400 3465.500000
170.004400 2332.500000

