>compound LU99233799
>parentmass 431.1646
>ionization [M-H]-
>formula C22H28N2O5S
>rt 1011.720000
>profile orbitrap
#smiles_iso CC(C)[C@@H](C(=O)N[C@H]1CC2=CC=CC=C2[C@H]3CCC[C@H](N3C1=O)C(=O)O)SC(=O)C
#smiles_can CC(C)C(C(=O)NC1CC2=CC=CC=C2C3CCCC(N3C1=O)C(=O)O)SC(=O)C
#inchikey FXKFFTMLFPWYFH-RDGPPVDQSA-N
#pubchem_id 9824131
#mb_accession LU133851,LU133852,LU133853,LU133854,LU133855,LU133856

>ms2
59.013800 37941.800000
74.991000 424493.700000
132.048800 101108.500000
140.071700 139153.500000
156.048900 18536.100000
212.108100 19221.700000
214.087300 1166121.600000
225.103600 10274.700000
227.119000 6423.200000
228.103000 36663.200000
255.114800 13787.100000
256.097900 177103.200000
271.108700 58560.800000
272.092800 49841.400000
273.124400 26827.200000
311.176500 59068.300000
312.160900 18738.900000
315.135100 10938.200000
327.153600 89449.000000
345.164000 24932.000000
346.149300 19438.500000
355.166300 352810.100000
359.180100 7125.000000
371.143600 78017.300000
389.154100 5480635.500000

>ms2
58.029800 2776.700000
59.013900 75773.200000
71.025000 3618.300000
72.975200 2537.500000
74.991000 504477.500000
87.027400 13507.800000
88.994100 62402.000000
90.002000 9754.000000
99.020200 4524.400000
100.076800 12945.800000
101.060700 6870.500000
102.034900 13966.800000
112.076700 4074.500000
114.038300 20181.200000
115.022300 53957.300000
116.050100 4316.500000
116.054300 4847.800000
117.038000 29830.400000
119.050200 6912.800000
126.997300 4142.600000
131.037600 53891.000000
131.053600 29263.900000
132.048800 1376332.500000
133.033000 4996.000000
140.071700 865541.400000
141.071300 4311.200000
142.066100 20658.700000
144.045500 2563.500000
146.061100 10875.000000
154.066400 10696.800000
156.048900 23845.400000
156.081800 36702.600000
166.066300 10028.100000
168.081900 71772.200000
182.061200 21718.300000
183.069300 6607.100000
184.076700 10167.300000
184.113300 7406.600000
194.097100 6017.100000
200.107700 4366.900000
209.108700 5932.000000
210.092600 14151.700000
211.124400 4952.500000
212.108100 598786.800000
214.087300 2223449.800000
225.103500 27408.900000
227.119000 81614.800000
228.103000 256367.900000
229.134600 46846.200000
230.118800 7534.700000
237.102900 3137.500000
240.102900 17694.100000
255.113700 34566.500000
256.098000 390000.600000
257.130600 7130.100000
267.187100 7454.800000
268.170700 121293.000000
271.109000 108235.000000
272.093100 47351.600000
273.124600 804756.600000
283.108500 8236.600000
284.098000 4146.400000
294.150000 9461.200000
302.109100 11966.400000
311.176600 128814.500000
312.160600 96041.400000
315.135200 7956.700000
327.153500 48282.600000
328.087900 4786.100000
345.164200 99276.500000
346.148100 34728.600000
355.166300 143502.800000
359.179500 4092.100000
371.143500 59960.500000
389.154200 661192.600000

>ms2
58.029900 6920.300000
59.013800 74649.000000
59.991400 4304.500000
69.009500 2947.800000
71.025100 24672.000000
72.975400 9479.300000
74.991000 441573.100000
80.050500 3437.800000
82.066300 4712.400000
83.050200 4389.100000
85.029500 14440.100000
87.027500 43788.200000
87.998900 16184.500000
88.994100 358314.100000
90.001900 27642.300000
96.081900 5986.100000
97.004300 3596.600000
97.016900 3352.400000
98.012300 5527.100000
98.061100 10286.400000
99.020100 19048.300000
99.081700 5625.700000
100.076900 18445.900000
101.060900 5647.000000
102.035000 7859.100000
103.022300 8681.100000
112.076800 38250.500000
114.038300 45563.900000
115.022300 112467.500000
116.054100 2902.500000
117.038000 12355.100000
119.050300 6816.400000
126.997200 28886.100000
131.037700 30866.200000
131.053800 27037.500000
132.048900 1217587.200000
133.032600 3386.700000
137.071800 5618.000000
139.051500 2853.400000
140.071700 693891.400000
141.070900 16189.200000
142.066100 20665.500000
143.050300 5865.100000
144.045000 4620.900000
145.007700 7187.700000
145.065600 11892.400000
146.061400 5648.300000
154.066300 3985.100000
155.086600 2876.200000
156.048900 12532.900000
156.057900 4539.000000
156.081900 30609.000000
157.065900 7827.900000
157.102400 7821.300000
158.061100 17258.800000
160.076300 4517.300000
166.066200 13997.800000
168.082000 49852.900000
169.102400 10412.900000
171.069000 36777.000000
171.081400 4200.600000
172.076900 7534.000000
172.113000 7464.200000
174.128900 4400.100000
181.052600 5355.900000
182.061200 8940.400000
182.097300 10520.500000
183.069300 2580.100000
183.081800 6679.800000
184.076700 11522.400000
184.113100 47269.200000
185.097400 3995.800000
192.081800 5569.000000
194.097500 27467.300000
195.081500 13151.500000
199.124300 6908.600000
201.037900 3672.400000
202.123800 4208.700000
203.059000 53216.700000
209.108700 8145.000000
210.092400 17369.700000
211.124000 13955.000000
212.108100 817851.300000
214.087400 209772.900000
222.092400 8078.400000
225.103500 12440.600000
227.119100 118350.800000
228.103100 90766.900000
229.134600 212396.400000
230.118600 8501.400000
237.102500 2943.800000
240.103100 13791.400000
255.114200 22546.400000
256.097900 24627.800000
257.130200 5450.200000
266.155200 3725.800000
267.186700 4362.000000
268.170600 47027.900000
271.109000 19565.900000
273.124600 444144.100000
283.108500 10608.100000
284.099400 5102.100000
294.149400 5408.900000
302.109200 13261.800000
311.176000 13332.400000
312.159500 4443.700000
327.153900 10558.500000
328.088700 4378.800000
345.164800 7462.400000
355.166100 3868.800000
371.143200 5219.800000
389.152500 4219.700000

>ms2
57.034500 2355.900000
57.975700 4769.900000
58.029900 6872.200000
59.013800 78861.600000
59.991300 8518.300000
66.034900 5454.900000
69.009200 3162.000000
70.983500 5062.800000
71.025100 32063.900000
72.975400 20211.300000
74.991000 452265.900000
82.066200 3523.600000
83.050300 6941.300000
84.045600 6593.800000
85.029500 26449.900000
87.027400 57947.600000
87.986200 4666.300000
87.998800 29773.200000
88.994100 731054.200000
90.001900 35744.600000
96.082000 13336.600000
97.004400 8063.800000
97.016900 8357.600000
98.012300 9560.300000
98.061100 10245.500000
99.020100 23329.700000
99.081500 2977.700000
100.076900 15669.700000
101.060900 3629.500000
103.022300 14608.500000
105.071000 4233.500000
111.019900 4124.800000
112.076800 63202.100000
114.038300 30305.100000
115.022300 80292.700000
116.017400 3347.700000
126.997200 34397.900000
130.066200 3669.500000
131.037400 2695.200000
131.053500 10198.300000
132.048900 450459.500000
137.072000 15051.000000
139.051400 3540.100000
140.071700 316442.100000
141.070900 27175.300000
142.066200 14548.800000
143.050400 10943.300000
145.007600 3469.200000
145.066100 16605.300000
155.086400 3808.900000
156.048900 3505.800000
156.058100 11615.000000
156.081700 14059.200000
157.053000 4385.800000
157.065700 22879.600000
157.102200 4333.200000
158.061200 33653.300000
159.081400 3988.500000
160.076600 8068.000000
166.066500 11837.600000
167.086800 6531.900000
168.081800 8590.200000
169.102400 14203.600000
170.061000 3943.500000
171.069000 97281.100000
172.076700 14139.200000
172.113300 20995.500000
174.128500 3089.500000
181.053300 9816.600000
182.061100 4168.900000
182.097500 15411.300000
183.081300 7782.400000
184.076800 10988.300000
184.113100 34699.600000
185.097200 4914.800000
188.048100 6193.000000
192.081900 7105.600000
194.097500 24142.000000
195.081900 13930.000000
199.124300 7565.300000
200.108100 11982.400000
201.038000 5610.500000
202.123300 3852.700000
203.058800 149788.700000
209.108000 3013.600000
210.092200 12803.300000
211.124400 10165.400000
212.108100 333673.700000
214.087300 7858.200000
222.092700 3755.400000
225.103700 4022.300000
227.119000 61328.200000
228.102900 9777.800000
229.134600 122808.800000
255.114300 3832.200000
266.154100 2396.500000
268.170800 5002.200000
273.124800 39592.800000

>ms2
57.975700 2761.500000
58.029800 5794.400000
59.013800 63509.800000
59.991300 13724.800000
60.975400 3205.100000
63.962400 3525.200000
66.034900 5546.200000
71.025100 20499.500000
72.975400 30131.600000
73.983300 4560.600000
74.991000 391727.200000
80.050600 3343.600000
82.066200 2920.200000
83.050200 5841.400000
84.045500 3462.400000
85.029500 15143.900000
87.027400 47086.900000
87.986100 2464.800000
87.998900 22994.800000
88.994100 679115.200000
90.001900 17687.100000
96.081900 13009.400000
97.004400 4899.400000
97.016900 7864.300000
98.012200 8868.600000
98.060900 4048.500000
99.020000 13120.400000
99.986300 5800.700000
100.076900 2520.700000
103.022400 8176.500000
105.071100 3698.300000
111.019900 6551.500000
112.076700 28644.800000
114.038300 11081.500000
115.022300 27664.900000
115.055200 4564.800000
116.017600 5010.500000
116.050200 2262.200000
126.997200 20526.200000
129.070900 3830.600000
130.066100 4960.700000
132.048900 81020.200000
137.071800 9112.500000
139.051200 4259.000000
140.071700 73463.100000
141.071000 15599.300000
142.066000 15191.700000
143.050100 10384.800000
145.065900 13164.000000
155.086600 2940.700000
156.058000 2944.700000
156.081600 7956.400000
157.053400 9325.300000
157.065700 24726.500000
158.061000 28798.500000
159.081400 3906.700000
160.077000 4860.200000
166.066200 5758.400000
167.086800 2987.800000
168.082100 2761.600000
170.060900 2647.700000
171.069000 32727.400000
171.081300 2951.000000
172.076900 13738.100000
172.113100 6859.900000
180.058100 2303.600000
180.082100 2600.700000
181.053400 5686.000000
182.061100 2558.700000
182.097400 9625.000000
183.081800 5633.200000
184.076700 5401.200000
184.113300 8110.300000
188.047800 5037.800000
192.081800 4697.600000
194.097300 9220.800000
195.081400 7589.500000
196.076500 3991.300000
200.108000 2799.700000
203.058800 62064.900000
212.108100 39559.900000
227.118600 8499.800000
229.134600 14610.500000

>ms2
57.034600 2496.800000
57.975600 3451.000000
58.029700 3028.600000
59.013800 50202.100000
59.991300 15323.100000
60.975400 6049.400000
63.962400 4186.200000
66.035000 4108.400000
70.983600 2710.700000
71.025100 15828.800000
72.975400 31801.600000
73.983300 3641.500000
74.991000 304538.600000
83.050300 7710.800000
84.045800 2340.700000
85.029400 7095.400000
87.027400 21763.100000
87.998900 18596.600000
88.994100 487739.400000
90.002100 10966.900000
96.082000 9249.600000
97.004400 4964.000000
97.016900 2806.600000
98.012300 4307.200000
98.061400 1818.400000
99.020000 7372.100000
99.986300 8177.900000
103.022200 3043.000000
111.019900 5241.900000
112.076800 4254.000000
115.022300 7207.100000
115.055300 4717.600000
116.017500 2251.800000
116.050500 2621.300000
126.997200 14684.600000
129.070800 3501.200000
130.066300 3406.900000
132.048600 12761.200000
137.072000 6475.100000
139.051000 3180.700000
140.071900 9093.900000
141.071000 8384.900000
142.066200 14575.500000
143.050300 15453.800000
145.066000 6431.100000
156.082200 3905.000000
157.053000 6263.300000
157.065700 16923.500000
158.061100 22566.600000
166.066300 6255.700000
168.082200 2591.600000
171.069000 6643.300000
172.076600 11897.900000
180.057900 3914.600000
180.082000 2924.300000
181.053200 2182.500000
182.061200 2929.000000
182.097400 3834.400000
183.081600 4237.900000
184.077100 4629.200000
192.082100 2155.500000
194.096600 1993.700000
196.076700 3023.000000
201.037800 3151.900000
203.059100 7725.900000
212.108400 3637.900000

