>compound LU99255855
>parentmass 224.0942
>ionization [M-H]-
>formula C12H11N5
>rt 808.620000
>profile orbitrap
#smiles_iso C1=CC=C(C=C1)CNC2=NC=NC3=C2NC=N3
#smiles_can C1=CC=C(C=C1)CNC2=NC=NC3=C2NC=N3
#inchikey NWBJYWHLCVSVIJ-UHFFFAOYSA-N
#pubchem_id 62389
#mb_accession LU020251,LU020252,LU020253,LU020254,LU020255

>ms2peaks
132.031600 2010.100000
133.039400 161864.000000
224.094200 786531.500000

>ms2peaks
106.028600 6458.800000
117.020400 5696.800000
119.036200 14698.600000
132.031400 31138.200000
133.039400 3828170.200000
146.047300 9270.000000
182.071900 19831.700000
208.075400 18145.900000
222.078400 17913.300000
224.094100 5388594.500000

>ms2peaks
106.028600 8392.900000
119.036300 3772.700000
132.031500 20385.800000
133.039400 745568.100000
146.047200 2116.000000
182.072500 3011.600000
208.075400 7425.600000
222.078300 3677.500000
224.094200 114556.900000

>ms2peaks
66.009600 25557.800000
79.017600 51935.600000
92.025500 26319.400000
106.028500 404748.100000
117.020700 135503.100000
119.036200 43665.100000
132.031700 1160418.800000
133.039300 7542039.500000
146.047300 24360.400000
182.072700 18965.400000
207.067800 40252.800000
208.075400 41285.500000
222.078700 32679.000000
224.094200 123632.100000

>ms2peaks
65.014500 9366.100000
66.009700 145357.500000
79.017600 157291.400000
92.025400 24917.000000
105.020700 33886.800000
106.028500 836872.900000
117.020700 324077.100000
119.036300 44385.700000
132.031700 2623873.500000
133.039300 4674369.000000
146.047200 18539.600000
207.067500 53314.600000
208.075200 12762.500000
222.078700 15852.300000
224.094100 5148.900000

