>compound UF00928799
>parentmass 201.0692
>ionization [M+H]+
>formula C8H12N2O2S
>rt 963.780000
>profile orbitrap
#smiles_iso CN(C)S(=O)(=O)C1=CC=C(C=C1)N
#smiles_can CN(C)S(=O)(=O)C1=CC=C(C=C1)N
#inchikey BABGMPQXLCJMSK-UHFFFAOYSA-N
#pubchem_id 74369
#mb_accession UF417001,UF417002

>ms2
80.049700 2033.800000
92.049700 307897.200000
108.044700 303707.200000
110.060400 12020.200000
120.056000 7433.900000
156.011900 117942.000000
199.017300 3590.400000

>ms2
80.049700 16004.600000
92.049700 287505.100000
108.044600 188696.300000
110.060300 22344.900000
120.056200 3001.800000
199.016900 3172.800000

