>compound UF01612240
>parentmass 287.2006
>ionization [M+H]+
>formula C19H26O2
>rt 1458.720000
>profile orbitrap
#smiles_iso C[C@]12CCC(=O)C=C1CC[C@@H]3[C@@H]2CC[C@]4([C@H]3CCC4=O)C
#smiles_can CC12CCC(=O)C=C1CCC3C2CCC4(C3CCC4=O)C
#inchikey AEMFNILZOJDQLW-QAGGRKNESA-N
#pubchem_id 6128
#mb_accession UF416501,UF416502

>ms2peaks
77.038400 7638.500000
79.054100 83713.400000
81.069800 70080.100000
83.049000 80869.300000
91.054100 26442.000000
93.069700 53218.400000
95.085400 49848.100000
97.064600 2660162.000000
105.069700 62116.300000
107.085400 51322.100000
109.064500 2264332.000000
117.069700 17083.800000
119.085400 80781.700000
121.064500 16257.200000
121.101000 51256.200000
123.080200 402143.800000
129.069700 10384.800000
131.085300 49611.300000
133.101000 96758.700000
135.080500 10832.700000
135.116500 24125.000000
137.095900 15747.700000
143.085300 44188.100000
145.100900 125730.400000
147.079900 8196.500000
147.116600 58784.600000
149.095900 15912.300000
155.085400 13265.900000
157.101000 38542.500000
159.080500 6494.100000
159.116600 100204.300000
161.095900 16504.700000
161.132200 23194.500000
163.111700 23199.000000
169.101000 34683.400000
171.116600 54792.400000
173.095900 6799.600000
173.132300 110817.300000
175.111900 12667.200000
177.126900 16679.100000
181.101000 10198.500000
183.116600 33775.300000
185.132300 80458.300000
187.111400 3931.700000
187.147900 35245.000000
189.126900 8456.700000
191.142500 5820.800000
195.116400 26932.000000
197.132200 9638.100000
199.111400 4584.200000
199.147700 29125.400000
201.126800 9269.400000
209.132200 28907.000000
211.147900 86797.400000
213.127000 15245.500000
213.163200 6770.100000
217.158200 8663.200000
223.148100 8627.200000
225.163600 25628.400000
227.143100 18744.500000
227.179400 37392.800000
229.158300 54239.500000
241.159000 4745.400000
241.195000 12436.200000
251.179500 46147.800000
269.189600 64996.200000
287.200300 114481.300000

>ms2peaks
77.038400 129806.700000
79.054000 1035502.800000
81.069700 1067155.100000
83.049000 264844.900000
91.054000 409572.600000
93.069700 387031.200000
95.085300 320791.200000
97.064500 8337759.000000
105.069700 479461.500000
107.085400 166805.200000
109.064500 7166506.000000
117.069700 174352.300000
119.085300 296870.300000
121.064400 70177.900000
121.100900 130128.500000
123.080200 1218267.900000
129.069700 121684.700000
131.085300 266186.800000
133.100900 242758.600000
135.080100 44617.500000
137.095500 35178.800000
143.085200 164423.800000
145.100900 300010.700000
147.116300 58571.000000
155.085500 79530.000000
157.100900 95808.200000
159.116600 133890.800000
169.100800 110397.200000
171.116600 86848.500000
173.132300 81198.900000
181.101000 43006.600000
183.116700 70950.300000
185.132100 74883.400000
187.147600 35751.600000
211.148800 32766.900000

