>compound UF01995490
>parentmass 231.1016
>ionization [M+H]+
>formula C14H14O3
>rt 1460.220000
>profile orbitrap
#smiles_iso CC(C1=CC2=C(C=C1)C=C(C=C2)OC)C(=O)O
#smiles_can CC(C1=CC2=C(C=C1)C=C(C=C2)OC)C(=O)O
#inchikey CMWTZPSULFXXJA-UHFFFAOYSA-N
#pubchem_id 1302
#mb_accession UF406601,UF406602

>ms2
115.054400 2512.800000
128.062000 1377.500000
129.070100 4400.100000
142.078000 5601.800000
143.049100 1406.600000
152.062600 1758.700000
153.070100 43806.200000
154.077900 58330.500000
155.085700 48552.000000
156.056900 5797.000000
157.065000 6074.000000
158.072800 59565.300000
169.064900 3829.300000
170.072800 196058.000000
181.076300 9132.400000
185.096300 752842.700000
189.102100 7491.500000
201.103100 2108.300000

>ms2
115.054300 48792.900000
128.062100 17276.300000
129.070000 17939.300000
142.077900 56248.200000
143.049400 10262.300000
152.062300 37013.000000
153.070100 94818.300000
154.077900 95089.600000
155.085700 44488.800000
156.057500 4880.500000
157.065000 2993.300000
158.072800 43974.400000
169.065100 51742.100000
170.072800 232855.500000
181.076300 25368.400000
185.096400 76114.400000
201.102800 1391.100000

