>compound UF01479256
>parentmass 329.0245
>ionization [M+H]+
>formula C14H13ClO5S
>rt 1275.540000
>profile orbitrap
#smiles_iso CS(=O)(=O)C1=CC(=C(C=C1)C(=O)C2C(=O)CCCC2=O)Cl
#smiles_can CS(=O)(=O)C1=CC(=C(C=C1)C(=O)C2C(=O)CCCC2=O)Cl
#inchikey PQTBTIFWAXVEPB-UHFFFAOYSA-N
#pubchem_id 91760
#mb_accession UF401301,UF401302

>ms2peaks
97.028300 1569.100000
111.043900 101542.300000
139.038900 78159.400000
157.049600 15160.000000
190.992700 1526.900000
214.062400 8489.400000
240.972400 5048.500000
293.048100 6364.600000

>ms2peaks
97.028200 2160.600000
111.044000 46541.400000
139.038800 6698.900000
214.062300 12684.700000
240.971000 2698.600000

