>compound UF03284262
>parentmass 117.0659
>ionization [M+H]+
>formula C4H8N2O2
>rt 266.700000
>profile orbitrap
#smiles_iso C1COCCN1N=O
#smiles_can C1COCCN1N=O
#inchikey ZKXDGKXYMTYWTB-UHFFFAOYSA-N
#pubchem_id 6046
#mb_accession UF412701,UF412702

>ms2
73.039900 10066.600000
86.060400 57568.300000
87.068300 50052.800000
117.066400 339123.800000

>ms2
73.039900 10812.700000
86.060500 39506.100000
87.068200 21882.700000
117.066300 93489.600000

