>compound UF04349990
>parentmass 192.0768
>ionization [M+H]+
>formula C9H9N3O2
>rt 802.860000
>profile orbitrap
#smiles_iso COC(=O)NC1=NC2=CC=CC=C2N1
#smiles_can COC(=O)NC1=NC2=CC=CC=C2N1
#inchikey TWFZGCMQGLPBSX-UHFFFAOYSA-N
#pubchem_id 25429
#mb_accession UF405001,UF405002

>ms2peaks
133.063900 2083.600000
160.050400 448876.100000

>ms2peaks
133.063300 14783.600000
160.050400 618691.600000

