>compound UF05224076
>parentmass 171.1856
>ionization [M+H]+
>formula C10H22N2
>rt 132.840000
>profile orbitrap
#smiles_iso CC1(CC(CC(C1)(C)CN)N)C
#smiles_can CC1(CC(CC(C1)(C)CN)N)C
#inchikey RNLHGQLZWXBQNY-UHFFFAOYSA-N
#pubchem_id 17857
#mb_accession UF413401,UF413402

>ms2
72.044700 2475.300000
79.054400 1682.900000
81.070200 37180.600000
95.085900 38654.300000
107.060700 2310.300000
109.101600 2797.000000
137.133000 104888.500000
154.159600 211289.500000

>ms2
72.044700 3525.200000
79.054500 4543.500000
81.070200 64614.900000
95.085800 85109.200000
109.101500 5605.900000
137.133000 43378.500000
154.159700 40186.400000

