>compound UF06585503
>parentmass 308.004
>ionization [M+H]+
>formula C15H8Cl2FNO
>rt 1664.280000
>profile orbitrap
#smiles_iso C1=CC(=CC=C1OC2=C3C(=CC(=CC3=NC=C2)Cl)Cl)F
#smiles_can C1=CC(=CC=C1OC2=C3C(=CC(=CC3=NC=C2)Cl)Cl)F
#inchikey WRPIRSINYZBGPK-UHFFFAOYSA-N
#pubchem_id 3391107
#mb_accession UF405501,UF405502

>ms2peaks
95.029100 10334.400000
113.039700 7040.400000
123.035400 120523.600000
150.010600 144098.600000
162.010700 21228.900000
166.005600 7414.300000
168.021000 29168.100000
178.005700 24071.300000
178.016800 53719.900000
183.971700 30461.300000
184.979500 16929.300000
195.971900 17318.100000
196.979500 1976322.400000
209.063800 30424.500000
210.071500 18281.200000
212.974500 45712.800000
213.982200 868913.100000
217.022100 21663.900000
219.025000 15345.900000
221.987000 6291.300000
225.034400 32767.900000
228.969400 165637.700000
237.058700 80601.100000
238.066800 22423.100000
244.032600 247617.800000
245.040400 386182.300000
253.029400 35364.200000
254.037000 33483.500000
256.031700 9910.700000
260.002900 28090.800000
272.027400 1351035.100000
273.036100 38410.900000
280.009200 201319.100000
287.998200 112734.000000
308.004200 5533766.500000
309.007800 51761.500000

>ms2peaks
95.029100 160452.000000
113.039700 67510.300000
123.035300 1045744.300000
150.010500 486478.600000
162.010600 2082149.600000
166.005300 18591.800000
168.021300 87192.700000
178.005700 29604.300000
178.016700 131287.900000
183.971600 65250.800000
184.979400 403839.600000
188.025000 12233.000000
195.971800 38532.600000
196.979400 3777083.200000
209.063700 214769.300000
210.071500 149037.800000
212.974400 42916.200000
213.982100 2805858.000000
217.021400 58623.200000
221.988300 17809.700000
225.034000 135904.000000
228.969200 299994.000000
237.058600 436599.300000
238.066500 55046.800000
244.032500 253491.700000
245.040400 384360.200000
253.029200 67934.900000
254.036700 35189.900000
256.032300 18762.600000
260.003600 18752.100000
272.027400 626599.300000
280.009100 34631.500000
287.997700 29420.900000
308.004100 185934.900000

