>compound UF06861623
>parentmass 261.0321
>ionization [M+H]+
>formula C7H15Cl2N2O2P
>rt 1215.240000
>profile orbitrap
#smiles_iso C1CNP(=O)(OC1)N(CCCl)CCCl
#smiles_can C1CNP(=O)(OC1)N(CCCl)CCCl
#inchikey CMSMOCZEIVJLDB-UHFFFAOYSA-N
#pubchem_id 2907
#mb_accession UF411901,UF411902

>ms2
70.065400 7771.200000
78.010900 10394.800000
94.005700 4229.900000
102.011100 3646.000000
104.026700 3423.100000
106.042300 149680.600000
110.000700 32758.500000
112.016400 8402.500000
120.021500 93821.600000
138.032200 103219.700000
140.003500 630955.400000
141.982800 16223.700000
142.019100 178697.100000
155.998600 3303.600000
171.009300 5691.900000
185.025400 4230.600000

>ms2
70.065400 6329.400000
78.010900 16129.600000
94.005800 4699.000000
102.010900 8090.000000
104.026700 11500.700000
106.042300 35959.700000
110.000700 9357.700000
112.016500 12762.300000
138.032200 18019.900000
140.003500 208089.700000
141.982700 17456.400000
142.019200 49075.900000

