>compound UF07554117
>parentmass 217.0972
>ionization [M+H]+
>formula C12H12N2O2
>rt 895.320000
>profile orbitrap
#smiles_iso CC1=C(C(=O)N(N1C)C2=CC=CC=C2)C=O
#smiles_can CC1=C(C(=O)N(N1C)C2=CC=CC=C2)C=O
#inchikey QFYZFYDOEJZMDX-UHFFFAOYSA-N
#pubchem_id 70371
#mb_accession UF410701,UF410702

>ms2
77.038600 14318.000000
79.054200 4648.900000
83.049200 120050.100000
86.060100 21429.600000
91.054200 8233.800000
92.049500 12920.200000
93.033700 3642.400000
95.060500 3816.100000
96.044300 7105.700000
96.068300 15796.000000
98.060100 73614.900000
103.054300 3077.400000
104.049600 29658.900000
105.033500 14883.800000
105.044800 4971.900000
106.065100 252908.900000
107.060500 28663.200000
111.044100 322291.600000
117.057300 7419.400000
117.070000 7486.700000
118.065300 35974.000000
119.085400 8650.100000
120.044600 7461.500000
120.081000 16495.400000
130.065300 44819.300000
131.060000 3409.700000
131.073100 33335.900000
132.068300 20152.500000
132.080900 13273.100000
133.052200 3632.700000
133.076400 5488.900000
139.050500 7263.000000
142.065200 16713.700000
144.081000 39107.400000
145.065200 12821.400000
145.076400 8440.800000
145.088700 6281.500000
146.060000 2979.000000
146.083900 21243.100000
146.096600 11805.600000
147.091900 130921.500000
148.075700 5557.100000
149.071300 17933.600000
156.068100 3795.100000
157.052700 6414.200000
158.060200 15146.100000
159.091800 59453.100000
160.076300 4079.200000
160.099600 20664.600000
161.107500 18114.800000
171.055400 3178.400000
171.092200 5033.200000
172.063100 12992.200000
172.075700 11039.100000
173.071200 5024.100000
174.079000 40178.200000
185.071100 10383.500000
186.055300 15657.400000
187.086800 29140.700000
188.095100 12365.100000
189.102500 130741.700000
199.086800 30512.300000
200.058300 42102.200000
202.074000 35598.200000
215.081700 573413.900000
217.097200 2120897.000000

>ms2
77.038600 98161.400000
79.054300 12490.700000
83.049200 101405.900000
86.060100 25378.500000
91.054300 30554.100000
92.049500 46311.100000
93.033600 3622.900000
95.060400 7294.100000
96.044400 10624.500000
96.068200 12163.400000
98.060100 89656.800000
103.054300 16274.100000
104.049500 55802.300000
105.033600 15832.100000
105.044800 36265.900000
106.065100 518998.100000
107.060300 17108.800000
111.044100 85656.900000
115.054300 13109.400000
117.057200 17278.500000
117.069900 29244.000000
118.065200 51532.900000
119.085300 6044.100000
120.044400 12767.000000
120.080800 17491.600000
130.065200 80628.500000
131.060300 15187.300000
131.072900 33243.300000
132.068300 32909.900000
132.080700 11519.400000
133.052400 8282.800000
133.076100 5965.300000
139.050600 5595.400000
142.065200 16717.300000
144.080900 38827.300000
145.064700 7481.300000
145.076100 32259.500000
145.088600 8979.500000
146.060500 5280.400000
146.084000 22459.400000
146.096900 2881.500000
147.091700 63208.000000
149.071100 11778.100000
156.068400 5850.900000
157.052100 9624.000000
158.047800 2704.500000
158.060200 11831.800000
159.055400 12258.800000
159.091800 45037.000000
160.075700 5985.400000
160.099700 8278.500000
161.107700 3772.400000
169.075800 2959.800000
171.055300 9028.400000
171.092200 3747.300000
172.063400 18524.100000
172.075900 7802.100000
173.071100 13236.500000
174.078900 28170.300000
185.071100 37643.400000
186.055300 4336.800000
187.086700 13307.400000
189.102400 11543.300000
199.086900 17482.300000
200.058200 70030.800000
202.073800 12032.200000
213.065800 2455.700000
215.081700 87394.400000
217.097300 65973.100000

