>compound UF07977120
>parentmass 235.1805
>ionization [M+H]+
>formula C14H22N2O
>rt 867.360000
>profile orbitrap
#smiles_iso CCN(CC)CC(=O)NC1=C(C=CC=C1C)C
#smiles_can CCN(CC)CC(=O)NC1=C(C=CC=C1C)C
#inchikey NNJVILVZKWQKPM-UHFFFAOYSA-N
#pubchem_id 3676
#mb_accession UF410201,UF410202

>ms2peaks
86.096400 4571143.500000
133.007700 86452.900000
134.096400 5166.900000
151.018200 6086.200000
235.180700 26864.500000

>ms2peaks
86.096400 4461003.500000
133.007700 9227.900000
134.096500 6735.800000

