>compound UF08619757
>parentmass 223.0965
>ionization [M+H]+
>formula C12H14O4
>rt 1397.760000
>profile orbitrap
#smiles_iso CC(C)CC1=C(C(=CC=C1)C(=O)O)C(=O)O
#smiles_can CC(C)CC1=C(C(=CC=C1)C(=O)O)C(=O)O
#inchikey WXVFMRKUWGIPRB-UHFFFAOYSA-N
#pubchem_id 22394963
#mb_accession UF420601,UF420602

>ms2
121.028800 2532.600000
149.023900 57923.600000

>ms2
121.028900 7571.500000
149.023900 15497.100000

