>compound UF09490434
>parentmass 152.0706
>ionization [M+H]+
>formula C8H9NO2
>rt 516.600000
>profile orbitrap
#smiles_iso CC(=O)NC1=CC=C(C=C1)O
#smiles_can CC(=O)NC1=CC=C(C=C1)O
#inchikey RZVAJINKPMORJF-UHFFFAOYSA-N
#pubchem_id 1983
#mb_accession UF409101,UF409102

>ms2
92.049500 3942.300000
93.033600 3134.100000
110.060000 190180.100000
134.060300 3966.400000
152.070700 77602.100000

>ms2
92.049500 16238.600000
93.033600 16181.900000
110.060000 155800.000000
111.044100 5153.100000
152.071000 5498.400000

