>compound UF09713697
>parentmass 195.0877
>ionization [M+H]+
>formula C8H10N4O2
>rt 946.800000
>profile orbitrap
#smiles_iso CN1C=NC2=C1C(=O)N(C(=O)N2C)C
#smiles_can CN1C=NC2=C1C(=O)N(C(=O)N2C)C
#inchikey RYYVLZVUVIJVGH-UHFFFAOYSA-N
#pubchem_id 2519
#mb_accession UF408901,UF408902

>ms2peaks
83.060400 8493.700000
109.040000 3059.200000
110.071400 44730.800000
111.055400 2797.900000
123.042400 3157.000000
138.066300 568188.800000
151.097900 2004.900000
195.087800 346873.100000

>ms2peaks
83.060500 48051.200000
109.039700 18420.200000
110.071300 96068.800000
111.055400 6008.400000
123.042900 41203.500000
138.066300 327854.800000
163.062200 1467.000000
195.087900 23388.800000

