>compound UF10731117
>parentmass 285.0789
>ionization [M+H]+
>formula C16H13ClN2O
>rt 1464.960000
>profile orbitrap
#smiles_iso CN1C(=O)CN=C(C2=C1C=CC(=C2)Cl)C3=CC=CC=C3
#smiles_can CN1C(=O)CN=C(C2=C1C=CC(=C2)Cl)C3=CC=CC=C3
#inchikey AAOVKJBEBIDNHE-UHFFFAOYSA-N
#pubchem_id 3016
#mb_accession UF408401,UF408402

>ms2
91.054300 241265.800000
104.049600 30026.700000
105.033600 157695.200000
106.065100 9165.000000
116.049700 65701.500000
117.057500 59389.200000
118.065300 28478.900000
119.073200 11218.600000
125.015400 20896.800000
138.994400 11076.800000
140.026700 26195.800000
141.034300 57016.900000
143.060400 13276.500000
144.068500 9114.000000
146.060600 14116.800000
147.068200 94274.500000
150.010800 45439.000000
152.026600 51509.000000
154.042100 2299896.500000
165.021600 12957.600000
165.070400 10427.700000
167.013600 193131.300000
172.063400 274190.700000
179.037300 257485.400000
180.021400 206736.200000
181.088900 8371.800000
182.037000 330686.800000
192.080700 16054.200000
193.088900 1570557.900000
194.096900 33799.700000
195.105200 13830.300000
204.081000 43268.600000
205.088900 44555.800000
206.083900 28428.100000
207.032300 41322.800000
207.092100 36003.000000
208.100000 10415.700000
216.057900 151244.600000
220.100000 35937.400000
221.084000 36831.900000
221.107700 162545.100000
222.115400 1566112.900000
223.098700 10864.800000
226.042500 62631.600000
227.050000 163667.900000
228.057700 1454743.100000
230.073300 99719.100000
240.057900 46244.200000
241.053100 371234.000000
242.061000 115566.300000
243.069000 37776.800000
249.103200 12345.200000
250.110600 28692.200000
255.068800 278487.400000
256.077200 43244.100000
257.084300 1699142.600000
269.048600 9196.800000
285.079400 3475459.200000

>ms2
91.054300 667407.700000
104.049600 113493.000000
105.033600 47055.100000
106.064800 10256.800000
116.049700 197359.000000
117.057500 367361.500000
118.065300 250570.200000
119.073100 190494.700000
125.015400 467083.800000
138.994700 27275.100000
140.026400 74744.600000
141.034200 63642.600000
143.060600 263845.300000
144.068400 139085.600000
146.060600 13076.400000
147.068200 89817.300000
150.010800 193641.400000
152.026400 95291.100000
154.042000 1763885.100000
165.021700 44685.500000
165.070200 165777.100000
167.013600 125838.100000
172.063400 200153.800000
179.037400 263814.400000
180.021400 113775.100000
181.088900 38786.900000
182.037500 17113.100000
192.081200 186566.800000
193.088900 2709634.200000
194.096800 154289.800000
195.104800 17767.300000
204.081100 226608.900000
205.089000 55475.200000
206.084200 366909.800000
207.092000 349250.100000
208.099700 29618.400000
216.057900 107694.900000
220.100100 27891.100000
221.083900 72983.800000
221.107700 297445.100000
222.115400 819886.100000
223.099900 11390.000000
226.042000 46347.400000
227.050000 300879.500000
228.057800 317938.000000
230.073400 34110.100000
240.058300 42652.500000
241.053100 1002968.100000
242.061200 89740.400000
249.101700 13058.800000
255.068800 213819.900000
257.084500 66876.600000
269.047700 50816.900000
285.079800 35353.400000

