>compound UF12875300
>parentmass 289.2162
>ionization [M+H]+
>formula C19H28O2
>rt 1498.500000
>profile orbitrap
#smiles_iso C[C@]12CC[C@H]3[C@H]([C@@H]1CC[C@@H]2O)CCC4=CC(=O)CC[C@]34C
#smiles_can CC12CCC3C(C1CCC2O)CCC4=CC(=O)CCC34C
#inchikey MUMGGOZAMZWBJJ-DYKIIFRCSA-N
#pubchem_id 6013
#mb_accession UF416001,UF416002

>ms2peaks
77.038200 41292.200000
79.054000 445146.000000
81.069600 494828.900000
83.048900 379350.200000
91.054100 234209.900000
93.069600 440549.900000
95.085200 474983.700000
97.064500 11627705.000000
105.069500 412023.700000
107.085200 418591.100000
109.064400 12225004.000000
111.080500 63712.100000
119.085200 382822.600000
121.064400 193445.900000
121.100900 346058.200000
123.080100 1498601.600000
131.085100 221481.200000
133.100800 315974.400000
135.116500 126250.100000
143.085200 106915.200000
145.100900 360158.500000
147.116500 473783.100000
149.095900 93353.400000
149.132000 158819.500000
155.085800 42710.500000
157.100700 231401.400000
159.116400 445906.700000
161.132100 265980.200000
163.111700 135692.200000
171.116600 209802.600000
173.131900 170469.800000
175.111400 64941.600000
175.148000 260866.300000
177.127000 212283.100000
185.132200 116825.500000
187.147700 328398.300000
189.126800 69435.900000
189.163200 101842.400000
197.131800 181509.200000
199.148100 175399.700000
201.163400 154651.400000
211.147700 127837.700000
213.163200 255326.600000
215.142600 51582.200000
227.180000 87671.800000
253.194400 562875.400000
271.205200 318365.800000
289.215700 526278.300000

>ms2peaks
77.038300 300890.600000
79.054000 1889747.100000
81.069600 2056590.500000
83.048900 422480.600000
91.054000 1064239.900000
93.069700 1087272.000000
95.085300 957237.100000
97.064500 13492928.000000
105.069600 1370755.200000
107.085200 606777.700000
109.064500 14400736.000000
111.080000 78777.200000
117.069600 279405.400000
119.085300 932741.500000
121.064700 183416.400000
121.100800 273671.800000
123.080100 2513382.200000
129.069600 148839.300000
131.085200 416469.800000
133.100800 421952.100000
135.116800 93745.600000
137.096200 72729.800000
143.085200 257531.500000
145.100900 393356.100000
147.116700 265060.500000
149.095700 66099.000000
149.132100 40762.600000
155.085300 93384.700000
157.100700 264139.200000
159.116600 312947.900000
161.132300 103529.200000
169.100900 80223.800000
171.116300 143781.600000
183.116400 73349.700000
187.147400 66554.900000

