>compound UF13078103
>parentmass 269.1648
>ionization [M+H]+
>formula C17H20N2O
>rt 1548.300000
>profile orbitrap
#smiles_iso CN(C)C1=CC=C(C=C1)C(=O)C2=CC=C(C=C2)N(C)C
#smiles_can CN(C)C1=CC=C(C=C1)C(=O)C2=CC=C(C=C2)N(C)C
#inchikey VVBLNCFGVYUYGU-UHFFFAOYSA-N
#pubchem_id 7031
#mb_accession UF414401,UF414402

>ms2peaks
77.038700 14000.700000
79.054600 48198.600000
91.054700 24391.600000
103.054700 15776.300000
105.057800 41623.100000
118.065600 14947.700000
148.076300 10009960.000000

>ms2peaks
77.038900 246979.800000
79.054500 618150.000000
91.054600 409250.800000
103.054700 223990.800000
105.057700 748660.400000
118.065700 202642.000000
148.076300 6979409.000000
199.063700 18232.900000

