>compound UF13428177
>parentmass 327.0781
>ionization [M+H]+
>formula C18H15O4P
>rt 1575.060000
>profile orbitrap
#smiles_iso C1=CC=C(C=C1)OP(=O)(OC2=CC=CC=C2)OC3=CC=CC=C3
#smiles_can C1=CC=C(C=C1)OP(=O)(OC2=CC=CC=C2)OC3=CC=CC=C3
#inchikey XZZNDPSIHUTMOC-UHFFFAOYSA-N
#pubchem_id 8289
#mb_accession UF417501,UF417502

>ms2peaks
77.038800 510520.300000
93.033800 11503.300000
95.049400 104872.200000
98.984600 5690.600000
105.045100 205113.100000
121.028400 5989.400000
138.994800 17426.900000
141.070300 8228.400000
151.054900 48976.400000
152.062500 693428.400000
153.070400 784360.400000
157.005500 11559.000000
168.057600 135318.500000
169.065400 33813.900000
170.073200 9216.700000
171.081100 46397.100000
175.016200 48609.100000
179.061000 46804.200000
181.076900 15075.500000
187.031300 30379.800000
202.078700 24063.200000
203.086600 5712.200000
215.026300 486869.800000
226.078600 6745.100000
227.086300 42670.200000
228.094200 270543.600000
229.102000 78478.400000
233.036900 648289.300000
251.047700 792009.400000
291.057800 16896.300000
309.067300 9329.500000

>ms2peaks
77.038800 656489.200000
93.033900 3517.100000
95.049500 117284.100000
98.984500 3031.600000
105.045100 251933.200000
121.028600 2646.600000
138.994900 24417.800000
141.070500 21354.200000
151.054900 75537.200000
152.062600 1033854.400000
153.070300 159072.600000
157.005600 7273.900000
168.057600 341769.300000
169.065300 32948.900000
170.073300 8986.700000
175.016200 55628.200000
179.061100 56196.600000
187.031500 45398.100000
202.078600 27569.600000
215.026500 113683.900000
226.078700 25344.200000
227.086600 57375.400000
228.094300 92931.800000
233.037200 61688.400000
251.048000 34030.000000

