>compound UF14675427
>parentmass 399.2506
>ionization [M+H]+
>formula C18H39O7P
>rt 1633.020000
>profile orbitrap
#smiles_iso CCCCOC(C)OP(=O)(OC(C)OCCCC)OC(C)OCCCC
#smiles_can CCCCOC(C)OP(=O)(OC(C)OCCCC)OC(C)OCCCC
#inchikey BGNTUSKZDOUZCZ-UHFFFAOYSA-N
#pubchem_id 23461823
#mb_accession UF418601,UF418602

>ms2
98.984300 151589.300000
125.000100 27856.600000
143.010500 11523.100000
199.012100 7199.700000

>ms2
98.984400 100818.800000
125.000200 9968.500000
199.011600 5181.200000

