>compound UF15810955
>parentmass 172.1332
>ionization [M+H]+
>formula C9H17NO2
>rt 712.320000
>profile orbitrap
#smiles_iso C1CCC(CC1)(CC(=O)O)CN
#smiles_can C1CCC(CC1)(CC(=O)O)CN
#inchikey UGJMXCAKCUNAIE-UHFFFAOYSA-N
#pubchem_id 3446
#mb_accession UF411401,UF411402

>ms2peaks
81.070000 3179.400000
91.054300 27412.600000
93.070000 24275.500000
95.085600 74479.800000
109.101300 51096.500000
110.096400 6593.700000
112.112100 4101.200000
119.085600 100769.300000
126.127900 8264.200000
136.112200 10828.800000
137.096200 172819.900000
154.122800 374690.700000
155.106800 12217.800000
172.133400 70973.700000

>ms2peaks
81.070000 9176.800000
91.054300 62135.700000
93.070000 43199.000000
95.085600 163717.600000
109.101300 57278.500000
110.096500 13319.900000
112.112200 5454.100000
119.085600 62733.400000
126.127800 7217.600000
136.112200 15614.600000
137.096200 53281.800000
154.122800 50612.300000

