>compound UF15484970
>parentmass 227.1543
>ionization [M+H]+
>formula C15H18N2
>rt 773.760000
>profile orbitrap
#smiles_iso CC(C)NC1=CC=C(C=C1)NC2=CC=CC=C2
#smiles_can CC(C)NC1=CC=C(C=C1)NC2=CC=CC=C2
#inchikey OUBMGJOQLXMSNT-UHFFFAOYSA-N
#pubchem_id 7573
#mb_accession UF413701,UF413702

>ms2
80.049700 5642.700000
81.057700 7653.600000
103.054700 21625.900000
107.072800 2853.200000
120.081200 1845268.500000
129.070500 45143.200000
143.086100 8472.100000
145.089300 4259.200000
157.101900 5344.600000
165.070600 5010.000000
166.077800 2771.900000
178.078500 162200.500000
180.081600 67293.300000
181.101800 6013.500000
182.097300 17197.800000
183.117700 10491.800000
192.094300 5760.700000
193.102100 212846.600000
194.097400 43754.100000
195.105100 269940.900000
210.128700 125617.700000
227.155200 1273757.000000

>ms2
77.038800 23222.300000
80.049800 6894.900000
81.057700 4159.900000
103.054600 75539.200000
107.073400 11881.100000
118.065500 7796.600000
120.081200 2642160.200000
129.070400 33754.200000
143.086100 7214.300000
145.088600 4676.100000
155.086100 22680.000000
165.070500 13916.400000
166.078500 9933.000000
168.081600 8236.000000
178.078400 266305.200000
180.081400 347060.900000
183.117700 2840.300000
193.102100 56561.500000
194.097200 216736.900000
195.105100 166688.300000
208.112800 17710.000000
210.128600 12760.200000
227.155300 32173.100000

