>compound UF18267589
>parentmass 409.137
>ionization [M+H]+
>formula C20H19F3N2O4
>rt 1601.340000
>profile orbitrap
#smiles_iso C/C(=N\OCC1=CC=CC=C1/C(=N\OC)/C(=O)OC)/C2=CC(=CC=C2)C(F)(F)F
#smiles_can CC(=NOCC1=CC=CC=C1C(=NOC)C(=O)OC)C2=CC(=CC=C2)C(F)(F)F
#inchikey ONCZDRURRATYFI-TVJDWZFNSA-N
#pubchem_id 11664966
#mb_accession UF401201,UF401202

>ms2
79.054300 5488.100000
89.038600 15496.600000
90.046700 5434.800000
91.054200 115328.100000
103.054300 17466.100000
105.069900 65150.300000
115.054100 8821.700000
116.049500 622324.300000
117.057300 153618.000000
118.065100 159562.000000
119.049100 40139.700000
119.060400 6493.400000
128.049800 6772.500000
130.065200 75600.500000
131.072900 618505.900000
132.044300 115460.100000
132.080700 191290.000000
133.052200 9199.900000
134.060100 8567.900000
143.036700 54474.100000
144.044400 6893.000000
145.025900 440827.800000
146.060000 332758.500000
147.067900 109124.000000
148.075800 14685.400000
159.041500 15014.200000
161.047200 69519.500000
173.032200 245384.700000
174.055000 11496.000000
175.063000 22554.400000
178.086100 15590.000000
186.052500 1021939.800000
188.096800 9941.500000
188.109200 5644.800000
206.081300 91900.900000

>ms2
79.054200 14215.100000
89.038600 248998.000000
90.046400 131025.300000
91.054200 307295.600000
103.054300 42596.700000
105.069900 40919.300000
115.054400 13256.700000
116.049500 776524.600000
117.057300 385589.100000
118.065100 269515.400000
119.049200 32391.800000
119.060300 6425.900000
128.049300 11739.300000
130.065100 342446.100000
131.072900 511609.000000
132.044400 175850.800000
132.080800 76207.700000
133.052200 17181.800000
134.060100 8633.600000
143.036700 41937.000000
144.044700 5875.000000
145.026000 1744154.100000
146.060000 146758.500000
147.067800 30721.700000
148.075300 11019.100000
159.041800 24699.900000
161.047100 55603.700000
173.032200 144375.200000
186.052600 169078.600000

