>compound UF18067410
>parentmass 136.0215
>ionization [M+H]+
>formula C7H5NS
>rt 1269.240000
>profile orbitrap
#smiles_iso C1=CC=C2C(=C1)N=CS2
#smiles_can C1=CC=C2C(=C1)N=CS2
#inchikey IOJUPLGTWVMSFF-UHFFFAOYSA-N
#pubchem_id 7222
#mb_accession UF420801,UF420802

>ms2peaks
77.038500 1696.500000
105.033800 6964.200000
109.011000 12253.800000
136.021900 1673063.200000

>ms2peaks
77.038800 29896.300000
105.033900 5125.200000
109.011000 246349.300000
136.021900 1511429.100000

