>compound UF19812931
>parentmass 152.1434
>ionization [M+H]+
>formula C10H17N
>rt 939.420000
>profile orbitrap
#smiles_iso C1C2CC3CC1CC(C2)(C3)N
#smiles_can C1C2CC3CC1CC(C2)(C3)N
#inchikey DKNWSYNQZKUICI-UHFFFAOYSA-N
#pubchem_id 2130
#mb_accession UF414701,UF414702

>ms2
135.117400 195225.200000
152.144100 48288.400000

>ms2
135.117300 220423.600000
152.144100 4863.900000

