>compound UF19917034
>parentmass 189.1022
>ionization [M+H]+
>formula C11H12N2O
>rt 1017.660000
>profile orbitrap
#smiles_iso CC1=CC(=O)N(N1C)C2=CC=CC=C2
#smiles_can CC1=CC(=O)N(N1C)C2=CC=CC=C2
#inchikey VEQOALNAAJBPNY-UHFFFAOYSA-N
#pubchem_id 2206
#mb_accession UF406801,UF406802

>ms2peaks
70.065300 5109.100000
77.038700 10071.400000
81.044900 7424.800000
91.054400 21115.000000
92.049700 2165.100000
93.033600 2362.500000
95.060600 8122.400000
96.044700 5912.400000
96.068400 35878.800000
98.060300 14319.200000
103.054500 6452.200000
104.049700 88202.900000
105.033700 5022.700000
105.045200 2551.600000
105.070200 5197.600000
106.065300 46595.700000
111.055600 3864.500000
115.054500 3513.200000
117.057500 8540.900000
117.070200 19647.400000
118.065400 49628.000000
120.081000 50770.500000
130.065400 57466.500000
131.073200 83200.800000
132.081000 43012.300000
133.052500 8701.000000
133.076400 11706.400000
134.096800 9290.300000
135.055800 3954.900000
144.081100 82394.700000
145.065200 34248.700000
145.076400 6592.000000
145.088600 2815.100000
146.084100 91426.000000
146.096700 26666.600000
147.092000 151658.100000
148.076100 13185.500000
149.071300 10632.200000
157.052500 8318.300000
158.060300 7003.000000
159.091600 2917.500000
160.099700 4869.100000
161.107600 137748.200000
171.092200 2474.700000
172.076300 21186.300000
174.079200 89105.300000
189.102500 1816207.000000

>ms2peaks
70.065200 6603.900000
77.038600 112417.400000
81.044800 27301.600000
91.054300 51320.100000
92.049600 16841.600000
93.033600 7842.000000
95.060500 36527.800000
96.044500 6505.100000
96.068300 71564.400000
98.060200 54977.300000
103.054300 36024.700000
104.049600 285665.800000
105.033700 15832.000000
105.044800 35398.000000
105.070000 18140.800000
106.065200 263694.500000
111.055400 5068.100000
115.054300 34844.700000
117.057500 51214.200000
117.070000 108035.800000
118.065200 129261.000000
120.080900 89854.000000
130.065300 146166.500000
131.073100 130205.500000
132.080900 54125.300000
133.052300 28575.600000
133.076300 15144.400000
134.096500 16226.300000
135.055500 3815.800000
144.081000 104447.100000
145.065000 39384.900000
145.076200 51077.200000
145.089000 5860.100000
146.084000 103433.200000
146.096700 16630.400000
147.091800 214489.800000
148.075900 5649.500000
149.071100 15956.300000
157.052500 25526.800000
158.060400 4239.100000
159.055700 9988.100000
159.091800 9487.600000
160.099600 5777.200000
161.107600 50511.300000
172.076000 19127.800000
174.079000 87798.400000
189.102400 265002.200000

