>compound UF19241275
>parentmass 245.1285
>ionization [M+H]+
>formula C14H16N2O2
>rt 557.940000
>profile orbitrap
#smiles_iso COC1=C(C=CC(=C1)C2=CC(=C(C=C2)N)OC)N
#smiles_can COC1=C(C=CC(=C1)C2=CC(=C(C=C2)N)OC)N
#inchikey JRBJSXQPQWSCCF-UHFFFAOYSA-N
#pubchem_id 8411
#mb_accession UF414001,UF414002

>ms2
181.076400 2733.200000
182.084300 6955.500000
187.087300 42497.500000
198.079400 54030.700000
201.103000 4700.500000
202.106200 26725.800000
213.103000 68751.500000
214.110600 4509.800000
215.082300 57617.100000
230.105800 152356.500000

>ms2
181.076700 6661.100000
182.084400 12518.200000
187.087100 211886.600000
198.079400 36281.200000
202.106200 16310.700000
213.103300 5473.800000
215.082300 20950.400000
230.105700 5972.400000

