>compound UF20607229
>parentmass 146.0116
>ionization [M+H]+
>formula C4H4ClN3O
>rt 218.040000
>profile orbitrap
#smiles_iso C1=NNC(=O)C(=C1N)Cl
#smiles_can C1=NNC(=O)C(=C1N)Cl
#inchikey FEWPCPCEGBPTAL-UHFFFAOYSA-N
#pubchem_id 95827
#mb_accession UF412601,UF412602

>ms2
116.998100 7719.300000
146.012300 422069.000000

>ms2
116.998200 42649.500000
146.012300 168430.900000

