>compound UF21345828
>parentmass 395.0813
>ionization [M+H]+
>formula C19H11F5N2O2
>rt 1609.620000
>profile orbitrap
#smiles_iso C1=CC(=CC(=C1)OC2=C(C=CC=N2)C(=O)NC3=C(C=C(C=C3)F)F)C(F)(F)F
#smiles_can C1=CC(=CC(=C1)OC2=C(C=CC=N2)C(=O)NC3=C(C=C(C=C3)F)F)C(F)(F)F
#inchikey WYEHFWKAOXOVJD-UHFFFAOYSA-N
#pubchem_id 91735
#mb_accession UF401001,UF401002

>ms2peaks
78.033800 4032.500000
95.012800 1071.900000
96.044400 5487.400000
122.023800 5224.100000
140.031800 2508.800000
145.025300 2209.300000
169.052500 15169.200000
172.037000 1758.500000
183.041700 28066.600000
185.051200 7017.500000
190.046500 22538.900000
191.054200 4658.300000
196.036400 1428.600000
197.048100 2321.000000
205.057400 3226.400000
210.052700 25246.000000
213.046500 4778.600000
216.046400 2053.100000
218.041400 35166.700000
219.049300 26439.500000
233.052300 65853.600000
238.047600 182447.500000
246.036300 201233.600000
266.042500 941678.400000
284.053200 57232.400000
335.063500 5776.600000
355.069600 1937.900000
377.071000 23778.500000

>ms2peaks
78.033800 23654.200000
95.012600 1978.000000
96.044400 19805.200000
122.023600 5580.800000
140.031200 3955.600000
145.026000 45742.700000
169.052300 103055.400000
172.036800 6148.300000
183.041600 133448.500000
185.051000 21584.800000
190.046400 123354.500000
191.054600 5656.100000
196.036700 7300.500000
197.047800 2472.200000
205.057500 6349.200000
210.052600 42893.000000
213.046500 4076.100000
216.045200 4270.400000
218.041200 183129.400000
219.049200 4901.800000
233.052500 13827.100000
238.047500 138559.300000
246.036200 102200.900000
266.042500 69252.800000

