>compound UF22036018
>parentmass 297.0556
>ionization [M+H]+
>formula C14H14Cl2N2O
>rt 1280.280000
>profile orbitrap
#smiles_iso C=CCOC(CN1C=CN=C1)C2=C(C=C(C=C2)Cl)Cl
#smiles_can C=CCOC(CN1C=CN=C1)C2=C(C=C(C=C2)Cl)Cl
#inchikey PZBPKYOVPCNPJY-UHFFFAOYSA-N
#pubchem_id 37175
#mb_accession UF400901,UF400902

>ms2peaks
81.044700 4050.900000
109.075900 9547.100000
158.976200 46021.700000
172.991900 8962.500000
176.038600 7200.400000
188.094300 2383.500000
200.986200 3164.300000
255.008100 5993.500000

>ms2peaks
81.044600 82139.400000
109.076000 24536.300000
141.069800 55998.000000
149.014900 7783.400000
158.976100 581375.200000
164.038500 5273.300000
172.991800 52951.700000
176.038700 19775.000000
203.037000 5680.700000

