>compound UF23522753
>parentmass 246.1237
>ionization [M+H]+
>formula C13H15N3O2
>rt 886.680000
>profile orbitrap
#smiles_iso CC1=C(C(=O)N(N1C)C2=CC=CC=C2)NC(=O)C
#smiles_can CC1=C(C(=O)N(N1C)C2=CC=CC=C2)NC(=O)C
#inchikey OIAGWXKSCXPNNZ-UHFFFAOYSA-N
#pubchem_id 65743
#mb_accession UF408201,UF408202

>ms2peaks
77.038600 7006.500000
83.060400 135036.000000
85.076000 5259.600000
94.065200 13729.900000
104.049500 124197.800000
105.044800 1716.900000
145.076200 3886.200000
146.060000 4029.700000
159.091800 27111.100000
172.063100 4050.300000
187.086800 14442.000000
204.113300 30490.200000
228.113300 34763.400000

>ms2peaks
77.038600 22053.700000
83.060400 208758.200000
85.076000 1567.600000
94.065100 17686.700000
104.049500 112475.800000
105.044900 9045.100000
145.076100 2944.300000
146.060100 3565.500000
159.091900 17066.100000
172.063200 2543.400000

