>compound UF23368002
>parentmass 282.1448
>ionization [M+H]+
>formula C13H19N3O4
>rt 1677.240000
>profile orbitrap
#smiles_iso CCC(CC)NC1=C(C=C(C(=C1[N+](=O)[O-])C)C)[N+](=O)[O-]
#smiles_can CCC(CC)NC1=C(C=C(C(=C1[N+](=O)[O-])C)C)[N+](=O)[O-]
#inchikey CHIFOSRWCNZCFN-UHFFFAOYSA-N
#pubchem_id 38479
#mb_accession UF405901,UF405902

>ms2peaks
77.038600 2209.900000
78.033800 12694.500000
79.041800 1859.800000
80.049500 15365.700000
81.057300 2718.700000
90.034000 1616.400000
91.041700 36319.500000
92.049500 17254.300000
93.044900 3335.000000
93.057300 3795.000000
96.044500 3234.500000
103.041700 12234.400000
104.037100 2773.300000
104.049400 3963.100000
105.044700 8935.800000
106.028700 2298.000000
106.065200 3731.400000
107.060200 4158.700000
110.060000 2390.700000
117.044800 6265.000000
117.057400 2191.400000
118.052600 45721.100000
118.065300 2435.500000
119.060400 44293.500000
120.019600 3430.500000
120.044400 7453.800000
120.068200 4760.700000
121.039400 4700.700000
122.047700 3282.700000
126.055000 8152.900000
129.044800 5066.300000
130.040400 2291.700000
130.052600 9866.000000
131.047800 7073.200000
131.060300 13399.600000
132.055600 5508.000000
133.039700 2709.700000
134.060100 4500.300000
135.055300 8478.800000
136.063500 2933.200000
147.055400 39211.400000
148.063100 59525.100000
149.058400 22983.600000
160.050600 12548.100000
163.050000 2806.400000
164.058300 10014.700000
176.045600 4481.300000
177.053300 33648.900000
178.061200 40528.400000
188.107300 2935.300000
194.056100 80070.100000
212.066700 31775.000000

>ms2peaks
77.038500 8079.200000
78.033800 14316.700000
79.041700 1774.100000
80.049400 10680.400000
81.057100 1310.800000
90.033900 4277.500000
91.041600 26430.200000
92.049400 34265.800000
93.044600 3984.300000
93.057300 6299.800000
96.044400 2502.500000
103.041600 18677.300000
104.036600 3538.100000
104.049500 13766.100000
105.044600 23979.400000
106.028500 1852.100000
106.065000 3189.600000
107.060200 2832.400000
110.060000 5352.500000
117.044700 8497.500000
117.057200 5569.300000
118.052600 10372.800000
118.065200 6656.600000
119.060300 52332.000000
120.019200 5572.700000
120.044300 8320.200000
120.068200 11843.100000
121.039700 3662.600000
122.047400 2836.300000
126.054400 1876.100000
129.044700 9121.200000
130.040000 6181.800000
130.052600 4066.300000
131.047600 2502.800000
131.060300 16158.200000
132.055600 7326.200000
133.039800 4296.200000
134.060100 2105.600000
135.055200 4471.900000
136.063000 2595.300000
147.055300 15671.300000
148.063100 43261.000000
149.058600 2993.100000
160.050800 5425.200000
163.050000 2470.100000
164.058400 1962.100000
176.046000 2567.000000
177.053300 3690.300000
178.061000 8976.100000
194.055700 2742.300000

