>compound UF25932027
>parentmass 240.0786
>ionization [M+H]+
>formula C12H14ClNO2
>rt 1436.940000
>profile orbitrap
#smiles_iso CC1(CON(C1=O)CC2=CC=CC=C2Cl)C
#smiles_can CC1(CON(C1=O)CC2=CC=CC=C2Cl)C
#inchikey KIEDNEWSYUYDSN-UHFFFAOYSA-N
#pubchem_id 54778
#mb_accession UF405601,UF405602

>ms2
89.038400 12337.600000
125.015100 6166463.000000
240.078300 15745.900000

>ms2
89.038500 319249.700000
98.999500 133909.400000
125.015100 7673037.000000

