>compound UF26503490
>parentmass 271.1077
>ionization [M+H]+
>formula C15H14N2O3
>rt 1174.920000
>profile orbitrap
#smiles_iso C1=CC=C2C(=C1)C(C(C3=CC=CC=C3N2C(=O)N)O)O
#smiles_can C1=CC=C2C(=C1)C(C(C3=CC=CC=C3N2C(=O)N)O)O
#inchikey PRGQOPPDPVELEG-UHFFFAOYSA-N
#pubchem_id 83852
#mb_accession UF410901,UF410902

>ms2
180.080900 65128.100000
182.096600 20705.700000
210.091600 15940.300000

>ms2
180.080900 113730.700000
182.096600 12213.200000
210.091200 1632.700000

