>compound UF26998420
>parentmass 151.0866
>ionization [M+H]+
>formula C8H10N2O
>rt 137.520000
>profile orbitrap
#smiles_iso CC(=O)NC1=CC=C(C=C1)N
#smiles_can CC(=O)NC1=CC=C(C=C1)N
#inchikey CHMBIJAOCISYEW-UHFFFAOYSA-N
#pubchem_id 31230
#mb_accession UF413501,UF413502

>ms2
82.065500 2118.900000
92.049900 45515.700000
93.057600 3003.800000
108.068600 16536.900000
109.076400 681447.500000
110.060400 15990.000000
133.076600 44041.200000
151.087200 384471.200000

>ms2
82.065500 11408.800000
92.049800 290975.000000
93.057700 26505.100000
108.068600 56741.900000
109.076400 609891.000000
110.060400 19105.200000
133.076600 20227.800000
151.087300 33410.500000

