>compound UF27501584
>parentmass 250.0645
>ionization [M+H]+
>formula C11H11N3O2S
>rt 759.180000
>profile orbitrap
#smiles_iso C1=CC=NC(=C1)NS(=O)(=O)C2=CC=C(C=C2)N
#smiles_can C1=CC=NC(=C1)NS(=O)(=O)C2=CC=C(C=C2)N
#inchikey GECHUMIMRBOMGK-UHFFFAOYSA-N
#pubchem_id 5336
#mb_accession UF408801,UF408802

>ms2peaks
92.049500 72510.200000
93.044400 2184.100000
93.057400 5509.200000
94.052500 6535.400000
95.060400 38648.500000
108.044500 89989.500000
110.060200 2375.200000
156.011600 53309.900000
157.006800 7437.200000
184.087200 42965.600000
250.065000 3185.700000

>ms2peaks
92.049500 134311.400000
93.044800 5656.300000
93.057400 9174.900000
94.052700 13965.200000
95.060400 50336.700000
108.044400 116721.900000
110.060200 9764.900000
156.011600 2323.700000
157.006300 1437.300000
184.087200 28039.000000

