>compound UF27103893
>parentmass 309.1121
>ionization [M+H]+
>formula C19H16O4
>rt 1482.420000
>profile orbitrap
#smiles_iso CC(=O)CC(C1=CC=CC=C1)C2=C(C3=CC=CC=C3OC2=O)O
#smiles_can CC(=O)CC(C1=CC=CC=C1)C2=C(C3=CC=CC=C3OC2=O)O
#inchikey PJVWKTKQMONHTI-UHFFFAOYSA-N
#pubchem_id 54678486
#mb_accession UF404201,UF404202

>ms2peaks
77.038400 6415.300000
91.054200 10410.100000
95.049200 6720.200000
103.054000 6251.500000
105.069800 3949.700000
121.028300 123268.600000
129.069900 47302.900000
131.049100 62394.200000
147.080400 123823.000000
155.085500 76819.700000
157.028400 19105.800000
163.039000 870565.300000
165.069500 7986.300000
167.085500 23093.800000
173.023300 164106.300000
175.039100 9566.900000
178.077500 9133.500000
179.085500 15746.000000
183.080400 204963.400000
189.054800 21408.200000
191.033900 177712.700000
193.076100 3044.100000
195.080400 19310.300000
205.065000 21491.300000
207.080700 6384.500000
223.075300 117895.700000
233.059700 40240.600000
249.054200 6011.000000
251.070200 1209423.000000

>ms2peaks
77.038500 71732.400000
91.054200 37297.900000
95.049100 43057.300000
103.054200 66697.800000
105.069900 3868.300000
121.028400 498716.400000
128.062000 13356.000000
129.069900 32656.000000
131.049100 56151.500000
147.080400 12385.200000
155.085500 191247.900000
157.028400 24886.000000
163.039000 268397.700000
165.070000 34502.800000
167.085600 68566.300000
173.023400 84189.200000
175.038900 2163.300000
178.077700 66089.400000
179.085500 11153.900000
183.080500 58036.900000
189.054600 5771.000000
191.034000 87507.900000
193.076400 5001.300000
195.080600 10080.600000
205.064900 33482.800000
207.080100 2862.000000
223.075400 73702.500000
233.060000 25881.200000
249.054900 9253.500000
251.070300 46265.700000

