>compound UF29553651
>parentmass 189.9821
>ionization [M+H]+
>formula C7H5Cl2NO
>rt 858.360000
>profile orbitrap
#smiles_iso C1=CC(=C(C(=C1)Cl)C(=O)N)Cl
#smiles_can C1=CC(=C(C(=C1)Cl)C(=O)N)Cl
#inchikey JHSPCUHPSIUQRB-UHFFFAOYSA-N
#pubchem_id 16183
#mb_accession UF405101,UF405102

>ms2peaks
139.005400 2018.600000
146.976300 4077.300000
171.971500 22742.800000
172.955400 384803.400000
189.981900 81234.600000

>ms2peaks
139.005800 5783.700000
171.971400 22702.100000
172.955400 362510.700000
189.982000 3185.400000

