>compound UF30384090
>parentmass 404.1241
>ionization [M+H]+
>formula C22H17N3O5
>rt 1443.660000
>profile orbitrap
#smiles_iso CO/C=C(\C1=CC=CC=C1OC2=NC=NC(=C2)OC3=CC=CC=C3C#N)/C(=O)OC
#smiles_can COC=C(C1=CC=CC=C1OC2=NC=NC(=C2)OC3=CC=CC=C3C#N)C(=O)OC
#inchikey WFDXOXNFNRHQEC-GHRIWEEISA-N
#pubchem_id 3034285
#mb_accession UF402201,UF402202

>ms2peaks
129.044300 2647.200000
133.051900 2236.500000
134.059900 7328.700000
156.044500 3937.600000
171.055300 2158.500000
172.039000 5477.200000
183.055100 15540.100000
188.103300 5308.500000
199.049900 3548.300000
200.034500 3883.700000
245.094400 3848.800000
272.081900 5651.900000
273.089500 10751.300000
300.077400 5051.500000
328.071900 16041.600000
344.103000 13223.200000

>ms2peaks
129.044600 13879.200000
133.052000 8116.200000
134.060000 8281.100000
156.044300 42628.800000
171.055100 13282.400000
172.039200 73309.800000
183.055000 12458.000000
199.050300 9999.800000
200.033900 17486.100000
245.094400 7318.400000
272.081800 19922.600000
273.091000 5296.200000
300.076600 10237.000000
328.071300 13340.500000

