>compound UF31321120
>parentmass 279.091
>ionization [M+H]+
>formula C12H14N4O2S
>rt 942.180000
>profile orbitrap
#smiles_iso CC1=CC(=NC(=N1)NS(=O)(=O)C2=CC=C(C=C2)N)C
#smiles_can CC1=CC(=NC(=N1)NS(=O)(=O)C2=CC=C(C=C2)N)C
#inchikey ASWVTGNCAZCNNR-UHFFFAOYSA-N
#pubchem_id 5327
#mb_accession UF409901,UF409902

>ms2
80.049500 4906.600000
81.044800 11314.200000
92.049500 374635.000000
93.057300 13244.400000
94.065400 3432.700000
95.060400 40026.200000
105.044900 1949.800000
107.060400 1803.400000
108.044400 479663.100000
110.060100 14629.400000
120.055800 8596.400000
122.071400 43635.800000
123.079300 20555.800000
124.087000 605467.800000
125.071000 4671.600000
149.023500 41369.800000
156.011500 219413.500000
186.033300 210908.900000
196.086700 1683.000000
204.044000 118631.700000
213.113700 91756.600000
279.091500 7824.700000

>ms2
80.049600 31148.500000
81.044800 13043.200000
92.049500 439275.200000
93.057400 15496.800000
94.064900 2078.600000
95.060400 53709.100000
105.044800 2843.800000
107.060500 26779.200000
108.044500 398292.000000
110.060100 32012.600000
120.055800 4697.900000
122.071500 18061.800000
123.079300 13474.000000
124.087000 459743.300000
125.071000 28296.500000
149.023600 17297.100000
156.011600 8638.100000
186.033500 10138.100000
196.087300 13114.800000
204.044000 6543.100000
213.113700 28396.600000

