>compound UF31776253
>parentmass 137.0709
>ionization [M+H]+
>formula C7H8N2O
>rt 175.680000
>profile orbitrap
#smiles_iso C1=CC(=CC=C1C(=O)N)N
#smiles_can C1=CC(=CC=C1C(=O)N)N
#inchikey QIKYZXDTTPVVAC-UHFFFAOYSA-N
#pubchem_id 76079
#mb_accession UF413601,UF413602

>ms2peaks
77.038900 1734.500000
92.049900 24869.800000
94.065500 215533.600000
110.060400 1398.700000
120.044900 1073724.000000
137.071600 168616.500000

>ms2peaks
77.038900 22995.200000
81.070200 2271.800000
92.049800 234854.100000
94.065500 192121.800000
110.060500 22168.300000
120.044900 832464.800000

