>compound UF32599133
>parentmass 399.0969
>ionization [M+H]+
>formula C15H18N4O7S
>rt 1336.500000
>profile orbitrap
#smiles_iso CCCOC1=NN(C(=O)N1C)C(=O)NS(=O)(=O)C2=CC=CC=C2C(=O)OC
#smiles_can CCCOC1=NN(C(=O)N1C)C(=O)NS(=O)(=O)C2=CC=CC=C2C(=O)OC
#inchikey JTHMVYBOQLDDIY-UHFFFAOYSA-N
#pubchem_id 177355
#mb_accession UF401401,UF401402

>ms2
77.038500 5206.700000
79.054300 2076.500000
90.033800 4805.300000
105.045000 2087.600000
116.045400 67723.900000
120.020700 2833.300000
135.044100 47085.800000
199.006100 12119.900000
209.985600 9999.000000

>ms2
77.038500 18513.100000
79.054300 1890.700000
90.033800 16471.200000
105.044600 8638.100000
116.045400 45813.800000
120.020300 2367.600000
135.043900 10633.300000

