>compound UF32608417
>parentmass 362.1511
>ionization [M+H]+
>formula C18H20FN3O4
>rt 951.480000
>profile orbitrap
#smiles_iso CC1COC2=C3N1C=C(C(=O)C3=CC(=C2N4CCN(CC4)C)F)C(=O)O
#smiles_can CC1COC2=C3N1C=C(C(=O)C3=CC(=C2N4CCN(CC4)C)F)C(=O)O
#inchikey GSDSWSVVBLHKDQ-UHFFFAOYSA-N
#pubchem_id 4583
#mb_accession UF407501,UF407502

>ms2peaks
70.065100 17337.500000
72.080800 12808.800000
82.065100 3203.300000
84.080900 9776.900000
150.034500 1595.000000
171.055400 2305.800000
178.030200 6113.500000
179.038000 11652.900000
180.045800 2996.200000
188.050500 1422.500000
192.046000 4545.300000
193.040900 10630.800000
194.024500 2051.700000
194.049100 1695.200000
194.061200 3003.500000
195.056600 2333.900000
199.050700 10821.800000
200.058100 2332.200000
202.066700 6202.000000
203.038500 2014.900000
203.061800 2099.300000
204.045900 4400.300000
205.041100 24387.300000
205.077500 30611.500000
206.048200 1393.300000
217.041500 3886.400000
218.048600 4438.400000
218.061000 2116.200000
219.056700 63668.600000
219.069400 5784.600000
220.064600 10011.400000
220.077100 4097.700000
221.072300 102616.700000
231.057200 2063.100000
232.064700 1954.500000
233.072400 34946.600000
233.085500 9223.700000
234.079500 2063.700000
243.093800 2138.900000
245.072200 10505.900000
247.088100 42151.200000
253.121200 1681.200000
254.093800 1822.000000
261.103600 898721.200000
298.156600 5904.600000
316.146200 27516.100000
318.161700 86038.800000
344.141200 34861.100000
362.151600 17934.300000

>ms2peaks
70.065100 12026.100000
72.080900 11638.100000
82.065200 3320.600000
84.081200 2074.100000
150.035200 32053.700000
171.055700 16857.100000
177.045900 2545.900000
178.030200 37483.100000
179.038000 59441.800000
180.045900 15590.700000
188.051000 17539.100000
192.045900 21567.200000
193.041300 32381.200000
194.025400 5582.100000
194.049100 32824.800000
194.061600 10901.800000
195.056800 5479.100000
199.050700 18236.000000
200.058000 6706.700000
202.066500 2359.200000
203.038000 5937.000000
203.062100 14119.400000
204.045900 18104.600000
205.041200 82345.600000
205.077600 30987.400000
206.049100 6016.800000
217.041200 5948.900000
218.049000 11262.500000
218.062100 4157.300000
219.056800 83120.800000
219.069200 4341.600000
220.064700 7508.500000
220.077200 2230.100000
221.072400 107275.700000
231.056900 14857.000000
232.065100 3990.700000
233.072400 7063.400000
233.085600 1928.200000
234.080600 3758.500000
243.092600 1869.600000
245.072600 10029.000000
247.088300 15547.800000
253.121500 4831.100000
254.094200 1259.100000
261.103900 70051.900000

