>compound UF33859749
>parentmass 153.1022
>ionization [M+H]+
>formula C8H12N2O
>rt 745.980000
>profile orbitrap
#smiles_iso CC1=CC(=O)NC(=N1)C(C)C
#smiles_can CC1=CC(=O)NC(=N1)C(C)C
#inchikey AJPIUNPJBFBUKK-UHFFFAOYSA-N
#pubchem_id 135444498
#mb_accession UF419501,UF419502

>ms2peaks
70.065300 53820.800000
84.044600 626769.000000
108.080800 2856.800000
112.075700 2054.000000
136.076200 2339.000000
138.079400 6126.500000
153.102600 1738795.400000

>ms2peaks
70.065200 123897.900000
84.044500 822250.900000
112.076000 2578.900000
138.079200 15752.100000
153.102600 345427.500000

