>compound UF34631447
>parentmass 213.0789
>ionization [M+H]+
>formula C10H13ClN2O
>rt 1376.760000
>profile orbitrap
#smiles_iso CC1=C(C=C(C=C1)NC(=O)N(C)C)Cl
#smiles_can CC1=C(C=C(C=C1)NC(=O)N(C)C)Cl
#inchikey JXCGFZXSOMJFOA-UHFFFAOYSA-N
#pubchem_id 27375
#mb_accession UF400701,UF400702

>ms2
72.044200 559377.400000
125.015300 2326.900000
140.026100 67330.100000
153.021400 2823.900000
168.020900 30807.700000
213.078900 26000.100000

>ms2
72.044200 1136809.400000
125.015200 37014.900000
140.026100 182581.200000
153.021500 12490.200000
168.021000 13411.800000

