>compound UF36481598
>parentmass 531.156
>ionization [M+H]+
>formula C26H28Cl2N4O4
>rt 1309.620000
>profile orbitrap
#smiles_iso CC(=O)N1CCN(CC1)C2=CC=C(C=C2)OC[C@H]3CO[C@](O3)(CN4C=CN=C4)C5=C(C=C(C=C5)Cl)Cl
#smiles_can CC(=O)N1CCN(CC1)C2=CC=C(C=C2)OCC3COC(O3)(CN4C=CN=C4)C5=C(C=C(C=C5)Cl)Cl
#inchikey XMAYWYJOQHXEEK-OZXSUGGESA-N
#pubchem_id 456201
#mb_accession UF410001,UF410002

>ms2
70.065100 5886.900000
71.060400 11776.100000
81.044800 33047.800000
82.052600 195865.600000
83.060400 3997.400000
86.060100 12993.000000
109.039700 1741.000000
112.075800 80501.800000
118.064800 3645.800000
120.044500 8132.100000
120.081000 4855.300000
122.060200 18337.700000
130.065500 3254.300000
132.080900 4871.400000
134.060300 12335.900000
135.068000 49779.800000
136.075800 25466.500000
144.080900 13764.100000
146.096600 17709.200000
148.075900 72099.200000
150.023600 2508.500000
158.096600 9222.500000
158.976500 31577.300000
160.075800 7160.900000
162.091500 6218.700000
163.031100 4532.600000
167.026200 10353.300000
167.081800 56209.100000
169.968700 20759.200000
170.976200 2201.200000
172.075900 8665.300000
172.955800 25927.400000
174.091600 55964.200000
177.102500 104973.100000
184.992100 21394.400000
185.963600 46054.600000
186.971500 3117.800000
192.102500 10221.400000
200.107400 6330.000000
203.037300 14417.300000
216.125500 1796.700000
217.133900 26676.800000
220.120900 14591.200000
234.112800 3607.700000
235.144600 8054.900000
238.006100 19501.700000
244.005700 32819.800000
247.063800 8472.800000
255.009100 73407.000000
267.008900 34519.400000
281.024700 6131.800000
378.066800 11611.000000
420.075300 2033.600000
489.145200 5389.600000
531.156300 2143.000000

>ms2
70.065100 20776.200000
71.060400 7347.800000
81.044800 74945.400000
82.052600 179068.600000
83.060200 3726.100000
86.060100 8643.500000
109.039800 5083.100000
112.075800 52501.900000
118.065300 12930.600000
120.044500 56326.200000
120.080900 16414.800000
122.060100 47303.200000
130.065300 14609.600000
132.081000 8167.700000
134.060200 36071.500000
135.068000 15112.600000
136.075900 26047.200000
144.081100 11384.200000
146.096700 16220.400000
148.075900 42290.300000
150.023400 12557.000000
157.968600 17283.700000
158.096700 9008.000000
158.976500 90865.700000
160.075800 8569.500000
162.091600 3323.700000
167.026300 4779.000000
167.081800 33747.400000
169.968700 47156.400000
170.976600 11935.300000
172.075500 3618.100000
172.955800 41143.500000
174.091500 24338.600000
177.102400 16465.900000
184.992300 8617.700000
185.963500 21362.900000
186.971600 2620.700000
192.102000 4862.000000
203.037600 9501.200000
255.009200 18299.700000
267.009000 10342.800000

