>compound UF37808519
>parentmass 281.9986
>ionization [M+H]+
>formula C8H12INO2
>rt 1380.660000
>profile orbitrap
#smiles_iso CCCCNC(=O)OCC#CI
#smiles_can CCCCNC(=O)OCC#CI
#inchikey WYVVKGNFXHOCQV-UHFFFAOYSA-N
#pubchem_id 62097
#mb_accession UF418401,UF418402

>ms2
126.903700 3022.800000
164.920200 1328379.600000

>ms2
126.904400 31826.600000
164.920100 1239471.600000

