>compound UF38806483
>parentmass 207.1492
>ionization [M+H]+
>formula C12H18N2O
>rt 1401.060000
>profile orbitrap
#smiles_iso CC(C)C1=CC=C(C=C1)NC(=O)N(C)C
#smiles_can CC(C)C1=CC=C(C=C1)NC(=O)N(C)C
#inchikey PUIYMUZLKQOUOZ-UHFFFAOYSA-N
#pubchem_id 36679
#mb_accession UF400501,UF400502

>ms2
72.044200 5591375.000000
107.085200 37607.700000
117.069400 19053.300000
120.044300 93159.800000
134.096300 633666.500000
147.091700 41683.500000
162.091400 209802.700000
165.102200 1108594.200000
188.094800 35536.400000
207.149100 459862.900000

>ms2
72.044200 4920122.000000
107.085400 168122.200000
117.069800 67916.600000
120.044300 75980.900000
134.096300 550417.000000
147.091700 83766.600000
162.091500 30233.000000
165.101900 36003.100000

