>compound UF38070853
>parentmass 200.074
>ionization [M+H]+
>formula C9H13NO2S
>rt 1273.980000
>profile orbitrap
#smiles_iso CCNS(=O)(=O)C1=CC=C(C=C1)C
#smiles_can CCNS(=O)(=O)C1=CC=C(C=C1)C
#inchikey OHPZPBNDOVQJMH-UHFFFAOYSA-N
#pubchem_id 6637
#mb_accession UF419701,UF419702

>ms2peaks
91.054500 845677.300000
109.065100 105148.300000
119.060700 1459635.000000
155.016700 50332.900000

>ms2peaks
91.054400 990348.500000
109.065100 24710.300000
119.060700 303930.900000

