>compound UF39724840
>parentmass 232.0524
>ionization [M+H]+
>formula C13H10ClNO
>rt 1596.480000
>profile orbitrap
#smiles_iso C1=CC=C(C(=C1)C=O)NC2=CC=CC=C2Cl
#smiles_can C1=CC=C(C(=C1)C=O)NC2=CC=CC=C2Cl
#inchikey DAAHPDZFLSFYPJ-UHFFFAOYSA-N
#pubchem_id 53423421
#mb_accession UF409001,UF409002

>ms2peaks
168.080800 1801.700000
178.065500 3760.500000
179.072900 3409.300000
180.081000 28386.500000
196.075900 6288.100000
214.042000 409597.300000

>ms2peaks
168.081100 5951.300000
178.065300 61106.900000
179.073100 42516.800000
180.080900 45001.900000
196.076000 9705.700000
214.041900 219383.600000

