>compound UF40947431
>parentmass 312.0665
>ionization [M+H]+
>formula C14H15Cl2N3O
>rt 1538.400000
>profile orbitrap
#smiles_iso C1CC1(C(CC2=CC=CC=C2Cl)(CN3C=NC=N3)O)Cl
#smiles_can C1CC1(C(CC2=CC=CC=C2Cl)(CN3C=NC=N3)O)Cl
#inchikey HHUQPWODPBDTLI-UHFFFAOYSA-N
#pubchem_id 119361
#mb_accession UF406101,UF406102

>ms2peaks
70.039800 186663.200000
116.062000 1976.000000
125.015100 181660.900000
139.030800 13098.500000
142.077800 4762.300000
151.030900 11247.300000
153.070000 5696.300000
154.077700 10131.800000
177.046300 3248.400000
189.046100 6903.800000

>ms2peaks
70.039800 143176.100000
116.061900 8192.500000
125.015100 263800.200000
139.030600 4298.200000
142.077600 8874.400000
151.031000 1596.100000
153.069900 10574.000000
154.077500 9611.500000

