>compound UF42585350
>parentmass 316.1076
>ionization [M+H]+
>formula C16H15F2N3Si
>rt 1535.100000
>profile orbitrap
#smiles_iso C[Si](CN1C=NC=N1)(C2=CC=C(C=C2)F)C3=CC=C(C=C3)F
#smiles_can C[Si](CN1C=NC=N1)(C2=CC=C(C=C2)F)C3=CC=C(C=C3)F
#inchikey FQKUGOMFVDPBIZ-UHFFFAOYSA-N
#pubchem_id 73675
#mb_accession UF401101,UF401102

>ms2peaks
70.039800 215334.800000
79.000900 342687.000000
79.054200 97755.900000
80.996600 192801.100000
91.054200 208372.700000
95.049100 109189.600000
105.044600 418973.300000
105.069800 489244.700000
109.044600 166512.900000
125.021600 206791.400000
127.012300 176948.200000
129.070000 23099.400000
131.059800 48734.000000
141.016600 340956.200000
141.069900 234768.000000
143.012200 59396.200000
149.021900 36159.000000
151.037300 537780.400000
153.069900 424155.900000
155.060500 33275.000000
157.027900 444727.900000
159.007100 33258.700000
164.062600 57656.200000
165.069800 6851366.500000
166.077600 924478.600000
169.047800 1049896.625000
171.043600 506781.200000
175.022000 34893.400000
179.085400 202722.400000
181.075800 84334.400000
193.076200 41382.900000
199.037600 120804.700000
217.047900 165308.200000
219.043500 1157715.500000
225.053100 24413.600000
227.068700 322340.900000
231.043300 59073.400000
232.051100 77832.400000
245.059200 47763.600000
245.079300 158544.600000
247.074800 347004.900000
265.085700 20663.600000

>ms2peaks
70.039900 103944.800000
79.001000 147625.500000
79.054200 169233.800000
80.996600 66629.200000
91.054200 669570.600000
95.049100 95486.800000
105.044700 345235.200000
105.069800 370061.000000
109.044700 744239.600000
125.021700 245596.000000
127.012300 179772.100000
129.070100 18770.600000
131.060100 13557.600000
141.016700 231132.600000
141.070000 71322.700000
143.012600 27901.900000
149.021900 85821.200000
151.037400 152472.900000
152.062100 720195.900000
153.069900 274534.700000
155.060600 67851.100000
157.028000 275638.100000
159.007400 12351.600000
164.062200 292180.200000
165.069900 3758752.800000
166.077500 61244.800000
167.032400 196983.843800
169.048000 207843.000000
171.044200 38601.200000
175.022400 24710.600000
179.085600 73249.400000
181.075900 28519.600000
185.076100 345862.200000
199.037900 95695.200000
217.028400 52622.000000
217.048200 112451.500000
219.043700 568005.600000
225.053300 11300.000000
227.068700 36498.000000
231.043800 25108.100000
232.051300 9952.400000
245.079300 12171.500000

