>compound UF42510573
>parentmass 278.1055
>ionization [M+H]+
>formula C14H16ClN3O
>rt 1380.540000
>profile orbitrap
#smiles_iso CC1=C(C(=CC=C1)C)N(CN2C=CC=N2)C(=O)CCl
#smiles_can CC1=C(C(=CC=C1)C)N(CN2C=CC=N2)C(=O)CCl
#inchikey STEPQTYSZVCJPV-UHFFFAOYSA-N
#pubchem_id 49384
#mb_accession UF403601,UF403602

>ms2peaks
76.978800 2479.800000
134.096300 411586.000000

>ms2peaks
76.978900 2523.900000
134.096400 265320.800000

