>compound UF44937109
>parentmass 377.0908
>ionization [M+H]+
>formula C19H12F4N2O2
>rt 1641.360000
>profile orbitrap
#smiles_iso C1=CC(=CC(=C1)OC2=CC=CC(=N2)C(=O)NC3=CC=C(C=C3)F)C(F)(F)F
#smiles_can C1=CC(=CC(=C1)OC2=CC=CC(=N2)C(=O)NC3=CC=C(C=C3)F)C(F)(F)F
#inchikey CWKFPEBMTGKLKX-UHFFFAOYSA-N
#pubchem_id 3294375
#mb_accession UF406501,UF406502

>ms2peaks
123.035400 9222.000000
145.025900 24807.600000
163.036600 1786.700000
173.032300 65398.300000
183.041800 13193.900000
188.050800 3013.700000
190.046500 28418.100000
210.052700 55111.300000
218.041500 12675.800000
236.052100 14941.500000
238.047500 1482326.100000
239.051100 2709.000000
256.058200 547604.800000
270.074700 4481.000000
289.077400 11036.300000
337.078200 2425.100000
359.080300 302680.000000

>ms2peaks
123.035300 58097.800000
145.025900 941827.800000
163.036200 6604.600000
173.032200 234562.800000
183.041700 88464.000000
188.050700 13796.800000
190.046400 149380.500000
210.052500 171449.100000
218.041300 17305.400000
238.047500 483734.900000
239.050900 46066.300000
256.058200 7857.300000
289.077200 5542.200000
359.079700 2780.200000

