>compound UF44277128
>parentmass 232.1081
>ionization [M+H]+
>formula C12H13N3O2
>rt 876.180000
>profile orbitrap
#smiles_iso CC1=C(C(=O)N(N1C)C2=CC=CC=C2)NC=O
#smiles_can CC1=C(C(=O)N(N1C)C2=CC=CC=C2)NC=O
#inchikey WSJBSKRPKADYRQ-UHFFFAOYSA-N
#pubchem_id 72666
#mb_accession UF411301,UF411302

>ms2peaks
77.038600 6548.900000
83.060400 51034.300000
94.065200 10927.400000
104.049500 70643.000000
105.044700 2859.300000
139.050400 1474.700000
145.076000 2175.100000
146.060000 3314.000000
159.092000 6407.400000
187.086800 3242.200000
204.113300 6816.900000
214.097500 8554.400000

>ms2peaks
77.038600 14483.000000
83.060400 19261.400000
94.065200 6774.400000
104.049500 19842.100000
105.044800 7420.100000

