>compound UF45258415
>parentmass 361.201
>ionization [M+H]+
>formula C21H28O5
>rt 1321.020000
>profile orbitrap
#smiles_iso C[C@]12CCC(=O)C=C1CC[C@@H]3[C@@H]2C(=O)C[C@]4([C@H]3CC[C@@]4(C(=O)CO)O)C
#smiles_can CC12CCC(=O)C=C1CCC3C2C(=O)CC4(C3CCC4(C(=O)CO)O)C
#inchikey MFYSYFVPBJMHGN-ZPOLXVRWSA-N
#pubchem_id 222786
#mb_accession UF415401,UF415402,UF415701,UF415702,UF423101,UF423102

>ms2
77.038400 12018.700000
79.054100 57323.600000
81.033500 5972.000000
81.069800 77978.500000
83.049000 49356.200000
91.054100 52469.900000
93.069700 197883.100000
95.049100 15159.400000
95.085400 61455.700000
97.064600 133479.700000
105.069700 225927.600000
107.049100 22944.500000
107.085300 186663.600000
109.064600 32450.200000
109.100900 10719.100000
111.044200 3913.500000
115.054100 3924.800000
117.069700 38396.700000
119.085400 134192.000000
121.064600 363169.300000
121.101000 86886.000000
123.080300 77116.800000
128.062100 3351.200000
129.069800 23838.300000
130.077300 6283.200000
131.085300 74637.800000
133.064700 29596.600000
133.101000 70841.700000
135.080300 109197.500000
135.116700 96321.100000
137.096000 15565.100000
139.075300 29461.100000
141.069600 9413.900000
142.077300 5430.500000
143.085400 75326.300000
145.064600 19780.200000
145.101000 252374.600000
147.080300 104099.000000
147.116600 26544.600000
148.087700 26153.200000
149.095900 44403.800000
151.075000 8654.400000
153.090900 4451.000000
155.085400 33004.900000
157.064600 8840.200000
157.101000 60948.600000
159.080300 59237.500000
159.116700 46187.400000
161.059600 6125.700000
161.096000 100453.400000
163.111600 1193742.900000
164.114900 149403.200000
165.091100 8364.900000
167.085300 9592.900000
169.101000 41925.600000
171.080300 29878.400000
171.116700 50076.400000
173.095900 60979.000000
173.132300 15978.900000
175.111600 44995.500000
177.090900 11984.000000
179.084800 6209.200000
179.106600 10158.100000
180.093300 4069.500000
181.100900 30557.400000
183.080300 7993.300000
183.116700 63741.700000
184.088000 4702.600000
185.095900 33254.900000
185.132300 30537.100000
187.075500 5550.100000
187.111500 40410.000000
189.090900 26586.200000
189.127300 46370.500000
191.106400 6691.300000
192.093400 3916.100000
193.101000 15739.100000
194.109600 5008.000000
195.080900 2771.400000
195.116700 45031.800000
197.096200 18281.200000
197.132400 47478.500000
199.111600 37857.100000
199.148000 17024.600000
201.090400 6358.200000
201.127400 23183.800000
203.106400 9946.400000
205.100900 4902.700000
205.122300 3760.500000
206.109000 7032.200000
207.116900 26114.600000
208.125600 3849.500000
209.096500 9559.400000
209.132300 35387.000000
210.103500 5023.500000
211.111600 22532.800000
211.147900 22338.400000
213.127500 31323.100000
215.107300 5866.700000
215.142700 13778.900000
217.121900 7607.000000
219.117100 8807.000000
221.132400 29832.400000
223.111700 27538.400000
223.148000 27203.700000
225.127200 36610.400000
225.164000 18414.500000
227.106200 4052.200000
227.142900 26238.400000
229.122300 8824.700000
229.158200 5016.900000
231.138300 4066.100000
232.124500 5280.700000
233.133000 4081.800000
235.111700 4585.900000
235.148200 10129.600000
237.127400 17949.400000
237.163900 16085.800000
239.142900 54923.500000
239.179700 9265.800000
241.122100 13396.600000
241.158600 88636.800000
242.167700 32219.200000
243.138000 19310.200000
247.148000 9177.800000
249.127100 8048.400000
249.163600 9721.000000
251.143100 14121.600000
253.158700 20842.600000
255.138200 13500.000000
255.174200 31298.600000
257.153600 17431.300000
258.161300 132114.600000
261.163300 5024.200000
263.142300 5780.300000
264.151300 3332.700000
265.158600 34662.600000
267.137700 6448.700000
267.174700 34278.800000
269.153600 41682.800000
269.189000 5144.500000
271.168400 8057.100000
279.174200 9480.700000
281.153500 8471.100000
283.169400 30160.400000
284.177100 74084.200000
285.148100 8710.300000
295.170200 9806.000000
297.185200 8696.100000
299.163600 38148.900000
300.172000 9898.300000
301.180100 19080.800000
307.169900 7141.800000
313.179900 8269.900000
325.179800 8693.800000
343.190700 5819.200000
361.200500 9474.700000

>ms2
77.038400 96936.400000
79.054000 336756.200000
81.033200 14749.300000
81.069700 260226.500000
83.048900 240233.000000
91.054000 509688.300000
93.069600 624968.100000
95.049000 56122.200000
95.085300 148433.100000
97.064600 432317.100000
105.069600 894723.800000
107.048900 130816.000000
107.085300 466560.300000
109.064600 103175.500000
109.100900 10807.000000
111.043600 10727.300000
115.054000 75025.800000
117.069600 287548.900000
119.085300 460972.900000
121.064500 886371.800000
121.101000 140492.700000
123.080200 139735.000000
128.061800 115678.900000
129.069700 175884.800000
130.077400 131571.000000
131.085300 256624.300000
133.064500 114667.900000
133.100900 133317.300000
135.080200 134947.500000
135.116400 57445.600000
137.095600 11420.700000
141.069600 83868.400000
142.077500 97123.400000
143.085300 267191.200000
145.064500 78846.100000
145.100900 431411.300000
147.080200 160942.900000
147.116400 28275.200000
148.088000 509183.900000
149.095800 39946.600000
155.085300 147606.100000
157.064500 24888.300000
157.100900 145473.100000
159.080300 110153.900000
159.116700 65020.900000
161.095800 140285.500000
163.111400 861936.900000
164.114800 11618.900000
167.085300 74402.200000
169.101000 120597.800000
171.080100 60844.100000
171.116700 64837.300000
173.095600 56509.500000
173.132500 12275.400000
175.111600 31641.500000
179.085100 59274.900000
180.093000 47193.600000
181.100700 100734.200000
183.080200 20605.500000
183.116500 89190.800000
184.088100 16511.900000
185.095800 42512.900000
185.132200 60073.100000
187.111400 25700.900000
189.127400 40671.700000
192.093200 26906.400000
193.100900 54254.400000
194.108800 21598.800000
195.079900 24219.600000
195.116400 72542.600000
197.095900 35302.600000
197.132200 62289.600000
199.111200 42212.600000
199.147600 28636.800000
201.126900 18535.400000
205.100800 26970.600000
206.109400 30318.300000
207.116400 39013.900000
208.124500 15800.200000
209.096300 24011.600000
209.131900 47379.300000
210.103800 14688.100000
211.111200 32846.600000
211.147700 12332.800000
213.127300 19783.300000
215.142700 14813.700000
221.132300 24820.300000
223.111200 14314.200000
223.147600 23278.500000
225.126800 78327.700000
227.142600 63740.900000
237.126300 16078.000000
239.142800 20338.900000
241.158300 92743.700000
242.167200 17126.300000
243.137600 263348.800000
251.142900 27248.800000
255.173200 12734.300000
257.153600 14134.200000
258.161300 141992.400000
269.153200 63435.800000

>ms2
77.038400 12018.700000
79.054100 57323.600000
81.033500 5972.000000
81.069800 77978.500000
83.049000 49356.200000
91.054100 52469.900000
93.069700 197883.100000
95.049100 15159.400000
95.085400 61455.700000
97.064600 133479.700000
105.069700 225927.600000
107.049100 22944.500000
107.085300 186663.600000
109.064600 32450.200000
109.100900 10719.100000
111.044200 3913.500000
115.054100 3924.800000
117.069700 38396.700000
119.085400 134192.000000
121.064600 363169.300000
121.101000 86886.000000
123.080300 77116.800000
128.062100 3351.200000
129.069800 23838.300000
130.077300 6283.200000
131.085300 74637.800000
133.064700 29596.600000
133.101000 70841.700000
135.080300 109197.500000
135.116700 96321.100000
137.096000 15565.100000
139.075300 29461.100000
141.069600 9413.900000
142.077300 5430.500000
143.085400 75326.300000
145.064600 19780.200000
145.101000 252374.600000
147.080300 104099.000000
147.116600 26544.600000
148.087700 26153.200000
149.095900 44403.800000
151.075000 8654.400000
153.090900 4451.000000
155.085400 33004.900000
157.064600 8840.200000
157.101000 60948.600000
159.080300 59237.500000
159.116700 46187.400000
161.059600 6125.700000
161.096000 100453.400000
163.111600 1193742.900000
164.114900 149403.200000
165.091100 8364.900000
167.085300 9592.900000
169.101000 41925.600000
171.080300 29878.400000
171.116700 50076.400000
173.095900 60979.000000
173.132300 15978.900000
175.111600 44995.500000
177.090900 11984.000000
179.084800 6209.200000
179.106600 10158.100000
180.093300 4069.500000
181.100900 30557.400000
183.080300 7993.300000
183.116700 63741.700000
184.088000 4702.600000
185.095900 33254.900000
185.132300 30537.100000
187.075500 5550.100000
187.111500 40410.000000
189.090900 26586.200000
189.127300 46370.500000
191.106400 6691.300000
192.093400 3916.100000
193.101000 15739.100000
194.109600 5008.000000
195.080900 2771.400000
195.116700 45031.800000
197.096200 18281.200000
197.132400 47478.500000
199.111600 37857.100000
199.148000 17024.600000
201.090400 6358.200000
201.127400 23183.800000
203.106400 9946.400000
205.100900 4902.700000
205.122300 3760.500000
206.109000 7032.200000
207.116900 26114.600000
208.125600 3849.500000
209.096500 9559.400000
209.132300 35387.000000
210.103500 5023.500000
211.111600 22532.800000
211.147900 22338.400000
213.127500 31323.100000
215.107300 5866.700000
215.142700 13778.900000
217.121900 7607.000000
219.117100 8807.000000
221.132400 29832.400000
223.111700 27538.400000
223.148000 27203.700000
225.127200 36610.400000
225.164000 18414.500000
227.106200 4052.200000
227.142900 26238.400000
229.122300 8824.700000
229.158200 5016.900000
231.138300 4066.100000
232.124500 5280.700000
233.133000 4081.800000
235.111700 4585.900000
235.148200 10129.600000
237.127400 17949.400000
237.163900 16085.800000
239.142900 54923.500000
239.179700 9265.800000
241.122100 13396.600000
241.158600 88636.800000
242.167700 32219.200000
243.138000 19310.200000
247.148000 9177.800000
249.127100 8048.400000
249.163600 9721.000000
251.143100 14121.600000
253.158700 20842.600000
255.138200 13500.000000
255.174200 31298.600000
257.153600 17431.300000
258.161300 132114.600000
261.163300 5024.200000
263.142300 5780.300000
264.151300 3332.700000
265.158600 34662.600000
267.137700 6448.700000
267.174700 34278.800000
269.153600 41682.800000
269.189000 5144.500000
271.168400 8057.100000
279.174200 9480.700000
281.153500 8471.100000
283.169400 30160.400000
284.177100 74084.200000
285.148100 8710.300000
295.170200 9806.000000
297.185200 8696.100000
299.163600 38148.900000
300.172000 9898.300000
301.180100 19080.800000
307.169900 7141.800000
313.179900 8269.900000
325.179800 8693.800000
343.190700 5819.200000
361.200500 9474.700000

>ms2
77.038400 96936.400000
79.054000 336756.200000
81.033200 14749.300000
81.069700 260226.500000
83.048900 240233.000000
91.054000 509688.300000
93.069600 624968.100000
95.049000 56122.200000
95.085300 148433.100000
97.064600 432317.100000
105.069600 894723.800000
107.048900 130816.000000
107.085300 466560.300000
109.064600 103175.500000
109.100900 10807.000000
111.043600 10727.300000
115.054000 75025.800000
117.069600 287548.900000
119.085300 460972.900000
121.064500 886371.800000
121.101000 140492.700000
123.080200 139735.000000
128.061800 115678.900000
129.069700 175884.800000
130.077400 131571.000000
131.085300 256624.300000
133.064500 114667.900000
133.100900 133317.300000
135.080200 134947.500000
135.116400 57445.600000
137.095600 11420.700000
141.069600 83868.400000
142.077500 97123.400000
143.085300 267191.200000
145.064500 78846.100000
145.100900 431411.300000
147.080200 160942.900000
147.116400 28275.200000
148.088000 509183.900000
149.095800 39946.600000
155.085300 147606.100000
157.064500 24888.300000
157.100900 145473.100000
159.080300 110153.900000
159.116700 65020.900000
161.095800 140285.500000
163.111400 861936.900000
164.114800 11618.900000
167.085300 74402.200000
169.101000 120597.800000
171.080100 60844.100000
171.116700 64837.300000
173.095600 56509.500000
173.132500 12275.400000
175.111600 31641.500000
179.085100 59274.900000
180.093000 47193.600000
181.100700 100734.200000
183.080200 20605.500000
183.116500 89190.800000
184.088100 16511.900000
185.095800 42512.900000
185.132200 60073.100000
187.111400 25700.900000
189.127400 40671.700000
192.093200 26906.400000
193.100900 54254.400000
194.108800 21598.800000
195.079900 24219.600000
195.116400 72542.600000
197.095900 35302.600000
197.132200 62289.600000
199.111200 42212.600000
199.147600 28636.800000
201.126900 18535.400000
205.100800 26970.600000
206.109400 30318.300000
207.116400 39013.900000
208.124500 15800.200000
209.096300 24011.600000
209.131900 47379.300000
210.103800 14688.100000
211.111200 32846.600000
211.147700 12332.800000
213.127300 19783.300000
215.142700 14813.700000
221.132300 24820.300000
223.111200 14314.200000
223.147600 23278.500000
225.126800 78327.700000
227.142600 63740.900000
237.126300 16078.000000
239.142800 20338.900000
241.158300 92743.700000
242.167200 17126.300000
243.137600 263348.800000
251.142900 27248.800000
255.173200 12734.300000
257.153600 14134.200000
258.161300 141992.400000
269.153200 63435.800000

>ms2
77.038400 12018.700000
79.054100 57323.600000
81.033500 5972.000000
81.069800 77978.500000
83.049000 49356.200000
91.054100 52469.900000
93.069700 197883.100000
95.049100 15159.400000
95.085400 61455.700000
97.064600 133479.700000
105.069700 225927.600000
107.049100 22944.500000
107.085300 186663.600000
109.064600 32450.200000
109.100900 10719.100000
111.044200 3913.500000
115.054100 3924.800000
117.069700 38396.700000
119.085400 134192.000000
121.064600 363169.300000
121.101000 86886.000000
123.080300 77116.800000
128.062100 3351.200000
129.069800 23838.300000
130.077300 6283.200000
131.085300 74637.800000
133.064700 29596.600000
133.101000 70841.700000
135.080300 109197.500000
135.116700 96321.100000
137.096000 15565.100000
139.075300 29461.100000
141.069600 9413.900000
142.077300 5430.500000
143.085400 75326.300000
145.064600 19780.200000
145.101000 252374.600000
147.080300 104099.000000
147.116600 26544.600000
148.087700 26153.200000
149.095900 44403.800000
151.075000 8654.400000
153.090900 4451.000000
155.085400 33004.900000
157.064600 8840.200000
157.101000 60948.600000
159.080300 59237.500000
159.116700 46187.400000
161.059600 6125.700000
161.096000 100453.400000
163.111600 1193742.900000
164.114900 149403.200000
165.091100 8364.900000
167.085300 9592.900000
169.101000 41925.600000
171.080300 29878.400000
171.116700 50076.400000
173.095900 60979.000000
173.132300 15978.900000
175.111600 44995.500000
177.090900 11984.000000
179.084800 6209.200000
179.106600 10158.100000
180.093300 4069.500000
181.100900 30557.400000
183.080300 7993.300000
183.116700 63741.700000
184.088000 4702.600000
185.095900 33254.900000
185.132300 30537.100000
187.075500 5550.100000
187.111500 40410.000000
189.090900 26586.200000
189.127300 46370.500000
191.106400 6691.300000
192.093400 3916.100000
193.101000 15739.100000
194.109600 5008.000000
195.080900 2771.400000
195.116700 45031.800000
197.096200 18281.200000
197.132400 47478.500000
199.111600 37857.100000
199.148000 17024.600000
201.090400 6358.200000
201.127400 23183.800000
203.106400 9946.400000
205.100900 4902.700000
205.122300 3760.500000
206.109000 7032.200000
207.116900 26114.600000
208.125600 3849.500000
209.096500 9559.400000
209.132300 35387.000000
210.103500 5023.500000
211.111600 22532.800000
211.147900 22338.400000
213.127500 31323.100000
215.107300 5866.700000
215.142700 13778.900000
217.121900 7607.000000
219.117100 8807.000000
221.132400 29832.400000
223.111700 27538.400000
223.148000 27203.700000
225.127200 36610.400000
225.164000 18414.500000
227.106200 4052.200000
227.142900 26238.400000
229.122300 8824.700000
229.158200 5016.900000
231.138300 4066.100000
232.124500 5280.700000
233.133000 4081.800000
235.111700 4585.900000
235.148200 10129.600000
237.127400 17949.400000
237.163900 16085.800000
239.142900 54923.500000
239.179700 9265.800000
241.122100 13396.600000
241.158600 88636.800000
242.167700 32219.200000
243.138000 19310.200000
247.148000 9177.800000
249.127100 8048.400000
249.163600 9721.000000
251.143100 14121.600000
253.158700 20842.600000
255.138200 13500.000000
255.174200 31298.600000
257.153600 17431.300000
258.161300 132114.600000
261.163300 5024.200000
263.142300 5780.300000
264.151300 3332.700000
265.158600 34662.600000
267.137700 6448.700000
267.174700 34278.800000
269.153600 41682.800000
269.189000 5144.500000
271.168400 8057.100000
279.174200 9480.700000
281.153500 8471.100000
283.169400 30160.400000
284.177100 74084.200000
285.148100 8710.300000
295.170200 9806.000000
297.185200 8696.100000
299.163600 38148.900000
300.172000 9898.300000
301.180100 19080.800000
307.169900 7141.800000
313.179900 8269.900000
325.179800 8693.800000
343.190700 5819.200000
361.200500 9474.700000

>ms2
77.038400 96936.400000
79.054000 336756.200000
81.033200 14749.300000
81.069700 260226.500000
83.048900 240233.000000
91.054000 509688.300000
93.069600 624968.100000
95.049000 56122.200000
95.085300 148433.100000
97.064600 432317.100000
105.069600 894723.800000
107.048900 130816.000000
107.085300 466560.300000
109.064600 103175.500000
109.100900 10807.000000
111.043600 10727.300000
115.054000 75025.800000
117.069600 287548.900000
119.085300 460972.900000
121.064500 886371.800000
121.101000 140492.700000
123.080200 139735.000000
128.061800 115678.900000
129.069700 175884.800000
130.077400 131571.000000
131.085300 256624.300000
133.064500 114667.900000
133.100900 133317.300000
135.080200 134947.500000
135.116400 57445.600000
137.095600 11420.700000
141.069600 83868.400000
142.077500 97123.400000
143.085300 267191.200000
145.064500 78846.100000
145.100900 431411.300000
147.080200 160942.900000
147.116400 28275.200000
148.088000 509183.900000
149.095800 39946.600000
155.085300 147606.100000
157.064500 24888.300000
157.100900 145473.100000
159.080300 110153.900000
159.116700 65020.900000
161.095800 140285.500000
163.111400 861936.900000
164.114800 11618.900000
167.085300 74402.200000
169.101000 120597.800000
171.080100 60844.100000
171.116700 64837.300000
173.095600 56509.500000
173.132500 12275.400000
175.111600 31641.500000
179.085100 59274.900000
180.093000 47193.600000
181.100700 100734.200000
183.080200 20605.500000
183.116500 89190.800000
184.088100 16511.900000
185.095800 42512.900000
185.132200 60073.100000
187.111400 25700.900000
189.127400 40671.700000
192.093200 26906.400000
193.100900 54254.400000
194.108800 21598.800000
195.079900 24219.600000
195.116400 72542.600000
197.095900 35302.600000
197.132200 62289.600000
199.111200 42212.600000
199.147600 28636.800000
201.126900 18535.400000
205.100800 26970.600000
206.109400 30318.300000
207.116400 39013.900000
208.124500 15800.200000
209.096300 24011.600000
209.131900 47379.300000
210.103800 14688.100000
211.111200 32846.600000
211.147700 12332.800000
213.127300 19783.300000
215.142700 14813.700000
221.132300 24820.300000
223.111200 14314.200000
223.147600 23278.500000
225.126800 78327.700000
227.142600 63740.900000
237.126300 16078.000000
239.142800 20338.900000
241.158300 92743.700000
242.167200 17126.300000
243.137600 263348.800000
251.142900 27248.800000
255.173200 12734.300000
257.153600 14134.200000
258.161300 141992.400000
269.153200 63435.800000

