>compound UF48044555
>parentmass 249.1598
>ionization [M+H]+
>formula C14H20N2O2
>rt 840.900000
>profile orbitrap
#smiles_iso CC(C)NCC(COC1=CC=CC2=C1C=CN2)O
#smiles_can CC(C)NCC(COC1=CC=CC2=C1C=CN2)O
#inchikey JZQKKSLKJUAGIC-UHFFFAOYSA-N
#pubchem_id 4828
#mb_accession UF409801,UF409802

>ms2peaks
72.080700 96961.400000
74.060000 162607.600000
84.080700 2915.800000
86.096500 5460.500000
98.096400 107634.300000
100.112100 19566.300000
106.065300 2990.700000
116.107000 679868.800000
117.069900 8546.100000
118.065100 39488.500000
129.069600 2520.700000
130.065200 15654.100000
132.044400 17709.100000
132.080800 6240.800000
133.052200 3322.800000
134.060100 177794.000000
143.073100 2757.200000
144.080900 173312.600000
145.064800 3772.300000
146.060100 183961.000000
154.065100 5722.700000
155.060900 1850.500000
157.052800 1623.900000
160.075900 20695.200000
170.059900 1705.400000
172.075800 253935.900000
174.091100 2248.000000
207.113100 3186.300000
249.159900 33754.300000

>ms2peaks
72.080700 54684.100000
74.060000 159174.400000
84.080800 4909.100000
98.096400 28652.700000
100.112100 38720.600000
106.065100 35808.800000
116.107000 145038.000000
117.069900 59604.900000
118.065100 145611.800000
129.069900 2630.900000
130.065200 16767.300000
132.044500 23687.700000
132.080800 15051.100000
133.052300 17393.500000
134.060100 217478.000000
143.073100 27578.800000
144.080800 208519.000000
145.064600 5827.100000
146.060000 83225.300000
154.065200 9717.000000
155.060500 22268.000000
157.052500 5708.100000
160.075800 7815.100000
170.060500 4923.500000
172.075900 33806.500000

