>compound UF48178227
>parentmass 177.1022
>ionization [M+H]+
>formula C10H12N2O
>rt 158.100000
>profile orbitrap
#smiles_iso CN1[C@@H](CCC1=O)C2=CN=CC=C2
#smiles_can CN1C(CCC1=O)C2=CN=CC=C2
#inchikey UIKROCXWUNQSPJ-VIFPVBQESA-N
#pubchem_id 854019
#mb_accession UF413001,UF413002

>ms2
70.065500 5195.600000
80.049800 597667.800000
98.060500 311701.300000
106.065400 3505.000000
119.073500 2638.800000
146.060800 85048.400000
148.076300 2930.300000
159.092400 7346.400000
160.076400 2569.100000
177.103000 1379907.400000

>ms2
70.065400 30464.700000
80.049800 1172252.000000
98.060500 574892.800000
106.065600 9881.900000
119.073300 2224.600000
148.076300 1714.700000
177.103100 209383.800000

