>compound UF49158262
>parentmass 204.1131
>ionization [M+H]+
>formula C11H13N3O
>rt 453.180000
>profile orbitrap
#smiles_iso CC1=C(C(=O)N(N1C)C2=CC=CC=C2)N
#smiles_can CC1=C(C(=O)N(N1C)C2=CC=CC=C2)N
#inchikey RLFWWDJHLFCNIJ-UHFFFAOYSA-N
#pubchem_id 2151
#mb_accession UF408301,UF408302

>ms2
83.060400 17471.000000
85.076100 10012.100000
94.065200 39500.000000
104.049600 12553.700000
111.055200 2982.100000
118.065200 3555.800000
128.049000 1947.200000
130.065300 3415.200000
145.076200 4014.400000
146.060100 12001.300000
158.060000 2041.900000
159.091800 19789.300000
187.086900 5631.600000
189.089700 5792.300000

>ms2
83.060500 10780.000000
85.076100 1415.000000
94.065100 26863.300000
104.049400 6020.900000
118.065200 2700.500000
128.049300 3957.400000
130.064900 2912.200000
146.060200 4606.300000
159.091800 3341.000000

