>compound UF49386490
>parentmass 222.0429
>ionization [M+H]+
>formula C10H8ClN3O
>rt 1115.220000
>profile orbitrap
#smiles_iso C1=CC=C(C=C1)N2C(=O)C(=C(C=N2)N)Cl
#smiles_can C1=CC=C(C=C1)N2C(=O)C(=C(C=N2)N)Cl
#inchikey WYKYKTKDBLFHCY-UHFFFAOYSA-N
#pubchem_id 15546
#mb_accession UF401801,UF401802

>ms2peaks
75.994800 4827.000000
77.038500 93408.500000
83.023900 8249.800000
87.994900 12410.000000
92.049400 266443.200000
93.057300 10324.300000
94.065100 105156.500000
95.049100 6799.400000
100.990100 11141.300000
101.974100 5194.200000
104.049400 476116.900000
105.044600 24562.900000
116.049500 2633.900000
116.997400 2245.000000
119.000700 7057.900000
119.060500 11335.400000
120.044300 3487.700000
128.985000 114884.300000
130.065200 10055.200000
131.060500 8218.100000
132.044400 7453.800000
142.053000 3220.100000
146.011600 78419.400000
149.015200 8682.000000
150.010600 8173.300000
158.071500 3857.500000
159.055400 18675.000000
159.067900 3031.200000
160.063200 3946.200000
177.021600 8762.000000
178.005400 5136.500000
186.066300 45728.100000
187.074200 2843.600000
193.029000 60257.400000
195.032100 10410.300000
205.016400 26027.400000
222.042700 2173181.500000

>ms2peaks
75.994800 15101.300000
77.038500 346251.000000
83.023900 5916.500000
87.994800 67349.800000
92.049400 587860.000000
93.057200 56162.700000
94.065000 126502.500000
95.049100 33917.800000
100.990000 107627.800000
101.974100 17055.900000
104.049400 440653.500000
105.044600 128229.700000
116.049400 5523.600000
116.997600 18028.200000
119.000900 5767.100000
119.060300 20565.000000
120.044400 8097.600000
128.984900 178315.900000
130.065000 43256.600000
131.060300 23413.400000
132.044300 22995.900000
142.052600 12281.200000
143.060200 2881.900000
146.011500 193777.500000
149.015200 16551.600000
150.010500 37951.700000
158.071000 6117.700000
159.055400 15854.100000
159.067600 2609.900000
160.063100 4892.900000
166.004700 2488.900000
177.021300 6618.700000
178.005700 4888.300000
186.066400 18684.600000
193.028800 60838.000000
195.031700 7085.300000
205.016400 9782.200000
222.042700 207524.900000

