>compound UF50828153
>parentmass 177.0546
>ionization [M+H]+
>formula C10H8O3
>rt 1204.920000
>profile orbitrap
#smiles_iso CC1=CC(=O)OC2=C1C=CC(=C2)O
#smiles_can CC1=CC(=O)OC2=C1C=CC(=C2)O
#inchikey HSHNITRMYYLLCV-UHFFFAOYSA-N
#pubchem_id 5280567
#mb_accession UF419301,UF419302

>ms2
77.038800 15092.300000
79.054500 57805.200000
81.070100 29128.400000
91.054500 25029.000000
93.070200 42492.200000
103.054500 68222.900000
105.070200 464366.400000
107.049500 16334.400000
115.054600 41389.200000
121.065200 436175.000000
131.049600 20885.800000
132.057600 5610.600000
133.065200 102450.200000
134.036700 2449.500000
135.044700 5452.800000
143.060800 7206.800000
149.060200 76371.100000
177.055100 2411911.500000

>ms2
77.038700 207016.900000
79.054400 171590.500000
81.070100 71905.500000
91.054500 233038.600000
93.070100 242442.400000
103.054500 533923.100000
105.070100 368131.100000
107.049400 46035.400000
115.054500 75139.000000
121.065100 738370.000000
131.049500 49217.200000
132.057300 21170.000000
133.065200 32357.100000
134.036600 24331.700000
135.044500 7506.800000
149.060200 36013.800000
177.055000 390544.800000

