>compound UF52112859
>parentmass 231.1492
>ionization [M+H]+
>formula C14H18N2O
>rt 1335.000000
>profile orbitrap
#smiles_iso CC1=C(C(=O)N(N1C)C2=CC=CC=C2)C(C)C
#smiles_can CC1=C(C(=O)N(N1C)C2=CC=CC=C2)C(C)C
#inchikey PXWLVJLKJGVOKE-UHFFFAOYSA-N
#pubchem_id 3778
#mb_accession UF407101,UF407102

>ms2peaks
77.038700 21272.100000
79.054500 23357.200000
81.070000 24040.600000
82.065200 48720.600000
91.054500 16151.400000
92.049800 58245.900000
94.065300 38109.200000
95.073100 62071.500000
96.080900 109178.400000
97.088700 50134.000000
98.060200 48722.600000
100.112300 38679.000000
104.049600 50092.700000
105.033300 13705.800000
110.096600 209910.200000
112.075900 97386.200000
112.112200 634330.100000
118.065300 110954.300000
120.044600 78031.600000
120.081000 256770.400000
123.092100 12052.300000
124.075900 171715.200000
130.065500 43608.900000
131.073200 112802.800000
132.080900 51265.400000
133.052500 22949.600000
133.076300 35831.500000
134.096800 36406.800000
138.091700 140241.400000
142.065200 24569.300000
144.081100 189481.900000
145.065200 20702.700000
146.084100 105179.900000
146.096700 368495.900000
147.092100 53580.200000
148.112200 49923.300000
157.088700 11856.100000
158.096800 14446.100000
160.076000 35949.700000
160.099900 97728.900000
161.107600 178152.900000
172.076000 43140.100000
172.112400 129861.200000
174.079100 51853.600000
188.095000 97343.300000
189.102500 4101232.800000
201.102600 988761.400000
203.154700 141884.700000
215.118400 74845.600000
216.126100 272457.900000
231.149500 11006882.000000

>ms2peaks
77.038600 231215.500000
79.054200 111868.700000
81.069800 64529.100000
82.065200 257982.100000
91.054400 55578.500000
92.049500 323989.700000
94.065200 176862.500000
95.073000 155530.900000
96.068500 32219.600000
96.080800 341598.100000
97.088800 54002.600000
98.060000 75968.800000
100.112000 53343.500000
104.049500 333783.100000
105.033700 46248.900000
110.096400 142293.700000
112.112100 368272.500000
118.065200 515381.000000
120.044500 136377.700000
120.080900 398991.200000
123.091800 28319.400000
124.075800 338325.700000
130.065200 205760.600000
131.073000 356148.200000
132.080900 140538.800000
133.052300 70597.000000
133.076100 123638.500000
134.096700 66041.500000
142.065000 46620.500000
144.081000 341395.500000
145.064700 47299.500000
146.084000 147496.400000
146.096600 375587.800000
147.092000 69771.600000
157.088600 36672.300000
158.095900 58742.100000
160.099800 37101.100000
161.107500 101017.600000
172.076000 50538.500000
174.078800 81370.900000
189.102400 936085.100000
201.102500 902135.400000
231.149500 451446.300000

