>compound UF53587139
>parentmass 167.0703
>ionization [M+H]+
>formula C9H10O3
>rt 1311.600000
>profile orbitrap
#smiles_iso CCOC(=O)C1=CC=C(C=C1)O
#smiles_can CCOC(=O)C1=CC=C(C=C1)O
#inchikey NUVBSKCKDOMJSU-UHFFFAOYSA-N
#pubchem_id 8434
#mb_accession UF415601,UF415602,UF423301,UF423302

>ms2peaks
77.038400 18047.400000
95.048900 270293.500000
105.044500 8606.400000
121.028100 162450.200000
139.038700 155817.700000

>ms2peaks
77.038400 174654.100000
95.049000 434586.400000
105.044500 69765.500000
107.085300 1762.600000
121.028200 443839.900000
139.038800 29205.400000

>ms2peaks
77.038400 18047.400000
95.048900 270293.500000
105.044500 8606.400000
121.028100 162450.200000
139.038700 155817.700000

>ms2peaks
77.038400 174654.100000
95.049000 434586.400000
105.044500 69765.500000
107.085300 1762.600000
121.028200 443839.900000
139.038800 29205.400000

