>compound UF53253839
>parentmass 342.0771
>ionization [M+H]+
>formula C15H17Cl2N3O2
>rt 1568.760000
>profile orbitrap
#smiles_iso CCCC1COC(O1)(CN2C=NC=N2)C3=C(C=C(C=C3)Cl)Cl
#smiles_can CCCC1COC(O1)(CN2C=NC=N2)C3=C(C=C(C=C3)Cl)Cl
#inchikey STJLVHWMYQXCPB-UHFFFAOYSA-N
#pubchem_id 43234
#mb_accession UF403501,UF403502

>ms2peaks
70.039800 25291.300000
146.976400 3351.400000
158.976100 1943288.100000
172.955500 119371.700000
172.991900 6850.500000
186.971200 79070.100000
190.966000 57152.100000
204.982700 4014.500000
256.004800 6973.900000
259.028100 6889.800000

>ms2peaks
70.039800 21829.500000
146.976400 4258.200000
158.976100 2064664.000000
172.955400 232114.900000
190.966300 10336.100000

