>compound UF54533300
>parentmass 172.0427
>ionization [M+H]+
>formula C7H9NO2S
>rt 1004.460000
>profile orbitrap
#smiles_iso CC1=CC=C(C=C1)S(=O)(=O)N
#smiles_can CC1=CC=C(C=C1)S(=O)(=O)N
#inchikey LMYRWZFENFIFIT-UHFFFAOYSA-N
#pubchem_id 6269
#mb_accession UF418501,UF418502

>ms2peaks
91.054500 18358.000000
119.060700 22427.300000

>ms2peaks
91.054400 25475.700000
119.060700 5480.900000

