>compound UF55994525
>parentmass 296.1412
>ionization [M+H]+
>formula C16H22ClNO2
>rt 1518.540000
>profile orbitrap
#smiles_iso CCOCCN(C(=O)CCl)C(=C(C)C)C1=CC=CC=C1
#smiles_can CCOCCN(C(=O)CCl)C(=C(C)C)C1=CC=CC=C1
#inchikey CSWIKHNSBZVWNQ-UHFFFAOYSA-N
#pubchem_id 6450826
#mb_accession UF406201,UF406202

>ms2
73.064700 24133.900000
91.054100 293640.100000
103.054100 7972.900000
104.049400 12142.400000
105.069800 50991.500000
115.054000 9685.100000
116.061900 39651.700000
120.021000 12294.700000
129.069900 92950.700000
131.085400 1625506.900000
132.080700 7711.500000
134.036500 5107.100000
146.096400 13817.300000
148.111900 13224.800000
158.096400 3575.700000
159.103800 4588.600000
160.112000 211626.900000
172.112300 8679.700000
174.127800 40645.600000
220.169600 142925.700000
250.099300 14563.300000

>ms2
73.064700 6911.500000
91.054100 804177.400000
103.054200 26179.900000
104.049400 30954.200000
105.069800 75885.200000
115.054100 36206.700000
116.061900 158750.600000
129.069800 138380.500000
131.085400 542746.400000
132.080600 10348.600000
146.096100 15083.000000
148.112000 10782.700000
158.096500 11476.800000
159.104100 6027.600000
160.112100 98605.300000
172.112300 5122.600000
174.127700 10479.300000

