>compound UF56758121
>parentmass 271.0601
>ionization [M+H]+
>formula C15H10O5
>rt 1362.180000
>profile orbitrap
#smiles_iso C1=CC(=CC=C1C2=COC3=CC(=CC(=C3C2=O)O)O)O
#smiles_can C1=CC(=CC=C1C2=COC3=CC(=CC(=C3C2=O)O)O)O
#inchikey TZBJGXHYKVUXJN-UHFFFAOYSA-N
#pubchem_id 5280961
#mb_accession UF416201,UF416202,UF423801,UF423802

>ms2peaks
91.054200 61414.800000
95.012700 2943.900000
105.033400 4309.600000
105.069900 2275.100000
107.049100 4743.400000
109.028300 2506.100000
111.007600 11495.900000
117.070200 3674.700000
119.049100 54688.800000
121.028300 14647.200000
128.062000 2080.000000
129.069700 4369.700000
131.049000 13203.300000
131.085300 4229.900000
133.028400 6811.300000
133.064700 5129.100000
135.044000 4383.500000
137.023200 6483.400000
141.069900 15648.500000
145.028400 78904.900000
145.064800 9370.100000
147.044000 9585.100000
147.080300 7341.900000
149.023200 137801.500000
153.018100 393215.600000
155.048800 2634.000000
157.064800 4864.300000
159.044000 56191.200000
159.080500 10568.300000
165.018200 44543.800000
169.064700 54319.600000
173.059700 14844.700000
175.075400 9735.700000
178.025800 2787.700000
181.064900 5908.700000
183.028900 5953.300000
183.044100 6722.500000
185.060000 5111.700000
187.039000 17939.900000
187.075300 35150.100000
191.034500 4411.200000
197.059700 75140.200000
200.046600 9198.900000
201.054600 14124.200000
203.070300 4823.700000
211.038800 3898.100000
213.054600 4837.300000
215.070200 484518.800000
225.054600 33839.100000
226.063400 4788.300000
227.070200 11621.600000
228.041800 4757.200000
229.049400 9428.500000
242.057500 5901.600000
243.065100 401954.600000
253.049500 179736.800000
271.060000 1861433.500000

>ms2peaks
89.038500 27988.900000
91.054100 1053059.600000
95.012700 27963.300000
105.033300 17832.600000
105.069900 9615.400000
107.049000 100107.100000
109.028300 15003.800000
111.007600 24791.000000
115.054100 108206.800000
117.069800 34166.400000
119.049000 281500.900000
121.028300 131347.300000
128.061900 28611.800000
129.069700 28584.500000
131.049000 106492.000000
131.085400 35512.800000
133.028100 5626.300000
133.064600 7700.600000
135.044000 48033.800000
137.023200 27429.000000
141.069700 340094.100000
145.028300 83452.100000
145.064700 52411.000000
147.043900 52893.200000
147.080400 25046.400000
149.023200 153038.500000
152.061900 29113.100000
153.018100 1039917.500000
155.048900 58289.400000
157.064600 18074.200000
159.043900 80566.600000
159.080300 40872.500000
165.018100 54495.700000
169.064600 294413.500000
173.059600 39253.600000
175.075000 20873.200000
178.025800 8500.600000
181.064600 13102.700000
183.028600 7100.600000
183.044000 47260.700000
185.059800 21112.000000
187.038600 26325.200000
187.075200 55699.900000
191.033800 30485.700000
197.059500 321218.500000
200.046600 69912.400000
201.054600 29226.700000
211.038900 13315.000000
213.054200 45670.700000
215.070000 318100.400000
225.054400 36680.100000
226.062500 19952.000000
227.070800 4944.900000
228.041300 17940.300000
229.050000 7544.600000
241.049300 9308.700000
242.057000 32235.400000
243.065000 150615.200000
253.049400 131729.100000
271.059900 110053.900000

>ms2peaks
91.054200 61414.800000
95.012700 2943.900000
105.033400 4309.600000
105.069900 2275.100000
107.049100 4743.400000
109.028300 2506.100000
111.007600 11495.900000
117.070200 3674.700000
119.049100 54688.800000
121.028300 14647.200000
128.062000 2080.000000
129.069700 4369.700000
131.049000 13203.300000
131.085300 4229.900000
133.028400 6811.300000
133.064700 5129.100000
135.044000 4383.500000
137.023200 6483.400000
141.069900 15648.500000
145.028400 78904.900000
145.064800 9370.100000
147.044000 9585.100000
147.080300 7341.900000
149.023200 137801.500000
153.018100 393215.600000
155.048800 2634.000000
157.064800 4864.300000
159.044000 56191.200000
159.080500 10568.300000
165.018200 44543.800000
169.064700 54319.600000
173.059700 14844.700000
175.075400 9735.700000
178.025800 2787.700000
181.064900 5908.700000
183.028900 5953.300000
183.044100 6722.500000
185.060000 5111.700000
187.039000 17939.900000
187.075300 35150.100000
191.034500 4411.200000
197.059700 75140.200000
200.046600 9198.900000
201.054600 14124.200000
203.070300 4823.700000
211.038800 3898.100000
213.054600 4837.300000
215.070200 484518.800000
225.054600 33839.100000
226.063400 4788.300000
227.070200 11621.600000
228.041800 4757.200000
229.049400 9428.500000
242.057500 5901.600000
243.065100 401954.600000
253.049500 179736.800000
271.060000 1861433.500000

>ms2peaks
89.038500 27988.900000
91.054100 1053059.600000
95.012700 27963.300000
105.033300 17832.600000
105.069900 9615.400000
107.049000 100107.100000
109.028300 15003.800000
111.007600 24791.000000
115.054100 108206.800000
117.069800 34166.400000
119.049000 281500.900000
121.028300 131347.300000
128.061900 28611.800000
129.069700 28584.500000
131.049000 106492.000000
131.085400 35512.800000
133.028100 5626.300000
133.064600 7700.600000
135.044000 48033.800000
137.023200 27429.000000
141.069700 340094.100000
145.028300 83452.100000
145.064700 52411.000000
147.043900 52893.200000
147.080400 25046.400000
149.023200 153038.500000
152.061900 29113.100000
153.018100 1039917.500000
155.048900 58289.400000
157.064600 18074.200000
159.043900 80566.600000
159.080300 40872.500000
165.018100 54495.700000
169.064600 294413.500000
173.059600 39253.600000
175.075000 20873.200000
178.025800 8500.600000
181.064600 13102.700000
183.028600 7100.600000
183.044000 47260.700000
185.059800 21112.000000
187.038600 26325.200000
187.075200 55699.900000
191.033800 30485.700000
197.059500 321218.500000
200.046600 69912.400000
201.054600 29226.700000
211.038900 13315.000000
213.054200 45670.700000
215.070000 318100.400000
225.054400 36680.100000
226.062500 19952.000000
227.070800 4944.900000
228.041300 17940.300000
229.050000 7544.600000
241.049300 9308.700000
242.057000 32235.400000
243.065000 150615.200000
253.049400 131729.100000
271.059900 110053.900000

