>compound UF56592426
>parentmass 235.1441
>ionization [M+H]+
>formula C13H18N2O2
>rt 1413.540000
>profile orbitrap
#smiles_iso C1CCC(CC1)N2C(=O)C3=C(CCC3)NC2=O
#smiles_can C1CCC(CC1)N2C(=O)C3=C(CCC3)NC2=O
#inchikey ZTMKADLOSYKWCA-UHFFFAOYSA-N
#pubchem_id 16559
#mb_accession UF404701,UF404702

>ms2peaks
72.044300 142612.500000
82.065000 4116.200000
83.085500 3489.600000
97.007100 1383.100000
110.060000 4448.300000
121.007800 2314.500000
133.007500 60220.900000
135.055400 8048.100000
136.039400 14680.000000
151.018200 3966.400000
153.065800 592127.000000
179.106700 2061.000000

>ms2peaks
72.044300 289167.200000
82.065000 32287.500000
83.085500 2534.900000
97.007200 2134.800000
110.059900 45316.100000
121.007300 2691.600000
133.007600 7885.400000
135.055200 53413.900000
136.039200 98827.500000
153.065800 283904.500000

