>compound UF57252302
>parentmass 202.0433
>ionization [M+H]+
>formula C10H7N3S
>rt 928.980000
>profile orbitrap
#smiles_iso C1=CC=C2C(=C1)NC(=N2)C3=CSC=N3
#smiles_can C1=CC=C2C(=C1)NC(=N2)C3=CSC=N3
#inchikey WJCNZQLZVWNLKY-UHFFFAOYSA-N
#pubchem_id 5430
#mb_accession UF401501,UF401502

>ms2peaks
92.049500 2852.000000
131.060400 5436.300000
143.060600 4306.500000
158.071400 8462.700000
175.032500 321785.600000
202.043200 2210306.800000

>ms2peaks
92.049400 111444.100000
131.060300 368035.100000
143.060400 55530.300000
158.071300 60005.000000
170.071400 24223.700000
175.032400 1519597.600000
202.043300 1036076.600000

