>compound UF57781529
>parentmass 120.0556
>ionization [M+H]+
>formula C6H5N3
>rt 988.680000
>profile orbitrap
#smiles_iso C1=CC2=NNN=C2C=C1
#smiles_can C1=CC2=NNN=C2C=C1
#inchikey QRUDEWIWKLJBPS-UHFFFAOYSA-N
#pubchem_id 7220
#mb_accession UF417701,UF417702

>ms2peaks
92.049800 30954.600000
120.055900 875480.600000

>ms2peaks
92.049700 128149.300000
120.056000 778210.800000

