>compound UF59847492
>parentmass 242.1434
>ionization [M+H]+
>formula C10H19N5S
>rt 1394.520000
>profile orbitrap
#smiles_iso CC(C)NC1=NC(=NC(=N1)SC)NC(C)C
#smiles_can CC(C)NC1=NC(=NC(=N1)SC)NC(C)C
#inchikey AAEVYOVXGOFMJO-UHFFFAOYSA-N
#pubchem_id 4929
#mb_accession UF403701,UF403702

>ms2
74.005800 173326.800000
85.050800 421821.200000
91.032400 494973.200000
110.046000 314430.000000
110.071300 374927.700000
116.027600 2014415.100000
127.097900 82568.200000
152.093100 323374.200000
152.118400 191830.500000
158.049500 23565668.000000
200.096400 13743218.000000
242.143400 5776649.500000

>ms2
74.005800 615376.900000
85.050800 1907012.100000
91.032400 675502.800000
110.046000 983578.200000
116.027500 2866085.000000
127.098100 47280.100000
152.093100 51531.400000
158.049400 8718668.000000
200.096400 467113.600000

