>compound UF61069565
>parentmass 255.1016
>ionization [M+H]+
>formula C16H14O3
>rt 1430.520000
>profile orbitrap
#smiles_iso CC(C1=CC(=CC=C1)C(=O)C2=CC=CC=C2)C(=O)O
#smiles_can CC(C1=CC(=CC=C1)C(=O)C2=CC=CC=C2)C(=O)O
#inchikey DKYWVDODHFEZIM-UHFFFAOYSA-N
#pubchem_id 3825
#mb_accession UF408601,UF408602

>ms2peaks
77.038600 99865.000000
91.054400 3085.700000
93.070000 8385.200000
95.049200 8077.800000
103.054400 40084.100000
105.033500 1226220.500000
121.064900 9976.400000
131.049200 73565.000000
149.059900 6038.900000
165.070200 3190.200000
166.077900 9541.200000
177.054800 225758.000000
177.066000 35409.700000
191.085700 9071.000000
194.072800 150530.800000
209.096300 332210.900000

>ms2peaks
77.038600 496396.200000
91.054300 25951.400000
93.069900 31393.000000
95.049200 54943.500000
103.054300 194452.500000
105.033500 962440.600000
121.064900 23589.200000
131.049200 58055.800000
149.059900 5886.300000
165.070100 36876.000000
166.077900 28409.700000
177.054800 40163.300000
177.066100 19656.700000
191.085700 8119.200000
194.072800 101001.500000
209.096500 5085.800000

