>compound UF62205003
>parentmass 343.0399
>ionization [M+H]+
>formula C18H12Cl2N2O
>rt 1465.560000
>profile orbitrap
#smiles_iso C1=CC=C(C(=C1)C2=CC=C(C=C2)Cl)NC(=O)C3=C(N=CC=C3)Cl
#smiles_can C1=CC=C(C(=C1)C2=CC=C(C=C2)Cl)NC(=O)C3=C(N=CC=C3)Cl
#inchikey WYEMLYFITZORAB-UHFFFAOYSA-N
#pubchem_id 213013
#mb_accession UF406001,UF406002

>ms2peaks
78.033800 22635.600000
94.028700 6339.900000
96.044400 32521.000000
111.994900 19644.200000
112.039300 7679.500000
113.003200 1367.100000
114.010500 34250.300000
130.005600 2616.200000
139.989800 151569.800000
152.061800 2936.200000
177.058100 1459.300000
195.054900 3339.800000
196.063700 1453.300000
202.077200 1505.800000
229.088700 4050.600000
230.036500 3926.000000
242.082700 3133.400000
243.091900 26441.000000
244.100000 11979.200000
253.076100 14200.800000
254.084200 27306.300000
264.058100 6512.000000
270.078700 5978.400000
271.086700 369781.200000
272.094500 381900.100000
289.052900 99928.200000
305.047500 6246.400000
306.054600 4152.100000
307.063400 530059.400000

>ms2peaks
78.033700 88922.700000
94.028800 17528.600000
96.044300 90178.100000
111.994800 91145.100000
112.039300 15826.300000
113.002800 9224.500000
114.010500 24481.300000
130.005300 36190.700000
139.989800 56115.400000
152.062100 28844.800000
177.057400 20920.800000
195.054900 4152.300000
196.063100 6948.000000
202.078100 10616.700000
229.088600 15504.200000
230.036800 4608.800000
242.084000 72272.400000
243.091800 163350.500000
244.099700 60812.000000
253.076100 89383.900000
254.083900 65131.700000
264.058300 5316.100000
270.078700 32126.500000
271.086600 446865.700000
272.094500 193801.500000
289.052900 39365.400000
305.048100 9580.700000
306.056600 5036.200000
307.063500 16797.100000

