>compound UF63738365
>parentmass 455.2904
>ionization [M+H]+
>formula C27H38N2O4
>rt 1256.520000
>profile orbitrap
#smiles_iso CC(C)C(CCCN(C)CCC1=CC(=C(C=C1)OC)OC)(C#N)C2=CC(=C(C=C2)OC)OC
#smiles_can CC(C)C(CCCN(C)CCC1=CC(=C(C=C1)OC)OC)(C#N)C2=CC(=C(C=C2)OC)OC
#inchikey SGTNSNPWRIOYBX-UHFFFAOYSA-N
#pubchem_id 2520
#mb_accession UF408101,UF408102

>ms2peaks
77.038700 5486.400000
79.054300 33210.800000
84.081000 16594.700000
86.096600 8809.900000
91.054300 15199.600000
94.065500 6911.500000
95.085700 8424.600000
96.080900 24321.800000
103.054400 37266.000000
104.062200 4824.000000
105.070000 230149.000000
107.049400 15329.000000
109.064600 5423.300000
118.041400 22724.600000
119.049400 16544.900000
120.057200 26435.300000
121.065100 40426.600000
122.072900 17502.500000
122.096600 49751.300000
123.080500 4650.300000
124.052000 9443.800000
131.049100 4795.800000
132.057000 5493.100000
133.065000 193902.800000
133.076400 17746.500000
134.072900 129517.300000
135.044300 59354.000000
135.080700 123473.500000
136.052100 22721.000000
137.059800 23016.100000
138.067900 20190.300000
139.075600 18028.900000
146.072700 3527.600000
149.060200 15394.700000
150.067800 1011813.400000
151.075100 148765.800000
152.083000 26436.100000
164.083500 14403.200000
165.091300 2668917.200000
166.094600 195426.200000
176.070800 7286.400000
177.091400 112070.100000
186.092200 4722.300000
187.099500 10636.400000
190.086800 4437.200000
191.107000 19334.500000
202.087000 11604.100000
203.094500 9472.900000
218.118100 76059.600000
233.154200 9933.100000
243.138700 19040.900000
244.133500 4172.000000
245.141800 19949.700000
260.165100 150177.500000
261.160600 75908.600000
303.207500 111251.900000

>ms2peaks
77.038600 44648.800000
79.054300 174737.800000
84.080900 26455.900000
86.096500 7619.100000
91.054300 89915.100000
94.065300 7135.100000
95.085400 6196.500000
96.081000 4393.300000
103.054300 173160.400000
104.062100 49506.500000
105.069900 330541.800000
107.049200 136980.100000
109.064800 18207.000000
118.041500 90515.100000
119.049200 97868.300000
120.057100 86142.300000
121.064900 215099.700000
122.072800 64391.800000
122.096500 6150.600000
123.080600 3217.800000
124.052000 16442.100000
131.049300 44858.900000
132.057100 15754.800000
133.064900 156181.500000
133.076200 15336.800000
134.072800 329183.900000
135.044100 306643.800000
135.080500 58269.800000
136.051900 23131.500000
137.059900 33081.000000
138.067600 26247.500000
139.075400 9405.100000
146.072900 24544.200000
149.059900 54641.800000
150.067700 638428.800000
151.075400 93354.200000
152.083100 23494.300000
164.083300 7995.500000
165.091200 306508.100000
166.094000 5540.600000
176.070900 20132.500000
177.091500 25772.400000
186.092200 5890.400000
187.099600 13479.700000
190.085500 4867.300000
191.107100 12209.200000
202.086300 21324.700000
203.094400 9930.100000
218.118200 8603.300000
244.133400 4406.300000

