>compound UF63219858
>parentmass 214.1202
>ionization [M+Na]+
>formula C12H17NO
>rt 1363.740000
>profile orbitrap
#smiles_iso CCN(CC)C(=O)C1=CC=CC(=C1)C
#smiles_can CCN(CC)C(=O)C1=CC=CC(=C1)C
#inchikey MMOXZBCLCQITDF-UHFFFAOYSA-N
#pubchem_id 4284
#mb_accession UF417633,UF417634

>ms2peaks
77.038600 1216941.800000
94.041500 8329.800000
95.049000 162995.800000
105.044600 506677.400000

>ms2peaks
77.038600 616609.000000
94.041300 4124.100000
95.049000 82678.800000
105.044600 280979.300000

