>compound UF67243243
>parentmass 253.0972
>ionization [M+H]+
>formula C15H12N2O2
>rt 1180.080000
>profile orbitrap
#smiles_iso C1=CC=C2C(=C1)C=CC3=C(N2C(=O)N)C=CC(=C3)O
#smiles_can C1=CC=C2C(=C1)C=CC3=C(N2C(=O)N)C=CC(=C3)O
#inchikey VPZIYMMSJFWLSP-UHFFFAOYSA-N
#pubchem_id 129274
#mb_accession UF411101,UF411102

>ms2peaks
165.070200 4341.500000
167.073400 10847.800000
179.073200 2768.300000
180.081000 835972.000000
181.088800 40856.800000
182.096600 291605.000000
192.081100 7055.100000
193.088500 4106.800000
208.076100 12732.100000
210.091600 297305.900000
236.071300 9552.600000

>ms2peaks
165.070200 15602.400000
167.073200 99228.700000
179.073300 11547.600000
180.080900 906895.600000
181.088900 11333.200000
182.096500 120861.600000
192.081100 3020.500000
193.088900 13491.300000
208.076500 2759.200000
210.091700 12226.000000

