>compound UF67961750
>parentmass 232.1444
>ionization [M+H]+
>formula C13H17N3O
>rt 465.600000
>profile orbitrap
#smiles_iso CC1=C(C(=O)N(N1C)C2=CC=CC=C2)N(C)C
#smiles_can CC1=C(C(=O)N(N1C)C2=CC=CC=C2)N(C)C
#inchikey RMMXTBMQSGEXHJ-UHFFFAOYSA-N
#pubchem_id 6009
#mb_accession UF410401,UF410402

>ms2
70.065100 28144.800000
72.080800 29750.400000
82.065200 4142.900000
84.080800 7101.600000
87.091600 1684.500000
97.076100 103280.500000
98.083900 58438.200000
99.091700 8227.000000
106.065200 13694.200000
111.091700 54507.900000
113.107400 62072.000000
118.065200 8990.000000
132.044500 3228.200000
146.059600 2368.200000
149.107300 3964.900000
159.091800 9517.500000
177.102700 4717.700000

>ms2
70.065100 25882.200000
72.080800 22662.900000
82.065100 4626.800000
84.080700 4107.700000
97.076100 139587.000000
98.083900 18032.900000
106.065200 19555.200000
111.091800 20600.200000
113.107500 4840.100000
118.065300 6782.700000
132.044400 2097.900000
146.059700 1182.200000
159.091700 3736.800000

