>compound UF69386766
>parentmass 251.0373
>ionization [M+H]+
>formula C12H10O4S
>rt 1160.940000
>profile orbitrap
#smiles_iso C1=CC(=CC=C1O)S(=O)(=O)C2=CC=C(C=C2)O
#smiles_can C1=CC(=CC=C1O)S(=O)(=O)C2=CC=C(C=C2)O
#inchikey VPWNQTHUCYMVMZ-UHFFFAOYSA-N
#pubchem_id 6626
#mb_accession UF424001,UF424002

>ms2
81.033400 43919.200000
93.033300 610634.800000
94.041200 41459.800000
109.028300 1096747.000000
110.036000 12593.000000
111.043900 217631.200000
121.039400 3331294.800000
122.036500 23640.000000
141.000300 22209.000000
142.008100 9162.800000
156.995200 1126091.200000
251.037100 73269.900000

>ms2
81.033300 174161.500000
93.033200 967481.300000
94.041000 200449.600000
109.028100 834256.400000
110.035900 52525.200000
111.043700 363927.400000
121.039300 2598878.800000
122.036500 13547.300000
141.000200 58083.700000
142.008100 6069.200000
156.995100 43597.500000

