>compound UF72305462
>parentmass 299.2006
>ionization [M+H]+
>formula C20H26O2
>rt 1461.960000
>profile orbitrap
#smiles_iso C[C@]12CC[C@H]3[C@H]([C@@H]1CC[C@]2(C#C)O)CCC4=CC(=O)CC[C@H]34
#smiles_can CC12CCC3C(C1CCC2(C#C)O)CCC4=CC(=O)CCC34
#inchikey VIKNJXKGJWUCNN-XGXHKTLJSA-N
#pubchem_id 6230
#mb_accession UF415001,UF415002

>ms2peaks
79.054100 12859.300000
81.069700 15780.100000
83.049000 31891.600000
91.054100 22512.700000
93.069700 17891.300000
95.049200 1552.100000
95.085400 9912.000000
97.064700 3300.900000
105.069700 30195.000000
107.048900 11425.800000
107.085200 11987.600000
109.064500 107642.500000
109.100800 8567.400000
111.080200 2407.700000
115.054100 3901.300000
117.069700 19437.500000
119.085300 36157.200000
121.064600 3954.300000
121.101000 11769.000000
123.080200 7276.100000
123.116700 2667.000000
128.062100 2085.900000
129.069700 12093.500000
130.077800 1842.300000
131.085300 26296.300000
133.064400 3312.100000
133.101000 10019.300000
135.080200 19775.800000
135.116600 4436.800000
137.095700 2100.900000
141.069500 3788.800000
143.085300 21895.100000
144.093300 1333.700000
145.101000 28775.400000
147.080200 4683.200000
147.116400 5958.600000
149.095900 8419.200000
155.085300 6272.600000
156.093200 3859.100000
157.100800 17681.500000
159.080300 3862.900000
159.116700 10419.100000
161.095800 10061.100000
161.132100 6536.400000
163.111500 8233.300000
167.085400 3840.400000
169.101100 11329.400000
171.116500 22011.200000
173.095500 1603.500000
173.132100 8054.400000
175.111800 6400.300000
181.101100 4891.200000
182.108600 1495.200000
183.116500 7082.400000
185.132000 8643.500000
187.111200 2008.700000
187.147500 1738.200000
193.100400 2671.600000
195.116800 4378.300000
197.132300 4633.400000
199.148000 2471.100000
201.126800 2620.400000
207.116000 3142.200000
209.132300 2743.500000
211.147900 4651.100000
213.163400 11401.500000
221.131900 3940.300000
223.147100 5277.600000
225.127800 1537.500000
229.158200 1948.900000
231.174000 19739.300000
235.148800 1830.800000
239.142600 1317.200000
239.179100 1335.600000
253.158900 2399.100000
263.178900 2273.400000
281.190200 5255.100000
299.200700 8173.100000

>ms2peaks
79.054000 507867.200000
81.069700 405164.000000
83.048900 545893.400000
91.054000 816093.100000
93.069700 340443.400000
95.048900 39931.300000
95.085300 127755.700000
97.064600 29837.600000
105.069600 592999.800000
107.048900 200744.100000
107.085300 127844.400000
109.064500 1389897.500000
109.100900 101258.100000
111.079900 11681.100000
115.054000 200741.000000
117.069600 354911.200000
119.085300 348028.300000
121.064400 43848.700000
121.100900 110731.800000
123.080200 71981.600000
123.116400 14291.900000
128.061800 194168.900000
129.069600 280431.800000
130.077500 91294.800000
131.085300 301252.800000
133.064800 41680.400000
133.101000 83632.700000
135.080300 195421.400000
135.116500 26193.000000
137.095500 9074.300000
141.069600 143281.700000
143.085300 238684.300000
144.093000 27632.500000
145.100900 178406.800000
147.080100 48750.300000
147.116200 18767.000000
149.096000 49208.700000
153.069600 41488.100000
154.077600 51014.600000
155.085300 134225.500000
156.093000 87381.700000
157.100900 129949.000000
159.080000 22453.600000
159.116600 45896.300000
161.095900 83856.300000
161.132300 30426.500000
163.111500 17360.700000
165.069700 47621.100000
166.077400 28802.700000
167.085300 60191.800000
169.100800 90630.100000
171.116600 80543.200000
173.095900 6671.400000
173.132300 24864.400000
175.111500 28096.500000
179.085200 37219.300000
181.101000 37090.700000
182.108600 18795.900000
183.116500 30680.200000
185.132100 23136.900000
187.111500 9267.100000
187.147800 9325.600000
192.093300 22987.600000
193.101000 29119.800000
194.109200 10570.600000
195.116000 23139.200000
197.131800 13791.100000
201.127100 14600.600000
205.100900 16999.100000
207.116400 18244.700000
209.131700 10496.900000
213.163900 11629.700000
219.117500 10574.200000
231.173900 10831.400000

