>compound UF73915391
>parentmass 291.0895
>ionization [M+H]+
>formula C15H15ClN2O2
>rt 1505.580000
>profile orbitrap
#smiles_iso CN(C)C(=O)NC1=CC=C(C=C1)OC2=CC=C(C=C2)Cl
#smiles_can CN(C)C(=O)NC1=CC=C(C=C1)OC2=CC=C(C=C2)Cl
#inchikey IVUXTESCPZUGJC-UHFFFAOYSA-N
#pubchem_id 16115
#mb_accession UF404601,UF404602

>ms2
72.044200 850764.900000
106.064900 12905.500000
118.065000 35951.800000
119.072800 3137.000000
147.067400 8345.800000
163.030800 21239.800000
163.086700 12480.700000
164.094200 8341.300000
190.041000 2202.800000
246.031400 6315.800000
291.089800 3826.900000

>ms2
72.044200 1154193.800000
106.065000 19941.000000
118.065100 29177.600000
163.030800 87828.700000
190.041400 24432.000000

