>compound UF74200466
>parentmass 194.0964
>ionization [M+H]+
>formula C14H11N
>rt 1506.840000
>profile orbitrap
#smiles_iso C1=CC=C2C(=C1)C=CC3=CC=CC=C3N2
#smiles_can C1=CC=C2C(=C1)C=CC3=CC=CC=C3N2
#inchikey LCGTWRLJTMHIQZ-UHFFFAOYSA-N
#pubchem_id 9212
#mb_accession UF413301,UF413302

>ms2
167.086300 35774.800000
179.073800 105509.700000
194.097200 8471733.000000

>ms2
116.050000 46984.500000
179.073800 1185301.800000
194.097300 4028529.800000

