>compound UF74055217
>parentmass 298.2741
>ionization [M+H]+
>formula C18H35NO2
>rt 1373.460000
>profile orbitrap
#smiles_iso CCCN(CC)CC1COC2(O1)CCC(CC2)C(C)(C)C
#smiles_can CCCN(CC)CC1COC2(O1)CCC(CC2)C(C)(C)C
#inchikey PUYXTUJWRLOUCW-UHFFFAOYSA-N
#pubchem_id 86160
#mb_accession UF401901,UF401902

>ms2
72.080700 409397.000000
84.080700 48430.600000
86.096500 41673.000000
98.096500 9586.700000
100.112000 4491158.000000
102.091200 152986.100000
116.107100 24347.900000
126.127600 107417.100000
144.138100 9107551.000000
146.096500 15156.800000
160.112100 116693.200000
160.133100 47294.500000
174.127700 50200.700000
176.143300 25476.400000
202.122700 180786.000000
298.274500 87463.000000

>ms2
72.080600 1012318.600000
84.080700 153600.500000
86.096400 66811.500000
98.096200 25314.800000
100.111900 5587025.000000
102.091200 244006.300000
116.106800 20084.000000
126.127600 109441.600000
144.138200 1969067.800000
146.096600 28319.500000
160.112000 96655.200000
174.127700 61598.500000
202.122400 32419.400000

