>compound UF75894616
>parentmass 341.2111
>ionization [M+H]+
>formula C22H28O3
>rt 1476.600000
>profile orbitrap
#smiles_iso C[C@]12CCC(=O)C=C1C=C[C@@H]3[C@@H]2CC[C@]4([C@H]3CC[C@@]45CCC(=O)O5)C
#smiles_can CC12CCC(=O)C=C1C=CC3C2CCC4(C3CCC45CCC(=O)O5)C
#inchikey UJVLDDZCTMKXJK-WNHSNXHDSA-N
#pubchem_id 13789
#mb_accession UF416401,UF416402

>ms2
71.049000 30968.600000
77.038500 10176.800000
79.054100 190732.400000
81.069800 39973.800000
83.049000 135594.600000
91.054200 136763.000000
93.069800 108571.100000
95.085500 31152.300000
97.064700 357566.700000
99.043900 179453.400000
105.069800 230334.100000
107.085400 1195589.200000
109.064700 49773.400000
109.101100 13473.300000
111.044000 28827.800000
117.069800 27190.900000
119.060300 10436.100000
119.085400 178557.200000
121.064700 36988.700000
121.101100 80055.400000
123.080400 44830.700000
125.059600 14989.500000
128.062000 4470.500000
129.069900 23154.700000
131.085400 111152.200000
133.064700 28983.200000
133.101100 99751.000000
135.080400 73259.100000
135.116700 18114.100000
137.096000 20829.100000
141.069800 14876.400000
142.077600 10323.300000
143.085400 207117.800000
145.064800 14409.100000
145.101100 209261.000000
147.080300 89295.000000
147.116700 50473.400000
149.096000 98125.700000
153.090900 12869.500000
154.077200 3686.200000
155.085500 51108.100000
157.101100 104007.300000
158.072800 3153.700000
159.080400 64758.900000
159.116800 75587.100000
161.096000 120225.700000
163.111700 56365.800000
165.090900 37728.500000
167.085400 10632.100000
167.106700 16287.300000
168.093200 7174.300000
169.101100 228849.100000
171.080400 17427.600000
171.116700 49116.900000
173.096000 224462.200000
173.132300 19364.800000
175.111600 151420.500000
177.127300 30396.800000
179.085500 7283.400000
179.106600 58812.700000
181.101000 44885.000000
183.116800 103717.800000
185.096000 12770.700000
185.132400 88603.400000
187.111500 244296.000000
189.127300 17083.900000
193.100900 10048.700000
193.122400 4285.000000
195.116800 39448.900000
197.095300 5156.800000
197.132400 29991.700000
199.111700 30568.500000
199.148000 20576.600000
201.127400 15390.100000
205.122200 105837.400000
207.117100 14305.900000
207.138400 3216.400000
209.132500 43086.800000
211.111400 10348.900000
211.148800 10915.600000
213.127400 28965.600000
215.143200 6427.500000
217.122100 7459.200000
219.137400 4666.600000
221.132300 34087.200000
223.111200 6365.100000
223.148100 41580.200000
225.127500 16427.000000
225.163900 13056.500000
227.143100 33282.800000
231.137600 5667.200000
235.148100 23734.500000
237.127500 6236.200000
237.163900 20104.600000
239.143300 13141.700000
241.158800 19231.200000
243.174400 17012.600000
245.132700 3066.300000
245.153300 9822.400000
247.148800 11169.700000
249.126900 6092.800000
249.163200 6146.100000
251.143900 3037.600000
251.179900 2838.800000
253.158500 21779.700000
257.153700 14377.800000
259.169600 8558.900000
261.163600 18244.200000
263.142700 5213.500000
263.179200 21987.000000
265.158600 24025.400000
267.138500 3551.400000
267.174400 10483.400000
268.182300 56208.600000
271.169200 12332.700000
277.159400 6623.100000
277.195300 8272.400000
279.174300 17769.900000
281.152900 4860.200000
281.190100 25778.100000
283.169200 90099.000000
287.179100 7633.300000
295.206000 12410.800000
297.185000 12576.900000
299.200500 3636.600000
305.189800 23017.000000
323.200400 47202.400000
326.187700 13665.500000
341.211200 176902.200000

>ms2
71.048800 137746.900000
77.038500 105933.100000
79.054000 1636718.100000
81.069700 268821.800000
83.048900 762090.200000
91.054000 1700537.900000
93.069700 767017.900000
95.085300 212572.600000
97.064500 1588780.500000
99.043800 345331.700000
103.054500 41227.600000
105.069600 2318454.800000
107.085200 4886830.000000
109.064600 285782.500000
109.100900 64770.400000
111.043800 98660.800000
115.053800 67201.700000
117.069600 501901.400000
119.060000 269146.800000
119.085300 1303463.500000
121.064500 198379.800000
121.101000 242700.300000
123.080200 180463.900000
125.059800 40709.800000
128.061900 267500.200000
129.069600 364070.000000
131.085300 839031.200000
133.064500 142615.900000
133.100900 521165.100000
135.080200 104048.900000
137.096200 50282.200000
141.069600 244934.200000
142.077300 282625.000000
143.085200 935693.800000
145.064300 97972.600000
145.100900 909390.100000
147.080200 230064.600000
147.116200 94251.600000
149.095800 168460.000000
154.077400 189500.500000
155.085300 513251.600000
157.100900 528824.600000
158.072500 104704.400000
159.080200 127461.100000
159.116500 238071.600000
161.095800 238335.800000
163.111400 78257.900000
167.085200 145760.600000
168.093200 167742.100000
169.100900 484367.600000
171.116700 155948.300000
173.095800 388828.400000
173.131900 35921.300000
175.111300 134780.300000
179.085000 110425.200000
181.100900 304046.900000
183.116600 314107.600000
185.132200 148853.100000
187.111600 102662.800000
193.101000 109390.600000
195.116500 166806.000000
197.132100 83313.900000
207.117100 58227.000000
209.132000 60637.600000
221.131900 40184.700000
223.148400 49482.200000
235.148500 50515.900000
253.158200 53960.800000

