>compound UF76677172
>parentmass 220.1121
>ionization [M+H]+
>formula C16H13N
>rt 1608.960000
>profile orbitrap
#smiles_iso C1=CC=C(C=C1)NC2=CC=CC3=CC=CC=C32
#smiles_can C1=CC=C(C=C1)NC2=CC=CC3=CC=CC=C32
#inchikey XQVWYOYUZDUNRW-UHFFFAOYSA-N
#pubchem_id 7013
#mb_accession UF413901,UF413902

>ms2
92.049800 503876.300000
93.057700 134615.500000
104.049900 10871.400000
115.054600 256822.500000
117.070200 10566.100000
128.062500 271053.600000
142.065700 323802.300000
143.073500 3434678.500000
155.061000 44246.200000
178.078400 16073.100000
193.101900 33795.100000
202.078400 38545.300000
203.086400 177489.300000
204.081700 32767.200000
204.093900 17929.400000
205.089600 95746.600000
220.112900 3051254.800000
231.092300 13227.600000

>ms2
92.049900 296692.800000
93.057700 280098.300000
104.050000 5499.400000
115.054700 508845.400000
117.070100 6387.700000
128.062600 307832.700000
142.065800 67705.100000
143.073500 4304033.000000
155.061100 112275.900000
178.078400 31825.800000
202.078600 155841.700000
203.086500 66957.600000
204.081800 57310.500000
204.094400 14793.800000

