>compound UF76074075
>parentmass 254.1434
>ionization [M+H]+
>formula C11H19N5S
>rt 1440.420000
>profile orbitrap
#smiles_iso CC(C)(C)NC1=NC(=NC(=N1)NC2CC2)SC
#smiles_can CC(C)(C)NC1=NC(=NC(=N1)NC2CC2)SC
#inchikey HDHLIWCXDDZUFH-UHFFFAOYSA-N
#pubchem_id 91590
#mb_accession UF403401,UF403402

>ms2peaks
74.005800 148010.000000
81.044700 105645.000000
83.060300 796607.500000
87.026300 89119.000000
91.032400 1671037.000000
108.055600 856254.700000
114.037200 158823.200000
116.027700 466673.900000
125.082100 842419.000000
150.077500 441867.600000
156.033900 185719.900000
156.059000 794506.300000
158.049600 51871.600000
168.033900 17621.200000
170.049500 209712.100000
171.070000 129108.800000
183.057300 20175.400000
198.080700 14399911.000000

>ms2peaks
74.005800 1127803.400000
81.044600 497552.800000
83.060300 2616703.200000
87.026300 223349.800000
91.032300 2400087.800000
108.055500 2999771.500000
114.037100 344089.300000
116.027600 1172584.600000
123.066800 42942.600000
125.082100 631960.000000
150.077400 465606.600000
156.033700 92945.400000
156.058900 997147.900000
158.049300 95150.200000
168.033900 106470.300000
170.049700 205756.800000
171.069600 52461.800000
198.080700 1632566.900000

