>compound UF77549283
>parentmass 269.1536
>ionization [M+H]+
>formula C18H20O2
>rt 1493.820000
>profile orbitrap
#smiles_iso CC/C(=C(/CC)\C1=CC=C(C=C1)O)/C2=CC=C(C=C2)O
#smiles_can CCC(=C(CC)C1=CC=C(C=C1)O)C2=CC=C(C=C2)O
#inchikey RGLYKWWBQGJZGM-ISLYRVAYSA-N
#pubchem_id 448537
#mb_accession UF416101,UF416102,UF423701,UF423702

>ms2peaks
79.054100 3523.100000
81.069600 4149.700000
91.054000 3401.500000
93.069700 5392.700000
95.085300 2102.100000
105.069700 3747.600000
107.048900 185051.400000
109.101000 1957.900000
117.069800 1938.300000
119.048700 1627.400000
119.085200 1573.800000
121.064500 44455.400000
123.043800 11461.600000
129.069800 1619.000000
133.064500 12411.900000
133.100700 1783.300000
135.080200 58979.500000
137.059900 3168.500000
143.085200 2237.100000
145.064400 6193.100000
147.116700 2980.900000
149.059500 4990.800000
153.069400 2676.300000
157.064600 3482.900000
159.080200 5501.400000
159.116000 2265.100000
161.059400 4878.300000
165.069600 1436.100000
166.077200 1366.900000
167.085100 7008.000000
171.080300 5580.300000
173.059400 21962.800000
175.075100 7957.000000
181.064400 7647.200000
181.100600 3290.400000
183.081300 1686.700000
185.095700 3390.600000
194.072700 1748.400000
195.080100 7711.300000
195.116600 2520.000000
199.075000 65898.700000
207.080200 3411.100000
208.088600 2859.900000
209.095900 3242.100000
211.111800 2016.800000
213.090600 11918.000000
213.126400 2500.800000
214.098700 11227.100000
222.103600 8796.800000
223.111000 7648.100000
223.147800 3397.500000
227.106400 8349.100000
241.158500 3575.000000
251.142400 7022.900000

>ms2peaks
79.054000 9200.100000
81.069800 3721.600000
91.054100 12639.600000
93.069700 7401.200000
95.085200 1891.500000
105.069600 9725.900000
107.048900 186547.400000
117.069500 4973.200000
119.049000 1429.300000
119.085500 1939.200000
121.064600 17098.200000
123.043900 8558.000000
129.069600 6249.200000
133.064500 4020.900000
135.080100 2435.600000
143.085300 3031.300000
145.064700 4720.300000
149.059700 2389.400000
153.069600 11418.200000
157.064400 5309.100000
159.080400 2202.700000
161.059300 4318.900000
165.069700 9276.100000
166.077600 5270.500000
167.085200 9217.600000
171.079900 2331.400000
173.059500 12635.400000
175.074600 2439.300000
181.064600 20115.000000
181.101000 3268.100000
183.080000 3244.600000
194.072300 2082.200000
195.080400 6227.200000
199.075100 12984.900000
207.080200 6554.400000
208.088800 3148.600000
213.090200 3561.600000
214.098500 3784.400000
227.106600 3122.700000

>ms2peaks
79.054100 3523.100000
81.069600 4149.700000
91.054000 3401.500000
93.069700 5392.700000
95.085300 2102.100000
105.069700 3747.600000
107.048900 185051.400000
109.101000 1957.900000
117.069800 1938.300000
119.048700 1627.400000
119.085200 1573.800000
121.064500 44455.400000
123.043800 11461.600000
129.069800 1619.000000
133.064500 12411.900000
133.100700 1783.300000
135.080200 58979.500000
137.059900 3168.500000
143.085200 2237.100000
145.064400 6193.100000
147.116700 2980.900000
149.059500 4990.800000
153.069400 2676.300000
157.064600 3482.900000
159.080200 5501.400000
159.116000 2265.100000
161.059400 4878.300000
165.069600 1436.100000
166.077200 1366.900000
167.085100 7008.000000
171.080300 5580.300000
173.059400 21962.800000
175.075100 7957.000000
181.064400 7647.200000
181.100600 3290.400000
183.081300 1686.700000
185.095700 3390.600000
194.072700 1748.400000
195.080100 7711.300000
195.116600 2520.000000
199.075000 65898.700000
207.080200 3411.100000
208.088600 2859.900000
209.095900 3242.100000
211.111800 2016.800000
213.090600 11918.000000
213.126400 2500.800000
214.098700 11227.100000
222.103600 8796.800000
223.111000 7648.100000
223.147800 3397.500000
227.106400 8349.100000
241.158500 3575.000000
251.142400 7022.900000

>ms2peaks
79.054000 9200.100000
81.069800 3721.600000
91.054100 12639.600000
93.069700 7401.200000
95.085200 1891.500000
105.069600 9725.900000
107.048900 186547.400000
117.069500 4973.200000
119.049000 1429.300000
119.085500 1939.200000
121.064600 17098.200000
123.043900 8558.000000
129.069600 6249.200000
133.064500 4020.900000
135.080100 2435.600000
143.085300 3031.300000
145.064700 4720.300000
149.059700 2389.400000
153.069600 11418.200000
157.064400 5309.100000
159.080400 2202.700000
161.059300 4318.900000
165.069700 9276.100000
166.077600 5270.500000
167.085200 9217.600000
171.079900 2331.400000
173.059500 12635.400000
175.074600 2439.300000
181.064600 20115.000000
181.101000 3268.100000
183.080000 3244.600000
194.072300 2082.200000
195.080400 6227.200000
199.075100 12984.900000
207.080200 6554.400000
208.088800 3148.600000
213.090200 3561.600000
214.098500 3784.400000
227.106600 3122.700000

