>compound UF77383134
>parentmass 291.1452
>ionization [M+H]+
>formula C14H18N4O3
>rt 891.360000
>profile orbitrap
#smiles_iso COC1=CC(=CC(=C1OC)OC)CC2=CN=C(N=C2N)N
#smiles_can COC1=CC(=CC(=C1OC)OC)CC2=CN=C(N=C2N)N
#inchikey IEDVJHCEMCRBQM-UHFFFAOYSA-N
#pubchem_id 5578
#mb_accession UF410601,UF410602

>ms2peaks
81.044800 32396.000000
110.058800 133372.200000
111.066700 27905.100000
123.066700 581254.600000
124.074500 29211.100000
151.039200 12385.300000
174.066600 7292.800000
175.098200 3896.900000
181.086200 35525.400000
187.098100 25806.900000
188.105500 8167.100000
191.093600 7244.500000
200.106100 19499.900000
201.078700 27368.600000
201.113900 68633.600000
202.121900 53717.400000
213.113400 4278.800000
215.093100 17200.800000
216.101000 17402.000000
217.108800 17574.300000
219.077200 5023.100000
227.092300 3648.900000
229.108700 170525.900000
230.116600 1054051.500000
232.096200 29233.600000
233.103700 149474.900000
243.087900 7261.400000
244.072300 12714.500000
245.103800 226389.100000
246.111600 101116.400000
247.119500 142873.400000
257.103800 337604.400000
258.111800 71946.400000
259.083000 18192.700000
259.119300 23939.100000
261.098700 1157818.900000
275.114300 810681.900000
276.122300 28665.400000
291.145700 326386.800000

>ms2peaks
81.044800 115000.600000
110.058800 221571.600000
111.066600 60437.500000
123.066700 464473.300000
124.074500 40061.400000
148.052000 8614.300000
151.039200 36326.300000
174.066600 64577.000000
175.098200 12391.300000
181.086000 8268.500000
187.098100 86631.300000
188.105900 6696.700000
188.119400 3352.000000
191.093000 31028.100000
200.106000 12573.600000
201.077500 10549.600000
201.113800 140994.200000
202.122000 7687.000000
213.114400 2911.700000
215.093300 32287.600000
216.100900 18461.700000
217.108900 17538.300000
219.077400 5023.900000
227.093100 6170.000000
229.108700 228254.000000
230.116700 42923.300000
232.095800 215007.300000
233.103600 215340.200000
243.088200 10460.900000
244.072300 4792.800000
244.095000 3116.700000
245.103700 172151.400000
247.119300 17864.800000
257.103700 213423.100000
259.083000 55927.000000
259.119600 6213.400000
261.098700 171007.600000
275.114400 116265.300000

