>compound UF78924100
>parentmass 230.1751
>ionization [M+H]+
>formula C12H23NO3
>rt 1435.500000
>profile orbitrap
#smiles_iso CCC(C)OC(=O)N1CCCCC1CCO
#smiles_can CCC(C)OC(=O)N1CCCCC1CCO
#inchikey QLHULAHOXSSASE-UHFFFAOYSA-N
#pubchem_id 125098
#mb_accession UF420701,UF420702

>ms2peaks
71.049200 1505.100000
95.085900 7045.100000
112.112300 8182.600000
128.071100 2967.100000
130.123000 66358.700000
156.102500 2272.800000

>ms2peaks
71.049300 2107.800000
95.085900 8934.900000
112.112600 4163.800000
128.071200 2832.800000
130.123200 11931.200000

