>compound UF82250307
>parentmass 330.15
>ionization [M+H]+
>formula C19H20FNO3
>rt 1296.300000
>profile orbitrap
#smiles_iso C1CNCC(C1C2=CC=C(C=C2)F)COC3=CC4=C(C=C3)OCO4
#smiles_can C1CNCC(C1C2=CC=C(C=C2)F)COC3=CC4=C(C=C3)OCO4
#inchikey AHOUBRCZNHFOSL-UHFFFAOYSA-N
#pubchem_id 4691
#mb_accession UF407901,UF407902

>ms2
70.065100 1058541.200000
82.065200 38415.100000
83.073000 9763.200000
84.080900 24662.000000
93.033600 26294.900000
96.080900 19373.600000
103.054500 15465.100000
109.028500 39196.700000
109.044900 265670.600000
123.044200 85674.000000
123.060600 345383.600000
135.060600 282677.300000
136.068500 131258.900000
137.075600 10784.200000
138.071600 13690.600000
139.039200 35184.600000
143.085400 7821.700000
147.060700 71630.400000
148.068600 49332.200000
149.076300 55307.500000
150.071500 70159.100000
151.039100 327374.800000
161.059700 9407.200000
161.076400 130251.900000
163.091900 460229.200000
164.087400 51189.000000
176.100100 35449.200000
178.102900 150387.000000
190.102800 14849.700000
192.118500 875285.300000
193.125900 18403.000000
330.150800 105361.700000

>ms2
70.065100 690262.000000
82.065300 35627.200000
83.073000 6397.600000
84.080900 7511.500000
93.033700 24062.200000
96.080900 8813.900000
103.054300 92080.800000
109.028500 45747.800000
109.044900 370022.800000
115.054400 48230.100000
123.044300 17929.300000
123.060600 218568.000000
133.044900 44354.400000
135.060600 535521.200000
136.068500 82245.500000
143.085900 6525.400000
147.060700 61715.600000
148.068500 69167.100000
149.076500 24814.200000
150.071700 36616.800000
151.039200 92340.000000
161.076300 80540.200000
163.092000 89118.800000
164.087600 13458.500000
175.091700 6094.600000
178.102700 10763.900000
192.118600 47021.800000

