>compound UF84611921
>parentmass 217.0794
>ionization [M+H]+
>formula C12H12N2S
>rt 973.680000
>profile orbitrap
#smiles_iso C1=CC(=CC=C1N)SC2=CC=C(C=C2)N
#smiles_can C1=CC(=CC=C1N)SC2=CC=C(C=C2)N
#inchikey ICNFHJVPAJKPHW-UHFFFAOYSA-N
#pubchem_id 8765
#mb_accession UF414301,UF414302

>ms2peaks
80.049800 19174.900000
93.057700 41406.700000
124.022000 1253934.900000
129.070500 8405.100000
134.018700 4771.200000
143.073200 1731.200000
156.081400 10583.800000
167.073700 113020.400000
183.027200 96324.700000
184.034900 92710.500000
199.045900 264574.100000
200.053700 512901.800000
201.037600 3698.300000
211.033400 95366.100000
217.080300 473827.800000

>ms2peaks
80.049800 152959.500000
93.057700 112563.300000
124.022000 1099964.500000
129.070400 15635.300000
134.019100 5208.500000
143.073500 1721.700000
156.081500 39660.100000
167.073700 168220.300000
183.027100 123528.900000
184.034900 153116.500000
184.100400 56345.100000
199.045900 429788.600000
200.053800 50820.600000
201.036400 2021.600000
211.033300 49996.900000

