>compound UF87358811
>parentmass 224.0917
>ionization [M+H]+
>formula C11H13NO4
>rt 1293.540000
>profile orbitrap
#smiles_iso CC1(OC2=C(O1)C(=CC=C2)OC(=O)NC)C
#smiles_can CC1(OC2=C(O1)C(=CC=C2)OC(=O)NC)C
#inchikey XEGGRYVFLWGFHI-UHFFFAOYSA-N
#pubchem_id 2314
#mb_accession UF402401,UF402402

>ms2
81.033400 6358.900000
109.028300 25093.500000

>ms2
81.033400 76248.900000
109.028300 70621.900000

