>compound UF87700262
>parentmass 203.0927
>ionization [M+H]+
>formula C10H10N4O
>rt 1068.540000
>profile orbitrap
#smiles_iso CC1=NN=C(C(=O)N1N)C2=CC=CC=C2
#smiles_can CC1=NN=C(C(=O)N1N)C2=CC=CC=C2
#inchikey VHCNQEUWZYOAEV-UHFFFAOYSA-N
#pubchem_id 38854
#mb_accession UF401701,UF401702

>ms2
72.044200 6279.100000
72.055500 11577.900000
77.038500 32931.100000
79.054100 46118.900000
83.023900 28503.300000
89.038500 25519.400000
91.053900 2660.000000
92.049400 14641.100000
93.057600 2917.500000
95.049400 3623.900000
100.050400 4285.100000
103.054300 3795.600000
104.049400 266520.800000
105.044600 11368.500000
105.057200 27914.200000
106.065000 64861.300000
107.060200 6198.400000
116.049400 5593.500000
117.044700 9467.400000
117.057100 4344.300000
118.052400 2611.200000
118.065400 4615.600000
119.060300 13648.100000
120.080600 3226.600000
130.065000 35783.200000
131.060300 3389.600000
132.068000 3448.400000
134.071300 25095.900000
143.060500 3666.100000
145.039500 61038.800000
158.071300 32344.700000
159.079000 31031.600000
160.062800 1602.400000
173.071000 2174.000000
174.078700 191677.500000
175.097700 951117.200000
186.066100 7091.000000
187.074000 6393.000000
203.092600 537405.800000

>ms2
72.055600 6326.600000
77.038400 95209.000000
79.054100 49685.000000
83.023900 27365.200000
89.038400 25243.000000
91.054100 4858.500000
92.049400 29001.700000
93.057200 5448.300000
95.049000 13316.200000
103.053900 4860.100000
104.049300 554153.600000
105.044600 35456.800000
105.057100 53264.100000
106.064900 28375.700000
107.060200 12028.600000
116.049200 4083.700000
117.044600 10240.500000
117.057200 3061.600000
118.052500 36601.400000
118.065300 4003.400000
119.060300 12717.000000
130.065000 26018.400000
131.060100 3836.400000
134.071100 13104.300000
145.039500 10614.800000
158.071300 9640.100000
159.079000 38464.000000
174.078600 39077.700000
175.097600 177949.500000
187.074100 3376.900000
203.092500 19642.700000

