>compound UF87934465
>parentmass 192.1383
>ionization [M+H]+
>formula C12H17NO
>rt 1390.020000
>profile orbitrap
#smiles_iso CCN(CC)C(=O)C1=CC=CC(=C1)C
#smiles_can CCN(CC)C(=O)C1=CC=CC(=C1)C
#inchikey MMOXZBCLCQITDF-UHFFFAOYSA-N
#pubchem_id 4284
#mb_accession UF417601,UF417602

>ms2peaks
72.044600 598790.100000
72.081100 35634.700000
91.054500 1190173.100000
100.076000 782389.900000
109.065100 157369.900000
118.065500 62317.500000
119.049400 22748944.000000
192.138900 4065242.500000

>ms2peaks
72.044600 411270.100000
91.054400 8503168.000000
100.076000 173671.600000
109.065100 874172.600000
118.065400 339213.800000
119.049400 13959011.000000

