>compound UF88961865
>parentmass 296.07
>ionization [M+H]+
>formula C12H13N3O4S
>rt 1146.900000
>profile orbitrap
#smiles_iso CC1=CC(=NO1)NS(=O)(=O)C2=CC=C(C=C2)NC(=O)C
#smiles_can CC1=CC(=NO1)NS(=O)(=O)C2=CC=C(C=C2)NC(=O)C
#inchikey GXPIUNZCALHVBA-UHFFFAOYSA-N
#pubchem_id 65280
#mb_accession UF411701,UF411702

>ms2peaks
79.054300 1954.500000
80.049600 4749.900000
92.049600 63559.000000
93.033600 53887.300000
93.057400 90717.100000
94.065200 29449.900000
97.039400 1358.500000
98.047600 4948.900000
99.055400 60353.100000
106.065300 12072.200000
107.060500 11681.800000
108.044500 334517.900000
110.060200 5006.200000
118.053000 1696.000000
118.065600 1701.400000
121.040000 2412.000000
131.060800 3836.900000
132.068400 6219.200000
134.060200 910730.900000
135.068200 3626.200000
136.075800 53614.100000
140.016700 7245.000000
146.071500 63225.700000
147.056100 2462.100000
147.079300 49163.200000
148.062900 2308.200000
148.087200 13614.900000
150.055300 11158.100000
151.032400 2691.900000
152.070700 2436.400000
156.011600 50649.800000
160.087200 125389.600000
161.001800 12404.700000
161.070900 3020.600000
162.066400 57323.600000
176.028000 20311.100000
188.082100 26496.200000
189.090100 9001.600000
190.097700 8252.400000
194.038600 19319.700000
198.022200 63013.900000
201.066200 14512.100000
202.097500 1884.500000
218.038400 1495.900000

>ms2peaks
79.054300 25871.700000
80.049500 23654.500000
92.049500 188576.600000
93.033500 37219.800000
93.057300 92051.900000
94.065100 38210.500000
97.039600 1458.300000
98.047700 2983.500000
99.055300 31331.500000
106.065200 56527.400000
107.060500 25147.100000
108.044400 291882.800000
110.060100 17819.200000
118.052600 1697.400000
121.039900 1697.300000
131.060500 12984.600000
132.068400 8370.000000
134.060100 227346.500000
135.067600 1403.300000
136.075700 4347.300000
140.016700 5671.300000
146.071400 51001.300000
147.079200 34979.400000
148.087100 4393.100000
151.032500 1315.100000
156.011100 6061.400000
160.087100 44415.200000
161.001500 2676.100000
162.066400 1788.800000
176.027600 4138.500000
201.066300 4251.900000

