>compound UF88119187
>parentmass 165.1022
>ionization [M+H]+
>formula C9H12N2O
>rt 1046.220000
>profile orbitrap
#smiles_iso CN(C)C(=O)NC1=CC=CC=C1
#smiles_can CN(C)C(=O)NC1=CC=CC=C1
#inchikey XXOYNJXVWVNOOJ-UHFFFAOYSA-N
#pubchem_id 7560
#mb_accession UF404501,UF404502

>ms2peaks
72.044200 568019.400000
77.038400 6238.600000
92.049400 27157.600000
105.044700 1969.700000
120.044300 57945.800000
165.102200 97108.700000

>ms2peaks
72.044200 708254.900000
77.038500 40771.500000
92.049400 68908.500000
105.044600 16538.200000
120.044300 44590.100000
165.102300 2551.200000

