>compound UF88999388
>parentmass 267.1703
>ionization [M+H]+
>formula C14H22N2O3
>rt 400.080000
>profile orbitrap
#smiles_iso CC(C)NCC(COC1=CC=C(C=C1)CC(=O)N)O
#smiles_can CC(C)NCC(COC1=CC=C(C=C1)CC(=O)N)O
#inchikey METKIMKYRPQLGS-UHFFFAOYSA-N
#pubchem_id 2249
#mb_accession UF407601,UF407602

>ms2
72.080800 19326.600000
74.060000 55769.800000
91.054200 3259.100000
93.069800 2580.400000
98.096500 26818.000000
107.049200 7092.400000
116.107100 38434.600000
117.070100 2286.600000
119.049200 7606.500000
121.064900 15521.000000
122.060100 2172.800000
133.064900 30984.200000
134.060100 1833.000000
145.064900 134676.900000
147.044100 9166.200000
162.066300 4976.600000
162.091500 15081.000000
163.075300 6015.200000
164.070900 27284.900000
173.060000 11788.800000
178.086400 43693.200000
190.086500 66206.700000
208.097100 13817.500000
225.123500 10976.600000

>ms2
72.080800 7245.800000
74.060100 22011.600000
91.054300 19226.900000
93.069900 11154.500000
98.096500 3713.600000
107.049200 19799.400000
116.107100 5097.400000
117.070100 15348.700000
119.049200 13016.600000
121.064900 16885.300000
122.060100 3277.600000
133.064900 54441.900000
134.060200 16613.900000
145.064900 108888.000000
147.044100 4780.500000
162.066400 10382.700000
162.091600 1492.600000
164.070900 3273.500000
173.060400 1979.500000
178.086300 3211.300000

