>compound UF90107797
>parentmass 373.285
>ionization [M+H]+
>formula C23H36N2O2
>rt 1502.700000
>profile orbitrap
#smiles_iso C[C@]12CC[C@H]3[C@H]([C@@H]1CC[C@@H]2C(=O)NC(C)(C)C)CC[C@@H]4[C@@]3(C=CC(=O)N4)C
#smiles_can CC12CCC3C(C1CCC2C(=O)NC(C)(C)C)CCC4C3(C=CC(=O)N4)C
#inchikey DBEPLOCGEIEOCV-WSBQPABSSA-N
#pubchem_id 57363
#mb_accession UF411501,UF411502

>ms2
70.064900 3248.100000
72.044400 20918.300000
77.038700 2352.500000
79.054300 27946.200000
81.070000 66666.500000
83.085700 4650.800000
86.060200 19686.400000
91.054400 21220.100000
93.070000 62709.500000
95.085600 192373.700000
96.044500 21050.600000
96.089000 11920.200000
98.060200 54619.200000
105.070000 35695.100000
107.085700 63936.800000
108.081100 4104.100000
109.064900 4457.900000
109.101300 30298.000000
110.060200 23269.100000
112.075900 3703.200000
117.070100 5319.600000
119.085700 37461.300000
121.065000 5882.400000
121.101400 68674.100000
122.060200 18577.100000
124.075900 19821.400000
126.091600 18488.500000
129.070000 4130.800000
131.085700 21863.600000
133.101400 64191.500000
135.117100 45415.500000
136.075900 10176.200000
138.091700 22284.300000
143.085800 19742.600000
145.101400 50302.100000
147.080700 8799.900000
147.117000 63578.300000
148.120500 5714.000000
149.096200 7471.200000
149.132700 23621.800000
150.091500 8287.100000
152.107200 9264.200000
155.085800 6396.700000
157.101400 14190.000000
159.080700 5587.600000
159.117100 26513.800000
161.096400 23745.600000
161.132900 26922.400000
163.112100 7770.500000
164.107300 13238.000000
166.123000 7014.200000
169.101600 3748.400000
171.117400 13026.700000
173.096900 5824.200000
173.132900 50040.100000
175.112000 14618.500000
175.148400 174202.800000
176.107200 10752.300000
177.164100 26193.000000
178.122900 13742.100000
180.138400 9935.500000
181.101400 6513.800000
183.117400 12780.200000
185.132700 53713.800000
187.148400 67791.300000
189.164100 105496.700000
190.167500 14265.500000
192.139000 7760.100000
195.117200 15005.100000
197.132700 16185.600000
199.112000 7193.900000
199.148700 11310.700000
201.127700 13775.600000
201.163900 12581.200000
203.143500 23803.700000
203.179900 7519.400000
204.175100 3143.700000
209.132900 4392.800000
211.148200 13696.000000
213.127700 5490.700000
213.164200 33393.700000
215.143400 39582.800000
215.179900 17438.900000
220.170000 72490.500000
222.185600 5758.800000
227.143300 2794.100000
227.179900 32485.800000
229.159300 3808.800000
229.195500 13415.700000
232.170100 35774.800000
234.184700 3582.200000
237.164200 49957.300000
239.179900 21203.300000
241.159500 5206.300000
246.186400 5269.500000
247.147500 3116.000000
249.196600 62514.100000
254.190900 25117.000000
255.174900 79542.400000
256.206800 13338.500000
257.190900 12396.200000
258.185900 6975.400000
265.159700 9395.800000
272.201300 45866.600000
274.217100 43966.900000
276.231800 4400.300000
282.185700 16599.900000
283.169500 16431.800000
288.233200 8678.500000
299.212900 13535.500000
300.196500 10605.500000
305.259400 1771391.500000
306.262800 359260.100000
317.223200 49943.500000
331.275000 26535.700000
355.275000 55047.300000
356.278100 14334.300000
357.254400 24787.400000
373.285500 2109257.800000

>ms2
70.065100 21593.600000
72.044400 56069.800000
77.038600 20924.100000
79.054200 151713.900000
81.069900 224136.000000
83.085500 11577.000000
86.060100 41488.000000
91.054300 156780.800000
93.069900 266511.700000
95.085500 594058.400000
96.044400 71394.400000
96.088900 8661.300000
98.060000 69175.000000
105.069900 217377.700000
107.085500 206259.800000
108.081000 18505.500000
109.064900 13021.900000
109.101200 75839.900000
110.060000 78009.300000
112.075800 8141.100000
117.070100 45296.800000
119.085600 223897.000000
120.080700 8598.700000
121.064900 29419.700000
121.101300 94780.600000
122.060200 67134.600000
124.075700 55917.800000
126.091500 20428.500000
128.062200 10380.400000
129.070000 30742.600000
131.085700 136100.500000
133.101200 176387.500000
135.117000 43215.400000
136.075600 21743.800000
138.091300 32162.000000
141.069300 7840.300000
143.085600 74877.700000
145.101300 157295.700000
147.080300 15057.600000
147.116900 165208.900000
148.121000 7381.400000
149.132900 18722.800000
150.091100 13870.700000
155.085600 33439.000000
157.101500 47977.300000
159.117000 73957.300000
161.096300 31882.200000
161.132700 50823.600000
164.107100 7437.000000
169.101300 20022.400000
171.116800 36624.500000
173.096000 17449.700000
173.132600 83063.200000
175.111900 16511.700000
175.148300 74327.700000
181.101800 18345.000000
183.117100 19129.400000
185.132500 71887.100000
187.148300 131895.200000
189.164000 33616.800000
195.117500 26107.300000
197.132800 34042.700000
199.112200 7561.600000
199.148300 10593.400000
201.164100 9311.300000
204.175000 10698.000000
209.133000 7663.200000
211.147600 11370.600000
213.127700 6697.700000
213.164500 22369.900000
215.143100 35627.900000
220.170100 17172.600000
232.169800 11877.800000
237.164500 7270.600000
249.196200 25459.400000
254.190400 11219.500000
299.212500 45197.700000
305.259100 150250.900000
355.275500 21513.300000
357.254400 54445.600000
373.285500 15770.800000

