>compound UF91322320
>parentmass 136.1121
>ionization [M+H]+
>formula C9H13N
>rt 1020.120000
>profile orbitrap
#smiles_iso CC(C)C1=CC=C(C=C1)N
#smiles_can CC(C)C1=CC=C(C=C1)N
#inchikey LRTFPLFDLJYEKT-UHFFFAOYSA-N
#pubchem_id 7464
#mb_accession UF414501,UF414502

>ms2
79.054600 6151.200000
91.054600 159985.000000
93.057800 14446.300000
94.065500 1338273.800000
103.054600 8173.300000
104.062500 19844.200000
117.070400 24982.900000
119.086000 21451.600000
120.081400 22578.100000
136.112600 4885152.000000

>ms2
79.054600 60413.200000
91.054600 1024785.400000
93.057800 38599.500000
94.065400 1735916.200000
103.054700 107579.400000
104.062500 231781.000000
105.033800 4076.600000
117.070400 143198.300000
119.086000 44531.400000
120.081300 117110.300000
121.089100 234040.600000
136.112700 1462807.000000
147.092400 116509.600000

