>compound UF92717706
>parentmass 195.1016
>ionization [M+H]+
>formula C11H14O3
>rt 1479.900000
>profile orbitrap
#smiles_iso CCCCOC(=O)C1=CC=C(C=C1)O
#smiles_can CCCCOC(=O)C1=CC=C(C=C1)O
#inchikey QFOHBWFCKVYLES-UHFFFAOYSA-N
#pubchem_id 7184
#mb_accession UF415801,UF415802,UF423401,UF423402

>ms2
77.038500 1500.800000
83.060300 6117.200000
95.049000 15433.800000
109.039400 2771.900000
111.055100 1782.300000
121.028200 9116.300000
139.038800 9265.800000

>ms2
77.038400 2889.400000
83.060200 34430.900000
95.049000 10325.800000
109.039500 13954.800000
111.055100 4620.100000
121.028200 11905.600000

>ms2
77.038500 1500.800000
83.060300 6117.200000
95.049000 15433.800000
109.039400 2771.900000
111.055100 1782.300000
121.028200 9116.300000
139.038800 9265.800000

>ms2
77.038400 2889.400000
83.060200 34430.900000
95.049000 10325.800000
109.039500 13954.800000
111.055100 4620.100000
121.028200 11905.600000

