>compound UF92405483
>parentmass 214.1121
>ionization [M+H]+
>formula C8H15N5S
>rt 1205.580000
>profile orbitrap
#smiles_iso CCNC1=NC(=NC(=N1)SC)NCC
#smiles_can CCNC1=NC(=NC(=N1)SC)NCC
#inchikey MGLWZSOBALDPEK-UHFFFAOYSA-N
#pubchem_id 13905
#mb_accession UF402101,UF402102

>ms2peaks
71.060300 211414.600000
74.005900 60826.000000
91.032500 21968.700000
96.055600 746549.600000
102.037200 41387.400000
110.045900 2124.000000
113.082300 28823.800000
116.027800 226994.600000
124.086900 1472533.400000
138.077600 32380.600000
141.113600 24242.000000
144.059100 918673.400000
158.049600 12447.000000
159.070100 3352.300000
166.108900 432099.300000
168.124600 5086.100000
186.080900 234836.800000
198.080200 2893.900000
199.089000 9918.800000
214.112200 2111805.800000

>ms2peaks
71.060200 605396.900000
74.005800 328311.200000
91.032400 48545.800000
96.055500 1535255.800000
102.037200 24516.300000
110.045900 9256.800000
113.082200 66868.100000
116.027600 944770.900000
124.086800 770347.000000
138.077400 75124.800000
141.113600 12215.700000
144.058900 504940.400000
158.049700 16279.400000
166.108600 122004.400000
186.080700 67753.200000
198.081000 7422.800000
214.112100 99178.900000

