>compound UF92364182
>parentmass 130.1087
>ionization [M+H]+
>formula C4H11N5
>rt 128.160000
>profile orbitrap
#smiles_iso CN(C)C(=N)N=C(N)N
#smiles_can CN(C)C(=N)N=C(N)N
#inchikey XZWYZXLIPXDOLR-UHFFFAOYSA-N
#pubchem_id 4091
#mb_accession UF412401,UF412402

>ms2
71.060600 119360.400000
85.051300 70422.400000
88.087300 84922.600000
113.082700 53913.800000
130.109200 232420.800000

>ms2
71.060600 205340.100000
85.051200 63053.500000
88.087300 64140.300000
113.082600 39875.400000

