>compound UF96433046
>parentmass 308.1524
>ionization [M+H]+
>formula C16H22ClN3O
>rt 1556.460000
>profile orbitrap
#smiles_iso CC(C)(C)C(CCC1=CC=C(C=C1)Cl)(CN2C=NC=N2)O
#smiles_can CC(C)(C)C(CCC1=CC=C(C=C1)Cl)(CN2C=NC=N2)O
#inchikey PXMNMQRDXWABCY-UHFFFAOYSA-N
#pubchem_id 86102
#mb_accession UF404301,UF404302

>ms2
70.039800 592378.500000
83.085400 4635.300000
115.054300 5296.000000
116.062100 3650.500000
125.015100 131583.100000
139.030900 10695.700000
151.030800 65434.000000
165.046400 16147.400000
179.061800 3123.200000
308.152200 2872.100000

>ms2
70.039800 2516011.800000
83.085400 10797.500000
115.054100 135547.300000
116.061900 222751.700000
125.015100 1096789.600000
139.030800 45538.100000
151.030900 130961.100000
165.046400 21149.500000

