>compound UF96334590
>parentmass 134.0713
>ionization [M+H]+
>formula C7H7N3
>rt 482.640000
>profile orbitrap
#smiles_iso C1=CC=C2C(=C1)NC(=N2)N
#smiles_can C1=CC=C2C(=C1)NC(=N2)N
#inchikey JWYUFVNJZUSCSM-UHFFFAOYSA-N
#pubchem_id 13624
#mb_accession UF400801,UF400802

>ms2peaks
92.049400 4199.900000
134.071100 870157.400000

>ms2peaks
92.049400 125646.600000
134.071100 829881.400000

