>compound ET00729131
>parentmass 212.107
>ionization [M+H]+
>formula C14H13NO
>rt 588.000000
>profile orbitrap
#smiles_iso C1=CC=C(C=C1)C(CC=O)C2=CC=CC=N2
#smiles_can C1=CC=C(C=C1)C(CC=O)C2=CC=CC=N2
#inchikey NIUINLYXRYRLBJ-UHFFFAOYSA-N
#pubchem_id 10443138
#mb_accession ET110903

>ms2peaks
106.064800 1960.000000
167.072800 56055.700000
168.080600 135124.700000
169.088300 13375.500000
193.088600 2350.800000
194.096600 10633.300000
212.106600 1570.900000

