>compound ET04841023
>parentmass 257.1648
>ionization [M+H]+
>formula C16H20N2O
>rt 630.000000
>profile orbitrap
#smiles_iso C[N+](C)(CCC(C1=CC=CC=C1)C2=CC=CC=N2)[O-]
#smiles_can C[N+](C)(CCC(C1=CC=CC=C1)C2=CC=CC=N2)[O-]
#inchikey OBBDJQMNZLQVAZ-UHFFFAOYSA-N
#pubchem_id 222605
#mb_accession ET150201,ET150202,ET150203,ET150204,ET150205

>ms2peaks
168.081300 267521.200000
196.112400 137183824.000000
257.165300 7642677.500000

>ms2peaks
167.072900 710906.500000
168.081300 626546.000000
196.112400 148729392.000000
257.163600 253717.100000

>ms2peaks
91.054200 471577.700000
118.064900 617534.400000
167.073100 2805221.500000
168.081100 5038841.500000
196.112400 137111296.000000

>ms2peaks
91.054400 3044352.200000
110.059900 230924.200000
117.057400 526592.600000
118.065200 2525853.500000
119.073200 459071.600000
167.073300 13020799.000000
168.081100 26621306.000000
180.080900 248300.900000
181.088700 302561.000000
194.097200 817463.400000
195.105000 469728.900000
196.112400 94916256.000000

>ms2peaks
91.054400 8310387.000000
103.054500 124394.200000
110.060200 757836.800000
115.054500 202414.600000
117.057500 2141672.200000
118.065300 6498808.000000
119.073100 1573219.100000
129.070500 137728.000000
166.065000 260416.800000
167.073400 33523914.000000
168.081100 48004888.000000
179.086300 54786.100000
180.081200 873569.600000
181.088700 686625.900000
194.096900 2109000.200000
195.105000 721181.400000
196.112400 41118004.000000

