>compound ET08894776
>parentmass 298.2741
>ionization [M+H]+
>formula C18H35NO2
>rt 930.000000
>profile orbitrap
#smiles_iso CCCN(CC)CC1COC2(O1)CCC(CC2)C(C)(C)C
#smiles_can CCCN(CC)CC1COC2(O1)CCC(CC2)C(C)(C)C
#inchikey PUYXTUJWRLOUCW-UHFFFAOYSA-N
#pubchem_id 86160
#mb_accession ET180001,ET180002,ET180003,ET180004,ET180005

>ms2
58.065500 1201004.500000
72.081000 3826447.500000
83.085800 368279.900000
84.081000 634322.900000
86.096500 299993.600000
100.112200 42738788.000000
102.091300 1319057.800000
116.106800 119337.900000
126.127700 983802.400000
144.138600 101854568.000000
160.133500 416285.400000
298.274200 2269891.200000

>ms2
58.065600 4154856.750000
72.081000 11323957.000000
74.060300 155685.500000
81.070100 130003.300000
83.085800 321772.200000
84.081000 1377151.600000
86.096500 629941.500000
98.096700 249337.400000
100.112300 65852112.000000
102.091400 2323829.800000
116.106500 236057.000000
126.127800 1324968.600000
144.138600 49902484.000000
160.133100 120773.200000

>ms2
58.065600 8539124.000000
69.070100 63200.100000
70.065200 190421.400000
72.081000 17500868.000000
74.060300 129210.200000
81.069800 191213.800000
83.085800 162446.700000
84.081000 1686176.600000
86.096500 636336.500000
98.096800 242255.400000
100.112200 56103484.000000
102.091400 2191839.800000
116.107100 171980.200000
126.127800 750512.600000
144.138500 14335409.000000

>ms2
58.065600 10978203.000000
70.065300 197863.600000
72.081000 18578188.000000
74.060300 38045.800000
81.070000 125365.700000
82.065200 36432.400000
84.080900 1387955.800000
86.096600 566516.700000
98.096600 275106.400000
100.112200 31890318.000000
102.091400 1307533.800000
126.127600 189634.000000
144.138500 2562472.500000

>ms2
100.111700 1728078.600000
144.138400 19285906.000000
298.274200 144106976.000000

