>compound ET12106465
>parentmass 227.1543
>ionization [M+H]+
>formula C15H18N2
>rt 594.000000
>profile orbitrap
#smiles_iso CNCCC(C1=CC=CC=C1)C2=CC=CC=N2
#smiles_can CNCCC(C1=CC=CC=C1)C2=CC=CC=N2
#inchikey GDCVFNAQLOMGMS-UHFFFAOYSA-N
#pubchem_id 161283
#mb_accession ET110001,ET110002,ET110003,ET110004,ET110005

>ms2
91.054200 86564.900000
167.072400 382480.300000
168.080800 392284.400000
196.111900 73789232.000000

>ms2
91.054100 373387.200000
119.073100 81547.600000
167.072800 1754686.500000
168.080700 3636279.800000
194.097200 105521.600000
195.104700 146563.800000
196.112000 69964280.000000

>ms2
91.054200 1905927.800000
110.059700 145332.700000
117.057200 331646.700000
118.064900 1640821.400000
119.073000 328691.900000
129.069700 66799.300000
166.064800 63557.300000
167.072900 8522238.000000
168.080600 16841810.000000
180.080800 195636.900000
181.088200 206370.200000
194.096400 564685.400000
195.104700 360915.600000
196.112000 47163724.000000

>ms2
65.038800 130135.700000
79.054100 36488.200000
80.049600 65700.300000
91.054200 4646341.000000
92.049200 115266.800000
93.057200 93645.100000
94.065100 38282.400000
103.054100 82822.300000
110.059900 431603.000000
115.054000 126539.200000
117.057200 1153235.500000
118.065000 3508840.500000
119.072900 810085.600000
128.061700 32570.700000
129.069900 81593.900000
141.069800 80737.700000
167.073000 19713372.000000
168.080700 26276868.000000
180.080700 538021.200000
181.088300 374166.700000
193.088200 81965.400000
194.096400 1158150.900000
195.104100 432402.300000
196.112000 18421230.000000

>ms2
65.038800 502907.600000
78.034100 67189.500000
80.049600 71773.200000
91.054200 5678774.500000
92.049300 226634.600000
93.057300 191392.600000
94.065100 89133.900000
96.044400 117147.900000
103.054200 173805.200000
110.060000 499985.200000
115.053900 250726.000000
117.057200 2013397.100000
118.065000 4844486.500000
119.072900 856854.000000
128.061900 38074.600000
129.069900 62942.400000
141.070100 169149.700000
166.065000 346235.800000
167.073000 27687644.000000
168.080600 17426546.000000
180.080600 690234.100000
181.088400 238798.400000
193.088700 167601.300000
194.096400 1467864.900000
195.103700 191211.400000
196.112100 3846017.800000

