>compound ET13164322
>parentmass 272.1757
>ionization [M+H]+
>formula C16H21N3O
>rt 660.000000
>profile orbitrap
#smiles_iso CNCCN(CC1=CC=C(C=C1)OC)C2=CC=CC=N2
#smiles_can CNCCN(CC1=CC=C(C=C1)OC)C2=CC=CC=N2
#inchikey LWKSMQXIHQRJJJ-UHFFFAOYSA-N
#pubchem_id 153224
#mb_accession ET170201,ET170202,ET170203,ET170204,ET170205,ET170206

>ms2peaks
121.064800 119675.100000
121.075700 17141.187500
241.133500 38968.600000
272.175700 59960.200000

>ms2peaks
121.064800 242364.600000
241.133500 22088.400000
272.175400 1574.800000

>ms2peaks
121.064800 262350.200000

>ms2peaks
91.054200 5555.600000
95.049200 2420.700000
105.045100 2031.700000
121.064800 223138.700000

>ms2peaks
65.038400 1540.700000
77.038500 2349.700000
78.046300 10226.500000
91.054300 16295.400000
95.049200 10811.100000
105.044600 5210.400000
121.064800 197257.200000

>ms2peaks
65.038500 2776.800000
77.038500 2843.800000
78.046400 19931.200000
91.054200 26438.100000
95.049100 15532.600000
105.045000 14460.700000
121.064800 113114.600000

