>compound ET13680591
>parentmass 233.1648
>ionization [M+H]+
>formula C14H20N2O
>rt 870.000000
>profile orbitrap
#smiles_iso CCN(CC(=O)NC1=C(C=CC=C1C)C)C=C
#smiles_can CCN(CC(=O)NC1=C(C=CC=C1C)C)C=C
#inchikey TXEIHNNJACYVDP-UHFFFAOYSA-N
#pubchem_id 133052752
#mb_accession ET080403

>ms2
55.054300 8814.300000
58.065300 64565.000000
59.049300 2213.200000
67.054300 2800.100000
69.069800 2002.900000
73.064700 2870.900000
79.054200 2868.900000
81.069800 2043.500000
83.049200 9206.100000
84.080800 11961.900000
91.053900 2335.500000
95.085700 1609.700000
97.064800 3093.400000
101.059900 10783.800000
105.069800 16439.600000
107.085400 1352.800000
109.101400 1656.400000
111.043800 1694.800000
113.059400 2079.600000
118.065000 2980.900000
119.085500 5388.300000
123.080400 2378.100000
131.085500 3153.700000
133.088700 9579.600000
145.101500 1797.300000
148.112100 156000.800000
161.070800 1746.900000
207.159900 1400.300000

