>compound ET19155532
>parentmass 287.131
>ionization [M+H]+
>formula C17H19ClN2
>rt 888.000000
>profile orbitrap
#smiles_iso C1CN(CCN1)C(C2=CC=CC=C2)C3=CC=C(C=C3)Cl
#smiles_can C1CN(CCN1)C(C2=CC=CC=C2)C3=CC=C(C=C3)Cl
#inchikey UZKBSZSTDQSMDR-UHFFFAOYSA-N
#pubchem_id 9340
#mb_accession ET030001,ET030002,ET030003,ET030004,ET030005

>ms2peaks
85.076100 133362.800000
166.077200 293969.400000
201.046400 43933536.000000

>ms2peaks
85.076000 71499.400000
165.069400 819522.100000
166.077600 1494036.600000
183.080500 120355.800000
193.076600 73256.200000
201.046400 47261376.000000

>ms2peaks
85.076100 91166.300000
121.064500 62550.300000
165.069800 4118898.200000
166.077700 12229394.000000
183.080400 1180848.900000
193.076200 636886.900000
199.030400 124985.900000
201.046400 31407312.000000

>ms2peaks
85.076000 39324.700000
121.064500 45910.600000
164.061300 73129.900000
165.070000 10394742.000000
166.077800 26716016.000000
183.080400 1241068.600000
193.076100 711358.400000
199.030800 346804.700000
201.046400 9398392.000000

>ms2peaks
115.054100 48891.400000
121.064600 34468.600000
164.061600 127968.500000
165.070000 21194600.000000
166.077500 25918016.000000
183.080300 471691.800000
193.076000 277043.700000
199.030700 507909.200000
201.046400 1478136.000000

