>compound ET19586938
>parentmass 225.0789
>ionization [M+H]+
>formula C11H13ClN2O
>rt 984.000000
>profile orbitrap
#smiles_iso C1CN(CCN1C=O)C2=CC(=CC=C2)Cl
#smiles_can C1CN(CCN1C=O)C2=CC(=CC=C2)Cl
#inchikey IGIBHEMNRYAZQH-UHFFFAOYSA-N
#pubchem_id 11264593
#mb_accession ET130401,ET130402,ET130403,ET130404,ET130405,ET130406

>ms2peaks
154.041700 2488.200000
197.084100 165964.200000
225.078600 103715.300000

>ms2peaks
98.060000 3102.500000
123.079900 1545.300000
154.042000 18314.700000
197.084000 206578.000000
225.078200 34078.700000

>ms2peaks
70.065200 4820.400000
98.060100 10827.100000
118.065100 2839.100000
119.073100 10097.700000
123.080700 1817.200000
133.101000 2197.600000
154.041800 81224.000000
195.069100 2199.100000
197.084000 117901.100000

>ms2peaks
70.065100 7177.100000
79.054100 1249.000000
81.069700 1421.700000
91.054000 1624.000000
98.059900 6879.500000
105.070200 1476.800000
118.065200 14461.900000
119.073000 33131.600000
133.101300 1620.800000
154.041900 103840.100000
195.068200 2521.700000
197.084000 31432.900000

>ms2peaks
67.054200 1495.000000
70.065100 2502.300000
79.054100 2097.600000
81.070000 4855.600000
91.054100 9632.000000
98.059900 3027.000000
105.070100 2881.300000
117.057200 2420.600000
118.065100 43125.000000
119.073100 45541.300000
140.026000 2702.400000
154.041900 68221.800000
197.084000 5448.900000

>ms2peaks
67.054400 2530.600000
70.065100 1924.700000
79.054400 1792.800000
91.054200 15954.600000
98.060300 1592.700000
117.057300 5139.300000
118.065200 64470.400000
119.072900 31481.400000
140.026200 5138.800000
154.041900 24669.100000

