>compound ET19592372
>parentmass 176.107
>ionization [M+H]+
>formula C11H13NO
>rt 558.000000
>profile orbitrap
#smiles_iso C[N+](CC#C)(CC1=CC=CC=C1)[O-]
#smiles_can C[N+](CC#C)(CC1=CC=CC=C1)[O-]
#inchikey NZCJCBZLNHDNCR-UHFFFAOYSA-N
#pubchem_id 173313
#mb_accession ET140101,ET140102,ET140103,ET140104,ET140105

>ms2peaks
60.044900 2853922.500000
65.038800 620443.300000
79.054500 646901.600000
82.065500 607726.400000
84.044600 1100302.600000
90.046600 219666.300000
91.054400 164918880.000000
107.049400 873969.100000
117.070100 702912.900000
118.078000 232556.400000
129.070100 1436922.900000
131.085900 432800.700000
143.073200 631209.700000
158.096800 838653.300000
159.104800 2915512.200000
176.107400 25987850.000000

>ms2peaks
65.038900 1653154.500000
79.054500 874642.200000
82.065400 755488.200000
84.044700 652995.500000
91.054400 208894608.000000
107.049500 403509.600000
115.054600 367732.000000
117.070000 351903.400000
128.062400 245127.500000
129.069900 792208.800000
131.085600 271845.700000
143.073600 470326.000000
144.081400 434070.300000
158.096800 664531.400000
159.104700 857211.500000
176.107200 1757237.800000

>ms2peaks
65.039000 2496501.750000
79.054400 491388.400000
84.044600 273616.600000
91.054400 168561104.000000
115.054300 261144.900000
117.070200 207321.800000
128.062500 310107.400000
129.070000 404103.100000
143.073500 323011.500000
158.096600 460062.800000

>ms2peaks
65.039000 6678363.000000
79.054600 567852.600000
82.065500 433621.800000
91.054400 180434064.000000
115.054700 384787.500000
117.070100 203203.400000
128.062400 341769.200000
143.073600 256665.200000

>ms2peaks
65.039000 16377211.000000
79.054500 346303.600000
82.065400 357844.400000
89.038600 189793.500000
91.054400 160623264.000000
95.049200 223034.600000
115.054800 398916.900000
128.062600 377981.400000

