>compound ET20032891
>parentmass 297.09999999999997
>ionization [M+H]+
>formula C14H17ClN2O3
>rt 978.000000
>profile orbitrap
#smiles_iso C1CN(CCN1C2=CC=CC=C2Cl)C(=O)CCC(=O)O
#smiles_can C1CN(CCN1C2=CC=CC=C2Cl)C(=O)CCC(=O)O
#inchikey FMKKWAHJJLLAOW-UHFFFAOYSA-N
#pubchem_id 28830401
#mb_accession ET130201,ET130202,ET130203,ET130204,ET130205,ET130206

>ms2peaks
101.023800 6159.200000
126.054800 6164.700000
170.080900 6745.100000
195.068100 2041.800000
197.084000 110475.700000
254.058600 12408.500000
279.089500 585139.900000
297.100100 1015530.300000

>ms2peaks
101.023300 28961.300000
124.076100 2408.200000
126.055000 79234.900000
154.042100 23099.200000
170.081400 19464.600000
194.061000 15828.100000
195.068400 86956.000000
197.084000 203020.300000
223.063900 1904.500000
251.094500 49545.200000
254.057900 27945.700000
261.078400 3369.000000
279.089600 1086749.600000
297.100100 108687.900000

>ms2peaks
55.017900 12509.300000
55.054300 2867.900000
56.049600 3490.000000
70.065100 9962.300000
73.028400 19642.100000
85.028400 21737.000000
98.060100 60230.700000
101.023400 72267.800000
118.065300 3268.100000
119.072900 14956.100000
124.075700 25817.900000
126.054900 176134.000000
138.010500 6648.500000
140.026200 18288.500000
154.041900 102281.900000
166.041700 10281.700000
167.036600 2027.600000
170.081200 19601.500000
178.041800 2789.800000
180.057300 6951.200000
181.053100 22093.700000
194.060700 47475.800000
195.068500 240604.600000
197.084000 207680.000000
208.052600 47602.700000
209.083100 1643.700000
220.076200 8171.400000
221.084500 2430.800000
223.063300 27088.000000
251.094700 110533.800000
254.057300 16369.500000
261.077800 2645.500000
279.089600 264822.500000

>ms2peaks
55.018000 32958.900000
55.054300 7435.600000
56.049600 14564.400000
67.054200 1603.500000
68.049500 2550.000000
70.028800 12487.000000
70.065100 19629.000000
73.028400 52068.700000
79.054300 1697.600000
82.064900 6348.100000
85.028500 21642.000000
91.053900 1977.500000
95.049300 1678.400000
98.060100 63848.700000
101.023400 49878.600000
117.056800 2443.500000
118.065300 17765.700000
119.073000 47652.700000
124.075800 22497.700000
126.055000 77846.900000
132.080300 1666.100000
138.010700 19653.000000
140.026100 31515.900000
144.081300 1785.700000
154.041900 216851.300000
160.099900 2930.800000
166.041800 33799.100000
167.037100 12197.200000
170.081300 8419.900000
178.041900 9474.700000
181.052900 29733.000000
194.060800 29418.500000
195.068500 95040.400000
197.084100 108064.500000
208.052400 39707.600000
209.082900 1746.500000
220.075900 9661.000000
221.084300 6453.400000
223.063300 38653.100000
251.094400 27516.100000
279.089400 16874.600000

>ms2peaks
55.018000 47980.300000
55.054300 7079.900000
56.049600 14893.600000
68.049500 3097.500000
70.028800 25777.000000
70.065100 20290.900000
73.028400 62887.200000
82.065000 3121.200000
85.028400 8381.200000
91.054100 9828.100000
92.061900 2543.400000
98.060100 22350.900000
101.023300 22768.300000
117.057200 9502.900000
118.065200 70006.300000
119.073000 101852.000000
124.075500 9314.600000
126.055000 15817.100000
130.065100 2480.400000
132.080900 3017.700000
138.010400 48733.700000
139.005700 8201.000000
140.026100 27628.800000
143.072900 3488.800000
144.080700 5774.700000
152.025900 2824.000000
154.041900 211403.200000
160.099500 2114.900000
166.041800 30933.000000
167.037500 11774.300000
178.042600 10132.200000
180.057300 2636.600000
181.052800 27448.700000
194.060100 12994.200000
195.068000 17976.000000
197.083900 27883.000000
220.076000 2927.500000
223.063500 14702.300000
251.095500 1602.100000

>ms2peaks
55.018000 46463.400000
55.054300 2884.600000
56.049700 14818.800000
67.054200 2154.400000
68.049400 1840.800000
70.028800 22763.700000
70.065000 9858.400000
73.028400 41719.000000
79.054600 2618.700000
85.028100 1272.700000
91.054100 20857.600000
92.062100 3410.600000
95.049100 3418.600000
98.060000 6538.500000
101.023500 11810.500000
117.057300 14714.900000
118.065100 132904.200000
119.073000 102072.400000
126.055200 1521.800000
130.065200 5895.200000
132.080900 2871.100000
138.010500 48732.500000
139.005800 14812.000000
140.026200 21224.900000
143.072900 3379.900000
144.080800 2233.700000
152.026100 2444.400000
154.041900 110781.000000
166.041700 9024.100000
167.036700 2865.200000
181.052500 9981.900000
194.060700 2350.000000
195.068300 2548.300000
197.084500 2930.000000

