>compound ET21681345
>parentmass 188.1434
>ionization [M+H]+
>formula C13H17N
>rt 618.000000
>profile orbitrap
#smiles_iso CC(CC1=CC=CC=C1)N(C)CC#C
#smiles_can CC(CC1=CC=CC=C1)N(C)CC#C
#inchikey MEZLKOACVSPNER-UHFFFAOYSA-N
#pubchem_id 5195
#mb_accession ET050001,ET050002,ET050003,ET050004,ET050005

>ms2
65.038900 1566762.500000
70.065400 1452122.500000
89.038500 119480.300000
91.054300 102887808.000000
119.085900 309915.500000

>ms2
65.038900 3519045.800000
70.065400 593861.600000
79.054300 146686.300000
91.054300 94255576.000000

>ms2
65.038900 132239.100000
68.049800 49842.600000
70.065400 6698954.500000
77.038800 42948.500000
91.054300 31283130.000000
96.081000 165776.200000
97.088400 141738.700000
119.085600 36116228.000000
148.112200 148793.200000
188.143500 34812748.000000

>ms2
65.038900 70565.500000
70.065400 7299926.000000
77.038600 45272.300000
91.054300 42372644.000000
96.080800 224916.400000
97.088800 78245.700000
119.085600 36799440.000000
148.112100 155493.000000
188.143500 22010142.000000

>ms2
65.038800 309577.200000
70.065400 5373651.000000
91.054300 78505272.000000
96.080700 182077.100000
119.085600 12734919.000000
188.143700 1558018.000000

