>compound ET22084921
>parentmass 273.1234
>ionization [M+H]+
>formula C15H16N2O3
>rt 690.000000
>profile orbitrap
#smiles_iso COC1=CC=C(C=C1)CN(CC(=O)O)C2=CC=CC=N2
#smiles_can COC1=CC=C(C=C1)CN(CC(=O)O)C2=CC=CC=N2
#inchikey PPJDHLMQESOTEN-UHFFFAOYSA-N
#pubchem_id 133052763
#mb_accession ET170401,ET170402,ET170403,ET170404,ET170405,ET170406

>ms2
121.064800 184708.600000
163.074900 5468.700000
165.065900 8146.300000
191.069900 7191.900000
195.101100 6738.500000
209.081200 9442.100000

>ms2
107.060600 2162.700000
121.064800 191640.300000
135.080200 1523.500000
163.075100 17362.300000
165.065500 6798.600000
191.070100 8954.100000
195.101800 10245.300000
209.080300 5101.600000

>ms2
91.054000 1779.600000
93.070000 1993.100000
107.060200 2389.800000
117.069700 5538.500000
121.064800 218609.900000
135.080400 14177.100000
163.075200 17848.700000
191.070200 1936.000000

>ms2
79.054200 6412.900000
91.054500 11156.200000
93.069900 6726.500000
95.048900 1754.900000
105.044700 1980.300000
105.070100 1307.900000
107.049100 5235.700000
107.060500 5226.400000
117.069700 7681.300000
121.064800 164499.900000
135.080800 10606.500000
163.075500 2388.800000

>ms2
55.017900 1799.000000
77.038600 1829.500000
78.046500 10286.600000
79.054200 7919.700000
91.054300 20494.400000
93.069500 7851.600000
95.049100 9840.600000
105.044500 7214.000000
105.069800 1720.500000
107.049200 5849.400000
107.060300 2952.600000
117.069800 7664.600000
121.064800 141774.000000
135.080100 5934.800000

>ms2
55.018000 2182.800000
77.038500 3136.900000
78.046400 20267.100000
79.054300 12569.700000
91.054200 37120.000000
93.069900 8325.800000
95.049200 15161.600000
105.044500 10772.400000
105.070000 3349.500000
107.049100 2955.000000
107.060200 1546.400000
117.069700 1582.100000
121.064800 86757.100000

