>compound ET31835463
>parentmass 301.1466
>ionization [M+H]+
>formula C18H21ClN2
>rt 876.000000
>profile orbitrap
#smiles_iso CN1CCN(CC1)C(C2=CC=CC=C2)C3=CC=C(C=C3)Cl
#smiles_can CN1CCN(CC1)C(C2=CC=CC=C2)C3=CC=C(C=C3)Cl
#inchikey WFNAKBGANONZEQ-UHFFFAOYSA-N
#pubchem_id 2710
#mb_accession ET010001,ET010002,ET010003,ET010004,ET010005

>ms2peaks
99.091500 342632.000000
165.069400 1465521.800000
166.077700 2582801.200000
183.080700 258767.100000
201.046600 77820144.000000

>ms2peaks
99.091600 279921.600000
165.070000 7672120.500000
166.077800 22278618.000000
183.080500 2001362.000000
193.076300 1184815.000000
199.031000 235253.500000
201.046600 53060244.000000

>ms2peaks
70.065300 64229.500000
99.091800 113872.800000
115.054100 76526.100000
139.053600 95536.900000
163.053600 68337.400000
164.062500 72009.800000
165.070200 18763498.000000
166.077900 47600128.000000
183.080500 2153203.000000
193.076200 1421231.800000
199.030900 608343.600000
201.046600 16220552.000000

>ms2peaks
70.065300 83867.900000
115.054000 116846.400000
139.053600 126423.300000
163.054300 128076.900000
164.061900 288266.200000
165.070200 37085440.000000
166.077700 43704420.000000
183.080500 710310.200000
193.076200 485933.400000
199.031000 929262.900000
201.046600 2415086.000000

>ms2peaks
65.038800 65355.700000
70.065300 70370.100000
98.999600 137511.300000
115.054200 435320.100000
139.053800 360116.300000
149.015100 88599.000000
152.061900 64516.700000
163.055000 221627.300000
164.062100 875799.900000
165.070200 57875252.000000
166.077500 22575094.000000
183.080700 138895.700000
193.076200 99050.500000
199.031000 1034928.300000
201.046700 259267.700000

