>compound ET33560556
>parentmass 174.1277
>ionization [M+H]+
>formula C12H15N
>rt 630.000000
>profile orbitrap
#smiles_iso CC(CC1=CC=CC=C1)NCC#C
#smiles_can CC(CC1=CC=CC=C1)NCC#C
#inchikey UUFAJPMQSFXDFR-UHFFFAOYSA-N
#pubchem_id 200718
#mb_accession ET050301,ET050302,ET050303,ET050304,ET050305

>ms2
65.038600 310476.900000
91.054100 49622988.000000
119.085300 755625.100000

>ms2
65.038700 744184.400000
79.054300 57699.600000
91.054100 48840172.000000
119.085700 109852.900000

>ms2
63.023100 79130.900000
65.038700 1959566.000000
79.053900 56155.400000
91.054000 45017504.000000

>ms2
56.049800 95209.300000
65.038800 73284.200000
91.054000 26502372.000000
119.085300 21447654.000000
174.127400 5132644.000000

>ms2
65.038800 89021.200000
82.065100 34126.800000
91.054000 26924632.000000
119.085300 18546396.000000
174.127400 3835382.000000

