>compound ET36168005
>parentmass 232.1308
>ionization [M+H]+
>formula C12H16F3N
>rt 762.000000
>profile orbitrap
#smiles_iso CCNC(C)CC1=CC(=CC=C1)C(F)(F)F
#smiles_can CCNC(C)CC1=CC(=CC=C1)C(F)(F)F
#inchikey DBGIVFWFUFKIQN-UHFFFAOYSA-N
#pubchem_id 3337
#mb_accession ET060001,ET060002,ET060003,ET060004,ET060005

>ms2
72.080700 240888.700000
159.041500 52592656.000000
167.066600 164152.200000
187.072800 21013792.000000
232.130600 59249260.000000

>ms2
72.080800 266271.200000
89.038300 135712.900000
109.044300 591424.400000
147.060200 141776.800000
159.041600 106235360.000000
167.066600 162894.100000
187.072700 6186439.000000
232.130600 5017877.000000

>ms2
72.080800 191579.200000
109.044600 2524101.500000
139.035000 318935.200000
147.060200 204321.600000
159.041600 116724048.000000
187.073200 437914.400000
232.130800 129047.800000

>ms2
72.080800 137094.000000
83.029200 201136.800000
89.038500 136998.200000
109.044700 12225667.000000
119.028600 182920.500000
137.039600 173505.500000
139.035200 1734479.400000
147.035100 779167.400000
147.060200 192001.800000
159.041600 96113520.000000

>ms2
83.029100 493932.500000
89.038300 389585.400000
90.046300 352259.600000
99.022900 295173.300000
109.044700 36823264.000000
119.028800 606127.900000
133.025900 191541.000000
137.039300 602687.500000
139.035100 3995397.200000
147.035100 2714386.800000
147.060200 172052.200000
159.041500 66625580.000000

