>compound ET37057269
>parentmass 251.1754
>ionization [M+H]+
>formula C14H22N2O2
>rt 672.000000
>profile orbitrap
#smiles_iso CC[N+](CC)(CC(=O)NC1=C(C=CC=C1C)C)[O-]
#smiles_can CC[N+](CC)(CC(=O)NC1=C(C=CC=C1C)C)[O-]
#inchikey YDVXPJXUHRROBA-UHFFFAOYSA-N
#pubchem_id 3036923
#mb_accession ET080101,ET080102,ET080103,ET080104,ET080105

>ms2
58.065600 6354571.000000
60.044900 6084782.000000
72.081000 374470.000000
74.060300 2298306.800000
79.054500 1426114.000000
84.081000 324693.600000
86.096600 28150244.000000
88.075900 3142287.200000
90.091700 47954.000000
91.054400 962560.600000
93.070100 615568.375000
95.049300 1211531.900000
103.054500 1329735.800000
105.044800 334116.656300
105.070100 3101393.500000
106.065300 767983.800000
107.073200 3106121.500000
107.085600 207673.700000
117.070000 65966.600000
119.073200 290485.500000
119.085800 55486.600000
120.081000 15433952.000000
121.065100 59033.800000
121.088900 326452.800000
122.096600 1731455.600000
123.080600 192917.700000
133.052500 359163.593800
134.096600 515791.700000
146.096600 56587.900000
148.076100 745590.700000

>ms2
72.081000 733086.900000
74.096600 433977.400000
86.096600 25636838.000000
88.075700 2383082.200000
120.080500 370693.000000
130.086500 17700598.000000
148.075800 1142965.200000
164.107400 1081028.400000
178.086700 146037.200000
223.144200 377109.500000
251.175900 119668376.000000

>ms2
58.065600 1541914.000000
72.081100 2042623.100000
73.088900 159791.800000
74.060200 1256810.000000
74.096700 881500.900000
84.081100 158331.900000
86.096600 64347380.000000
88.075900 9471047.000000
90.091300 129433.500000
105.070100 240447.300000
120.080900 1695934.200000
121.088800 67433.100000
122.096600 669484.500000
123.080500 194452.300000
130.086500 16631073.000000
134.096800 75807.000000
148.076000 3734567.000000
162.091400 85537.900000
163.099500 501802.600000
164.107400 3731165.500000
178.086500 466838.400000
223.144600 622688.900000
233.165200 653611.400000
251.175900 38272092.000000

>ms2
58.065600 3434031.500000
60.044900 2138154.750000
72.081100 1931505.400000
74.060300 3244750.200000
74.096700 978360.900000
84.081000 579074.100000
86.096600 73250912.000000
88.075800 18708518.000000
90.091500 233558.200000
105.070000 1463023.000000
107.073100 131886.500000
112.075900 285268.900000
120.081000 7555475.500000
121.065100 155926.000000
121.088700 337000.100000
122.096600 2836688.800000
123.080600 948873.300000
130.086500 2602101.500000
132.081100 182520.800000
133.076400 279617.200000
134.096700 385563.900000
146.096300 143831.800000
148.076000 4704416.500000
162.091700 190962.300000
163.062700 282032.800000
163.099300 652929.600000
164.107400 4049004.800000
178.086400 226800.400000
223.144300 152084.700000
233.165300 410325.700000
251.175900 1979057.600000

>ms2
58.065600 4047666.000000
60.044800 4774661.000000
72.081100 1161172.100000
74.060300 3443212.800000
74.096600 455847.000000
79.054600 270927.800000
84.081000 701585.600000
86.096600 51682268.000000
88.075900 14786347.000000
90.091500 179183.100000
91.054300 72676.500000
95.049400 69787.400000
103.054600 212976.000000
105.070000 3171909.800000
107.073200 623077.300000
107.085800 144439.600000
112.075800 148718.800000
120.081000 12338857.000000
121.064600 155813.500000
121.088600 442073.200000
122.096600 4158867.800000
123.080600 839188.800000
130.086500 164939.500000
132.081400 256935.700000
133.076500 274483.400000
134.096700 826068.000000
146.096500 183304.700000
147.068400 170362.300000
148.076000 2250600.500000
150.091500 78111.700000
162.091600 134771.400000
163.063000 140926.800000
163.099600 72486.900000
164.107500 1018480.000000

