>compound ET38414684
>parentmass 166.1339
>ionization [M+H]+
>formula C9H15N3
>rt 168.000000
>profile orbitrap
#smiles_iso CN(C)CCNC1=CC=CC=N1
#smiles_can CN(C)CCNC1=CC=CC=N1
#inchikey PBPMFHCGVZTYHV-UHFFFAOYSA-N
#pubchem_id 90273
#mb_accession ET171103

>ms2
51.023000 1197.700000
70.065200 6481.100000
72.080800 56611.200000
78.033800 29076.500000
80.049500 6845.400000
93.057400 1215.200000
94.065100 42017.000000
95.060300 8569.000000
96.044400 184656.800000
104.049700 9287.500000
106.004000 16599.700000
119.060500 9352.100000
121.076000 379142.500000

