>compound ET38574275
>parentmass 291.1025
>ionization [M+H]+
>formula C13H20Cl2N2O
>rt 732.000000
>profile orbitrap
#smiles_iso CC(C)CCNCC(C1=CC(=C(C(=C1)Cl)N)Cl)O
#smiles_can CC(C)CCNCC(C1=CC(=C(C(=C1)Cl)N)Cl)O
#inchikey KWAPEXIWYNEGAV-UHFFFAOYSA-N
#pubchem_id 71312596
#mb_accession ET020001,ET020002,ET020003,ET020004,ET020005

>ms2peaks
53.002500 503219.400000
71.085400 57283.500000
91.053900 675969.375000
104.049200 4192689.000000
105.057100 1933911.250000
106.064900 1348531.875000
117.057000 3947552.500000
118.064800 4266718.500000
125.014800 557337.812500
127.017800 548874.600000
131.060000 7225374.500000
132.067800 28970670.000000
133.075600 3330819.800000
138.009900 277974.300000
140.025700 9871821.000000
141.033600 952885.400000
145.075600 4679174.000000
146.083500 1300568.800000
147.091600 68516.600000
151.018000 3742901.200000
152.025800 4676786.000000
153.033600 53595512.000000
154.041300 213758.300000
160.979200 566769.437500
166.028700 711179.200000
167.036700 5558805.500000
168.044400 10326697.000000
173.986800 2797516.800000
174.995500 66699.900000
176.002400 55277.400000
181.052800 120731.400000
188.002400 5038154.500000
202.005900 551562.562500

>ms2peaks
153.033100 354586.600000
173.985900 522364.100000
188.002200 7826439.500000
203.012800 815119.200000
217.028800 19745728.000000
273.091000 309602432.000000
291.101400 26506888.000000

>ms2peaks
71.085500 1237134.200000
132.067700 2171665.200000
145.075600 787255.100000
146.083500 1279454.200000
153.033300 1182913.400000
167.036500 1289312.100000
168.044000 1107137.500000
173.987100 373087.800000
181.052100 1629203.800000
185.986700 255243.400000
188.002300 82226480.000000
200.002500 943473.900000
201.138300 503197.000000
202.005200 868780.400000
202.145700 641156.600000
203.013000 10842698.000000
217.028800 84256928.000000
237.114200 1023005.800000
238.123300 576870.000000
273.091000 164137904.000000

>ms2peaks
71.085500 2873976.500000
131.060000 4616743.500000
132.067800 17395376.000000
140.025500 758528.900000
145.075600 2773721.500000
146.083400 4532497.500000
151.017900 704060.800000
152.025500 629551.600000
153.033400 8073218.000000
154.041100 338308.900000
165.033500 1298201.500000
167.036600 6677275.000000
168.044300 9383450.000000
173.986200 673419.600000
181.052200 3272840.500000
185.986800 1319670.100000
188.002300 167099392.000000
200.002200 1853475.000000
201.138500 800271.400000
202.005300 3835932.500000
202.145700 1482467.400000
203.013000 21754600.000000
217.028800 31658800.000000
237.114600 2020488.600000
238.122300 2053377.800000
273.091100 14356658.000000

>ms2peaks
53.002600 460149.900000
71.085500 1160429.000000
98.096200 294709.200000
104.049200 459742.200000
131.060000 6943683.500000
132.067800 28437820.000000
133.075800 455532.300000
140.025700 2136719.800000
141.033500 380591.100000
145.075600 3295430.800000
146.083400 3826915.000000
151.017900 2280869.000000
152.025700 1888250.400000
153.033500 34447540.000000
154.040600 124470.000000
160.978800 103933.000000
164.025300 128196.200000
165.033400 1116597.000000
166.028900 388244.100000
167.036600 8039048.500000
168.044400 18429022.000000
173.986900 1321294.600000
176.002200 86025.200000
181.052200 2637041.500000
182.060200 802106.900000
185.986800 1390571.900000
188.002300 84335840.000000
200.002200 310464.600000
202.005200 3729676.200000
202.145900 375601.700000
203.013000 5815801.500000
217.028700 1897915.400000
237.115000 615808.200000
238.122200 624958.100000
273.091500 197585.100000

