>compound ET39500159
>parentmass 239.09459999999999
>ionization [M+H]+
>formula C12H15ClN2O
>rt 1008.000000
>profile orbitrap
#smiles_iso CC(=O)N1CCN(CC1)C2=CC=CC=C2Cl
#smiles_can CC(=O)N1CCN(CC1)C2=CC=CC=C2Cl
#inchikey LBSHKCUTMCYUOW-UHFFFAOYSA-N
#pubchem_id 258328
#mb_accession ET130101,ET130102,ET130103,ET130104,ET130105,ET130106

>ms2peaks
89.059800 1978.200000
112.075700 41754.000000
123.080100 3005.900000
154.041600 3045.300000
196.052200 51217.200000
197.083800 44598.000000
239.094700 213647.400000

>ms2peaks
70.065000 1626.000000
89.059500 3142.100000
112.075700 78987.900000
123.080400 4846.300000
154.041900 17907.300000
196.052500 84673.300000
197.084000 110655.500000
239.094800 81464.100000

>ms2peaks
70.065100 7888.000000
93.070200 1301.700000
112.075800 74160.300000
118.064800 1518.000000
119.073000 6107.200000
119.085400 1616.300000
123.080400 2623.700000
154.041900 69669.300000
195.068000 1604.400000
196.052500 53297.900000
197.084200 117588.300000
239.095300 2741.200000

>ms2peaks
67.054400 2236.600000
70.065200 17192.000000
91.054400 2635.700000
105.069700 1390.600000
112.075800 38597.200000
118.065200 10539.000000
119.073200 24606.900000
119.085500 1998.600000
123.080400 2100.400000
140.025500 1263.700000
154.042000 122879.800000
195.068200 5370.900000
196.052700 16013.000000
197.084200 38675.000000

>ms2peaks
67.054300 1932.800000
70.065100 17685.200000
79.054100 1541.600000
91.054200 7576.900000
93.069900 2154.600000
105.069800 2147.000000
112.075800 14636.600000
117.057100 2210.800000
118.065100 32173.000000
119.073100 54733.800000
154.041900 99635.500000
196.053300 1332.300000
197.083700 7332.400000

>ms2peaks
67.054100 1593.800000
70.065200 10851.200000
79.054300 2176.700000
91.054200 11576.500000
112.075500 2495.800000
117.057200 1659.200000
118.065200 60063.800000
119.073000 45178.900000
123.080700 1454.700000
140.025700 2702.900000
154.041900 44283.500000

