>compound ET45090597
>parentmass 272.1757
>ionization [M+H]+
>formula C16H21N3O
>rt 528.000000
>profile orbitrap
#smiles_iso CN(C)CCN(CC1=CC=C(C=C1)O)C2=CC=CC=N2
#smiles_can CN(C)CCN(CC1=CC=C(C=C1)O)C2=CC=CC=N2
#inchikey FCFBHFOEKQWQBR-UHFFFAOYSA-N
#pubchem_id 14076877
#mb_accession ET170301,ET170302,ET170303,ET170304,ET170305,ET170306

>ms2
121.076500 1937.300000
166.133100 1868.600000
227.118000 31135.200000

>ms2
107.049200 5503.100000
121.076000 17018.000000
166.133400 1566.800000
227.118000 25972.100000

>ms2
107.049300 21039.500000
121.076200 27590.500000

>ms2
79.054200 1334.300000
107.049100 20557.600000
121.076000 22245.700000

>ms2
107.049200 24795.900000
121.075800 16786.000000

>ms2
79.054200 1833.300000
107.049200 18637.500000
121.075900 9984.100000

