>compound ET46034366
>parentmass 283.0844
>ionization [M+H]+
>formula C13H15ClN2O3
>rt 960.000000
>profile orbitrap
#smiles_iso C1CN(CCN1C2=CC=CC=C2Cl)C(=O)CC(=O)O
#smiles_can C1CN(CCN1C2=CC=CC=C2Cl)C(=O)CC(=O)O
#inchikey XHCNVUPFYLKTEJ-UHFFFAOYSA-N
#pubchem_id 62230060
#mb_accession ET130601,ET130602,ET130603,ET130604,ET130605,ET130606

>ms2
196.052300 2771.400000
197.084000 145442.700000
223.062900 6260.600000
239.094800 23002.800000
265.073400 2337.100000
283.084400 60328.500000

>ms2
112.075600 6741.900000
196.052300 7637.500000
197.084000 181907.200000
223.063800 25496.100000
239.093900 9219.000000
265.074500 2648.400000
283.084200 1924.500000

>ms2
70.064900 2416.600000
112.075600 6420.300000
119.073100 2356.700000
154.041800 37803.600000
181.052100 1849.200000
194.060500 1853.200000
196.052800 5802.400000
197.084100 126975.800000
223.063300 38138.400000

>ms2
70.028700 3136.600000
70.065100 3140.700000
112.075600 5343.900000
118.064800 3197.000000
119.073000 14646.600000
154.041800 72209.900000
181.052300 8081.700000
194.060300 5575.000000
197.084000 45835.600000
223.063700 11523.500000

>ms2
70.028800 7101.500000
70.065100 3102.500000
118.065200 16512.700000
119.073000 27806.100000
138.010500 3110.900000
140.025700 1830.000000
154.041900 62974.000000
181.052300 2760.800000
197.083900 9889.400000

>ms2
70.028700 7906.700000
70.064900 2088.300000
118.065000 33708.700000
119.073000 25980.700000
138.010500 5724.300000
140.025800 1861.700000
154.041800 25622.000000

