>compound ET50815687
>parentmass 310.1413
>ionization [M+H]+
>formula C17H18F3NO
>rt 888.000000
>profile orbitrap
#smiles_iso CNCCC(C1=CC=CC=C1)OC2=CC=C(C=C2)C(F)(F)F
#smiles_can CNCCC(C1=CC=CC=C1)OC2=CC=C(C=C2)C(F)(F)F
#inchikey RTHCYVBBDHJXIQ-UHFFFAOYSA-N
#pubchem_id 3386
#mb_accession ET070001,ET070002,ET070003,ET070004,ET070005

>ms2
91.054300 21661.100000
117.069600 41211.100000

>ms2
91.054000 62609.500000
115.054200 15037.400000
117.069700 73498.400000
145.026200 13098.400000

>ms2
91.054200 113564.100000
115.054200 47804.900000
117.069700 118977.500000
145.025700 17822.800000

>ms2
148.112000 2078412.800000

>ms2
117.069400 13429.900000
148.112000 58529.100000

