>compound ET51098026
>parentmass 264.1958
>ionization [M+H]+
>formula C16H25NO2
>rt 660.000000
>profile orbitrap
#smiles_iso CN(C)CC(C1=CC=C(C=C1)O)C2(CCCCC2)O
#smiles_can CN(C)CC(C1=CC=C(C=C1)O)C2(CCCCC2)O
#inchikey KYYIDSXMWOZKMP-UHFFFAOYSA-N
#pubchem_id 125017
#mb_accession ET190101,ET190102,ET190103,ET190104,ET190105

>ms2
58.065500 35716612.000000
67.054500 123427.200000
69.070000 375666.800000
79.054300 584438.900000
81.069900 945556.400000
91.053900 146055.900000
93.069900 118873.800000
95.049300 170401.100000
95.085600 94808.500000
99.080600 86890.500000
105.069900 528770.100000
107.049100 8861286.000000
117.069800 72319.600000
119.049200 92347.000000
121.064700 453258.000000
131.049200 162528.300000
131.085500 167452.100000
133.064700 4824774.500000
141.069700 105438.100000
144.056700 117220.800000
145.064800 1135831.400000
147.080400 111319.400000
149.083500 152404.500000
159.080400 1420060.600000
163.099100 166685.500000
164.107300 145120.200000
173.096400 71576.700000
201.127400 225566.700000

>ms2
58.065500 32405358.000000
67.054500 152413.200000
69.070100 251070.500000
77.038700 44725.500000
79.054300 1406139.500000
81.069900 1131123.800000
91.054200 410907.700000
93.069800 95442.600000
95.049100 569675.800000
95.085300 40524.600000
99.080500 47118.200000
103.054200 151651.100000
105.044900 203245.200000
105.069900 1644430.000000
107.049100 10701522.000000
115.054200 195952.700000
117.069900 188259.600000
119.048900 35980.600000
121.064700 399608.500000
131.049100 207221.100000
131.085200 244196.300000
133.064700 3420157.800000
141.069700 140607.700000
144.057000 322981.700000
145.064800 994811.600000
147.080600 116118.100000
149.083800 245823.700000
155.060200 104467.000000
157.065200 34554.700000
159.080400 844126.400000
163.098900 101057.900000
169.075600 74678.900000

>ms2
58.065500 30428184.000000
67.054500 221657.000000
69.070000 169796.200000
77.038600 237915.700000
79.054300 2480036.800000
81.069900 1222000.000000
91.054200 713849.500000
93.069800 104923.200000
95.049100 1858176.000000
103.054200 438439.600000
105.044700 451906.400000
105.069900 2626306.500000
107.049100 11133093.000000
115.054100 455066.500000
117.069700 202861.400000
119.049300 30540.600000
121.064800 288557.300000
131.049200 255083.000000
131.085700 203382.100000
133.064700 1828618.400000
141.069700 245203.200000
144.056900 557620.600000
145.064800 675601.000000
147.080900 45182.400000
149.083700 167466.700000
155.060100 99294.900000
157.065000 33055.200000
159.080500 334438.500000
163.098900 33142.900000
169.075400 42772.500000

>ms2
58.065400 18658264.000000
107.048500 839508.500000
133.064600 258674.600000
201.127200 1056419.200000
246.185200 25085018.000000
264.195600 51362352.000000

>ms2
58.065500 42051740.000000
81.069800 150141.100000
107.049100 2291146.800000
119.049100 42281.800000
121.064800 91272.500000
133.064700 1688322.000000
145.064700 421781.000000
152.143500 46374.700000
159.080200 505881.400000
164.107200 127701.100000
173.096100 157065.700000
201.127400 3545155.000000
246.185200 13937609.000000
264.195700 7030219.000000

