>compound ET54843278
>parentmass 186.0316
>ionization [M+H]+
>formula C8H8ClNO2
>rt 948.000000
>profile orbitrap
#smiles_iso C1=CC=C(C(=C1)NCC(=O)O)Cl
#smiles_can C1=CC=C(C(=C1)NCC(=O)O)Cl
#inchikey NSDVLRONTCKCPY-UHFFFAOYSA-N
#pubchem_id 247831
#mb_accession ET130701,ET130702,ET130703,ET130704,ET130705,ET130706

>ms2peaks
140.026100 90154.600000
186.031500 10567.400000

>ms2peaks
140.026100 98413.200000
186.031300 6515.800000

>ms2peaks
127.018500 1651.400000
140.026100 101366.000000

>ms2peaks
95.048800 1352.300000
105.044900 1144.600000
127.018200 4606.000000
140.026200 82250.900000

>ms2peaks
95.049300 10535.400000
104.049600 1290.400000
105.045000 1930.000000
105.056900 1523.600000
127.018000 5559.700000
140.026100 55876.900000

>ms2peaks
95.049200 15532.300000
104.049300 4880.500000
105.044700 10910.200000
105.057100 2338.300000
127.018100 6546.900000
140.026100 29911.900000

