>compound ET57865314
>parentmass 241.1699
>ionization [M+H]+
>formula C16H20N2
>rt 594.000000
>profile orbitrap
#smiles_iso CN(C)CCC(C1=CC=CC=C1)C2=CC=CC=N2
#smiles_can CN(C)CCC(C1=CC=CC=C1)C2=CC=CC=N2
#inchikey IJHNSHDBIRRJRN-UHFFFAOYSA-N
#pubchem_id 4761
#mb_accession ET150001,ET150002,ET150003,ET150004,ET150005

>ms2
168.080500 205038.000000
196.112200 95431496.000000
241.170100 20308362.000000

>ms2
167.072500 471199.500000
168.081300 454021.000000
195.104600 112508.700000
196.112200 107390544.000000
241.170100 2026243.100000

>ms2
91.054300 371466.700000
118.064700 516011.300000
167.073000 1977485.000000
168.081000 3411041.200000
194.096800 132988.500000
195.104600 182072.800000
196.112300 104316808.000000

>ms2
91.054300 2171268.200000
110.060100 194134.000000
117.057400 339147.900000
118.065100 1886055.500000
119.073100 335027.500000
167.073200 9960222.000000
168.080900 20107052.000000
180.081200 259003.300000
181.089200 248774.500000
194.096900 697741.200000
195.105000 383902.600000
196.112200 73139448.000000

>ms2
91.054300 5617378.000000
94.065200 93309.700000
110.060100 509503.300000
115.054400 140461.300000
117.057400 1371057.600000
118.065200 4457072.500000
119.073100 1056839.200000
129.070000 107073.100000
166.065600 157441.600000
167.073300 24168398.000000
168.080900 33894344.000000
180.081100 641552.600000
181.088800 563936.100000
194.096700 1425157.000000
195.104700 506580.000000
196.112300 29172994.000000

