>compound ET66540470
>parentmass 146.0964
>ionization [M+H]+
>formula C10H11N
>rt 498.000000
>profile orbitrap
#smiles_iso C#CCNCC1=CC=CC=C1
#smiles_can C#CCNCC1=CC=CC=C1
#inchikey LDYBFSGEBHSTOQ-UHFFFAOYSA-N
#pubchem_id 99277
#mb_accession ET140301,ET140302,ET140303,ET140304,ET140305,ET140306

>ms2
65.038700 1688.300000
72.081100 1024.200000
86.059900 2450.400000
91.054300 678140.300000
100.075800 5643.100000
118.065200 4848.100000
128.062100 6923.700000
129.069900 52817.500000
146.096800 35136.300000

>ms2
58.065200 1080.100000
65.038700 1616.200000
72.080700 4065.100000
86.060100 5252.300000
91.054300 709043.800000
100.075800 15799.300000
118.065300 2520.700000
129.069900 51350.900000
146.096600 35263.000000

>ms2
65.038700 4967.200000
72.080900 1529.500000
86.060200 2779.200000
91.054300 681087.900000
100.075600 8216.800000
118.065000 7749.500000
128.062200 10839.400000
129.070000 34840.700000
145.065400 1517.000000
146.096600 10787.500000
155.060800 1584.500000

>ms2
55.054400 1610.800000
58.065200 1266.600000
65.038600 10548.500000
72.080700 1496.300000
86.060200 5131.900000
91.054300 667402.200000
100.075900 6712.600000
103.054000 1343.500000
118.065200 5922.800000
128.050000 1730.100000
128.062200 19661.500000
129.070100 22294.100000
145.065200 1609.800000
155.060700 2482.100000

>ms2
65.038700 24317.100000
69.069900 1198.200000
72.044400 1715.300000
72.080900 1484.500000
82.065500 1822.900000
86.060200 2691.500000
91.054300 630680.600000
100.075600 1489.900000
103.054100 1563.500000
117.057300 1474.600000
118.065300 4517.000000
128.049800 2779.500000
128.062300 20884.900000
129.069900 11509.500000
145.065200 1268.900000
155.060900 4807.700000

>ms2
55.054500 1907.300000
58.065200 1936.400000
65.038700 72109.600000
69.069600 1288.800000
72.044600 1778.000000
72.080900 4665.400000
82.065300 8299.700000
86.060100 7399.800000
91.054300 613867.300000
100.075500 8032.200000
117.057200 1629.600000
118.065100 1751.700000
128.062300 26357.900000
129.070100 4614.900000
155.060800 5431.000000

