>compound ET67155227
>parentmass 216.1383
>ionization [M+H]+
>formula C14H17NO
>rt 978.000000
>profile orbitrap
#smiles_iso CC(CC1=CC=CC=C1)N(CC#C)C(=O)C
#smiles_can CC(CC1=CC=CC=C1)N(CC#C)C(=O)C
#inchikey JJOSIKPABYYKOP-UHFFFAOYSA-N
#pubchem_id 133052751
#mb_accession ET050601,ET050602,ET050603,ET050604,ET050605,ET050606

>ms2peaks
57.069900 9499.700000
72.080900 3173.800000
77.038300 12337.200000
91.054100 10014.400000
95.049300 13738.800000
98.060200 8424.500000
105.044700 12515.000000
119.085500 12507.400000
142.004100 10916.800000

>ms2peaks
51.023200 1117.400000
53.038700 6393.800000
56.049600 1221.600000
57.069900 9866.400000
72.080900 1775.100000
77.038500 19430.200000
91.054200 16533.600000
95.049200 34030.100000
98.059800 5555.100000
105.044700 25077.800000
119.085600 9253.100000
142.004200 12195.300000

>ms2peaks
51.023000 1838.500000
53.038800 14624.200000
56.049600 1135.200000
57.069900 2839.300000
72.080800 2724.600000
77.038600 33082.000000
91.054200 29093.800000
95.049100 102981.400000
105.044800 68755.000000
119.085700 1914.100000
142.003600 6979.900000

>ms2peaks
50.015100 1363.100000
51.023200 1970.000000
53.038700 20494.200000
57.070000 5372.600000
72.080700 1993.100000
77.038600 31314.700000
81.033600 4900.300000
91.054200 30195.000000
95.049200 132256.700000
105.044800 97283.500000

>ms2peaks
50.015200 2410.100000
51.023100 2742.100000
53.038800 23372.600000
55.017800 1258.600000
57.069800 1474.700000
77.038600 41214.400000
81.033500 1891.500000
91.054200 31135.900000
95.049100 136175.600000
105.044700 81926.000000

>ms2peaks
50.015300 5740.800000
51.023200 6745.600000
53.038700 18721.700000
55.018100 1193.400000
77.038600 44440.700000
81.033800 2561.400000
91.054300 26769.700000
95.049200 123770.300000
105.044700 77736.900000

