>compound ET67760736
>parentmass 302.1863
>ionization [M+H]+
>formula C17H23N3O2
>rt 1026.000000
>profile orbitrap
#smiles_iso CC(CCCNC(=O)C)NC1=C2C(=CC(=C1)OC)C=CC=N2
#smiles_can CC(CCCNC(=O)C)NC1=C2C(=CC(=C1)OC)C=CC=N2
#inchikey YVURERLGLAYCCQ-UHFFFAOYSA-N
#pubchem_id 157027
#mb_accession ET160401

>ms2peaks
60.044600 45389.500000
60.081000 2646.300000
69.069900 58240.600000
70.065000 1347.500000
72.044400 89731.300000
86.096400 393499.400000
88.075900 1721.000000
97.064500 2347.300000
128.107000 1163873.200000
132.067900 2471.900000
160.063100 3445.600000
175.086600 896872.200000
201.101600 8290.300000
202.105300 14597.200000
241.133900 1984.100000
243.149200 24790.300000
284.172300 1795.300000
302.186200 185405.200000

