>compound ET70350733
>parentmass 295.0844
>ionization [M+H]+
>formula C14H15ClN2O3
>rt 1020.000000
>profile orbitrap
#smiles_iso C1CN(CCN1C2=CC=CC=C2Cl)C(=O)/C=C/C(=O)O
#smiles_can C1CN(CCN1C2=CC=CC=C2Cl)C(=O)C=CC(=O)O
#inchikey AXXAWJZEEQXNHQ-AATRIKPKSA-N
#pubchem_id 17279890
#mb_accession ET130301,ET130302,ET130303,ET130304,ET130305,ET130306

>ms2peaks
122.060000 8640.700000
140.070700 2200.400000
142.049900 1735.100000
168.065600 45007.500000
197.083900 6009.000000
252.042200 77720.600000
295.084400 687754.900000

>ms2peaks
70.065000 1272.400000
99.007500 13396.200000
119.073000 1453.900000
122.060100 91614.900000
140.070600 43962.200000
142.050200 15670.900000
150.055000 11751.400000
154.042000 28776.100000
168.065500 121202.100000
195.068100 9895.000000
197.084100 40692.700000
252.042300 254418.600000
295.084400 156430.000000

>ms2peaks
53.002300 9199.100000
70.065200 2295.500000
71.012600 3390.900000
94.065000 2723.600000
96.044300 6608.400000
98.060100 2080.000000
99.007800 62403.500000
118.065200 5966.200000
119.073200 20412.800000
122.060000 189436.900000
132.068100 2661.000000
140.070600 44632.100000
142.049900 15358.800000
150.055100 26058.700000
154.041900 107183.000000
161.107100 5242.800000
168.065600 33978.600000
195.068600 7754.600000
197.084000 35313.600000
252.042300 132018.500000
295.083900 2310.700000

>ms2peaks
53.002400 27717.200000
56.049600 1309.400000
70.065200 3180.500000
71.012700 12232.100000
78.034100 1480.700000
80.049600 1687.900000
91.054300 1704.100000
94.065200 7306.400000
96.044500 12829.100000
98.059800 1638.400000
99.007700 92296.100000
118.065100 22876.200000
119.073000 37082.200000
122.060000 171339.700000
132.068000 1772.500000
140.025800 3009.800000
142.049600 2867.700000
150.055100 21461.800000
154.041800 135688.300000
161.107100 3082.800000
168.065300 1744.300000
195.068700 2228.600000
252.041300 16996.500000

>ms2peaks
53.002400 51918.800000
56.049400 2402.700000
70.064800 2715.500000
71.012800 15684.200000
80.049500 2370.300000
91.054200 14258.300000
92.062000 1938.500000
94.065000 9075.400000
96.044400 23990.700000
99.007700 54183.700000
104.049300 3044.100000
117.056900 2022.200000
118.065200 53708.600000
119.073000 52396.500000
122.060000 118809.900000
132.068000 3119.800000
138.010100 5541.800000
150.054700 6966.100000
154.041900 85553.400000
161.107100 2613.500000

>ms2peaks
53.002400 48924.800000
71.012800 17384.600000
78.033700 3151.200000
80.049200 2011.600000
91.054200 18963.500000
92.062100 2669.300000
94.065000 8457.500000
96.044400 24665.000000
99.007600 22306.000000
104.049500 6035.900000
117.057200 6101.000000
118.065200 78730.100000
119.073000 37736.900000
122.060000 65129.200000
132.067900 1982.100000
138.010300 3388.600000
140.025900 1760.000000
154.041800 49896.000000

