>compound ET77050921
>parentmass 302.1863
>ionization [M+H]+
>formula C17H23N3O2
>rt 666.000000
>profile orbitrap
#smiles_iso C[N+](C)(CCN(CC1=CC=C(C=C1)OC)C2=CC=CC=N2)[O-]
#smiles_can C[N+](C)(CCN(CC1=CC=C(C=C1)OC)C2=CC=CC=N2)[O-]
#inchikey IQDUZGGMNVZTAI-UHFFFAOYSA-N
#pubchem_id 127200
#mb_accession ET170101,ET170102,ET170103,ET170104,ET170105,ET170106

>ms2
119.060600 4042.700000
121.064400 196715.400000
241.133400 3225794.800000

>ms2
78.046400 5817.100000
119.060400 38309.900000
121.064700 1737787.400000
241.133400 2620708.800000

>ms2
78.046400 8583.100000
91.054000 12904.800000
95.049000 3683.100000
119.060500 45998.200000
121.064800 3521711.500000
241.133500 292831.400000

>ms2
77.038600 10045.700000
78.046400 25080.200000
91.054300 49741.900000
95.049100 24746.500000
105.044700 16450.300000
106.041200 13025.600000
119.060500 29920.500000
121.064800 3563795.200000
241.134100 11605.900000

>ms2
51.023000 3439.000000
65.038600 11466.100000
77.038400 28194.800000
78.046400 66302.700000
91.054200 187455.100000
93.069900 19251.800000
95.049100 98726.700000
96.044600 6647.000000
105.044700 71996.800000
106.041300 32900.900000
119.060300 24908.600000
121.064800 3136501.500000

>ms2
50.015200 7124.400000
51.023100 2971.600000
53.038800 8807.700000
65.038600 37421.800000
67.054300 3044.500000
77.038500 55010.700000
78.046400 226124.900000
81.033600 7909.800000
91.054200 399258.000000
93.069800 22985.300000
95.049100 238169.200000
96.044500 8699.500000
103.054000 9835.000000
105.044700 162365.900000
106.041300 82399.400000
107.049300 6503.500000
119.060200 19777.000000
121.064800 2293148.800000

