>compound ET79038781
>parentmass 296.1257
>ionization [M+H]+
>formula C16H16F3NO
>rt 888.000000
>profile orbitrap
#smiles_iso C1=CC=C(C=C1)[C@H](CCN)OC2=CC=C(C=C2)C(F)(F)F
#smiles_can C1=CC=C(C=C1)C(CCN)OC2=CC=C(C=C2)C(F)(F)F
#inchikey WIQRCHMSJFFONW-HNNXBMFYSA-N
#pubchem_id 3058751
#mb_accession ET100001,ET100002,ET100003,ET100004,ET100005

>ms2
59.049400 8514.900000
87.044000 31224.600000
101.059700 54296.200000
105.069700 15071.100000
134.096200 13785.533200

>ms2
87.044000 28463.400000
101.059600 29319.400000
105.069800 16482.000000

>ms2
87.044100 23317.700000
101.059600 13024.500000
105.069800 13117.600000

>ms2
59.049300 3206.800000
79.054200 1858.500000
87.044000 14709.700000
91.054000 2652.200000
101.059500 3230.300000
105.069700 13633.100000

>ms2
79.054200 2320.800000
87.044100 7762.100000
91.054100 2587.700000
105.069700 8553.900000

