>compound ET80273884
>parentmass 175.0866
>ionization [M+H]+
>formula C10H10N2O
>rt 732.000000
>profile orbitrap
#smiles_iso COC1=CC(=C2C(=C1)C=CC=N2)N
#smiles_can COC1=CC(=C2C(=C1)C=CC=N2)N
#inchikey YGGTVPCTAKYCSQ-UHFFFAOYSA-N
#pubchem_id 7023
#mb_accession ET160301

>ms2
59.049200 6634.600000
73.064800 7802.000000
79.041500 11989.200000
80.049800 2848.300000
91.054200 7762.700000
95.049000 3415.400000
103.054300 2869.300000
104.049400 16892.200000
105.057300 36630.200000
108.044300 2660.600000
111.031500 9534.900000
117.057000 21649.500000
119.060600 2391.800000
128.049600 2294.700000
130.065200 12507.300000
131.060400 746735.800000
132.068200 2283011.800000
133.051900 3033.400000
134.060000 10388.900000
143.060200 18828.000000
144.044800 11580.000000
144.068200 75605.500000
145.075900 15069.000000
159.055500 2717.000000
160.063100 156244.300000
175.086500 113392.800000

