>compound ET86118403
>parentmass 204.1383
>ionization [M+H]+
>formula C13H17NO
>rt 672.000000
>profile orbitrap
#smiles_iso CC(CC1=CC=CC=C1)[N+](C)(CC#C)[O-]
#smiles_can CC(CC1=CC=CC=C1)[N+](C)(CC#C)[O-]
#inchikey IVFPCTFUZXEDKP-UHFFFAOYSA-N
#pubchem_id 11447032
#mb_accession ET050101,ET050102,ET050103,ET050104,ET050105

>ms2
65.038900 381913.900000
86.060200 8415703.000000
91.054400 114710816.000000
119.085800 16316803.000000
204.138700 159030.600000

>ms2
65.038900 908890.200000
68.049800 1965453.250000
69.057600 240886.000000
86.060300 4421743.000000
90.046600 134383.100000
91.054400 127538968.000000
119.085800 2540626.800000

>ms2
65.039000 2043626.625000
68.049800 2636802.000000
79.054400 170064.500000
86.060300 1994605.000000
89.038800 156124.100000
91.054400 131151848.000000
119.086000 261068.300000

>ms2
65.039000 5061606.500000
68.049800 2509254.250000
79.054600 155785.800000
86.060200 582710.500000
91.054400 119304016.000000

>ms2
77.038800 78399.500000
86.060200 14111648.000000
91.054400 46542816.000000
119.085800 72972976.000000
204.138800 16658464.000000

