>compound ET97300467
>parentmass 235.1805
>ionization [M+H]+
>formula C14H22N2O
>rt 624.000000
>profile orbitrap
#smiles_iso CCN(CC)CC(=O)NC1=C(C=CC=C1C)C
#smiles_can CCN(CC)CC(=O)NC1=C(C=CC=C1C)C
#inchikey NNJVILVZKWQKPM-UHFFFAOYSA-N
#pubchem_id 3676
#mb_accession ET080001,ET080002,ET080003,ET080004,ET080005

>ms2
58.065600 6445212.500000
86.096500 113879112.000000

>ms2
58.065600 10486253.000000
86.096500 88057136.000000

>ms2
58.065600 12492260.000000
86.096500 50939536.000000
134.096800 63738.900000

>ms2
86.096500 66979988.000000
235.180700 89438048.000000

>ms2
86.096500 118687592.000000
235.180700 29691658.000000

