>compound ET98030416
>parentmass 174.09130000000002
>ionization [M+H]+
>formula C11H11NO
>rt 900.000000
>profile orbitrap
#smiles_iso C#CCN(CC1=CC=CC=C1)C=O
#smiles_can C#CCN(CC1=CC=CC=C1)C=O
#inchikey MOSRXMRJDACECK-UHFFFAOYSA-N
#pubchem_id 13658161
#mb_accession ET140201,ET140202,ET140203,ET140204,ET140205,ET140206

>ms2
65.038700 2201.500000
68.049600 4938.700000
91.054300 675704.900000
95.085400 1583.600000
96.044600 15399.900000
96.089000 12679.500000
104.049800 1394.600000
128.062200 4776.500000
129.070100 56835.600000
174.091500 51841.800000

>ms2
65.038700 2863.000000
68.049600 6648.800000
91.054300 697734.100000
95.085700 5242.700000
96.044400 16075.100000
96.088900 17599.200000
104.049200 1579.000000
128.062200 5196.000000
129.070000 60328.100000
174.091500 49022.400000

>ms2
65.038700 4833.200000
67.054400 1727.300000
68.049600 5305.900000
91.054300 783903.400000
95.085700 2416.900000
96.044600 1917.900000
96.089000 14751.700000
104.050000 1778.500000
128.061900 12536.100000
129.069900 27083.700000
174.090800 2309.100000

>ms2
65.038700 8651.300000
67.054500 2160.100000
68.049800 1250.000000
91.054300 756789.400000
95.085800 4553.500000
128.062100 17313.600000
129.070100 11024.200000

>ms2
65.038700 29152.000000
67.054200 4947.400000
91.054300 760782.400000
96.088900 4902.600000
128.062200 18834.700000
129.070300 2295.500000

>ms2
65.038700 78610.900000
67.054400 2407.900000
91.054300 681995.300000
96.088900 1275.100000
128.062300 16950.700000

