>compound ET99785692
>parentmass 197.084
>ionization [M+H]+
>formula C10H13ClN2
>rt 684.000000
>profile orbitrap
#smiles_iso C1CN(CCN1)C2=CC(=CC=C2)Cl
#smiles_can C1CN(CCN1)C2=CC(=CC=C2)Cl
#inchikey VHFVKMTVMIZMIK-UHFFFAOYSA-N
#pubchem_id 1355
#mb_accession ET130001,ET130002,ET130003,ET130004,ET130005

>ms2peaks
58.065400 96507.400000
65.038600 52080.100000
68.049700 29148.800000
70.065200 671905.800000
75.022800 14593.500000
77.038300 62969.300000
91.054000 994574.200000
92.049200 14937.900000
92.061800 287791.000000
93.057100 49795.100000
95.049000 272063.100000
98.999400 58141.900000
104.049300 160722.400000
105.044600 72515.000000
105.056900 12486.700000
106.064900 11068.600000
112.007400 48082.400000
117.057100 427908.800000
118.064900 7247489.000000
119.072600 8172079.500000
120.080500 301327.600000
126.010100 205239.200000
127.018100 218931.900000
129.009600 14661.100000
130.065000 14772.000000
132.068000 14210.200000
137.015100 30379.300000
138.010300 236329.300000
139.005700 34277.800000
140.025800 888937.200000
144.081000 10727.500000
152.026200 51867.700000
154.041500 10382484.000000
162.114900 15151.900000
166.041400 179477.400000
168.056800 14242.300000
195.068000 175472.600000
197.083600 366869.700000

>ms2peaks
58.065300 70085.100000
65.038700 166297.500000
68.049700 36803.700000
70.065200 412592.500000
75.022900 28895.500000
77.038500 117554.500000
90.033600 14079.700000
91.054000 2188066.000000
92.049300 44847.500000
92.061800 618932.200000
93.057000 105270.400000
95.049000 747381.200000
98.999400 194165.700000
104.049300 386677.600000
105.044600 175802.600000
105.056800 59321.100000
106.064800 15194.500000
112.007300 88811.800000
117.057100 820268.400000
118.064900 11645743.000000
119.072600 6210984.000000
120.080400 283469.400000
126.010100 224561.300000
127.018000 432886.200000
129.009600 52929.000000
130.064800 29529.600000
132.068100 14645.300000
137.015100 18469.900000
138.010200 280672.300000
139.005500 77396.600000
140.025800 939962.100000
152.026100 62580.300000
154.041500 3878253.200000
166.041400 83387.700000
195.068300 14238.700000
197.083500 17279.600000

>ms2peaks
70.065100 105740.800000
119.072700 181416.500000
154.041400 2451891.000000
195.068700 168884.900000
197.083500 39320280.000000

>ms2peaks
70.065200 190825.100000
77.038900 35157.300000
118.064600 170213.300000
119.072700 363188.000000
140.026000 63761.300000
152.026100 39652.300000
154.041500 4563623.500000
161.106700 36236.100000
162.115100 72895.600000
195.068400 290244.200000
197.083500 34960084.000000

>ms2peaks
70.065200 735344.100000
77.038800 36343.500000
91.054100 72329.000000
117.057100 56310.300000
118.064800 797587.800000
119.072700 2271979.000000
120.080300 100716.000000
127.018400 19025.000000
138.010200 32942.000000
140.025900 262902.600000
152.026000 97559.100000
154.041600 15757001.000000
161.107400 60188.400000
162.115000 185663.000000
166.041200 46038.100000
195.068300 880495.100000
197.083600 15912201.000000

