>compound EQ01347005
>parentmass 165.9791
>ionization [M-H]-
>formula C7H5NS2
>rt 402.000000
>profile orbitrap
#smiles_iso C1=CC=C2C(=C1)NC(=S)S2
#smiles_can C1=CC=C2C(=C1)NC(=S)S2
#inchikey YXIWHUQXZSMYRE-UHFFFAOYSA-N
#pubchem_id 697993
#mb_accession EQ319051,EQ319052,EQ319053,EQ319054,EQ319055,EQ319056,EQ319057,EQ319058,EQ319059

>ms2
57.975400 1740683.100000
134.007000 6301061.000000
165.979100 394450816.000000

>ms2
57.975500 1985183.000000
102.034900 470637.600000
134.007000 6613711.500000
165.979000 407789536.000000

>ms2
57.975600 6511709.500000
63.944700 596328.800000
102.034900 5509449.000000
134.007100 56509824.000000
164.970900 474253.900000
165.979100 345301376.000000

>ms2
57.975700 39039984.000000
63.944700 3540725.800000
90.034900 512400.600000
102.034900 17007594.000000
134.007000 142113200.000000
164.971100 1145737.500000
165.979100 210101904.000000

>ms2
57.975700 91341704.000000
63.944700 5619446.000000
90.034900 558486.200000
102.035000 20334576.000000
134.007000 160262528.000000
164.971200 1125362.100000
165.979100 82440672.000000

>ms2
57.975700 149072592.000000
63.944700 7034408.000000
90.035000 338884.800000
102.034900 14151399.000000
134.007100 128291328.000000
164.971200 997769.900000
165.979100 24916972.000000

>ms2
57.975700 210981952.000000
63.944700 7146598.000000
102.034900 2503637.200000
134.007100 40930736.000000
164.971400 385556.600000
165.979200 1324943.400000

>ms2
56.980500 234991.000000
57.975700 214799984.000000
63.944700 5826282.500000
134.007100 6652459.500000

>ms2
56.980500 267072.100000
57.975700 193450016.000000
63.944700 4492838.000000
134.007100 583094.400000

