>compound EQ03553548
>parentmass 405.2065
>ionization [M-H]-
>formula C18H34N2O6S
>rt 222.000000
>profile orbitrap
#smiles_iso CCCC1CC(N(C1)C)C(=O)NC(C2C(C(C(C(O2)SC)O)O)O)C(C)O
#smiles_can CCCC1CC(N(C1)C)C(=O)NC(C2C(C(C(C(O2)SC)O)O)O)C(C)O
#inchikey OJMMVQQUTAEWLP-UHFFFAOYSA-N
#pubchem_id 3928
#mb_accession EQ368751,EQ368752,EQ368753,EQ368754,EQ368755,EQ368756,EQ368757,EQ368758,EQ368759

>ms2
59.013700 139502.400000
71.013900 590452.900000
83.050200 69513.200000
85.029300 61986.700000
89.024400 327378.000000
97.029300 50453.000000
99.045100 42271.400000
109.029400 113871.100000
111.045100 108932.200000
115.040000 158420.900000
117.001500 70343.600000
125.024400 38590.500000
127.040000 1354163.200000
129.055400 36849.000000
151.040100 71215.900000
169.134200 290875.000000
170.118600 393637.700000
223.145000 43132.600000
237.161100 39106.200000
241.155700 611209.200000
253.155600 233961.700000
259.145300 55456.800000
265.155400 112903.100000
267.171300 846858.900000
277.155500 390395.300000
285.182500 48592.400000
295.166300 75537.800000
297.181700 713548.100000
307.148300 121062.700000
321.181000 36491.100000
325.158900 392439.200000
339.191300 73723.400000
343.169700 335545.600000
357.203100 101635.200000
405.206100 36184580.000000

>ms2
55.018800 33065.400000
57.034500 56754.600000
58.006000 11508.600000
59.013800 812353.900000
67.018900 26202.000000
68.998200 104786.800000
69.034600 116874.200000
71.013900 5405122.500000
72.993200 84833.400000
73.029600 82860.300000
75.008800 38487.500000
79.018900 17772.100000
80.050600 83518.400000
81.034500 711505.800000
83.013800 135992.100000
83.050200 1268680.000000
85.029500 1867992.600000
87.008700 296488.300000
89.024400 988500.900000
94.029800 12188.000000
95.013800 157341.200000
95.050200 26929.200000
96.021600 46418.000000
97.029400 728372.800000
99.045100 1174545.600000
100.040300 12565.500000
101.024300 80055.700000
101.978000 59802.000000
107.013900 19441.200000
107.037500 10188.000000
107.050200 50971.300000
108.021600 81482.400000
108.045400 14424.600000
109.017000 85969.600000
109.029400 1687460.600000
110.024800 33083.400000
111.008600 35175.400000
111.045100 614892.800000
113.024400 260505.300000
115.040100 1275467.000000
117.001500 468999.100000
123.045200 54076.500000
124.040300 250316.900000
125.024300 288946.000000
126.056000 26702.600000
127.040000 5886567.500000
129.055600 137884.200000
134.024700 12704.300000
137.006700 18058.900000
139.040100 16715.400000
143.034700 13235.300000
151.027400 46655.600000
151.040000 181017.800000
153.043100 52089.800000
154.033400 11004.200000
169.134600 7265575.500000
170.118600 2221127.800000
195.150100 48669.400000
197.129400 158543.200000
207.150100 64211.600000
209.129500 23405.300000
209.165900 308488.500000
211.145200 175057.700000
212.129000 28899.300000
223.145200 512455.000000
223.181400 57709.300000
225.124500 122363.500000
225.160800 450478.300000
233.165800 201786.800000
235.145200 387753.700000
237.160800 878101.500000
239.140400 26221.200000
239.176500 170505.600000
241.155700 779047.000000
249.160800 140496.000000
251.176500 53104.100000
253.155700 1761257.900000
259.145000 1043414.700000
260.152900 16160.300000
261.160600 130698.900000
263.176000 76216.600000
264.147800 20478.700000
265.155600 341811.200000
267.171300 654930.100000
273.161000 17534.800000
277.155600 2124209.200000
279.171200 116011.400000
281.187100 59965.000000
292.125000 143010.400000
295.166100 89862.700000
297.181700 316299.900000
307.148500 235202.000000
310.135800 99782.100000
321.182100 16142.800000
325.159000 1138068.400000
339.192200 20766.200000
343.169600 115932.800000
357.202700 23993.500000
361.180500 13352.100000
405.206400 2196549.800000

>ms2
55.018900 75463.700000
57.034600 137611.500000
58.006000 14203.200000
58.029800 24206.400000
59.013800 612211.400000
65.039700 33231.300000
66.034900 18675.500000
67.018900 26588.100000
68.014200 15845.800000
68.998200 186815.500000
69.034600 323685.200000
70.029900 41871.200000
71.013900 4241264.000000
72.993200 67627.700000
73.029600 166113.600000
73.983200 21538.200000
75.008800 31540.900000
79.019000 40092.600000
80.050600 202977.700000
81.022000 128983.500000
81.034500 1101678.400000
82.029800 64045.300000
83.013800 174446.000000
83.050200 941977.700000
84.021600 47227.600000
84.045500 36922.900000
85.029500 2840998.500000
86.024700 12056.200000
87.008700 319065.400000
88.970300 24089.400000
89.006700 40130.700000
89.024400 147131.500000
93.034500 31511.700000
94.029800 72741.000000
95.013800 163370.100000
95.050200 37356.500000
96.021700 44117.600000
96.045400 51399.000000
97.029400 913460.400000
98.024700 28237.500000
98.061200 9554.000000
99.045100 862155.700000
99.998800 19935.200000
100.040400 36557.600000
101.024400 56276.100000
101.978000 127450.300000
105.021900 143210.600000
106.029800 39266.800000
107.013900 22304.800000
107.037700 50334.500000
107.050200 29594.900000
108.021700 198618.900000
108.045500 59933.600000
109.016900 269485.100000
109.029400 951596.000000
110.024700 86014.600000
110.061100 17629.800000
111.008700 23756.100000
111.045100 326341.900000
112.016600 15845.500000
112.040500 26803.700000
113.024400 142874.300000
115.040000 439609.200000
117.001600 165590.200000
120.045500 10349.600000
122.024700 42893.400000
123.032500 39900.000000
123.045100 37990.600000
124.040300 545117.200000
125.024300 145348.000000
126.056000 76709.400000
126.092400 52212.700000
126.985900 91894.300000
127.040000 889867.900000
129.055800 28682.500000
133.016700 23068.100000
134.024600 49514.800000
135.032500 11709.600000
137.006600 14668.400000
138.001800 50433.200000
138.019600 29491.900000
139.009600 15294.800000
139.993700 15305.200000
147.032600 12268.500000
150.019800 13233.100000
151.027400 91973.900000
151.040200 31855.400000
152.108400 9872.600000
153.043100 31211.300000
154.033100 11125.400000
165.996800 110095.500000
166.124000 18843.000000
168.139500 42593.500000
169.134600 9406346.000000
170.118600 1809748.200000
182.154800 53528.100000
184.134300 24290.600000
191.155400 12910.200000
193.134700 24875.400000
195.150100 230820.800000
197.129500 274906.000000
207.150200 107912.300000
209.129400 55239.100000
209.165900 979306.800000
211.145200 227953.200000
212.129300 41309.900000
217.133900 18762.700000
219.150400 14369.100000
221.165600 23557.300000
223.145200 469870.700000
223.181500 48511.200000
224.153100 15947.800000
225.124600 42911.900000
225.160800 397206.400000
231.150000 43974.700000
233.165900 248310.800000
235.145100 337534.500000
237.160800 662606.600000
239.140200 11212.400000
239.176500 137791.200000
241.155800 17077.900000
247.145200 13752.700000
249.160800 151001.300000
251.176400 28978.300000
253.155700 715148.400000
259.145100 688438.400000
260.153300 12462.900000
261.160800 40065.100000
263.176400 71570.700000
265.155800 87450.900000
267.171200 12327.700000
277.155600 375254.100000
279.171100 22193.400000
292.125100 87534.700000
310.135700 62409.100000
325.159100 42771.600000

>ms2
55.018900 106713.000000
57.034600 261318.300000
58.006000 16825.800000
58.029800 61303.200000
59.013800 469743.300000
65.039700 40248.100000
65.998600 10699.400000
66.034900 38050.600000
67.019000 37178.400000
68.014300 26514.000000
68.998200 180283.300000
69.034600 533014.400000
70.029900 147183.900000
71.013900 2833959.200000
72.993200 71392.300000
73.029600 172641.900000
73.983200 42976.200000
75.008900 24827.500000
78.034900 12703.800000
79.019000 42354.200000
80.050600 199365.000000
81.022000 336730.100000
81.034600 934160.800000
82.029800 141341.100000
83.013800 106423.800000
83.050300 436312.100000
84.009100 22952.000000
84.021600 82609.000000
84.045500 67962.500000
85.029500 2226670.500000
85.040700 112819.600000
86.024800 4979.800000
87.008700 281593.500000
88.970300 26137.900000
89.003300 14001.100000
89.006600 19659.000000
89.024400 17928.200000
90.034800 18192.800000
93.034500 26096.300000
94.029800 161052.900000
95.013800 117430.700000
95.050100 27180.500000
96.009200 5158.300000
96.021700 25857.600000
96.045500 71495.300000
97.029400 738196.900000
98.024700 49016.100000
98.061000 18335.400000
98.097500 14607.700000
99.008700 22616.000000
99.045100 302419.600000
99.998900 30286.000000
100.040400 34558.800000
101.024200 17515.100000
101.978000 169414.800000
105.022000 343362.100000
106.029800 52896.700000
107.013900 16610.900000
107.037600 44833.600000
107.050200 17108.300000
108.021700 269341.300000
108.045500 49642.900000
109.016900 318592.000000
109.029400 352408.600000
109.065800 48939.900000
110.024700 63863.900000
110.061000 46319.300000
111.032600 9989.700000
111.045200 145560.500000
112.016500 10930.200000
112.040400 34993.300000
113.024500 35479.100000
114.985900 14193.400000
115.040100 87383.900000
117.001600 34989.200000
120.045500 10338.300000
122.024800 94690.600000
123.008700 4961.000000
123.032500 50331.100000
123.045200 18344.500000
124.040300 365348.800000
125.024400 48811.800000
125.072000 26495.300000
125.097100 20688.400000
126.055900 59194.600000
126.092400 126588.500000
126.985900 69553.100000
127.040100 80507.000000
133.017000 35035.300000
134.024800 60234.500000
135.032900 15191.200000
136.040500 4495.100000
137.048300 5104.300000
137.097100 9983.300000
138.001900 93461.400000
138.019500 20892.500000
138.092300 13021.100000
139.009600 15717.600000
139.112800 5099.900000
139.993800 11376.900000
147.032700 20588.500000
150.019700 17245.300000
151.027400 38948.500000
151.040000 10471.300000
152.035300 5364.100000
152.108000 21213.700000
153.043200 5102.100000
153.103600 5451.500000
160.040400 8847.100000
165.996800 96238.900000
166.123900 27958.800000
168.139400 84077.500000
169.134700 4422828.000000
170.118700 723243.200000
182.154900 84890.100000
184.134200 12707.200000
186.055800 5292.100000
191.155500 15229.300000
193.134500 64997.800000
195.150200 312624.300000
196.134200 9234.200000
197.129500 220312.300000
207.150400 39274.600000
209.129600 39408.300000
209.165900 644623.900000
210.137300 11497.700000
211.145200 95637.800000
212.129300 4855.800000
217.134700 5050.000000
219.150200 19006.600000
221.166000 36806.300000
223.145300 229894.000000
223.181400 21559.100000
225.160800 123479.400000
231.150100 10632.300000
233.165900 46286.900000
235.145300 68163.500000
237.161000 112259.100000
239.176400 21268.700000
249.160700 34643.900000
253.155900 67467.400000
259.144900 108912.900000
261.160800 10132.900000
263.176000 11118.400000
277.155600 13197.500000

>ms2
53.003300 2001.200000
55.018900 132710.300000
57.034600 283951.000000
58.006000 18073.100000
58.029800 43227.200000
59.013800 353104.700000
60.975400 3335.100000
63.024000 2289.500000
65.003300 3114.800000
65.039700 44013.200000
65.998600 15685.500000
66.034900 35275.700000
67.019000 36226.700000
68.014200 35341.600000
68.050500 3562.600000
68.998200 151701.400000
69.034600 503284.200000
70.029900 113199.200000
71.013900 1434735.600000
71.967700 2348.300000
72.045500 1955.000000
72.993200 48538.800000
73.029600 97302.800000
73.983200 36523.000000
75.008800 14384.800000
78.034900 17320.200000
79.019000 31535.300000
80.050600 116139.900000
81.022000 291468.800000
81.034600 449561.000000
82.029800 122816.700000
83.013900 55150.100000
83.050300 182421.800000
84.009100 25754.700000
84.021600 73481.200000
84.045500 46470.600000
85.029500 990202.800000
85.040700 56519.200000
86.000900 2150.700000
86.024700 4578.000000
87.008700 182770.200000
88.970300 27040.200000
89.003300 9997.500000
89.006700 3193.700000
89.024400 2145.300000
90.034900 12652.100000
92.050500 8831.200000
93.034500 16193.400000
94.029800 185016.300000
95.013900 55432.300000
95.050200 12644.000000
96.021700 3967.200000
96.045500 44421.500000
97.029500 328755.400000
98.024700 39985.800000
98.061100 9358.800000
98.097500 15108.500000
98.990900 15917.400000
99.008800 7929.300000
99.045100 64127.600000
99.998900 25791.900000
100.040400 15831.300000
101.024300 3219.100000
101.978100 97042.400000
103.993700 4235.500000
105.022000 236333.400000
106.029800 30881.000000
107.013800 3815.900000
107.037700 34612.100000
107.050200 4168.700000
108.021700 219442.000000
108.045500 38846.200000
109.016900 197337.900000
109.029500 103797.200000
109.065800 54438.500000
110.007100 2322.000000
110.024800 41015.500000
110.061200 24611.100000
110.991000 13225.400000
111.008600 3021.700000
111.032500 11366.900000
111.045100 32511.700000
112.016300 2463.200000
112.040300 15295.400000
113.024600 9824.900000
114.986000 10147.200000
115.040100 7876.700000
118.029800 7660.900000
119.037700 3542.600000
120.045300 3794.900000
122.024700 119605.700000
123.032700 34823.100000
123.045200 6582.400000
123.081500 2157.900000
124.040300 137823.300000
125.024400 13202.700000
125.072000 13795.800000
125.097200 11178.400000
126.056100 15769.000000
126.092400 70800.700000
126.985900 37387.500000
127.040200 8068.300000
132.045500 2744.000000
133.017100 10784.800000
134.024800 24846.000000
135.032600 6951.000000
137.097200 7750.700000
138.001900 77087.000000
138.019500 10375.800000
139.009800 10120.900000
139.112900 2813.000000
139.993900 3990.400000
141.001700 2944.700000
145.040900 3498.000000
147.032900 14849.700000
148.040200 4104.100000
150.019500 10170.600000
151.027400 2343.400000
151.040000 2318.400000
152.108000 10819.600000
153.103200 1932.800000
158.061700 1979.400000
160.040500 2774.000000
162.055700 2324.600000
164.107600 1974.700000
165.996800 28436.100000
166.123600 10480.800000
168.139400 48774.500000
169.134700 690353.200000
170.118700 131696.800000
180.139400 2372.300000
182.154800 23519.900000
186.056000 8066.100000
193.134500 38356.300000
195.150300 111338.500000
196.134200 3520.000000
197.129500 50386.600000
207.150200 7974.100000
209.129600 9507.100000
209.166000 93839.900000
211.145500 14479.600000
219.150500 4390.500000
221.166100 7868.500000
223.145200 33568.000000
225.161100 11618.800000
235.145600 3766.300000
237.160800 3090.100000
239.177200 2023.500000

>ms2
50.003600 3332.700000
51.023900 2899.500000
52.019200 3434.900000
53.003300 7807.700000
55.018900 137564.900000
57.034600 241914.100000
58.006100 18412.600000
58.029800 31075.400000
59.013800 284853.300000
60.975400 15215.100000
63.024000 2548.300000
63.962400 2748.600000
64.019300 1545.100000
65.003200 6750.200000
65.039700 32560.000000
65.998500 18669.300000
66.034900 46749.900000
67.019000 43921.700000
68.014200 45303.900000
68.050500 3770.700000
68.998200 160161.500000
69.034600 464632.000000
70.029900 96237.600000
71.013900 858648.100000
71.967700 3395.000000
72.975400 9699.800000
72.993200 30186.800000
73.029600 52769.500000
73.983300 52555.700000
75.008800 11684.900000
78.035000 23191.900000
79.019000 22760.500000
80.050600 80950.900000
81.022000 235427.600000
81.034600 266850.800000
82.029800 105126.800000
82.996200 14805.800000
83.013900 34454.500000
83.050300 86019.800000
84.009100 17633.600000
84.021600 57250.600000
84.045400 31947.700000
85.029500 428270.500000
85.040700 25198.700000
86.024700 1849.200000
86.991000 7239.600000
87.008700 118305.200000
88.970300 21606.500000
89.003300 13802.000000
90.034900 19602.700000
92.050300 2745.800000
93.034600 11710.800000
94.029800 205992.000000
95.013800 36969.300000
95.050300 3837.900000
96.008900 1683.900000
96.045500 32643.700000
97.029400 171947.100000
98.024700 34494.300000
98.061100 4153.100000
98.097300 1885.400000
98.990900 9341.900000
99.008600 3766.100000
99.045200 15702.600000
99.998700 14846.700000
100.040600 1778.800000
101.978100 50723.000000
103.993700 2731.100000
104.014400 2224.400000
105.022000 126207.200000
106.029800 28733.500000
107.013900 2284.900000
107.037600 26428.500000
107.050200 2249.700000
108.021700 193217.000000
108.045600 27823.600000
109.016900 113534.500000
109.029400 31942.800000
109.065800 35697.300000
110.007000 2737.900000
110.024800 20562.100000
110.061100 13112.600000
110.991000 8931.000000
111.008600 2335.700000
111.032500 2798.700000
111.045100 8645.000000
112.040500 2658.200000
113.024500 2317.200000
114.985900 2961.900000
118.030000 6279.600000
119.037400 1902.900000
120.045600 8111.900000
122.024800 135782.900000
123.009000 2944.200000
123.032600 25841.600000
123.081700 2363.700000
124.040300 58462.100000
125.024100 3658.400000
125.072000 2696.500000
125.097000 8699.800000
126.056100 7650.900000
126.092600 18865.900000
126.985900 17540.800000
133.016900 3562.600000
134.024800 11962.900000
135.032300 1609.600000
136.040800 1972.300000
137.097200 3094.900000
138.001900 61213.900000
138.019500 6153.600000
139.009500 3006.700000
139.112900 2335.800000
139.993800 1843.800000
145.040300 2137.300000
147.032500 7102.500000
149.035500 1595.900000
150.019600 1986.900000
152.108000 3112.400000
165.996500 7103.300000
166.123700 2290.800000
168.139400 10555.900000
169.134600 86068.800000
170.118800 24507.800000
182.154900 2183.500000
186.055400 1936.600000
193.134900 16530.900000
195.150200 21231.800000
197.129300 7253.600000
209.165600 10588.000000
221.165500 2018.900000
223.145400 2657.500000

>ms2
50.003600 20210.500000
51.023900 8244.800000
52.019200 18477.700000
53.003200 11036.700000
55.018900 110246.200000
56.980500 10914.400000
57.034600 60611.800000
58.006000 9890.200000
58.029700 6247.000000
59.013900 103623.500000
60.975400 15689.000000
63.023900 1881.200000
63.962500 3568.900000
64.019200 2100.000000
65.003200 6470.600000
65.039700 17556.000000
65.998500 14108.100000
66.034900 47675.200000
67.019000 49643.200000
68.014200 49870.600000
68.998300 109527.400000
69.034600 131558.500000
70.029900 26245.500000
71.013900 157481.900000
71.967600 2083.200000
72.975500 12176.900000
72.993300 16892.900000
73.029600 7755.400000
73.983300 36031.300000
76.019300 7029.900000
77.003400 5902.800000
78.034900 15887.500000
79.018900 6173.400000
80.014200 3169.700000
80.050600 20019.800000
81.022000 62693.900000
81.034600 39097.700000
82.029800 28080.600000
82.996200 12419.600000
83.013800 6658.100000
83.050200 12394.000000
84.009200 2955.400000
84.021700 8390.300000
84.045400 3320.900000
85.029500 31269.700000
86.000900 1438.400000
86.991000 2204.600000
87.008700 16666.400000
88.970200 6795.800000
89.003300 2142.600000
90.034900 7771.600000
93.034500 3267.600000
94.029800 154197.100000
95.013900 13265.100000
96.009000 1780.700000
96.045400 1769.100000
97.029500 21059.700000
98.024700 15272.500000
98.991100 1660.200000
99.998800 1854.900000
101.978100 2914.400000
104.014100 2844.200000
105.022000 18115.900000
106.029800 6662.300000
107.037800 3008.400000
108.021700 55218.800000
108.045400 3229.200000
109.017000 13368.000000
109.066000 2980.000000
110.024700 1884.500000
110.991000 7453.800000
118.030000 7950.300000
120.045500 2025.000000
122.024800 45068.800000
123.032600 7768.000000
124.040000 2631.800000
138.001900 16354.900000

>ms2
50.003600 28654.600000
51.023900 7896.600000
52.019300 13745.200000
53.003200 19648.400000
55.018900 62170.100000
56.980400 16085.000000
57.034600 12007.400000
58.006000 2173.700000
59.013800 27751.800000
60.975400 19290.000000
63.962500 3112.400000
64.019300 4998.400000
65.003300 6622.300000
65.039700 8181.600000
65.998500 10076.800000
66.034900 29875.400000
67.019000 43192.200000
68.014200 32367.200000
68.998200 57145.000000
69.034600 30946.100000
70.029900 6941.900000
71.013900 31563.400000
71.967500 1516.800000
72.975400 14816.600000
72.993300 6990.900000
73.983200 20879.300000
76.019300 8258.300000
77.003300 1993.000000
80.014000 2016.100000
80.050600 7072.500000
80.980400 3304.800000
81.022000 16829.500000
81.034600 5964.100000
82.029800 8412.400000
82.996200 6443.900000
84.975400 1667.200000
85.029500 2225.700000
87.008700 2599.700000
90.034900 2734.600000
94.029800 55294.100000
95.013800 1924.800000
97.029500 5592.300000
98.024800 3048.900000
105.022000 5745.000000
106.029800 1511.700000
108.021600 9531.900000
109.017000 2614.000000
118.030000 2327.700000
122.024800 9560.300000

>ms2
50.003600 34957.400000
51.023900 5886.800000
52.019200 6912.300000
53.003200 18129.300000
55.018900 30965.900000
56.980400 14858.600000
57.034500 1542.800000
59.013800 5468.600000
60.975400 19210.300000
63.962400 5343.400000
64.019300 5652.400000
65.003300 3066.800000
65.039700 3004.500000
65.998600 10092.900000
66.034900 13859.100000
67.018900 25676.300000
68.014200 27341.000000
68.998200 33320.100000
69.034700 3371.700000
71.013800 10157.100000
72.975400 6020.100000
72.993000 1492.500000
73.983300 8697.800000
76.019400 6348.900000
80.980300 6733.900000
84.975400 1821.600000
90.035000 1415.400000
94.029800 17692.300000

