>compound EQ03349989
>parentmass 298.0753
>ionization [M-H]-
>formula C16H14ClN3O
>rt 372.000000
>profile orbitrap
#smiles_iso CN=C1CN(C(=C2C=C(C=CC2=N1)Cl)C3=CC=CC=C3)O
#smiles_can CN=C1CN(C(=C2C=C(C=CC2=N1)Cl)C3=CC=CC=C3)O
#inchikey BUCORZSTKDOEKQ-UHFFFAOYSA-N
#pubchem_id 2712
#mb_accession EQ361751,EQ361752,EQ361753,EQ361754,EQ361755,EQ361756,EQ361757,EQ361758

>ms2
135.995900 3937.300000
193.017600 7926.500000
211.027700 4504.700000
241.031200 4862.100000
253.053400 29641.700000
254.061500 2427496.000000
255.032500 3742.500000
255.069400 3780.900000
270.056500 4560.700000
298.075000 3130594.800000

>ms2
55.030100 4555.500000
135.995800 15930.300000
151.990700 13100.900000
165.022300 2967.300000
192.033600 8148.900000
193.017000 4868.800000
221.072200 10193.900000
241.030100 11897.900000
253.053600 183489.200000
254.061400 2770653.000000
255.032700 10402.000000
255.069400 8356.800000
270.055700 3671.000000
298.075000 248471.200000

>ms2
55.030100 6931.300000
102.034800 899.500000
111.000500 1999.800000
116.014200 3028.800000
129.045600 480.600000
131.061400 535.700000
135.995800 7825.800000
145.040700 672.100000
151.990700 9669.000000
154.990300 611.700000
165.022400 2042.900000
179.985700 830.200000
192.033200 7888.800000
193.017500 690.200000
193.077100 2917.200000
217.076600 1540.300000
218.084900 2307.500000
221.071900 22432.800000
222.079200 3452.900000
224.027200 605.800000
226.042600 4146.900000
227.038000 2186.500000
238.029200 3846.400000
239.038300 1004.800000
240.046000 6373.100000
241.030000 9305.000000
249.066900 5761.600000
251.038300 3513.300000
253.053800 454632.500000
254.061500 247192.200000
255.032900 13081.900000
255.069000 4797.700000
267.069600 2010.300000
298.074700 2579.700000

>ms2
55.030100 7506.400000
65.998500 565.200000
102.034700 482.000000
111.000600 1783.600000
116.014100 2328.300000
131.061000 423.700000
135.995800 1950.900000
145.040700 2590.200000
151.990900 3952.600000
154.990800 543.900000
165.022300 605.000000
190.066200 3290.000000
192.033400 2911.900000
193.076800 3134.900000
215.061400 1638.900000
217.077000 16938.800000
218.085000 1946.000000
221.071900 14404.700000
222.079800 1938.100000
224.026900 2753.000000
226.042800 14899.000000
238.030200 55738.200000
239.038100 5083.700000
240.045900 4524.400000
241.030100 1896.100000
249.066900 3327.500000
251.038000 20985.500000
253.053700 395198.000000
254.060600 4083.900000
255.033200 7733.100000
255.069500 793.100000

>ms2
55.030100 6453.600000
102.034900 429.900000
111.000700 536.800000
116.014300 540.600000
145.040600 2629.700000
151.990700 1592.800000
190.066100 7084.700000
191.061300 1397.500000
193.077000 408.400000
202.053500 711.300000
215.061500 7118.000000
217.076900 39408.000000
218.084600 451.700000
219.056100 898.700000
221.071900 4854.500000
222.078900 393.300000
224.027100 5251.900000
226.042800 16385.000000
227.038200 621.300000
238.030200 147770.800000
239.038200 7021.200000
240.046400 478.900000
241.030100 400.400000
249.066900 921.100000
251.038000 42145.300000
253.053600 144775.800000
255.033300 812.500000

>ms2
55.030100 6651.400000
65.998500 640.700000
141.045500 340.800000
145.040700 2895.100000
190.066200 11137.200000
191.061900 755.900000
202.053400 6800.300000
215.061300 21708.200000
217.077000 32628.300000
219.056400 1708.400000
224.027000 1992.800000
226.042800 9161.900000
238.030200 113036.300000
239.038400 2817.800000
251.038000 32181.500000
253.053600 21720.000000

>ms2
55.030100 4270.000000
65.998500 573.800000
141.045500 1438.500000
188.050300 1381.700000
190.066100 5707.800000
202.053600 5049.900000
215.061400 20071.500000
217.077100 3102.100000
238.030300 5528.800000
251.038000 2243.200000

>ms2
55.030000 1749.600000
188.050100 446.500000
202.053100 532.100000
215.061300 4111.300000

