>compound EQ10666954
>parentmass 403.143
>ionization [M-H]-
>formula C21H25ClN2O4
>rt 576.000000
>profile orbitrap
#smiles_iso C1C[N+](CCN1C(C2=CC=CC=C2)C3=CC=C(C=C3)Cl)(CCOCC(=O)O)[O-]
#smiles_can C1C[N+](CCN1C(C2=CC=CC=C2)C3=CC=C(C=C3)Cl)(CCOCC(=O)O)[O-]
#inchikey IVDOUUOLLFEMJQ-UHFFFAOYSA-N
#pubchem_id 45038602
#mb_accession EQ338151,EQ338152,EQ338153,EQ338154,EQ338155,EQ338156,EQ338157,EQ338158,EQ338159

>ms2peaks
59.013800 97178.600000
72.993200 1340396.600000
75.008700 1136570.800000
101.024400 2417071.000000
103.040100 2138824.000000
117.019400 805505.300000
119.035000 195088.100000
184.085000 105563.500000
385.132500 351324.800000
403.143100 75704280.000000

>ms2peaks
55.018900 192539.000000
57.034600 167462.400000
58.006000 286495.100000
59.013900 1032731.100000
59.985300 140681.700000
60.993200 72174.500000
71.013900 186404.000000
72.993200 20953726.000000
75.008800 9619460.000000
89.024400 787590.700000
98.024700 162808.500000
98.061100 39314.100000
101.024400 12355442.000000
103.040100 7544429.500000
111.000700 22126.100000
117.019400 3034122.500000
118.051000 69640.100000
118.066300 75413.400000
119.035000 823080.400000
184.085300 387819.400000
192.081800 23607.100000
199.032300 133227.800000
201.047700 805724.400000
206.097600 39748.800000
208.113400 42296.800000
228.058700 407787.000000
242.074400 254290.400000
285.116600 284572.343800
327.126900 126515.600000
373.132500 294447.800000
385.132100 187728.500000
403.143200 5400112.000000

>ms2peaks
55.018900 97909.400000
57.034600 217924.400000
58.006000 339658.700000
59.013900 795657.000000
59.985300 191863.900000
71.013900 83689.300000
72.993200 18629176.000000
75.008800 8223235.500000
84.045400 38786.000000
89.024400 320464.800000
98.024700 86295.700000
101.024400 5230264.500000
102.034900 52868.800000
103.040100 2782537.000000
111.000700 52038.800000
117.019400 332166.400000
118.051200 36320.800000
118.066300 42533.000000
119.035000 108064.900000
184.085200 56180.400000
192.082100 88314.600000
199.032000 94279.300000
201.047700 340853.600000
228.058800 147188.600000
242.074500 58654.800000

>ms2peaks
55.018900 50125.400000
57.034600 97473.200000
58.006000 296760.400000
59.013900 421694.700000
59.985300 241736.000000
68.050700 13832.400000
70.029900 14760.300000
71.014000 40055.200000
72.993200 12639320.000000
75.008800 5822381.500000
84.045700 19449.000000
89.024300 72450.300000
98.024900 34586.600000
101.024400 1476192.200000
102.035300 19703.900000
103.040100 849494.300000
111.000900 33811.700000
117.019500 17005.500000
118.066500 32676.700000
119.035200 13964.500000

>ms2peaks
55.018800 15235.800000
57.034500 40457.000000
58.006100 230190.100000
59.013900 207928.100000
59.985300 167682.800000
67.030100 10082.500000
68.050700 11582.200000
70.029800 14504.000000
72.993200 7827538.000000
75.008800 3787509.200000
89.024500 37308.300000
101.024400 381837.700000
103.040100 251717.800000

>ms2peaks
55.018900 28523.600000
57.034600 12313.200000
58.006000 141850.800000
59.013900 92399.800000
59.985300 119996.900000
67.030100 9975.400000
70.029900 13876.300000
72.993300 4503334.000000
75.008800 2026873.500000
101.024500 81741.000000
103.040200 39213.400000
192.082200 7256.300000

>ms2peaks
58.006000 44924.300000
59.013800 15379.500000
59.985300 69700.300000
67.030200 9865.300000
72.993200 1045966.700000
75.008800 526249.600000

>ms2peaks
59.985300 11466.800000
67.030200 8918.300000
72.993200 213725.200000
75.008900 122968.000000

>ms2peaks
72.993100 45948.700000
75.008900 10559.600000

