>compound EQ10647438
>parentmass 413.1176999999999
>ionization [M-H]-
>formula C21H22N2O5S
>rt 582.000000
>profile orbitrap
#smiles_iso CCOC1=C(C2=CC=CC=C2C=C1)C(=O)N[C@H]3[C@@H]4N(C3=O)[C@H](C(S4)(C)C)C(=O)O
#smiles_can CCOC1=C(C2=CC=CC=C2C=C1)C(=O)NC3C4N(C3=O)C(C(S4)(C)C)C(=O)O
#inchikey GPXLMGHLHQJAGZ-JTDSTZFVSA-N
#pubchem_id 8982
#mb_accession EQ320651,EQ320652,EQ320653,EQ320654,EQ320655,EQ320656,EQ320657,EQ320658,EQ320659

>ms2
72.999000 419989.700000
143.049000 339641.600000
182.060900 872015.100000
226.033100 1850996.400000
243.035700 1856592.400000
244.042700 134207.300000
272.075000 121487728.000000
369.127700 8878467.000000

>ms2
61.011700 84061.700000
72.999100 3188535.000000
74.007000 93520.000000
99.986200 965351.100000
102.038200 103184.400000
128.017400 90878.200000
143.050100 1516859.200000
146.028200 74775.600000
168.045300 71212.200000
170.052100 86406.500000
182.061000 6026424.000000
186.055900 347249.400000
210.056000 477464.900000
215.041000 112462.600000
226.033300 11850464.000000
243.035900 47791528.000000
244.043900 955966.200000
272.075100 37928412.000000
369.128600 80293.100000

>ms2
57.975700 328994.500000
60.975400 121706.400000
61.011700 154981.500000
70.983500 147583.800000
71.991400 90295.300000
72.999200 39835296.000000
73.983100 131294.000000
74.007100 880018.200000
99.986200 3878743.000000
102.038200 69883.900000
143.050200 4914082.500000
166.066200 350721.500000
168.045500 705632.200000
170.037800 79106.500000
170.051900 106043.600000
182.061000 6910299.500000
183.068800 233111.300000
186.055900 2898891.200000
192.045300 134003.100000
194.061100 290429.300000
198.038100 223900.100000
198.056400 76220.400000
199.022300 257941.400000
200.030200 144013.400000
209.048000 192215.300000
210.056000 1904846.000000
214.033300 69457.300000
215.041000 436489.000000
225.025300 283057.400000
226.033200 11731523.000000
243.035900 33544850.000000
244.043600 318702.100000
272.075000 1595535.500000

>ms2
57.975700 659919.000000
60.975300 170589.700000
61.011700 109461.100000
70.983600 299551.600000
71.991400 294392.100000
72.999200 49590248.000000
73.983300 118055.400000
74.007100 1398084.400000
99.986200 2754203.200000
102.038200 67629.500000
143.050200 5672021.000000
152.050400 156371.400000
166.066200 524568.900000
168.045500 913588.700000
181.053400 111817.500000
182.061000 2869065.800000
186.056000 2223222.200000
192.045500 219445.000000
194.061100 848294.100000
197.030400 96661.300000
198.038200 262442.700000
199.022300 390262.600000
209.048000 102082.900000
210.056100 845549.700000
214.033300 77908.100000
225.025400 610286.400000
226.033200 4315427.000000
243.035900 2828498.200000

>ms2
56.980400 132759.500000
57.975700 1024733.800000
60.975300 129833.700000
61.011700 71187.300000
65.998600 118217.200000
70.983600 469844.700000
71.991400 614697.200000
72.999200 42491984.000000
74.007100 1564369.200000
99.986200 1859399.600000
115.055300 197127.800000
143.050200 7145001.500000
152.050700 161519.000000
166.066200 466875.100000
168.045500 1454845.800000
181.053200 117933.800000
182.061100 927138.700000
183.027400 74677.900000
186.056000 918329.500000
192.045400 275972.500000
194.061000 1119038.600000
197.030500 119081.000000
198.038500 201759.600000
199.022200 198290.700000
210.055900 194703.300000
224.017700 67083.900000
225.025400 625594.500000
226.033200 906226.600000

>ms2
56.980500 192664.600000
57.975700 969585.400000
60.975400 156517.400000
61.011800 59749.500000
65.998600 114669.400000
70.983600 411198.500000
71.991400 542901.900000
72.999300 25258574.000000
74.007100 987748.200000
99.986200 846683.400000
115.055400 663818.700000
140.050400 32693.600000
143.050200 5943633.000000
152.050500 86330.800000
166.066200 295162.900000
168.045400 1165118.900000
181.053400 29248.100000
182.061200 126019.600000
186.055500 118774.400000
192.045500 105029.000000
194.061000 713034.200000
197.030600 25357.100000
199.022400 64617.700000
224.017700 61116.900000
225.025300 238011.100000
226.033400 83099.400000

>ms2
56.980400 395926.900000
57.975700 715888.000000
60.975400 163819.800000
61.011800 23900.600000
65.998600 136657.600000
70.983600 506879.700000
71.991400 418769.700000
72.999300 8802867.000000
74.007100 309374.300000
99.986400 120359.400000
115.055300 2577531.800000
140.050600 255397.600000
143.050200 3118751.500000
166.066100 58617.600000
168.045400 432459.100000
194.061000 62456.000000

>ms2
56.980400 406279.000000
57.975700 548108.200000
60.975400 246388.800000
65.039800 14123.100000
65.998500 73611.000000
70.983600 469470.500000
71.991500 146286.700000
72.999300 2176298.800000
74.007000 24184.700000
115.055400 2008188.200000
140.050700 119920.800000
143.050200 533549.500000
168.045800 24267.500000

>ms2
56.980400 447676.300000
57.975700 414458.000000
60.975400 382900.600000
65.039600 25114.600000
65.998500 28117.100000
70.983600 668178.200000
71.991400 74263.900000
72.999300 549615.400000
115.055300 944367.600000
140.050600 31484.200000
143.050100 63326.600000

