>compound EQ10654495
>parentmass 231.07749999999996
>ionization [M-H]-
>formula C12H12N2O3
>rt 360.000000
>profile orbitrap
#smiles_iso CCC1(C(=O)NC(=O)NC1=O)C2=CC=CC=C2
#smiles_can CCC1(C(=O)NC(=O)NC1=O)C2=CC=CC=C2
#inchikey DDBREPKUVSBGFI-UHFFFAOYSA-N
#pubchem_id 4763
#mb_accession EQ362451,EQ362452,EQ362453,EQ362454,EQ362455

>ms2peaks
85.004300 843649.800000
144.081800 103978.600000
188.071700 3003072.500000
231.077400 23868300.000000

>ms2peaks
85.004300 577165.900000
144.081800 145294.500000
188.071700 1037599.100000
231.077500 4980097.000000

>ms2peaks
85.004400 49067.000000
144.081900 106219.800000
188.071500 28082.500000
231.077600 79809.400000

>ms2peaks
144.081700 54024.100000

>ms2peaks
144.081800 13668.100000

