>compound EQ12688275
>parentmass 266.9985
>ionization [M-H]-
>formula C13H10Cl2O2
>rt 744.000000
>profile orbitrap
#smiles_iso C1=CC(=C(C=C1Cl)CC2=C(C=CC(=C2)Cl)O)O
#smiles_can C1=CC(=C(C=C1Cl)CC2=C(C=CC(=C2)Cl)O)O
#inchikey MDNWOSOZYLHTCG-UHFFFAOYSA-N
#pubchem_id 3037
#mb_accession EQ364851,EQ364852,EQ364853,EQ364854,EQ364855,EQ364856,EQ364857,EQ364858,EQ364859

>ms2peaks
126.995500 2638285.000000
266.998500 27172452.000000

>ms2peaks
126.995600 16682424.000000
231.021800 110165.600000
248.987100 33801.100000
266.998600 13927410.000000

>ms2peaks
126.995600 26376566.000000
231.021700 108322.800000
248.988100 32698.500000
266.998500 1164774.400000

>ms2peaks
91.019000 64837.200000
126.995600 23252242.000000
231.021500 26410.500000
266.998000 25056.600000

>ms2peaks
91.019000 228219.800000
126.995600 16567873.000000

>ms2peaks
91.018900 444304.600000
126.995600 9054836.000000

>ms2peaks
65.003200 4310.400000
91.019000 278632.100000
126.995700 1108367.500000

>ms2peaks
65.003300 4861.100000
91.019000 68568.300000
126.995600 80854.800000

>ms2peaks
65.003300 11192.500000
91.018800 4570.600000
126.995600 4118.000000

