>compound EQ12641282
>parentmass 307.1452
>ionization [M-H]-
>formula C19H20N2O2
>rt 672.000000
>profile orbitrap
#smiles_iso CCCCC1C(=O)N(N(C1=O)C2=CC=CC=C2)C3=CC=CC=C3
#smiles_can CCCCC1C(=O)N(N(C1=O)C2=CC=CC=C2)C3=CC=CC=C3
#inchikey VYMDGNCVAMGZFE-UHFFFAOYSA-N
#pubchem_id 4781
#mb_accession EQ361551,EQ361552,EQ361553,EQ361554,EQ361555,EQ361556,EQ361557,EQ361558,EQ361559

>ms2
92.050300 413708.600000
131.037400 520259.600000
188.108100 398750.300000
279.150300 1476510.000000
307.145100 144880560.000000

>ms2
77.039600 102137.700000
80.050600 118539.800000
82.066200 1414528.100000
92.050500 3600958.200000
95.050200 403467.000000
118.066200 80705.500000
120.045400 270668.700000
131.037600 17407384.000000
132.045400 494715.900000
132.081700 169280.400000
144.045300 161882.300000
157.053300 486018.100000
158.097500 261823.000000
160.113200 5191447.500000
161.097100 79119.100000
168.081900 1498670.900000
170.097500 2167440.800000
176.108000 383531.600000
186.092400 1135385.000000
187.051200 152518.100000
188.108100 5634186.500000
204.103000 143029.400000
206.084900 397440.000000
214.087200 553673.600000
230.105700 340948.500000
250.074800 463119.100000
264.139700 188712.900000
279.150400 29007050.000000
307.145200 63944564.000000

>ms2
77.039700 175031.900000
80.050600 574176.300000
82.066200 2561734.000000
92.050600 11040333.000000
93.034500 69813.100000
95.050200 1874062.100000
101.060700 63447.200000
102.034900 37004.500000
116.050600 133799.800000
118.029900 146797.400000
118.066300 329074.800000
120.045500 193477.800000
121.029700 108086.100000
131.037600 25260428.000000
132.045400 652473.800000
132.081800 788416.800000
142.066300 117448.300000
144.045500 896690.200000
155.074200 852776.900000
156.081600 28419.100000
157.053300 3032979.800000
158.097500 2021431.400000
160.113200 7527355.500000
161.097200 113319.300000
168.081900 3705965.000000
170.097500 6268909.000000
171.069000 36115.600000
176.108000 487309.900000
186.092400 1672814.900000
187.051300 770563.600000
187.100300 91979.200000
188.108100 3750111.200000
193.077300 61135.000000
204.102800 340726.600000
206.084900 730002.200000
209.072300 140276.400000
214.087500 183276.700000
230.106000 162189.700000
250.074800 210679.100000
251.155300 107778.100000
264.139700 84614.100000
279.150300 9700968.000000
307.145200 2961306.200000

>ms2
52.019100 69359.000000
67.055300 25926.200000
77.039700 94937.500000
80.026800 99612.100000
80.050600 777112.500000
82.066200 1390671.600000
83.049900 41724.800000
92.050600 19117024.000000
93.034400 68308.100000
94.066100 79865.200000
95.050200 2173117.800000
102.034900 97362.800000
116.050600 148043.500000
118.030000 68850.400000
118.066300 354860.700000
120.045300 76228.000000
121.029300 107357.600000
131.037700 15692016.000000
132.045500 442066.800000
132.081800 563295.300000
142.066200 124649.100000
144.045500 822126.500000
155.074200 1843077.400000
156.081800 159785.400000
157.053300 1867988.900000
158.097500 1702000.500000
160.113200 1379999.400000
161.096900 25019.800000
166.066200 89410.200000
168.081900 2053304.200000
170.097500 3306490.000000
171.068700 69072.600000
176.108100 150226.100000
186.056200 22564.900000
186.092200 203813.500000
187.051300 613583.200000
188.108100 848530.600000
193.076900 21726.800000
204.103000 88190.200000
206.084700 206911.300000
209.071900 33367.400000
279.150300 309981.100000
307.144500 24089.100000

>ms2
52.019100 85923.600000
65.039700 57374.000000
78.035000 100287.500000
80.026800 97408.200000
80.050600 650193.100000
82.066200 394662.200000
83.050300 29944.300000
92.050600 21997654.000000
93.034500 63191.800000
94.066200 51663.000000
95.050200 1534170.100000
116.050600 187072.500000
118.066300 231140.800000
121.029600 33020.400000
131.037600 6782447.000000
132.045400 162774.500000
132.081800 204543.600000
142.066300 160729.600000
144.045400 587415.600000
155.074200 966539.400000
156.081800 308443.600000
157.053300 497862.300000
158.097500 515343.900000
160.113300 129595.800000
166.066200 205009.100000
168.081900 867728.900000
170.097600 710283.400000
176.108200 32232.500000
187.051300 230375.200000
188.108400 92860.100000

>ms2
52.019200 62028.900000
65.039600 109772.900000
78.035000 149385.400000
80.026800 114012.300000
80.050600 308604.100000
82.066200 147782.500000
92.050600 21176470.000000
95.050200 800569.400000
102.034900 27220.500000
116.050600 195163.500000
118.066300 104906.800000
131.037600 2346744.000000
132.045300 52738.900000
133.040700 31452.400000
142.066200 109135.600000
144.045500 457592.200000
155.074100 226570.600000
156.081900 184718.600000
157.053200 90687.200000
158.097300 119857.000000
166.066100 203887.000000
168.081900 321601.600000
170.097600 101278.800000
187.051100 30624.100000

>ms2
50.003500 24129.400000
52.019200 51153.800000
65.039700 396041.700000
66.034800 17375.700000
78.034900 114848.300000
80.026800 20512.600000
80.050600 71392.300000
90.034800 27284.100000
92.050600 12236312.000000
95.050200 91570.700000
116.050600 175242.700000
117.045900 16354.800000
118.066200 15046.100000
131.037600 218314.600000
144.045500 220512.400000
166.066100 104016.800000
168.081500 14799.200000

>ms2
50.003600 53136.700000
52.019200 21453.000000
65.039700 620187.600000
66.034900 46836.000000
75.024100 22476.700000
78.034900 23014.600000
90.035000 52143.200000
92.050600 4542347.000000
116.050600 77077.000000
166.066300 17781.700000

>ms2
50.003500 142846.100000
65.039700 696893.900000
66.035000 24129.900000
75.024000 14215.700000
90.034900 57185.800000
92.050600 1149646.200000
116.050700 16972.300000

