>compound EQ14423603
>parentmass 404.9718
>ionization [M-H]-
>formula C17H9Cl3N4O2
>rt 744.000000
>profile orbitrap
#smiles_iso C1=CC(=CC=C1C(C#N)C2=C(C=C(C=C2Cl)N3C(=O)NC(=O)C=N3)Cl)Cl
#smiles_can C1=CC(=CC=C1C(C#N)C2=C(C=C(C=C2Cl)N3C(=O)NC(=O)C=N3)Cl)Cl
#inchikey ZSZFUDFOPOMEET-UHFFFAOYSA-N
#pubchem_id 456389
#mb_accession EQ365851,EQ365852,EQ365853,EQ365854,EQ365855,EQ365856

>ms2
333.971800 5508081.000000
334.955700 1448342.800000
404.972300 23850058.000000

>ms2
222.971000 30084.700000
298.978900 382348.800000
305.953000 24218.000000
306.960500 129351.800000
333.971600 20335214.000000
334.955600 2621196.800000
404.972200 666925.800000

>ms2
222.971300 107384.800000
235.007300 46849.500000
263.002000 53494.600000
266.954700 22343.000000
296.987100 17059.100000
297.995000 6769.500000
298.978900 808303.200000
305.952800 95940.500000
306.960700 72891.100000
333.971800 1789325.100000
334.955700 322507.000000

>ms2
186.994400 17015.700000
222.971300 106582.800000
235.007200 71705.500000
236.014800 6289.500000
263.002000 91942.300000
266.954700 12196.200000
296.987900 18125.400000
297.994700 4267.400000
298.978900 165956.000000
305.952900 67620.700000
333.971400 22734.700000
334.956400 3860.500000

>ms2
151.017900 3059.300000
152.025700 2757.600000
186.994300 34629.700000
199.030700 5057.100000
222.971400 39623.500000
235.007300 20194.900000
236.015000 11713.700000
263.002000 31013.009770
298.978400 10132.740230

>ms2
151.017300 2960.800000
152.025600 5190.300000
186.994600 12102.000000
199.029900 4093.300000
222.971100 4292.600000
263.002300 3122.100000

