>compound EQ19160530
>parentmass 269.0487
>ionization [M-H]-
>formula C15H11ClN2O
>rt 564.000000
>profile orbitrap
#smiles_iso C1C(=O)NC2=C(C=C(C=C2)Cl)C(=N1)C3=CC=CC=C3
#smiles_can C1C(=O)NC2=C(C=C(C=C2)Cl)C(=N1)C3=CC=CC=C3
#inchikey AKPLHCDWDRPJGD-UHFFFAOYSA-N
#pubchem_id 2997
#mb_accession EQ360851,EQ360852,EQ360853,EQ360854,EQ360855,EQ360856,EQ360857,EQ360858

>ms2
241.029900 1132762.000000
242.037700 314182.200000
269.048500 3506217.500000

>ms2
241.029800 3388263.200000
242.037700 615212.400000
267.033300 8662.300000
268.039700 5560.900000
269.048600 826167.900000

>ms2
205.053600 5298.800000
224.071100 5380.900000
240.022600 7901.300000
241.029800 3819924.500000
242.037600 336707.500000
267.033300 7946.500000
269.048500 25810.100000

>ms2
205.053200 40764.800000
206.061100 5489.800000
210.055700 2782.600000
224.071500 8730.900000
235.051400 2304.200000
240.022100 38569.700000
241.029900 2212220.200000
242.037700 70828.400000
267.033300 6528.100000

>ms2
204.045200 1915.000000
205.053100 60067.100000
206.060900 3676.000000
210.056300 650.300000
222.055800 530.100000
224.071500 3331.600000
235.051100 769.300000
240.022100 37983.000000
241.030000 486267.300000
242.037700 5857.700000
267.033200 3158.000000

>ms2
101.039400 1203.100000
177.058100 1353.200000
204.045200 3544.700000
205.053200 29316.200000
206.060800 688.400000
224.071400 420.300000
240.022000 17274.600000
241.029900 38468.600000

>ms2
101.039500 1692.400000
204.045500 2745.200000
205.052700 753.000000

>ms2
101.039600 493.300000

