>compound EQ20849411
>parentmass 433.2032
>ionization [M-H]-
>formula C24H31FO6
>rt 618.000000
>profile orbitrap
#smiles_iso CC1CC2C3CCC4=CC(=O)C=CC4(C3(C(CC2(C1(C(=O)COC(=O)C)O)C)O)F)C
#smiles_can CC1CC2C3CCC4=CC(=O)C=CC4(C3(C(CC2(C1(C(=O)COC(=O)C)O)C)O)F)C
#inchikey AKUJBENLRBOFTD-UHFFFAOYSA-N
#pubchem_id 3680
#mb_accession EQ326451,EQ326452,EQ326453,EQ326454,EQ326455,EQ326456,EQ326457,EQ326458,EQ326459

>ms2peaks
59.013800 7107808.500000
73.029500 10628.400000
101.024300 97698.900000
241.123100 10264.100000
311.165100 140078.400000
331.171000 15305.300000
335.165200 32787.200000
339.160100 36456.000000
341.175600 32666.600000
343.191900 12231.300000
351.196300 8764.000000
353.175800 2092957.900000
359.166300 14039.100000
361.182100 1223605.200000
365.175000 14759.500000
371.185900 38697.900000
373.181800 442718.000000
377.176100 13709.100000
385.181600 10340.900000
395.185700 21697.700000
397.182900 11321.300000
413.196700 126751.600000
415.192500 30280.200000
433.203100 1530534.500000

>ms2peaks
59.013800 8386461.500000
73.029500 68966.900000
99.045100 19246.900000
101.024300 90535.300000
121.065800 25374.200000
203.107600 11006.600000
208.089300 11220.000000
241.123300 45842.100000
292.110500 47524.100000
307.133700 199869.000000
310.121000 34832.300000
311.165200 307586.100000
317.154700 9412.500000
319.133800 15865.700000
323.165100 8871.400000
325.144500 158481.300000
325.180000 43258.000000
327.140000 18859.000000
331.171200 30851.100000
335.165300 22226.800000
337.144300 29854.700000
338.152100 12597.600000
339.160000 70603.400000
341.175600 90451.400000
343.171000 16055.600000
343.191600 20490.500000
345.150600 156451.600000
353.175900 1833242.600000
359.166500 17334.800000
361.182000 1152283.200000
365.174900 10207.000000
373.181700 71434.900000
377.176400 18258.100000
433.203500 10426.800000

>ms2peaks
59.013800 6592535.500000
71.013800 13928.300000
73.029500 70499.900000
83.050200 6661.200000
89.024300 6937.200000
99.045100 46004.900000
101.024300 48646.500000
107.050200 19368.800000
121.065800 73153.500000
123.045200 15234.600000
131.050000 7047.400000
133.065800 52665.100000
135.045100 13906.400000
135.081400 7551.600000
137.060500 6724.200000
145.065800 7959.600000
147.081500 16534.900000
149.060700 22918.800000
151.076300 15369.900000
157.065700 6867.100000
159.081400 20667.500000
161.060600 16103.300000
165.055500 14446.900000
171.081500 8812.000000
172.052900 12910.700000
173.060700 13591.900000
173.097000 12949.700000
175.076300 13330.900000
176.047700 14202.600000
177.092000 11395.200000
185.060600 16506.000000
186.068500 10212.500000
187.076300 10149.700000
189.055600 15254.700000
189.091900 13141.400000
190.063400 11441.300000
191.107600 9747.500000
199.076000 7309.400000
201.092000 23611.500000
203.071300 12506.000000
204.078900 19129.300000
208.089000 10991.900000
210.068400 12665.600000
223.076300 14337.100000
227.107600 7358.900000
239.107500 8205.700000
241.123300 48861.500000
253.123300 7756.000000
255.139000 9658.900000
263.107400 9355.600000
265.123200 38964.700000
277.086500 14054.600000
277.123300 11233.000000
279.102700 20681.700000
279.139000 13476.400000
281.154400 9912.100000
289.123400 12538.000000
291.102400 38844.600000
291.138600 12151.900000
292.110400 281049.200000
293.118400 23579.400000
293.154500 9655.200000
295.133600 13555.700000
296.141500 30741.800000
297.149500 6722.800000
304.110400 10458.700000
305.118400 17154.300000
307.133800 425058.600000
308.141800 18878.500000
309.149900 11318.500000
310.121000 119056.200000
310.156900 6668.900000
311.165100 177790.200000
317.154100 6811.000000
319.133800 13568.400000
320.141300 10240.700000
323.128700 44716.700000
323.164700 18891.700000
324.136500 12089.300000
325.144400 362059.600000
325.181000 26791.900000
327.140200 12808.000000
331.171100 10686.800000
335.164900 9581.400000
337.144400 82673.500000
338.152300 33079.000000
339.159900 24425.100000
341.175700 25611.700000
343.171200 19473.600000
345.150600 43356.800000
351.159800 7068.400000
352.168100 15656.100000
353.175700 716860.200000
361.181900 78287.700000

>ms2peaks
59.013800 6427688.500000
71.013900 14685.500000
71.050300 8550.300000
73.029600 53035.400000
83.050200 14860.500000
95.050100 11270.700000
99.045100 28085.800000
101.024400 20536.600000
107.050200 24510.500000
109.065800 6727.300000
111.045100 6479.400000
119.050200 15664.800000
121.029500 12704.600000
121.065800 108311.800000
122.037200 6714.300000
123.045100 20722.400000
123.081500 9719.100000
131.050100 15888.100000
133.065800 78942.600000
135.045100 15948.900000
135.081500 10258.100000
137.060700 17476.700000
143.050000 10712.300000
144.057800 10982.200000
145.065800 21513.400000
147.081500 47406.400000
149.060700 46179.500000
151.076300 17876.000000
157.065800 20750.400000
159.045200 6750.800000
159.081500 25509.200000
160.053000 6731.900000
161.060700 30773.300000
163.076500 9327.900000
165.055600 14130.200000
169.065800 12668.800000
171.045200 12791.300000
171.081500 22260.400000
172.053000 31384.600000
173.060600 39891.100000
173.097000 18094.600000
174.068500 8756.300000
175.040000 38687.000000
175.076300 18689.800000
176.047800 24614.400000
177.092100 10635.600000
183.081300 8652.200000
185.060700 35672.700000
186.068500 37974.900000
187.076400 22777.900000
189.055700 39734.200000
189.092200 15803.500000
190.063400 19833.700000
191.071300 22342.700000
195.081200 7445.300000
197.060500 15938.400000
199.076200 10045.600000
201.092100 16516.800000
203.071300 27094.200000
204.079000 18694.200000
207.081400 8042.000000
208.089100 14957.600000
209.097200 11929.300000
210.068500 13838.600000
221.097100 11354.000000
223.076500 17410.000000
224.084400 8795.200000
225.092100 9844.500000
227.107900 8958.000000
235.112700 8822.100000
237.092100 7915.100000
239.107500 8537.000000
241.123400 15486.900000
247.112800 19766.000000
249.128600 7485.000000
253.123400 6663.000000
255.138500 7212.900000
261.091800 11311.300000
261.128000 8507.400000
263.107600 21802.000000
264.115200 9665.900000
265.123100 61253.400000
269.154700 6683.300000
274.100200 8735.400000
275.107800 17736.500000
277.086900 120267.100000
277.123000 22304.800000
279.102400 19312.000000
279.138900 18235.500000
281.118200 7348.100000
289.123400 23346.900000
291.102600 91911.100000
291.137900 9505.100000
292.110500 211692.900000
293.118300 48373.600000
295.133800 30360.400000
296.141600 39421.500000
305.118200 31386.400000
307.133800 112025.500000
308.141800 15026.500000
309.113000 12456.400000
309.149600 13041.700000
310.121100 46167.600000
311.128900 18647.100000
311.165200 33640.900000
319.133600 10260.100000
323.128700 56923.500000
325.144500 100192.600000
337.144500 59360.000000
338.152500 7413.600000
353.175700 49183.700000

>ms2peaks
55.018900 5415.600000
59.013800 4854111.000000
71.013900 11354.200000
71.050200 7266.600000
73.029600 24366.800000
81.034500 5925.500000
83.050200 11970.400000
93.034600 6100.400000
95.050200 9580.300000
97.065900 7814.300000
99.045000 9783.400000
101.024300 4876.100000
107.050200 18873.100000
109.065800 5944.700000
119.050200 16350.900000
121.029500 12312.700000
121.065800 74723.800000
122.037300 6972.800000
123.045100 18078.500000
123.081400 5510.900000
130.042300 10457.400000
131.050100 20762.400000
133.065800 67278.000000
135.045100 12445.000000
135.081600 7185.300000
136.052700 6307.000000
137.060700 15485.100000
143.050200 28396.500000
144.057800 9737.700000
145.065900 28777.200000
147.045100 10530.000000
147.081500 37449.900000
148.052900 5977.300000
149.060700 37044.800000
151.076400 10161.000000
156.057900 5139.200000
157.065800 31964.100000
158.037200 13303.600000
159.045000 11967.600000
159.081500 15673.500000
160.052900 5898.700000
161.060800 24516.900000
163.076500 6147.600000
167.086300 5391.600000
169.065800 19772.400000
171.045200 22572.300000
171.081500 19724.300000
172.053000 21968.400000
173.060700 22381.900000
173.096900 7779.300000
174.068300 5974.400000
175.040000 51609.900000
175.076400 14640.200000
176.047700 9229.200000
181.065400 5248.300000
183.081400 8374.900000
185.060700 37351.000000
186.068600 21845.000000
187.076500 12182.800000
189.055700 23834.400000
189.091800 5273.000000
190.063400 10037.600000
191.071400 9181.500000
193.065800 7822.600000
194.073600 10888.200000
195.081400 14830.300000
197.060600 27174.200000
197.097100 5008.100000
199.076300 6133.700000
203.071300 16650.600000
206.073500 6267.800000
207.081500 15337.400000
208.089100 8648.600000
209.097200 15353.600000
210.068500 5833.500000
211.076600 8028.300000
220.089200 5801.600000
221.097100 13096.900000
223.076300 17200.600000
223.112900 7551.300000
224.084100 6318.500000
225.092100 8875.500000
232.089000 8251.500000
233.097000 11014.200000
235.112600 9470.700000
237.092100 7424.500000
239.107600 6629.500000
245.096800 8489.800000
246.104800 5619.900000
247.076200 4972.800000
247.112700 23827.300000
249.092000 23038.900000
249.128200 12769.100000
251.107400 5249.500000
259.076500 5880.000000
260.084000 18367.500000
261.091900 13841.100000
261.128200 5720.700000
262.099700 4879.300000
263.107500 28695.000000
264.115700 7830.400000
265.123300 21163.700000
273.092200 10741.800000
274.099800 5516.700000
275.107600 20290.600000
276.079000 12085.600000
277.086900 183402.900000
277.122600 20174.700000
279.102500 6772.800000
279.138800 8981.900000
281.118000 7644.900000
289.087300 8053.200000
289.123600 8763.000000
290.095100 7805.700000
291.102700 97053.000000
292.110500 43015.400000
293.118300 30898.400000
295.133600 17544.200000
296.141600 9041.000000
305.118300 20917.800000
307.133600 9962.300000
309.113200 10473.000000
309.149800 7051.800000
311.129100 12305.400000
323.128600 6484.200000
325.144800 8093.100000
337.144900 11995.100000

>ms2peaks
55.018900 7114.100000
59.013800 3751768.200000
68.998200 4132.800000
71.013900 5995.200000
73.029600 9262.600000
79.055200 3962.300000
83.050200 7849.000000
93.034600 7832.800000
95.050100 7214.100000
105.071000 4496.300000
106.042400 7151.500000
107.050200 18419.500000
108.021700 6135.200000
119.050200 15433.900000
121.029500 17770.400000
121.065900 41607.900000
122.037200 8599.600000
123.045200 9497.700000
123.081500 4014.000000
130.042300 18964.900000
131.050200 28939.000000
133.065800 53016.400000
134.037000 4062.300000
135.045100 8140.800000
136.052700 4833.600000
137.060600 11966.700000
143.050100 45644.000000
144.058000 7938.600000
145.029400 7964.300000
145.065900 29124.500000
147.045100 16953.300000
147.081500 19957.600000
148.053000 5470.900000
149.060800 21655.300000
151.076600 4724.700000
156.058000 8029.400000
157.029200 3826.600000
157.065800 35199.900000
158.037300 17084.100000
159.045200 16456.200000
159.081500 8068.100000
160.053100 4958.800000
161.060800 21489.200000
167.050300 4371.000000
167.086300 5464.500000
169.065900 21864.200000
171.045200 25508.500000
171.081500 15602.600000
172.052900 14086.700000
173.060700 10792.900000
174.032100 5516.100000
174.068500 3873.000000
175.040000 39545.500000
175.076200 8219.100000
180.058000 5330.500000
181.065900 5338.100000
183.081300 8278.500000
185.060700 27753.600000
186.068800 6716.500000
187.076300 5352.400000
188.047900 5096.200000
189.055700 12792.200000
193.065700 22835.900000
194.073500 10707.700000
195.045000 4046.300000
195.081400 17565.300000
197.060700 31580.600000
197.096900 4602.600000
203.071200 4254.500000
206.073700 13836.800000
207.081500 22557.900000
208.089400 6858.600000
209.060400 4417.500000
209.097100 11735.600000
211.076500 7923.600000
219.081200 8931.800000
220.089100 7296.300000
221.061200 5986.100000
221.097200 14044.200000
222.068500 6285.900000
223.076200 12393.800000
224.084400 4672.100000
225.091800 5744.100000
230.073300 5383.900000
231.081400 11849.600000
232.089100 12488.400000
233.097200 17194.600000
234.067900 5132.400000
235.076400 7857.200000
235.112900 7578.600000
237.092100 6731.500000
245.097100 13764.700000
246.105000 4589.800000
247.076300 12909.800000
247.112700 15048.500000
248.084000 8873.600000
249.091900 28693.000000
249.127900 5250.700000
250.099500 4563.700000
258.068500 4956.300000
259.076200 14720.800000
260.084000 47812.800000
261.091800 20053.300000
262.100100 5784.600000
263.107700 31919.700000
265.123100 6154.500000
273.091700 8962.800000
274.099700 9518.000000
275.071300 13022.500000
275.107400 14318.100000
276.078900 27371.900000
276.114500 4255.200000
277.086900 89604.100000
277.122100 8612.500000
289.087000 10701.600000
290.095200 4868.900000
291.102600 48298.200000
292.110700 4452.900000
293.118100 6731.500000
295.133600 4644.000000

>ms2peaks
55.018900 5900.000000
57.034500 2122.900000
59.013800 1393020.000000
65.039700 2829.700000
67.018900 1915.500000
71.014000 2287.100000
79.055400 2858.300000
81.034600 2212.400000
83.050200 1476.100000
93.034500 6095.100000
95.050300 1811.500000
103.055300 4511.600000
106.042600 2653.100000
107.050200 7818.000000
108.021800 1906.800000
115.055300 10152.400000
117.034600 3396.800000
119.050100 10237.100000
121.029500 11586.800000
121.065900 7040.100000
122.037300 3607.300000
123.045300 2399.500000
129.071300 2199.500000
130.042300 23734.800000
131.050200 25034.800000
133.065900 11787.900000
134.037500 1890.200000
135.045400 2654.100000
137.060800 1868.400000
143.050200 42767.900000
145.029500 9772.800000
145.065900 7434.000000
146.037500 2547.200000
147.045200 18612.300000
147.081700 2196.600000
148.053200 1778.800000
149.060700 2965.600000
156.057900 7146.300000
157.065800 14632.900000
158.037300 13483.700000
159.045100 7398.800000
160.053200 1900.500000
161.060700 5909.800000
165.070800 4654.300000
167.050200 6816.500000
169.065900 15172.000000
171.045200 14539.500000
172.053300 2483.000000
173.024200 3090.900000
173.060900 1930.200000
174.032000 5620.100000
175.039900 4394.500000
179.086600 3139.500000
180.058200 7410.200000
181.065900 6133.800000
182.073700 2415.900000
183.045300 4098.000000
183.081600 3836.300000
185.060800 4183.600000
188.048200 1769.900000
193.065700 30880.400000
194.073800 2599.000000
195.045000 9742.300000
195.081500 9563.700000
196.053200 1903.300000
197.060800 8244.400000
202.078600 3242.500000
204.058300 2892.900000
205.065800 4107.300000
206.073600 10216.200000
207.081500 18766.500000
208.052800 3008.400000
209.060700 4435.400000
209.097000 3614.600000
210.068500 2490.900000
217.065900 9178.600000
218.073800 1877.600000
219.081400 20285.200000
220.089600 3480.400000
221.060500 5812.400000
221.096900 6186.500000
222.068600 2982.400000
223.076300 3082.900000
230.073600 15036.400000
231.081500 17762.100000
232.089200 12322.600000
233.060000 3251.600000
233.097100 7163.700000
234.069000 2298.000000
235.076200 3191.700000
237.092300 1816.600000
243.081200 3405.400000
244.089800 2797.400000
245.060600 5311.300000
245.097200 5037.100000
246.068500 3646.800000
247.076300 15784.600000
247.113100 1857.400000
248.084200 3033.000000
249.092100 7431.300000
258.068200 10046.700000
259.076200 11266.100000
260.084200 23426.500000
261.092300 5881.800000
263.107600 5167.500000
272.084400 1887.200000
273.093000 2112.200000
274.064200 2891.400000
274.100000 2655.900000
275.071400 10873.100000
275.108300 1887.100000
276.078900 8260.000000
277.087400 2369.100000
289.087400 2144.700000

>ms2peaks
55.018900 5517.800000
59.013800 475572.800000
65.039700 2548.400000
67.018900 789.200000
68.998300 1840.000000
81.034600 712.100000
89.039800 879.900000
91.055400 1863.500000
93.034500 4648.400000
95.050300 546.000000
102.047400 2671.600000
103.055400 3511.100000
107.050300 2322.400000
108.021900 631.500000
115.055300 15688.500000
117.034500 4698.100000
119.050200 4660.400000
121.029400 3799.700000
129.034700 1642.500000
129.071000 695.800000
130.042300 13742.100000
131.050100 11067.200000
133.066000 672.700000
134.037200 729.000000
135.045300 747.500000
139.055700 594.600000
141.071200 1873.300000
143.050200 28824.100000
145.029600 8837.900000
145.066000 1566.300000
146.037700 755.900000
147.045200 5702.800000
154.042700 689.900000
156.057900 2613.700000
157.065900 3755.000000
158.037300 7012.900000
159.045500 2031.000000
161.061200 519.900000
165.070900 8614.900000
167.050100 6982.700000
169.065900 5103.200000
171.045100 5146.500000
173.024200 3114.000000
174.032300 491.700000
179.086800 2802.300000
180.058200 3993.700000
181.066100 3286.900000
182.037100 599.400000
183.045500 2104.600000
183.081400 496.400000
187.039500 715.800000
189.071100 2214.500000
191.050200 3383.100000
193.065800 17654.200000
195.045000 3848.700000
195.081600 2118.600000
197.060600 669.000000
202.078800 5412.200000
204.057900 3517.600000
205.066400 2514.900000
206.073600 4635.700000
207.081500 5951.200000
208.053300 1518.500000
209.061100 1626.700000
217.065700 8761.900000
218.074000 909.900000
219.081500 12251.900000
221.060900 1963.400000
230.073600 16560.800000
231.081400 7884.600000
232.053500 1776.300000
232.089200 2891.700000
233.061500 1622.800000
233.097600 1622.300000
243.081700 2303.600000
244.089200 685.400000
245.060600 5396.200000
245.096600 750.700000
246.069100 2062.600000
247.076300 6167.400000
258.068500 5447.000000
259.076300 3915.600000
260.085000 1761.800000
261.091900 913.300000
274.064400 724.000000
275.071200 823.600000

>ms2peaks
55.018900 2688.700000
59.013900 115806.800000
65.003500 312.200000
65.039700 2166.800000
67.018900 373.900000
68.998300 719.700000
89.039700 1525.300000
91.055300 503.700000
93.034500 2550.400000
102.047600 1746.900000
103.055400 1939.900000
107.050500 380.000000
115.055300 12225.000000
117.034600 3704.400000
119.050200 1456.300000
130.042400 4858.800000
131.050200 2527.100000
139.055400 585.100000
141.071200 605.900000
143.050200 7607.600000
145.029200 3758.500000
147.045000 513.100000
158.037400 1484.700000
165.071000 2930.900000
167.050500 2098.800000
169.065700 612.300000
173.024300 1236.900000
180.058200 2052.100000
182.037400 405.300000
189.070800 2557.900000
191.051100 446.600000
193.065800 3629.300000
202.078500 2644.800000
204.058400 587.000000
205.065900 383.800000
206.074200 625.600000
217.065600 3458.000000
219.081600 1213.200000
230.073300 3673.500000
231.081300 560.800000
243.082400 347.400000
245.061400 1455.700000
275.108200 391.500000

