>compound EQ21911990
>parentmass 281.0543
>ionization [M-H]-
>formula C13H9F3N2O2
>rt 774.000000
>profile orbitrap
#smiles_iso C1=CC(=CC(=C1)NC2=C(C=CC=N2)C(=O)O)C(F)(F)F
#smiles_can C1=CC(=CC(=C1)NC2=C(C=CC=N2)C(=O)O)C(F)(F)F
#inchikey JZFPYUNJRRFVQU-UHFFFAOYSA-N
#pubchem_id 4488
#mb_accession EQ369151,EQ369152,EQ369153,EQ369154,EQ369155,EQ369156,EQ369157,EQ369158,EQ369159

>ms2
217.058200 11587068.000000
235.048700 2665576.200000
237.064600 130480432.000000
281.054200 260758176.000000

>ms2
177.045800 653230.900000
197.052100 1918153.600000
210.054000 631618.200000
217.058200 27496468.000000
235.048800 7445293.500000
237.064400 329094720.000000
249.048500 514328.500000
261.047800 502359.100000
281.054200 37050780.000000

>ms2
62.988800 369194.600000
68.995800 1217243.400000
160.038000 276535.300000
167.061500 668298.800000
177.045800 16427234.000000
180.032900 431295.700000
182.048300 942886.100000
190.047200 747537.200000
197.052000 16433704.000000
200.038900 1439973.500000
201.046700 395760.200000
208.028000 604487.500000
209.035200 361018.700000
210.053700 6844058.000000
216.050400 7004086.000000
217.058300 30719992.000000
228.034100 2428043.500000
235.048900 26907854.000000
237.064400 256360192.000000
249.048100 581191.800000
261.048100 418459.900000
281.053800 625870.900000

>ms2
62.988800 972363.600000
66.034900 83487.400000
68.995800 2721574.500000
76.019300 87742.400000
91.030200 643062.400000
93.045800 1421383.400000
145.027400 85470.700000
150.035000 313853.200000
155.037500 213648.200000
159.042900 69488.900000
160.037900 902510.200000
167.061400 2537030.800000
170.041100 785116.600000
176.038100 88810.500000
177.045900 56104408.000000
180.033000 1058569.600000
181.041100 87216.600000
182.048400 2931261.500000
184.037700 379715.900000
184.044600 254675.600000
185.033400 78219.300000
189.039800 347502.100000
190.047400 3321720.200000
195.036200 1102716.800000
196.044400 247927.200000
197.052000 21711560.000000
200.039100 4620397.500000
201.047000 803344.200000
208.028100 1538114.800000
208.037900 286989.800000
208.057800 266082.400000
209.033200 783188.900000
210.053600 8918187.000000
213.047000 90974.500000
215.042900 614294.000000
216.050400 17419438.000000
217.058300 14223201.000000
222.041200 372528.800000
223.048800 189642.900000
228.034100 6739792.500000
235.049000 56039404.000000
237.064600 69060840.000000
249.048200 169401.300000
253.059300 345168.100000

>ms2
50.003500 186952.200000
62.988800 871703.900000
66.034900 534101.200000
68.995800 2724842.200000
73.008400 368989.200000
91.030200 1649270.000000
93.045800 6305163.000000
126.034800 171731.400000
143.011300 85335.800000
145.026900 187240.400000
150.034800 1399464.600000
153.046100 73138.300000
155.037700 801930.200000
156.033100 82442.000000
160.038000 2022235.600000
165.045500 74891.300000
166.053500 323785.700000
167.061500 2924961.800000
170.041100 2385833.200000
171.036400 246326.200000
175.030100 521346.600000
176.037900 239673.100000
177.045900 67803408.000000
180.032900 1256843.500000
181.017100 78390.200000
182.048400 2339647.500000
184.037800 506898.300000
184.044500 275800.200000
185.033600 86253.000000
189.039500 886463.400000
190.047400 2473190.800000
195.036300 8890519.000000
196.044100 669616.200000
197.052000 9573529.000000
198.041500 68467.600000
200.039100 4157037.800000
201.023400 175258.900000
201.046900 881457.800000
208.027800 1553064.800000
208.037900 619708.200000
208.057300 172128.400000
209.033200 929269.700000
210.053600 3284859.000000
214.034800 89428.700000
215.042700 2778877.200000
216.050400 17339756.000000
217.058200 3216912.200000
222.041000 224671.200000
223.048600 159965.600000
227.026500 70267.500000
228.034100 6481625.500000
234.040900 69371.000000
235.048900 50356640.000000
237.064500 8594424.000000

>ms2
50.003500 653837.100000
62.988800 550787.800000
66.034900 1810799.100000
67.030200 59730.500000
68.995800 2038443.600000
73.008400 1467689.600000
74.003700 367202.900000
76.019300 77350.900000
91.030200 2900170.800000
93.045800 12109199.000000
98.003500 174377.100000
100.019300 79094.300000
102.034900 199706.900000
103.030200 169636.200000
120.025600 266421.900000
126.034800 188845.700000
127.030200 166614.900000
141.046000 215956.700000
142.053500 370667.500000
143.011200 142559.300000
144.025600 250488.800000
145.026600 59140.500000
150.034900 2517895.800000
151.030200 653264.800000
153.045900 46214.500000
155.037700 765862.400000
156.032600 59983.500000
160.038000 2020856.200000
165.045800 418579.600000
166.053600 1172349.600000
167.061500 2468535.500000
168.025400 89372.100000
169.020700 313557.800000
169.040500 291653.100000
170.041200 1902926.000000
171.036500 327622.600000
173.028400 92319.600000
175.030100 4287605.500000
176.037900 1038872.000000
177.045900 43519344.000000
180.033000 917654.400000
181.017000 161196.400000
182.048300 710580.500000
184.037700 275250.000000
184.044600 138749.600000
185.033100 149093.600000
189.026900 97607.800000
189.039600 611024.100000
190.047500 613522.200000
191.042800 45121.100000
195.036400 20484080.000000
196.044300 855196.900000
197.052000 2592004.500000
198.041200 80738.000000
200.039100 1838349.400000
201.023000 185869.800000
201.046700 300350.500000
208.027900 725059.900000
208.038000 414129.500000
208.057900 97333.800000
209.033200 653987.400000
210.053500 439702.700000
213.047700 61543.900000
214.035100 262984.100000
215.042600 2656094.000000
216.050400 7011876.000000
217.058400 322200.500000
222.041300 61445.100000
223.049600 147871.800000
227.025800 175769.800000
228.034100 3235132.000000
233.032900 84580.800000
234.040900 56242.500000
235.048900 20862514.000000
237.064300 549572.400000

>ms2
50.003500 2119138.500000
64.019200 160117.900000
66.034900 3322510.000000
67.030200 35089.900000
68.995800 1186936.400000
72.000600 36173.700000
73.008400 2864814.200000
74.003700 1537226.900000
76.019300 84755.400000
90.035000 70247.200000
91.030200 2357382.500000
93.045800 9493769.000000
97.008200 505421.900000
98.003600 1616787.400000
99.011500 65244.700000
100.019200 580336.800000
102.034800 570218.200000
103.030200 302359.200000
114.035000 292936.100000
115.030200 68531.800000
116.995900 39240.200000
118.009900 52793.200000
120.025500 879286.500000
121.008400 72790.200000
122.003600 142184.700000
123.023800 48754.100000
124.019200 274318.800000
126.035000 83659.300000
127.030200 314861.300000
139.030200 149694.600000
140.050600 43772.100000
141.045900 420091.200000
142.053500 406521.900000
144.025500 186239.900000
148.019300 343051.100000
149.014700 272514.700000
149.027100 152513.700000
150.034900 1904520.100000
151.030200 668839.400000
155.038200 45522.500000
160.038000 890417.800000
165.045800 3226250.500000
166.053600 1627120.400000
167.061500 780253.800000
168.025600 166429.500000
169.020800 295394.300000
169.040800 445561.300000
170.041300 277516.000000
171.036500 43342.600000
174.022200 46193.100000
175.030100 15109709.000000
176.037900 1402293.600000
177.045800 5719931.000000
180.032900 265365.800000
182.048900 76150.800000
184.037200 49056.300000
185.033400 37072.200000
189.027100 41200.400000
189.040000 56793.900000
194.028400 162642.600000
195.036300 7704197.000000
196.044000 239673.200000
197.052600 46386.300000
200.039300 79382.600000
209.033000 75456.500000
214.034600 154940.400000
215.042400 278283.700000
216.050300 265948.900000
228.034100 89939.300000
233.033500 31177.500000
235.048900 935626.400000

>ms2
50.003600 3236927.000000
64.019300 258098.200000
66.034900 2465315.000000
66.998900 137540.400000
68.995800 541846.300000
72.000500 220469.700000
73.008400 3274564.200000
74.003700 2815280.800000
76.019200 65689.700000
89.014500 189016.700000
90.034800 221251.800000
91.030200 1257570.900000
93.045800 3012383.200000
96.000500 38711.500000
97.008300 783350.800000
98.003600 2965844.800000
99.011500 40060.900000
100.019200 504535.900000
102.034900 233506.300000
103.030000 45297.900000
114.034900 1253942.800000
115.030000 158055.900000
116.995700 42796.200000
118.009900 35522.900000
120.025500 266004.600000
121.008200 292766.000000
122.003700 559338.200000
123.024000 33668.700000
124.019400 381512.200000
127.030100 187956.100000
138.034900 460793.200000
139.030000 242373.100000
140.050700 33135.800000
141.045900 215801.300000
147.011500 31913.100000
148.019200 576894.100000
149.014800 258185.700000
149.027000 61946.900000
150.034900 242044.000000
151.029900 227362.800000
160.037900 68756.100000
163.029900 65965.300000
165.045700 3455419.500000
166.053500 241671.400000
167.061500 59187.700000
169.020500 152820.800000
174.022200 203102.600000
175.030100 5689373.500000
176.037700 225686.100000
177.045500 181045.700000
194.027900 52274.300000
195.036200 377086.000000

>ms2
50.003600 2749899.500000
64.019300 357456.600000
66.034900 1061755.600000
66.998900 45893.600000
68.995800 243876.400000
72.000700 528813.600000
73.008400 2848998.000000
74.003700 2054441.900000
76.019300 46933.300000
89.014600 141032.700000
90.035000 80958.700000
91.030200 483471.200000
93.045700 631304.800000
96.000500 73097.300000
97.008300 814498.000000
98.003600 2534644.800000
100.019200 162293.700000
114.034900 1127449.400000
115.030100 61397.600000
116.995800 34257.800000
121.008400 316669.600000
122.003600 697776.200000
124.019000 78645.800000
138.034800 362184.200000
139.030200 172839.900000
141.046100 37748.000000
147.011200 48549.400000
148.019400 203759.400000
163.030400 58243.000000
165.045800 758695.800000
174.022100 45197.100000
175.030100 573547.600000

