>compound EQ21790132
>parentmass 264.1241
>ionization [M-H]-
>formula C14H19NO4
>rt 468.000000
>profile orbitrap
#smiles_iso CC1=C(C(=CC=C1)C)N([C@@H](C)C(=O)O)C(=O)COC
#smiles_can CC1=C(C(=CC=C1)C)N(C(C)C(=O)O)C(=O)COC
#inchikey ZRIKZVLHMGYCIR-NSHDSACASA-N
#pubchem_id 159151
#mb_accession EQ323351,EQ323352,EQ323353,EQ323354,EQ323355,EQ323356,EQ323357,EQ323358,EQ323359

>ms2peaks
58.006000 101103.000000
71.013900 242772.700000
73.029600 211034.500000
85.029500 3317570.800000
87.045100 150191.700000
88.040300 136539.800000
89.024400 1414680.600000
110.024800 1981926.500000
120.081900 120991.600000
121.066000 15296822.000000
130.066100 847367.900000
132.081900 211991.100000
142.051000 5894240.000000
144.081900 717923.400000
146.097600 2334240.500000
148.113300 1045590.100000
170.097600 158549.800000
172.076900 189104.900000
174.092600 223215.200000
176.108100 192054.100000
188.108200 956967.700000
192.103200 24758694.000000
202.124000 100708.000000
204.103000 4301149.000000
205.110800 5967047.000000
220.134400 30376146.000000
221.020100 110144.400000
237.100400 238386.500000
246.113500 379605.500000
264.124200 49922036.000000

>ms2peaks
57.034600 180677.600000
58.006000 218305.600000
66.035000 178627.500000
71.014000 536730.600000
72.021700 66387.600000
73.029600 284421.300000
84.021800 55292.000000
85.029500 10501767.000000
87.045200 311047.600000
88.040400 514778.800000
89.024500 3428676.200000
101.060800 29564.400000
110.024800 1772329.400000
117.071300 69739.200000
120.081900 373294.700000
121.066000 11669988.000000
130.066200 3495354.000000
132.081900 743484.100000
142.051000 1304758.800000
142.066200 90932.400000
144.081900 2324032.800000
146.097600 7279776.000000
148.113300 3995175.000000
156.081700 30040.900000
158.061100 100642.100000
158.097600 28732.800000
159.069100 29201.100000
170.097600 322135.700000
172.076900 311030.600000
174.092500 1056233.800000
175.100400 93800.700000
176.071700 150589.200000
176.108200 201399.200000
186.092500 76475.300000
188.108200 882834.600000
191.095400 93880.300000
192.103200 28604296.000000
202.123700 69782.600000
204.103100 10945221.000000
205.110800 6345422.500000
214.087800 31691.600000
218.118800 31277.800000
220.134400 15493939.000000
221.020200 42613.800000
231.090400 130112.800000
237.100700 597379.900000
246.113400 175150.100000
264.124100 3824432.000000

>ms2peaks
55.018900 20694.700000
57.034600 434789.300000
58.006100 209455.900000
66.034900 195785.000000
69.034600 37472.700000
71.013900 427098.100000
72.021800 83016.600000
73.029700 119102.300000
84.021700 18440.100000
85.029500 12602460.000000
87.045200 254906.700000
88.040400 834671.400000
89.024500 4494780.500000
101.060700 38905.800000
105.071000 68891.000000
110.024800 531736.800000
117.070700 23420.500000
120.081900 1707039.800000
121.066000 7291966.000000
130.066200 9026118.000000
132.081900 914465.100000
142.051100 29950.000000
142.066300 190294.000000
143.074000 61345.900000
144.081900 4580821.000000
146.061200 885153.700000
146.097600 6401156.000000
148.113300 5852027.000000
156.082100 71083.600000
158.061200 475978.800000
158.097400 26731.900000
159.069000 83231.900000
160.076800 24038.300000
170.097600 261429.600000
172.076800 159984.900000
174.092400 2987308.200000
176.071700 665322.400000
176.108000 34063.200000
177.079300 91328.700000
188.108300 115382.600000
191.095800 36267.000000
192.103200 18156482.000000
204.103000 2282258.000000
205.110900 925186.800000
214.087000 20282.500000
220.134300 759512.200000
231.089900 100818.000000
237.100200 129708.600000

>ms2peaks
55.018800 63663.300000
57.034600 816223.900000
58.006000 172367.800000
66.035000 117328.700000
69.034600 32994.300000
71.013900 352157.800000
72.021700 15044.500000
72.993100 29322.600000
73.029800 17975.200000
85.029500 9017319.000000
87.045100 167845.800000
88.040400 644371.800000
89.024500 3037501.500000
101.060900 25024.200000
105.070900 63629.700000
106.066200 17221.500000
110.024800 67556.900000
116.050700 71094.000000
120.081900 3669274.500000
121.066000 4996448.500000
129.058500 70808.800000
130.066300 12205560.000000
132.081900 821080.200000
142.066100 94309.900000
143.074100 214809.900000
144.081900 5636590.000000
145.053200 74675.300000
146.061200 1468754.900000
146.097600 4469453.500000
148.077100 218959.500000
148.113300 2004882.900000
156.082000 57059.200000
158.061200 1216657.000000
159.069400 16086.100000
160.076700 64492.400000
170.097600 84636.000000
172.077000 89217.800000
174.092400 3094159.500000
175.064200 20000.000000
176.071700 484725.200000
177.079300 94519.700000
192.103100 4750192.000000
204.102900 60408.600000
205.111000 18672.900000

>ms2peaks
55.018900 105118.100000
57.034600 1295240.900000
58.006000 126521.900000
66.035000 31033.800000
69.034700 62199.400000
71.014000 209729.500000
72.993200 65157.300000
85.029500 4927922.500000
87.045100 49369.400000
88.040400 370432.700000
89.024500 1757054.900000
105.071100 15976.000000
116.050500 113646.500000
120.081900 3407734.000000
121.065900 3465202.800000
129.058400 151698.300000
130.066200 14613482.000000
131.037700 65648.700000
132.081800 380910.800000
142.066200 89428.000000
143.074000 335192.700000
144.081900 5441527.000000
145.053400 186476.900000
146.061200 1768292.400000
146.097600 1908417.100000
148.076900 166077.900000
148.113300 323505.200000
156.081900 20142.200000
158.061100 1492620.000000
160.076800 32428.400000
170.097600 83656.700000
172.076800 31896.100000
174.092400 900844.800000
175.063800 67744.500000
176.071700 160512.300000
177.079200 17974.600000
192.103000 661949.100000

>ms2peaks
55.018900 239966.000000
57.034600 1126786.800000
58.006100 58965.000000
69.034800 20572.400000
71.014000 62344.400000
72.993300 26917.500000
85.029500 2188496.500000
87.045400 14089.600000
88.040500 165221.100000
89.024500 978847.600000
106.042500 26111.800000
115.042700 15930.800000
116.050600 154223.200000
120.081900 1852717.800000
121.065900 1859192.100000
129.058500 319662.900000
130.066200 13040418.000000
131.037600 192019.700000
132.081900 95039.200000
142.066200 29064.800000
143.074000 469393.200000
144.081900 4018095.800000
145.053500 198292.600000
146.061200 1635984.600000
146.097600 415834.600000
148.077000 60843.800000
148.112800 23116.300000
156.082000 21633.200000
158.061200 1431624.900000
161.048900 18909.800000
172.076200 19254.800000
174.092400 178569.700000
175.063800 70921.300000
192.102700 19168.400000

>ms2peaks
55.018900 361374.900000
57.034600 292067.900000
71.013900 15959.700000
85.029500 182422.500000
88.040500 12165.700000
89.024500 116495.100000
90.034900 19661.200000
106.042600 12463.900000
114.034900 146399.500000
115.042800 93242.100000
116.050700 132986.900000
120.081900 141144.400000
121.065900 250258.800000
128.050400 27285.800000
129.058400 547286.400000
130.066200 5377762.000000
131.037600 267860.900000
143.074100 285820.900000
144.081900 1010353.500000
145.053300 171977.100000
146.061300 382935.400000
158.061100 430904.200000
161.048200 45248.400000
175.063900 63423.200000

>ms2peaks
55.018900 359347.400000
57.034600 51122.200000
90.035000 12401.800000
114.035000 522703.600000
115.042700 63240.300000
116.050600 73623.600000
121.065800 16955.600000
128.050500 80501.400000
129.058500 356963.300000
130.066200 1368606.500000
131.037600 140048.700000
143.073900 64999.400000
144.081800 114447.500000
145.053300 46796.800000
146.061100 48373.000000
158.061200 48485.600000
161.048200 24313.000000

>ms2peaks
55.018900 230665.500000
57.034500 12631.800000
114.035000 770688.800000
115.042900 53671.200000
116.050900 14233.400000
128.050500 43721.000000
129.058400 90256.300000
130.066300 214814.600000
131.037400 21311.700000

