>compound EQ21441425
>parentmass 313.9934
>ionization [M-H]-
>formula C14H10BrN3O
>rt 420.000000
>profile orbitrap
#smiles_iso C1C(=O)NC2=C(C=C(C=C2)Br)C(=N1)C3=CC=CC=N3
#smiles_can C1C(=O)NC2=C(C=C(C=C2)Br)C(=N1)C3=CC=CC=N3
#inchikey VMIYHDSEFNYJSL-UHFFFAOYSA-N
#pubchem_id 2441
#mb_accession EQ362851,EQ362852,EQ362853,EQ362854,EQ362855,EQ362856,EQ362857,EQ362858,EQ362859

>ms2peaks
78.918800 10554.100000
270.987500 15444.000000
285.974800 322441.800000
286.982600 57968.600000
311.977500 1526.900000
313.993700 872173.200000

>ms2peaks
78.918700 73598.900000
270.987700 15656.400000
285.974800 1008867.100000
286.982500 113940.900000
311.977800 5314.900000
312.986300 3442.300000
313.993500 117549.200000

>ms2peaks
78.918900 514437.400000
92.050500 1949.300000
270.987600 3659.200000
285.974900 681762.900000
286.982500 28358.900000
311.977700 2754.200000
313.992800 3476.400000

>ms2peaks
78.918900 987824.800000
285.974800 132593.000000
286.982500 1843.600000

>ms2peaks
78.918900 1129560.400000
285.974700 11675.000000

>ms2peaks
78.918900 1024128.900000

>ms2peaks
78.918900 981194.800000

>ms2peaks
78.918900 915827.200000

>ms2peaks
78.918900 814918.400000

