>compound EQ24384957
>parentmass 156.01250000000002
>ionization [M-H]-
>formula C6H7NO2S
>rt 180.000000
>profile orbitrap
#smiles_iso C1=CC=C(C=C1)S(=O)(=O)N
#smiles_can C1=CC=C(C=C1)S(=O)(=O)N
#inchikey KHBQMWCZKVMBLN-UHFFFAOYSA-N
#pubchem_id 7370
#mb_accession EQ359551,EQ359552,EQ359553,EQ359554,EQ359555,EQ359556,EQ359557,EQ359558,EQ359559

>ms2
63.962300 615.900000
78.973100 3186.000000
79.981200 3780.400000
92.050600 81261.800000
156.012600 394083.200000
156.996500 4356.100000

>ms2
78.973000 2927.400000
79.981100 3769.800000
89.024500 465.600000
92.050600 85876.200000
93.034600 1236.600000
93.960400 555.300000
156.012600 377248.500000
156.996400 4889.200000

>ms2
61.970600 1608.500000
61.988300 493.700000
63.962400 1851.200000
77.965400 1496.000000
78.973300 11013.300000
79.981200 17518.100000
80.965100 622.100000
92.050600 183432.600000
93.034500 2765.000000
93.960400 5242.600000
156.012600 199034.200000
156.996500 3210.200000

>ms2
61.970600 8822.100000
61.988400 1145.700000
63.962400 3848.600000
77.965500 5549.700000
78.973300 30702.500000
79.981200 38435.700000
80.965100 2678.300000
92.050600 198171.200000
93.034600 4711.600000
93.960400 20385.300000
156.012600 62023.000000
156.996600 2032.800000

>ms2
61.970600 20560.200000
63.962500 11453.400000
77.965500 7784.000000
78.973400 45122.500000
79.981200 43488.900000
80.965100 4428.400000
92.050600 146690.100000
93.034500 5880.000000
93.960400 27738.300000
156.012700 13075.800000
156.996600 395.900000

>ms2
61.970600 34173.300000
63.962400 21452.400000
65.039700 1165.300000
77.965500 7989.900000
78.973300 45219.100000
79.957400 3661.500000
79.981200 33076.500000
80.965100 4174.300000
92.050600 74188.300000
93.034600 6217.000000
93.960400 28628.200000
156.012700 1901.700000

>ms2
61.970600 53456.600000
63.962400 48903.500000
65.039700 3052.100000
77.965500 7682.400000
78.973300 30021.900000
79.957400 2039.800000
79.981200 12106.100000
80.965100 3489.000000
92.050600 15745.900000
93.034600 4525.300000
93.960400 19945.200000

>ms2
61.970600 49812.400000
63.962500 80766.500000
65.039600 2203.300000
77.965500 6196.100000
78.973400 13851.000000
79.957400 2010.100000
79.981200 2918.700000
80.965200 1230.800000
92.050600 2858.200000
93.034600 600.000000
93.960400 10747.100000

>ms2
61.970600 45038.600000
63.962500 79769.900000
65.039600 1733.100000
77.965500 3156.500000
78.973300 4900.900000
79.957400 1158.800000
79.981200 436.400000
93.960400 3785.700000

