>compound EQ24789250
>parentmass 317.24859999999995
>ionization [M-H]-
>formula C21H34O2
>rt 1020.000000
>profile orbitrap
#smiles_iso CCCCCCC(C)(C)C1=CC(=C(C=C1)C2CCCC(C2)O)O
#smiles_can CCCCCCC(C)(C)C1=CC(=C(C=C1)C2CCCC(C2)O)O
#inchikey ZWWRREXSUJTKNN-UHFFFAOYSA-N
#pubchem_id 9996032
#mb_accession EQ369951,EQ369952,EQ369953,EQ369954,EQ369955,EQ369956,EQ369957,EQ369958,EQ369959

>ms2peaks
317.248300 20180398.000000

>ms2peaks
245.191200 21264.200000
299.238000 939386.300000
315.232600 103826.700000
317.248300 19490994.000000

>ms2peaks
57.034500 24151.000000
83.050200 86373.500000
213.128600 29003.600000
219.175500 38869.400000
231.138800 45727.900000
245.191100 2034120.000000
246.125700 12922.000000
247.206800 12004.600000
261.222000 31154.700000
271.206700 500963.500000
273.222300 67703.500000
289.253500 29986.700000
295.206800 10560.000000
297.223400 13667.300000
299.237900 8620513.000000
313.216300 30296.900000
315.232700 940832.700000
317.248300 9126090.000000

>ms2peaks
57.034500 159550.200000
69.034500 16039.100000
83.050200 367536.600000
133.065700 14451.200000
134.037300 36125.800000
147.081500 37988.300000
151.040300 14387.600000
159.081200 271215.900000
160.089200 21134.500000
161.097100 35111.200000
175.112800 16919.700000
177.055600 241830.000000
185.097000 139062.400000
187.112600 15745.400000
193.086800 9251.400000
203.071400 78576.300000
203.144000 22216.400000
213.128400 277155.000000
215.143900 12903.900000
217.159600 9079.400000
219.175400 159281.200000
229.123000 14394.000000
231.139000 314091.300000
232.183300 22369.200000
233.190900 15774.500000
245.191000 7751392.500000
246.125800 25244.900000
247.206600 34391.200000
259.206800 15296.700000
261.222200 99411.000000
264.172800 23252.800000
271.206800 2320223.500000
273.222300 156793.900000
289.253600 46831.600000
295.206500 83848.500000
297.222500 48127.800000
299.238000 4759872.000000
313.217200 84594.100000
315.232700 440721.900000
317.248400 975625.200000

>ms2peaks
57.034600 199636.100000
69.034600 13537.500000
83.050200 222842.500000
106.042400 16457.600000
108.021600 5997.900000
121.029300 8597.700000
132.058100 14074.800000
133.065900 113076.500000
134.037300 119320.500000
145.065800 25355.400000
146.073900 15588.900000
147.045100 8512.100000
147.081500 86975.700000
149.060600 8661.200000
151.040100 38884.500000
159.081500 2080768.500000
160.053100 12709.400000
160.089400 73253.200000
161.097200 101594.700000
163.076400 14032.900000
171.081700 18633.100000
173.060700 8353.300000
173.096800 19071.200000
174.068500 33382.600000
175.076400 14702.500000
175.112800 67143.800000
177.055700 805525.900000
183.081700 6550.100000
185.097100 1103615.500000
186.104800 24353.500000
187.112700 57883.900000
189.091800 8295.400000
191.071500 6343.600000
199.076300 6422.500000
199.113100 17221.100000
200.084500 9528.400000
201.128400 6615.300000
203.071400 208905.300000
203.144000 30239.900000
209.097300 25649.900000
213.128500 611543.900000
215.143500 10824.300000
217.160600 11401.300000
218.094600 21325.500000
219.175400 116237.800000
227.107600 15686.200000
229.123300 41886.800000
229.159600 12155.000000
231.139000 451652.900000
232.183100 8278.200000
233.191500 6032.700000
245.191000 4930700.500000
246.126300 6908.600000
247.206300 15432.900000
255.175400 7398.000000
259.206500 9421.300000
261.222400 34645.700000
264.172800 7979.900000
269.190600 13786.400000
271.206800 1522745.800000
273.222100 41941.700000
283.206500 6383.900000
289.253900 6055.400000
295.206600 90471.300000
297.222300 10099.900000
299.237900 434798.700000
313.217300 41327.000000
315.232800 24177.500000
317.248400 31100.400000

>ms2peaks
57.034600 134347.000000
65.039700 10083.900000
69.034500 12380.700000
83.050200 113213.200000
106.042400 15341.700000
108.021600 5964.500000
121.029300 10454.700000
132.058000 8175.600000
133.065900 221256.200000
134.037300 72527.500000
143.050400 13814.600000
145.065900 68168.000000
146.073800 61743.600000
147.045000 5871.100000
147.081600 84297.100000
149.060600 6016.200000
151.040200 21583.600000
157.065400 6740.300000
159.081500 4556473.500000
160.053000 8309.100000
160.089300 31901.600000
161.097100 75191.200000
163.076500 7943.000000
170.073700 14467.300000
171.081600 48012.800000
173.097000 39842.600000
174.068500 22576.300000
175.076300 9258.100000
175.112800 100166.700000
177.055700 470673.900000
183.081500 55367.200000
185.097200 2121367.000000
186.104600 9530.000000
187.112800 69763.500000
199.112700 20886.500000
201.128100 11237.800000
203.071400 104474.900000
203.144200 21266.900000
209.097100 70740.100000
211.112500 12927.800000
213.128500 528534.100000
215.143500 10713.900000
218.094700 11310.700000
219.175300 21387.100000
227.071300 5545.700000
227.107800 25967.700000
227.144200 7790.200000
229.123300 42143.300000
229.160000 18293.300000
231.139000 209632.100000
245.191100 1028481.800000
255.175200 14464.300000
269.191000 6177.800000
271.206700 269735.600000
295.206900 24213.500000
299.238000 9897.000000

>ms2peaks
57.034600 72887.400000
65.039600 47855.000000
67.019000 6777.000000
69.034600 7451.700000
83.050300 29969.100000
91.055400 8305.500000
106.042300 12437.300000
115.055200 5591.600000
117.034500 12552.300000
119.050200 11169.500000
121.029400 14970.400000
131.086500 17722.000000
133.065900 265844.100000
134.037500 6044.000000
143.050200 135970.800000
144.058400 4994.500000
145.065800 82785.100000
146.073700 159097.400000
147.081300 19571.500000
155.086500 9988.400000
157.065800 78313.200000
158.073700 12199.600000
159.081500 4219030.500000
161.097500 9767.300000
169.065700 16764.700000
170.073600 88924.800000
171.081600 34099.000000
173.097000 35640.600000
175.112900 25314.800000
177.055700 11389.600000
178.063700 24355.800000
183.081500 276824.800000
184.089200 9234.000000
185.097100 1015114.900000
187.113000 13667.000000
199.112900 8423.500000
209.097200 81007.700000
213.128500 41071.300000
227.107700 5566.600000
229.160000 5248.400000
245.191100 6802.500000

>ms2peaks
57.034500 31724.200000
65.039700 47636.600000
67.019000 10887.800000
69.034700 5054.300000
79.019000 1788.800000
83.050200 1976.500000
89.039500 1278.600000
91.055300 21787.900000
93.034600 5968.100000
106.042400 4733.500000
107.050300 2022.000000
115.055400 13201.400000
117.034600 94410.400000
118.042500 5841.800000
119.050200 21801.700000
121.029400 14219.700000
129.071000 1502.800000
130.042400 8456.600000
131.050400 8834.400000
131.086600 31691.000000
132.021600 6393.400000
132.058000 7624.800000
133.065900 176155.000000
134.037200 4878.100000
141.034600 47482.400000
143.050200 713898.700000
144.058000 1374.600000
145.065900 35815.800000
146.073700 73762.900000
147.081500 2473.500000
149.024600 2308.200000
155.050200 1219.600000
155.086700 5506.700000
156.058000 14739.200000
157.065900 131912.500000
158.073700 9320.500000
159.081600 1185982.800000
167.050100 17803.900000
169.065900 30276.200000
170.073700 35206.700000
171.081500 8449.200000
173.061000 1636.400000
173.097000 4499.300000
178.063600 13900.400000
183.081500 108333.700000
184.089200 2590.100000
185.097100 79998.000000
193.065900 16287.900000
209.097100 18889.900000

>ms2peaks
57.034500 6394.600000
65.039700 33132.700000
67.019000 8473.500000
69.034600 1204.200000
79.018900 4624.300000
89.039700 19646.800000
91.055300 16088.500000
93.034500 4475.200000
108.021900 1906.500000
115.055300 38773.400000
117.034600 190218.200000
119.050200 10546.200000
121.029400 5741.600000
129.070700 1028.200000
130.042300 11336.900000
131.050200 7888.900000
131.086700 9700.400000
132.021800 4475.300000
133.065900 47646.900000
134.036900 1483.500000
141.034600 133482.800000
143.050200 806238.800000
145.065900 8344.400000
146.073700 6168.500000
155.050500 4269.700000
156.058100 8020.900000
157.065900 44627.800000
158.073600 1077.900000
159.081600 98747.900000
167.050200 18044.200000
169.066100 10599.900000
170.073900 2075.800000
183.081700 15015.800000
193.065500 13831.900000

