>compound EQ25980291
>parentmass 296.07110000000006
>ionization [M-H]-
>formula C12H15N3O4S
>rt 342.000000
>profile orbitrap
#smiles_iso CCCS(=O)(=O)C1=CC2=C(C=C1)N=C(N2)NC(=O)OC
#smiles_can CCCS(=O)(=O)C1=CC2=C(C=C1)N=C(N2)NC(=O)OC
#inchikey CLSJYOLYMZNKJB-UHFFFAOYSA-N
#pubchem_id 53174
#mb_accession EQ364751,EQ364752,EQ364753,EQ364754,EQ364755,EQ364756,EQ364757,EQ364758,EQ364759

>ms2peaks
253.015700 41340.400000
264.044800 12235744.000000
296.070900 21175478.000000

>ms2peaks
106.017100 39938.600000
133.028200 169688.200000
157.027500 649041.900000
158.035900 45007.400000
160.015200 66963.700000
161.022900 45635.100000
173.022900 47501.400000
189.054000 68272.400000
220.990000 979743.800000
221.997700 132852.800000
253.015700 50438.500000
264.044700 25504266.000000
296.071000 5022451.500000

>ms2peaks
65.014500 103843.200000
65.998500 94027.800000
68.001600 35158.900000
89.014500 26253.100000
90.022300 82476.200000
92.025400 137913.000000
93.009400 25751.000000
95.025000 218694.600000
102.022300 22381.900000
105.033200 41842.500000
106.017200 879800.600000
120.009100 66981.600000
132.020300 55984.600000
133.028200 2511885.000000
134.012000 30597.200000
134.036000 26743.100000
136.015100 57512.600000
145.028200 102334.900000
149.023000 397864.500000
157.028100 5415835.500000
158.036000 595969.500000
160.015300 1065820.900000
161.023000 176045.400000
162.031000 36761.100000
173.023000 600239.600000
188.010100 30880.300000
189.018100 74221.400000
189.054300 290367.000000
192.041900 41609.000000
205.049300 20805.100000
206.003100 15889.800000
220.990100 3295902.500000
221.997900 483650.000000
264.044900 12703081.000000
296.070700 117292.100000

>ms2peaks
64.006700 19944.300000
65.014500 203916.600000
65.998500 225166.000000
68.001600 43767.500000
68.014100 18109.400000
78.022400 10348.900000
89.014500 53291.700000
89.998500 10217.500000
90.022300 117054.500000
91.006400 30682.400000
92.025400 247243.700000
93.009400 68827.700000
95.025000 445658.400000
102.022400 49312.700000
105.033300 80165.300000
106.017200 1620935.800000
110.012100 11003.200000
118.017400 33371.200000
119.025100 17627.800000
120.009100 108715.200000
120.020400 9653.200000
122.012200 10943.400000
129.033400 49776.300000
132.020300 128515.100000
133.028200 4475334.000000
134.012200 58871.800000
134.036000 26217.200000
136.015200 118371.700000
145.028200 179798.400000
147.020200 33231.600000
148.015300 20672.800000
149.023000 772995.500000
157.028100 9038970.000000
158.035900 999613.100000
160.015200 2074459.200000
161.023000 149126.000000
162.031000 25255.900000
165.054200 22709.500000
173.023000 1071849.400000
174.030400 31984.600000
188.010300 55017.400000
189.018100 40606.100000
189.054300 208056.200000
192.041500 32146.700000
204.994600 9882.300000
205.049000 9131.900000
220.990000 778974.800000
221.997800 170307.400000
264.044700 1400390.400000

>ms2peaks
64.006600 27822.200000
65.014500 239994.900000
65.998500 237059.000000
68.001500 52818.400000
78.022400 29945.900000
89.014500 72335.900000
89.998500 10709.800000
90.022300 178205.900000
91.006300 34474.900000
92.025400 217284.500000
93.009300 62197.200000
95.025000 516216.000000
102.022200 59213.900000
105.033200 70416.800000
106.017200 1636401.500000
115.030200 182412.400000
118.017200 38072.300000
119.024900 9480.900000
120.009100 120238.200000
120.020300 16998.500000
122.012300 9260.000000
129.033200 645731.300000
132.020300 136871.900000
133.028200 4468013.000000
134.012200 56381.300000
134.035900 10627.200000
136.015200 129224.100000
144.020400 9840.700000
145.028100 203586.100000
146.036000 17144.100000
147.020000 36018.100000
149.023000 799217.800000
156.020400 15319.700000
157.028100 8976320.000000
158.035900 997068.600000
160.015200 2074304.800000
161.023100 60113.700000
173.022900 1040292.400000
174.030600 32429.000000
188.009900 57270.200000
189.054300 49526.800000
220.990100 42134.200000
221.997400 20794.100000
264.044800 70701.000000

>ms2peaks
64.006700 26446.200000
65.014500 181591.400000
65.998500 139546.000000
68.001600 52764.700000
78.022400 9327.300000
79.006300 7822.600000
87.011400 20585.200000
89.014500 57459.200000
89.998500 10338.900000
90.022300 170215.000000
91.006300 31726.700000
92.025400 165326.200000
93.009300 45724.700000
93.021800 8392.400000
95.025000 343048.900000
102.022300 106367.000000
103.017500 22205.600000
105.033200 50445.000000
106.017200 1115349.900000
108.020400 6770.600000
114.022400 29464.000000
115.030200 732428.800000
116.025400 7159.000000
118.017400 28941.500000
119.025200 10157.000000
120.009100 71677.000000
129.033300 2168549.000000
130.017200 7181.800000
132.020300 124245.600000
133.028200 3263180.200000
134.012300 42775.500000
136.015100 143177.500000
144.020300 16061.100000
145.028100 189812.700000
146.036000 7218.000000
147.020000 28098.700000
148.015200 18324.900000
149.023000 600102.600000
156.020500 56557.700000
157.028100 6388634.000000
158.035900 589928.400000
160.015200 1325506.000000
161.023100 29132.800000
164.010500 6716.200000
173.023000 732120.100000
174.030600 8433.500000
188.010200 44042.500000

>ms2peaks
50.003500 16626.700000
64.006600 5959.700000
64.019200 117468.700000
65.014500 61107.100000
65.998600 35556.400000
68.001700 4953.800000
74.003800 8156.400000
87.011400 47288.200000
88.006700 15360.900000
88.019300 105546.100000
89.014600 17194.900000
90.022300 36699.000000
91.006400 4143.800000
92.025500 21257.300000
93.009400 4409.300000
95.025000 57567.000000
101.014500 5178.900000
102.022300 154751.300000
103.017500 47005.100000
105.033100 5576.600000
106.017200 167179.700000
113.014700 29627.900000
114.022200 17549.700000
115.030200 1878499.600000
116.025800 3859.500000
118.017200 6547.200000
119.025300 4951.700000
120.009000 6893.000000
129.033300 2208160.500000
130.017100 7162.400000
132.020200 22424.800000
133.028100 525431.400000
136.015000 29874.400000
144.020200 15664.800000
145.028200 35408.100000
149.023000 104507.400000
156.020400 283305.400000
157.028100 978878.600000
158.035900 99228.900000
160.015200 237037.600000
173.022900 120753.400000

>ms2peaks
50.003600 38186.400000
64.019300 387952.300000
65.014500 40076.100000
65.998500 17483.100000
74.003800 28273.300000
77.014700 4538.100000
86.003600 4135.400000
87.011500 33275.200000
88.006600 14834.600000
88.019200 222466.500000
89.014500 7953.400000
90.022400 5639.800000
101.014500 7944.100000
102.022300 51847.800000
103.017500 14379.600000
106.017300 4268.400000
113.014600 29607.200000
114.022200 3312.800000
115.030200 916457.100000
119.025100 3465.200000
129.033300 424429.300000
133.028100 40129.300000
149.023100 5082.000000
156.020400 226116.900000
157.028100 53537.400000
160.015100 8201.200000

>ms2peaks
50.003500 59236.000000
64.019300 349805.200000
65.014500 32398.100000
65.998500 7106.600000
74.003700 45077.800000
77.014300 4072.800000
86.003500 15370.300000
87.011300 12764.700000
88.006600 15678.400000
88.019200 107707.700000
89.014400 16857.100000
101.014400 5770.400000
102.022200 3643.000000
113.014400 14300.700000
115.030200 211399.800000
129.033300 33837.900000
156.020300 60883.800000

