>compound EQ26180096
>parentmass 355.99319999999994
>ionization [M-H]-
>formula C12H14Cl2FNO4S
>rt 276.000000
>profile orbitrap
#smiles_iso CS(=O)(=O)C1=CC=C(C=C1)C(C(CF)NC(=O)C(Cl)Cl)O
#smiles_can CS(=O)(=O)C1=CC=C(C=C1)C(C(CF)NC(=O)C(Cl)Cl)O
#inchikey AYIRNRDRBQJXIF-UHFFFAOYSA-N
#pubchem_id 5201447
#mb_accession EQ364151,EQ364152,EQ364153,EQ364154,EQ364155,EQ364156,EQ364157,EQ364158,EQ364159

>ms2
78.985800 83819.900000
82.945800 33832.000000
115.990800 51696.700000
119.050200 3146534.500000
121.029400 39692.800000
125.951800 187940.300000
151.967600 1539369.500000
153.011200 103375.500000
170.003500 36316.100000
183.012000 2099927.200000
184.019900 200221.300000
185.027600 4795729.000000
200.071600 51877.700000
216.973100 400755.800000
218.988800 2825883.000000
224.038900 76508.200000
227.038400 713660.700000
252.033900 120845.800000
264.033600 510743.200000
272.039900 549815.500000
300.010400 214226.400000
335.987200 25324180.000000

>ms2
63.962300 78653.600000
70.946100 46007.300000
78.985900 1326139.200000
82.946100 325705.800000
88.020400 221732.100000
107.941400 95916.400000
115.990800 59346.700000
119.050300 8736128.000000
121.029500 101900.100000
125.951900 165529.100000
126.935900 48992.500000
145.065900 259303.700000
151.967600 2317759.200000
155.017300 189363.300000
168.996400 213101.100000
170.004000 44120.100000
181.032900 125293.300000
183.012100 4435899.500000
184.019900 581508.100000
185.027800 21662396.000000
199.006900 49408.400000
200.071800 73117.100000
209.027800 424144.800000
216.973000 54781.800000
218.988700 113565.700000
221.027500 82012.500000
224.038800 215108.500000
227.038400 632043.600000
252.033600 430191.400000
264.033600 209582.600000
272.039500 130992.300000
335.987000 347504.200000

>ms2
63.962400 628313.100000
70.946200 13720.500000
78.985900 7389600.500000
82.946100 1181534.000000
88.020400 146378.100000
107.941300 93571.900000
115.990800 12514.400000
117.070900 67617.600000
119.050300 11549956.000000
121.029500 114527.800000
121.065900 232357.900000
126.935600 12203.800000
145.065900 292035.200000
151.967600 511562.800000
155.017300 814008.600000
157.053300 16366.200000
168.996500 1414893.200000
170.004300 441232.000000
173.048300 61599.000000
181.033000 270017.000000
183.012100 822396.400000
184.019800 228371.700000
185.027800 11293813.000000
194.004200 64757.700000
197.028000 14051.300000
199.007200 13357.600000
200.072400 13790.900000
209.015500 104915.700000
209.027700 259830.600000
221.028000 53593.700000
224.038500 109086.700000
227.038300 47523.000000
252.033800 77073.300000

>ms2
63.962400 1674536.500000
70.946000 13931.900000
78.985900 8280745.000000
82.946100 1777624.800000
88.020400 18649.500000
105.034300 81363.800000
107.941300 63438.300000
117.071100 70347.700000
119.050200 12402526.000000
121.029500 675854.700000
121.065900 258097.800000
123.998700 12449.100000
130.042500 13633.500000
139.993700 60538.400000
145.029200 17028.300000
145.065800 105073.800000
146.024600 43315.500000
151.967300 42545.000000
155.017300 1067994.100000
157.053500 22948.600000
160.040600 12691.900000
168.996500 3267007.200000
170.004300 659186.900000
173.048000 49604.100000
181.033000 86082.000000
183.012200 80790.900000
184.019800 135418.600000
185.027700 1567097.900000
193.991700 20524.400000
194.004100 16582.200000
209.015300 22908.000000

>ms2
63.962400 2650110.800000
78.985900 5564986.500000
82.946100 1433841.200000
88.020600 8556.200000
105.034500 220546.300000
107.941300 14198.700000
119.050200 7278727.500000
121.029500 1939001.800000
121.066000 109829.500000
123.045200 9695.800000
130.042700 15795.000000
139.993700 101991.200000
144.045500 11948.800000
145.029500 17054.100000
145.066100 16485.200000
146.024700 19615.800000
149.024500 9360.200000
155.017300 463617.500000
160.040200 11460.600000
168.996500 2454228.000000
170.004200 207200.000000
173.048400 8923.400000
184.019900 12878.400000
185.027600 88085.800000

>ms2
63.962500 3455439.200000
78.985900 3026868.800000
82.946100 890148.600000
91.019200 12731.200000
93.034900 10114.400000
105.034500 448965.800000
107.941400 7861.700000
119.050200 2745771.500000
121.029500 2308455.800000
123.045300 32344.300000
123.998800 12618.500000
130.042100 10732.400000
139.993900 98574.700000
141.001400 8972.800000
144.045500 33038.800000
145.029400 10194.100000
146.024800 11074.600000
149.024500 49933.300000
155.017200 110808.700000
168.996500 684421.900000
170.004400 9735.800000

>ms2
63.962400 4086073.500000
78.985900 876255.100000
82.946000 238723.600000
91.018900 17961.800000
92.026500 27156.000000
105.034600 311300.900000
108.021600 11541.300000
119.050300 213814.800000
121.029500 1375687.900000
123.045000 14172.700000
139.993700 10724.600000
149.024600 39328.600000
168.996500 11643.100000

>ms2
63.962500 3834467.200000
78.986000 164176.300000
82.946000 41426.900000
91.019000 8764.500000
92.026800 32966.400000
93.034600 45055.800000
95.013900 11879.600000
105.034500 36377.400000
108.021700 33741.700000
121.029500 317301.900000

>ms2
63.962400 2700036.000000
78.986000 35408.400000
92.026800 10518.100000
93.034700 13281.900000
95.013900 12789.800000
108.021700 11616.300000
121.029500 80227.600000

