>compound EQ27424393
>parentmass 400.09729999999996
>ionization [M-H]-
>formula C19H19N3O5S
>rt 504.000000
>profile orbitrap
#smiles_iso CC1=C(C(=NO1)C2=CC=CC=C2)C(=O)N[C@H]3[C@@H]4N(C3=O)[C@H](C(S4)(C)C)C(=O)O
#smiles_can CC1=C(C(=NO1)C2=CC=CC=C2)C(=O)NC3C4N(C3=O)C(C(S4)(C)C)C(=O)O
#inchikey UWYHMGVUTGAWSP-JKIFEVAISA-N
#pubchem_id 6196
#mb_accession EQ320751,EQ320752,EQ320753,EQ320754,EQ320755,EQ320756,EQ320757,EQ320758,EQ320759

>ms2
74.991000 566909.800000
83.013800 108919.600000
156.012600 363944.000000
174.038200 279278.700000
185.072100 103609.800000
216.049000 635053.400000
217.043400 153406.600000
225.066800 166863.200000
241.043800 95853.700000
259.054700 94929920.000000
356.107600 8702112.000000

>ms2
57.975600 88392.300000
58.996100 569769.900000
70.983500 113484.700000
71.991500 1350175.200000
74.991100 4836915.500000
82.029800 208448.000000
83.013900 737798.100000
96.045500 174393.600000
99.986400 147468.700000
112.994100 115466.200000
113.006700 164763.700000
114.002000 668410.900000
122.025000 197194.500000
143.061700 44537.800000
144.045300 126779.500000
148.028100 45049.000000
156.012600 2289247.800000
158.061100 213430.600000
171.056300 89190.800000
173.030500 1499559.200000
174.038300 3730823.200000
177.037900 99825.300000
182.015800 342365.500000
183.056400 112232.300000
185.072000 1717849.800000
186.056000 130792.800000
188.054100 124539.500000
190.033500 172358.200000
197.072000 38247.600000
199.050800 37124.000000
199.063700 36716.300000
200.059300 841688.600000
201.067000 123362.100000
213.067100 245813.300000
216.036400 1467643.600000
216.048900 1974114.900000
217.044200 3223990.500000
225.067000 1636229.800000
226.075000 547142.400000
227.082800 70601.400000
241.044300 1021962.000000
257.039600 103469.400000
258.046800 218568.000000
258.064900 84194.600000
259.054800 33237246.000000
356.107800 34048.800000

>ms2
56.980500 16708.200000
57.975700 252731.600000
58.029800 111245.200000
58.996100 526521.000000
59.991300 30342.700000
65.998600 147949.500000
70.983600 428290.800000
71.991500 2194258.800000
72.999200 131982.100000
74.007000 37031.500000
74.991100 4200808.500000
82.029800 1224793.900000
83.013900 1592593.900000
83.991300 18922.900000
85.011800 76328.900000
94.030000 108209.900000
96.009200 39377.300000
96.045500 131307.700000
97.970800 39745.800000
99.986200 220096.200000
110.991100 40151.100000
111.986500 28259.700000
112.994100 179227.200000
113.006800 106825.300000
114.001900 463489.900000
116.050600 20789.600000
117.034800 27201.200000
122.024900 286929.000000
142.066400 31122.700000
143.061600 349086.100000
144.045600 258552.200000
147.027700 34432.300000
148.028000 161636.600000
156.012600 577678.800000
157.077100 39551.900000
158.061200 313914.900000
161.018100 84036.000000
169.040900 31246.900000
170.061400 66034.300000
171.056600 486865.100000
172.022700 17537.200000
173.030500 1812521.400000
174.038300 2561902.000000
177.038000 92692.300000
182.015700 456049.800000
183.056200 173338.800000
184.064300 156474.700000
185.072000 2063191.200000
186.056400 81016.600000
188.054000 20249.600000
190.033200 123262.500000
197.072400 36518.000000
198.056100 18275.200000
199.051400 253247.800000
199.063800 75247.900000
200.059300 1305323.100000
201.025400 35882.900000
201.067000 440657.800000
208.064500 87736.500000
211.051800 89570.500000
213.067000 154832.800000
215.028600 110708.800000
216.036500 1399510.600000
216.048800 227437.200000
217.044100 2105459.800000
225.067100 2368229.800000
226.075000 332368.100000
227.082700 182712.800000
240.055000 16814.500000
241.044300 463461.300000
257.039600 87301.100000
258.047200 215403.900000
258.064700 35971.200000
259.054700 1892002.900000

>ms2
55.018900 15947.100000
56.980500 22349.300000
57.975700 367574.300000
58.029900 269149.500000
58.996100 577056.900000
65.998600 533525.200000
69.975700 19662.800000
70.983600 939505.700000
71.991500 1595743.400000
72.999300 658092.800000
74.007100 31123.500000
74.991100 3374596.200000
82.029900 2035374.000000
83.013900 2179209.200000
83.991300 35433.800000
85.011800 75501.500000
94.029900 118653.800000
96.009200 70082.800000
96.045600 64756.100000
97.970800 29157.100000
99.986300 415922.100000
101.039700 87245.400000
102.035100 19574.500000
106.017100 37087.400000
107.025200 32092.900000
110.991100 39231.300000
112.994100 157407.200000
114.002000 193528.000000
116.050700 90914.400000
117.034600 61069.200000
120.032900 26065.400000
122.025000 128319.800000
124.040500 23574.700000
133.011900 23791.100000
140.050900 29865.700000
142.066300 147132.900000
143.061500 781261.600000
144.045500 294036.300000
146.019800 18034.900000
147.027400 85374.000000
156.012800 39660.800000
156.068900 23590.100000
157.077200 18525.400000
158.061200 261213.000000
159.056500 22875.800000
161.018000 30786.700000
169.040800 162194.300000
170.062000 19697.900000
171.056500 370369.600000
172.022800 133371.100000
173.030500 1308951.200000
174.038400 1016342.900000
182.048600 61280.300000
182.060900 271364.000000
183.056500 114437.200000
184.040400 182377.300000
184.064200 408515.100000
185.072000 726865.500000
197.071600 26897.900000
198.056100 22476.900000
199.051400 272540.100000
200.059200 431267.200000
201.025400 66857.600000
201.067000 530342.400000
208.064300 88490.700000
211.051500 114046.500000
215.028800 221334.400000
216.036200 394689.600000
216.054100 86722.600000
217.044200 399365.800000
225.067200 2486278.500000
226.074900 68225.700000
227.082800 114401.700000
240.054000 25407.500000
241.044500 82343.000000
257.038800 22743.800000
258.047000 76701.600000
259.055000 40583.900000

>ms2
56.980500 34351.300000
57.975700 499948.900000
58.029800 198691.100000
58.996100 415249.700000
60.975400 25635.100000
65.014400 19940.200000
65.998600 966349.200000
69.975600 19036.900000
70.983600 1024103.200000
71.991500 740228.100000
72.999300 971487.400000
74.007100 30499.100000
74.991100 1954536.800000
82.029900 1575667.500000
83.013900 1883494.500000
83.991400 34522.200000
85.011800 29974.800000
94.029800 100622.700000
96.009400 21794.900000
99.986300 285272.200000
101.039700 138482.400000
102.034900 36169.800000
106.017300 62468.500000
107.025100 66053.000000
111.986400 18518.400000
112.994100 74257.900000
114.001900 33407.400000
115.055800 16408.900000
116.050600 159665.300000
117.034800 16686.700000
120.032800 20389.200000
122.024700 18816.700000
133.011900 65465.800000
140.050700 102145.700000
141.034500 21679.500000
141.045600 19959.800000
142.066100 184074.600000
143.061400 461698.100000
144.045500 228438.000000
146.019700 27979.200000
147.027700 67310.000000
156.069400 20195.100000
158.061200 87178.900000
159.056300 96285.200000
161.018300 18069.700000
169.041100 209372.900000
171.056500 119579.700000
172.022800 209931.300000
173.030400 508158.300000
174.038300 236969.000000
182.048500 54133.900000
182.061100 438615.500000
183.056400 156076.800000
184.040500 284550.900000
184.064200 233136.500000
185.072000 168526.800000
197.071900 18586.500000
198.056000 18225.900000
199.051400 137986.100000
200.059400 27704.400000
201.067000 189180.600000
208.063700 35321.100000
211.051400 27274.000000
215.028500 89932.100000
216.036500 29134.000000
216.054300 103609.700000
225.067100 1138651.500000
227.082400 26384.500000

>ms2
50.003500 27791.600000
55.018800 63000.600000
56.980500 131746.200000
57.975700 559253.900000
58.029900 132628.700000
58.996100 370427.600000
60.975300 27331.700000
64.019200 86551.400000
65.014600 110928.300000
65.998600 1526670.000000
69.975700 15740.300000
70.983600 1206510.200000
71.991500 379305.200000
72.999300 1189494.000000
74.007100 22405.000000
74.991100 1398827.900000
82.029900 1206343.600000
83.013900 1502013.600000
83.991400 28000.200000
92.050500 18257.100000
94.029700 62473.800000
99.986400 252421.200000
101.039700 160229.300000
102.035000 118697.300000
106.017300 25412.100000
107.025100 67531.000000
112.994200 62317.800000
115.055400 62196.100000
116.050800 164816.400000
133.011700 28921.200000
140.050700 234751.400000
141.034600 29870.900000
141.045700 29930.200000
142.066100 105550.300000
143.061600 124813.300000
144.045500 143902.800000
146.019400 23827.300000
158.061000 34262.500000
169.040900 133479.200000
171.056600 96153.100000
172.023000 193169.200000
173.030800 175470.800000
174.038200 30885.000000
182.048100 75406.900000
182.061100 342576.100000
183.056300 130604.700000
184.040600 289616.100000
184.063800 67009.800000
185.072000 65884.300000
199.051400 33384.100000
201.067200 23271.600000
215.028600 18667.800000
225.067200 325751.300000

>ms2
50.003600 56112.100000
55.018900 30558.100000
56.980500 184599.400000
57.975700 436988.500000
58.996200 259117.000000
60.975300 72446.100000
64.006800 30316.100000
64.019300 77282.900000
65.014600 160538.800000
65.998600 1987185.000000
70.983600 790942.200000
71.991500 114672.200000
72.999300 649805.600000
74.991100 390025.700000
82.029900 437644.500000
83.013900 501334.300000
92.050600 14365.300000
99.986400 26132.700000
101.039700 120907.900000
102.034800 21493.700000
115.055400 28434.500000
116.050500 30306.000000
133.011800 15506.100000
140.050600 101928.200000
142.066500 29080.200000
144.045700 18813.900000
169.040900 79150.800000
172.022500 34873.900000

>ms2
50.003500 89954.500000
55.018900 68973.200000
56.980500 260527.300000
57.975700 393688.700000
58.996200 138200.100000
60.975300 80465.800000
64.006700 78394.200000
64.019300 96954.300000
65.014600 223191.700000
65.998600 2058648.600000
70.983600 601794.800000
71.991400 34032.600000
72.999300 172373.000000
74.991100 93817.500000
82.029900 113237.200000
83.014000 133418.800000
101.039800 54309.500000

>ms2
50.003600 79761.100000
55.018900 28882.700000
56.980400 253748.000000
57.975700 258904.500000
58.996100 64190.200000
60.975500 70590.100000
64.006700 74584.200000
64.019300 13769.800000
65.014600 159732.100000
65.998600 1680186.800000
70.983600 291139.900000
72.999300 58875.100000
83.013700 18255.400000

