>compound EQ27646844
>parentmass 170.0281
>ionization [M-H]-
>formula C7H9NO2S
>rt 276.000000
>profile orbitrap
#smiles_iso CC1=CC=C(C=C1)S(=O)(=O)N
#smiles_can CC1=CC=C(C=C1)S(=O)(=O)N
#inchikey LMYRWZFENFIFIT-UHFFFAOYSA-N
#pubchem_id 6269
#mb_accession EQ361851,EQ361852,EQ361853,EQ361854,EQ361855,EQ361856,EQ361857,EQ361858,EQ361859

>ms2
63.962400 1612.900000
79.981100 4435.600000
106.066200 61542.900000
107.050100 1324.500000
170.028200 488133.500000
171.012200 6937.100000

>ms2
63.962400 770.600000
79.981200 5473.400000
106.066200 68863.800000
107.050200 1219.300000
170.028200 464032.500000
171.012200 7382.300000

>ms2
61.970600 4110.700000
63.962400 5401.600000
77.965400 3365.300000
78.973300 12356.400000
79.981200 34854.400000
80.965100 722.500000
93.960400 8722.600000
106.066200 195060.700000
107.050200 4735.100000
122.061300 1947.900000
170.028200 235133.800000
171.012300 5903.500000

>ms2
61.970600 13773.600000
63.962500 7944.300000
77.965500 7616.600000
78.973300 34251.900000
79.981200 62174.700000
80.965200 2632.600000
93.960400 23215.400000
106.066200 177589.200000
107.050300 8256.800000
122.061200 6433.200000
170.028200 58181.300000
171.012000 2515.500000

>ms2
61.970600 32917.900000
63.962400 15177.300000
77.965500 10317.000000
78.973300 51232.900000
79.957400 4446.300000
79.981200 65833.400000
80.965100 4316.100000
93.960400 31165.000000
104.050300 453.400000
106.066200 93566.300000
107.050200 7209.100000
122.061100 9816.100000
170.028100 10066.100000
171.012400 536.300000

>ms2
61.970600 45729.700000
63.962400 24362.700000
77.965500 12343.200000
78.973300 48169.000000
79.957400 4229.900000
79.981200 41390.200000
80.965100 4724.100000
93.960400 31592.300000
106.066200 33437.000000
107.050200 3377.400000
122.061100 7928.700000
170.027700 537.600000

>ms2
61.970600 61502.100000
63.962400 55783.900000
77.965500 9763.000000
78.973300 28914.400000
79.957400 4410.500000
79.981200 11726.600000
80.965100 1862.400000
93.960400 17416.900000
104.050200 329.800000
106.066300 2335.600000
107.050300 556.600000
122.060900 1790.100000

>ms2
61.970600 55785.300000
63.962400 75324.700000
77.965500 5997.600000
78.973300 11669.700000
79.957300 2697.300000
79.981200 2027.600000
80.965200 571.800000
93.960400 8011.500000
106.066100 542.000000

>ms2
61.970600 41949.200000
63.962400 68813.300000
77.965400 2857.800000
78.973300 3558.500000
79.957400 1664.000000
80.965100 329.800000
93.960400 2819.300000

