>compound EQ27734815
>parentmass 210.136
>ionization [M-H]-
>formula C9H17N5O
>rt 306.000000
>profile orbitrap
#smiles_iso CC(C)NC1=NC(=NC(=O)N1)NC(C)C
#smiles_can CC(C)NC1=NC(=NC(=O)N1)NC(C)C
#inchikey RUOTUMSRCIMLJK-UHFFFAOYSA-N
#pubchem_id 135461611
#mb_accession EQ014251,EQ014252,EQ014253,EQ014254,EQ014255,EQ014256,EQ014257,EQ014258,EQ014259

>ms2
83.061500 5829368.500000
125.083300 3994875.800000
168.089100 5140753.000000
210.136000 114399360.000000

>ms2
83.061500 14930491.000000
125.083300 8515005.000000
168.089200 11254853.000000
210.136100 83064808.000000

>ms2
67.030200 418896.900000
81.045800 77222.300000
83.061500 39255580.000000
84.020300 275434.200000
125.083300 12504440.000000
126.042100 370021.300000
168.089200 14511498.000000
194.104800 145222.300000
210.136200 14406685.000000

>ms2
67.030200 1764129.900000
81.045800 208143.300000
83.061500 47352928.000000
84.020300 530345.800000
125.083300 7704847.500000
126.042100 695217.100000
168.089200 5460365.000000
194.104700 70636.900000
210.136200 1018503.600000

>ms2
66.009800 67629.500000
67.030200 3946109.000000
81.045800 411492.900000
83.061500 37083944.000000
84.020300 501467.000000
125.083300 2582473.000000
126.042200 444462.000000
168.089100 945273.500000

>ms2
66.009800 87541.200000
67.030200 7027398.000000
81.045800 792418.400000
83.061500 25027334.000000
84.020300 291025.000000
125.083300 722509.000000
126.042200 199064.000000
168.089300 123599.800000

>ms2
66.009800 252778.700000
67.030200 9621644.000000
81.045900 734928.200000
83.061500 6286812.500000
84.020400 27433.300000
126.042300 14457.300000

>ms2
66.009800 575821.400000
67.030200 6421581.000000
81.045900 322024.900000
83.061500 980244.900000

>ms2
66.009800 673915.600000
67.030200 2977430.200000
81.045800 125672.500000
83.061500 143617.800000

