>compound EQ28137997
>parentmass 134.03600000000003
>ionization [M-H]-
>formula C6H5N3O
>rt 192.000000
>profile orbitrap
#smiles_iso C1=CC2=NNN=C2C(=C1)O
#smiles_can C1=CC2=NNN=C2C(=C1)O
#inchikey JMTMSDXUXJISAY-UHFFFAOYSA-N
#pubchem_id 135399369
#mb_accession EQ290051,EQ290052,EQ290053,EQ290054,EQ290055,EQ290056,EQ290057,EQ290058,EQ290059

>ms2
78.035000 22658274.000000
105.022000 3265262.500000
106.029900 24332142.000000
122.024800 466538.000000
134.036100 39779392.000000

>ms2
78.035000 20664282.000000
105.022000 3381195.500000
106.029900 23912416.000000
122.024900 544052.400000
134.036100 38180076.000000

>ms2
52.019300 41494.400000
78.035000 27638456.000000
105.022000 5014098.000000
106.029900 21031306.000000
122.025000 363751.200000
134.036100 21643914.000000

>ms2
50.003500 88305.300000
52.019300 194116.000000
76.019300 28820.100000
78.035000 27064004.000000
105.022100 8498660.000000
106.029900 10112218.000000
122.024800 153645.500000
134.036100 5300494.500000

>ms2
50.003600 197568.100000
52.019300 345402.600000
65.998600 27475.700000
78.035000 17801248.000000
105.022000 8659838.000000
106.029900 3278742.800000
122.024900 36140.600000
134.036000 873478.000000

>ms2
50.003600 320453.400000
52.019300 413817.100000
65.998600 49910.300000
78.035000 9091215.000000
105.022000 7032729.000000
106.029900 918686.800000
134.036000 170757.900000

>ms2
50.003600 794724.300000
52.019300 341353.000000
65.998600 161465.900000
76.019300 37121.800000
78.034900 1781203.800000
105.022000 3062867.500000
106.029700 25407.200000

>ms2
50.003600 1153836.900000
52.019200 160838.200000
65.998600 307329.700000
76.019500 28516.100000
78.035000 269910.200000
105.022000 540529.400000

>ms2
50.003600 1481266.800000
52.019200 94441.400000
65.998600 210191.400000
105.021900 122715.100000

