>compound EQ30898745
>parentmass 269.0455
>ionization [M-H]-
>formula C15H10O5
>rt 462.000000
>profile orbitrap
#smiles_iso C1=CC(=CC=C1C2=COC3=CC(=CC(=C3C2=O)O)O)O
#smiles_can C1=CC(=CC=C1C2=COC3=CC(=CC(=C3C2=O)O)O)O
#inchikey TZBJGXHYKVUXJN-UHFFFAOYSA-N
#pubchem_id 5280961
#mb_accession EQ326551,EQ326552,EQ326553,EQ326554,EQ326555,EQ326556,EQ326557,EQ326558,EQ326559

>ms2
269.045500 421470656.000000

>ms2
225.055800 550466.400000
269.045500 387827136.000000

>ms2
63.024000 2868977.800000
65.003300 2039455.100000
83.013900 609353.300000
89.003300 617839.200000
91.018900 1703845.800000
107.013900 4924818.500000
117.034500 358429.300000
132.021500 688384.900000
133.029500 10929392.000000
135.008800 2322718.500000
135.045100 1807170.500000
151.003700 1367785.200000
155.050300 1056425.800000
157.029400 1860215.500000
157.065800 956624.600000
159.045100 5767760.000000
161.024500 1107720.800000
169.065900 3012763.800000
171.045200 818806.600000
173.060900 707595.800000
176.011200 518030.400000
180.058100 3040399.800000
181.065900 9524589.000000
182.037400 591416.100000
183.045100 5323072.500000
195.044900 620058.600000
196.052900 2460806.800000
197.060800 4682800.500000
199.040000 2640570.200000
201.055700 8687889.000000
208.053400 319042.500000
213.055700 2875721.800000
223.039800 777313.300000
224.047900 6754598.000000
225.055800 8514969.000000
227.035100 2854829.000000
240.042600 1243990.000000
241.050600 3312185.000000
268.037300 814868.400000
269.045500 303120736.000000

>ms2
63.024100 16267949.000000
65.003300 9380044.000000
67.019000 461035.500000
68.998200 425425.800000
75.024100 283371.200000
83.013900 1692084.900000
89.003300 2265540.500000
89.039600 377826.800000
91.018900 7375900.500000
93.034600 235268.700000
95.050200 213362.400000
105.034600 270089.300000
107.013900 13115452.000000
109.029400 483542.400000
117.034600 1579236.100000
119.050400 324704.400000
123.045200 2310672.800000
127.055300 88351.900000
129.034700 324721.700000
130.042300 452000.100000
131.050200 1521583.400000
132.021700 3142546.000000
133.029600 39429360.000000
134.037300 407340.900000
135.008800 4320829.500000
135.045200 8746790.000000
141.034700 646716.700000
141.070800 139178.100000
143.050200 1051399.500000
145.029500 341629.300000
145.065900 389276.800000
148.016800 317752.000000
151.003700 2875921.200000
152.063100 560619.600000
153.019200 264625.900000
153.071100 193149.000000
154.042600 491526.800000
155.050300 4239958.000000
156.058000 1432227.600000
157.029500 6155066.500000
157.065900 2013136.500000
158.037300 669650.800000
159.045200 16079624.000000
161.024400 1414987.900000
167.050300 1228916.600000
168.058200 1064609.200000
169.065900 5622556.500000
171.045200 2343318.000000
172.052900 187908.300000
173.060700 2099749.500000
176.011500 851891.300000
179.050100 367702.600000
180.058200 9138565.000000
181.066000 11854739.000000
182.037300 2341020.000000
183.045100 11453071.000000
185.060900 780853.600000
195.045100 1720445.600000
196.053000 5496739.000000
197.060800 5307848.000000
198.032300 471051.500000
199.040100 4203475.000000
200.048100 192631.400000
201.055800 9645389.000000
207.045400 205800.500000
208.053200 420196.500000
210.032300 347560.000000
211.040200 518937.000000
212.047800 350487.100000
213.055800 4123327.800000
223.040100 2407897.800000
224.048000 11201256.000000
225.055800 6293269.500000
226.027200 232009.800000
227.035100 2730162.500000
239.035200 960355.100000
240.042900 2619433.500000
241.050700 2748856.200000
267.029800 239506.000000
268.037700 1330460.000000
269.045700 73503480.000000

>ms2
61.008400 155893.800000
62.016200 46527.400000
63.024100 28866628.000000
63.995400 381681.400000
65.003300 19050580.000000
67.019000 532778.100000
68.998300 701454.200000
75.024100 395728.300000
77.039700 467759.900000
79.018900 169231.500000
83.013900 2170205.000000
89.003300 2324758.000000
89.039700 1941296.900000
91.019000 11421805.000000
92.998200 56757.300000
93.034500 503322.500000
95.013900 178536.900000
95.050300 959241.500000
103.055400 71070.800000
104.026800 221277.600000
105.034600 544780.700000
106.006100 52952.600000
107.013900 12754811.000000
108.021600 87574.200000
109.029600 313992.300000
115.055700 80179.000000
117.034600 3193934.500000
119.050300 568141.900000
120.021700 79343.800000
121.029700 145534.600000
123.045200 5562683.500000
127.055300 165913.600000
129.034600 846937.100000
130.042400 1605215.400000
131.050200 2602924.800000
132.021700 11958584.000000
133.029600 43555264.000000
134.037400 3822768.500000
135.008800 2039152.100000
135.045200 14587850.000000
141.034600 1210387.500000
141.071000 363917.900000
142.042300 70510.100000
143.050200 1851611.100000
145.029400 465036.500000
145.066100 347880.000000
147.044700 50835.700000
148.016600 246468.700000
149.024300 67720.600000
151.003700 1757528.100000
152.063200 365095.400000
153.019200 85940.300000
153.070900 168736.700000
154.042500 1562702.200000
155.050300 4445596.500000
156.021800 355124.600000
156.058100 1518159.500000
157.029500 5945271.000000
157.065800 896983.600000
158.037400 1329997.100000
159.045200 14046302.000000
161.024300 351283.000000
167.050200 1643972.200000
168.058100 829865.200000
169.065900 2908515.200000
170.037300 150736.600000
171.045300 2493852.500000
172.052900 338188.400000
173.060800 1633241.600000
176.011700 400790.300000
179.050000 332080.300000
180.058200 7713355.500000
181.029400 180669.000000
181.066000 2972140.500000
182.037200 3244112.200000
183.045100 5754044.500000
184.053200 345024.500000
185.060700 658828.600000
195.045100 2552309.500000
196.053000 2951719.800000
197.024600 76882.200000
197.060900 1213943.800000
198.032300 723478.200000
199.040100 1640070.500000
200.047900 257967.800000
201.055800 2294882.200000
207.045200 70455.500000
208.053100 228675.300000
210.032400 94659.100000
211.040200 904933.300000
212.047900 387484.500000
213.055900 1388783.600000
223.040100 2817700.800000
224.047900 3736032.000000
225.055800 864730.000000
226.027500 92894.000000
227.035400 524564.000000
239.035000 1479430.000000
240.042900 1059044.400000
241.050700 828672.500000
242.021300 48851.800000
267.030100 286134.400000
268.037500 341732.200000
269.045500 5775919.500000

>ms2
61.008500 217459.800000
62.016200 87543.800000
63.024100 25282502.000000
63.995500 590560.800000
65.003300 23226700.000000
67.019000 450142.300000
68.998300 533155.400000
75.024200 345904.500000
77.003400 82126.800000
77.039800 861442.800000
79.019100 155476.400000
83.013900 1895415.500000
89.003300 1631827.800000
89.039700 2607658.000000
91.019000 7557655.500000
92.026700 66345.800000
92.998200 48583.800000
93.034600 448871.400000
95.050300 1985603.200000
101.039800 61070.500000
102.047600 67466.400000
103.019000 35071.200000
103.055300 210067.400000
104.026900 385342.800000
105.034500 602312.100000
106.042500 153034.200000
107.013900 6457491.000000
107.050300 675202.800000
108.021600 82615.600000
109.029500 191353.100000
115.055400 228712.800000
116.026800 215867.200000
117.034700 3490213.000000
119.050200 476076.800000
120.021500 48489.800000
121.029600 235483.300000
123.045200 4280112.000000
127.055200 80887.700000
128.026900 167239.800000
129.034700 1036184.300000
130.042400 2201895.200000
131.050300 1779889.200000
132.021700 21332460.000000
133.029600 23770294.000000
134.037400 9124320.000000
135.008900 458235.200000
135.045200 9006063.000000
139.055300 51117.400000
140.026800 45899.100000
141.034700 1365490.400000
141.070900 83018.800000
142.042800 35898.000000
143.050200 1427673.500000
145.029600 544684.500000
145.065900 72322.300000
147.008700 57738.700000
147.045300 130113.800000
148.016700 133593.000000
151.003700 715471.600000
152.063200 65297.500000
153.034600 156614.500000
153.071100 36817.300000
154.042500 1669217.800000
155.050400 1866076.600000
156.021900 864651.800000
156.058100 671291.700000
157.029500 3057109.000000
157.066000 188847.000000
158.037300 1470485.500000
159.045200 4657493.500000
161.024800 41501.500000
167.050200 1401888.100000
168.058100 303053.300000
169.029300 147290.400000
169.065800 677720.400000
170.037500 75647.900000
171.045200 842984.600000
172.053000 284411.000000
173.060600 502737.300000
176.011500 66644.400000
179.050600 71949.900000
180.058100 2471718.500000
181.029200 80811.700000
181.065700 303449.200000
182.037300 1542953.800000
183.045100 1274865.100000
184.052900 167422.100000
185.060800 182237.400000
195.045200 2429275.000000
196.053000 599677.000000
197.024400 67214.000000
197.061100 66460.300000
198.032100 294381.200000
199.039900 306808.500000
200.048000 158076.300000
201.055500 198987.600000
210.032400 140835.400000
211.040200 1042948.500000
212.048200 162421.500000
213.055700 224067.900000
223.040200 1728130.000000
224.047900 565951.900000
239.034900 799561.300000
240.042700 67273.400000
241.050800 44031.200000
267.030100 167540.800000
269.045500 180915.700000

>ms2
61.008400 438186.200000
62.016200 189135.900000
63.024100 14322220.000000
63.995500 2026234.900000
65.003300 25587736.000000
67.018900 270577.500000
68.998300 217889.100000
75.024100 50490.400000
77.003300 72772.400000
77.039700 823658.600000
79.019100 37550.400000
83.013900 740422.600000
89.003300 829201.900000
89.039700 1213140.500000
91.018900 2544898.500000
92.026800 237945.100000
92.998100 32222.800000
93.034500 367448.900000
95.050300 1788972.600000
101.039700 183065.000000
102.047600 134546.400000
103.019000 74964.500000
103.055400 35035.100000
104.026800 953840.900000
105.034700 208892.000000
106.042500 154786.200000
107.013900 998619.100000
107.050400 282814.000000
108.021800 138776.000000
115.055200 249475.100000
116.026800 715024.200000
117.034700 2773150.200000
119.050300 172406.800000
120.021800 317028.000000
121.029600 75322.400000
122.000400 33913.700000
123.045300 976477.000000
125.040100 34025.700000
127.055500 31918.200000
128.026800 708684.200000
129.034600 663441.600000
130.042400 1141458.200000
131.050400 132763.100000
132.021700 18012162.000000
133.029600 3662545.500000
134.037400 7330811.000000
135.045200 986652.700000
139.055500 128637.800000
140.026600 237436.700000
141.034700 1105223.200000
142.042600 47383.800000
143.050100 273097.100000
145.029400 122271.600000
153.034800 66487.000000
154.042500 568726.000000
155.050600 205253.100000
156.021700 434783.100000
157.029600 414363.900000
158.037300 412691.900000
159.045100 178610.800000
167.050300 1063773.200000
169.029600 75920.400000
171.044600 33270.000000
180.058400 130595.600000
182.037300 275084.800000
183.045400 218449.400000
195.045300 626345.600000
210.032700 74486.500000
211.040300 247625.200000
223.040300 158750.300000

>ms2
51.024100 58104.500000
61.008400 371612.400000
62.016200 251387.200000
63.024100 6131167.000000
63.995500 2160840.500000
65.003300 19443738.000000
67.019000 178284.400000
68.998300 200631.500000
73.008400 42899.600000
75.024100 42682.500000
77.003300 72934.300000
77.039700 252099.000000
79.990400 32212.400000
83.013800 262424.100000
88.031800 225698.300000
89.003300 280429.900000
89.039700 377995.500000
91.019000 747458.600000
92.026700 166744.400000
93.034400 198697.100000
95.013600 44546.100000
95.050200 652800.900000
101.039400 140201.700000
103.018700 56626.800000
104.026800 490291.800000
107.013500 148050.300000
108.021500 53308.600000
112.031800 106735.800000
115.055000 161177.600000
116.026800 995678.100000
117.034600 987298.100000
119.050000 60502.300000
120.021300 177938.900000
123.045200 279308.800000
125.039400 28139.500000
128.026800 555103.800000
129.034800 242571.100000
130.042000 110575.700000
132.021700 4589316.500000
133.029600 489757.400000
134.037400 1369589.900000
135.045000 41181.800000
140.026600 277887.800000
141.034600 312110.900000
143.050000 41491.800000
145.029100 30099.800000
154.042200 103385.100000
155.049500 55224.500000
156.021100 57763.700000
167.050300 223551.900000
169.028700 33921.400000
195.044500 52627.800000

>ms2
51.024000 39577.200000
61.008400 306304.500000
62.016200 233900.800000
63.024100 2132407.000000
63.995500 1469598.400000
65.003300 11693490.000000
67.019100 44206.800000
68.998300 61802.000000
73.008400 197882.100000
77.003400 59130.200000
77.039700 116729.200000
79.990500 48230.900000
83.013900 31403.200000
88.031800 395295.800000
89.003400 60743.500000
89.039800 107392.800000
91.019000 169551.200000
92.026900 53987.500000
93.034700 116168.200000
95.050300 227184.400000
103.019100 50001.900000
104.026900 124658.000000
112.031900 210949.800000
116.026800 605252.000000
117.034600 274821.800000
123.045400 124819.600000
128.026900 133686.700000
130.042700 46073.300000
132.021700 843428.100000
134.037700 113808.400000
140.026800 109994.200000
141.034600 38941.900000

