>compound EQ30159856
>parentmass 134.03600000000003
>ionization [M-H]-
>formula C6H5N3O
>rt 180.000000
>profile orbitrap
#smiles_iso C1=CC=C2C(=C1)N=NN2O
#smiles_can C1=CC=C2C(=C1)N=NN2O
#inchikey ASOKPJOREAFHNY-UHFFFAOYSA-N
#pubchem_id 75771
#mb_accession EQ289951,EQ289952,EQ289953,EQ289954,EQ289955,EQ289956,EQ289957,EQ289958,EQ289959

>ms2peaks
52.019200 243224.200000
78.034900 3519171.800000
105.022100 179633.000000
106.029800 6423860.500000
108.021600 39935.800000
122.024700 123737.600000
134.036000 19069560.000000

>ms2peaks
50.003600 24194.400000
52.019200 183192.900000
78.034900 3661693.000000
105.022100 180848.100000
106.029800 6341442.000000
108.021800 23372.400000
122.024800 101597.000000
134.036000 18981560.000000

>ms2peaks
50.003500 93018.100000
52.019200 333689.200000
78.034900 3334415.200000
105.022000 199796.500000
106.029800 4332547.500000
108.021700 22091.500000
122.024700 82233.300000
134.036000 9348630.000000

>ms2peaks
50.003500 101790.600000
52.019200 485067.800000
76.019500 20877.600000
78.034900 1673031.600000
105.021900 143550.300000
106.029800 1492198.000000
134.036000 1926426.600000

>ms2peaks
50.003600 213459.500000
52.019200 423143.200000
76.019300 21566.700000
78.034900 763820.500000
105.022000 80128.000000
106.029800 381738.300000
134.036000 420361.300000

>ms2peaks
50.003600 221653.100000
52.019200 289861.300000
76.019300 28090.500000
78.034900 242200.100000
105.022000 33282.200000
106.029700 73980.300000
134.036000 73294.700000

>ms2peaks
50.003600 304237.600000
52.019200 172386.500000
78.034900 17020.800000

>ms2peaks
50.003600 326346.900000
52.019200 78269.500000

>ms2peaks
50.003600 231004.000000

