>compound EQ31089086
>parentmass 284.0942
>ionization [M-H]-
>formula C17H11N5
>rt 396.000000
>profile orbitrap
#smiles_iso C1=CC(=CC=C1C#N)C(C2=CC=C(C=C2)C#N)N3C=NC=N3
#smiles_can C1=CC(=CC=C1C#N)C(C2=CC=C(C=C2)C#N)N3C=NC=N3
#inchikey HPJKCIUCZWXJDR-UHFFFAOYSA-N
#pubchem_id 3902
#mb_accession EQ358551,EQ358552,EQ358553,EQ358554,EQ358555,EQ358556,EQ358557,EQ358558,EQ358559

>ms2
102.034800 1329225.100000
127.029600 1372785.000000
242.072600 3505682.800000
256.088400 1111623.900000
257.083000 1533000.100000
284.094100 406139200.000000

>ms2
66.009700 538520.200000
102.034900 10132188.000000
127.030200 13769454.000000
141.045900 340987.200000
142.041100 1084594.400000
153.045900 793727.200000
156.056600 610883.300000
181.052000 994467.000000
199.062600 3114026.800000
203.061500 1507311.400000
215.061600 522630.100000
217.077100 208838.800000
228.069500 645850.500000
229.077100 3918738.000000
230.072900 354466.200000
242.072500 62718024.000000
254.072100 467576.700000
255.080100 535896.300000
256.087900 2971910.500000
257.083200 5848629.000000
282.078900 204539.900000
283.087100 289314.000000
284.094200 145174336.000000

>ms2
66.009800 2071558.900000
68.025500 157668.000000
80.025500 211846.500000
102.034900 25118422.000000
126.034800 608253.900000
127.030200 29493330.000000
141.045800 1167088.600000
142.041000 1671825.100000
153.045900 443621.000000
155.049000 222665.800000
156.056800 409838.600000
180.043900 291163.000000
181.052200 896451.900000
182.059700 408335.700000
199.062600 2347435.500000
203.061600 990386.900000
215.061500 12768630.000000
217.077300 484094.200000
227.061400 172015.000000
228.069400 1026087.000000
229.077100 3519839.200000
230.071900 186574.500000
240.056600 1488104.400000
242.072500 129258416.000000
253.064600 252751.100000
254.071600 338764.600000
255.079700 481765.300000
256.075300 712689.200000
256.088100 607901.500000
257.083300 4084834.800000
282.078300 286220.300000
283.086200 301862.700000
284.094100 6463432.500000

>ms2
66.009800 3533896.200000
68.025500 197476.000000
80.025500 90465.500000
102.034900 27301748.000000
115.030200 84757.600000
118.029800 83265.900000
126.034900 990587.200000
127.030200 28925598.000000
141.045800 3991744.000000
142.041000 1413768.000000
153.045900 183229.000000
155.049000 181856.800000
172.052300 97631.800000
180.044300 380339.600000
181.052200 291112.600000
182.059300 469976.500000
199.062500 563944.500000
203.061300 210925.600000
215.061600 51727732.000000
217.076700 478750.900000
227.061200 89052.200000
228.069600 759541.700000
229.077000 824672.300000
230.071800 76992.500000
240.056800 8734087.000000
242.072500 72350096.000000
253.064300 88624.900000
255.080000 214463.300000
256.075900 541922.300000
256.087600 77167.500000
257.083700 625391.100000

>ms2
66.009800 3807117.000000
68.025400 323825.300000
102.034900 19794488.000000
115.030200 358776.200000
118.030000 94963.700000
126.034900 689118.000000
127.030200 15718345.000000
140.025200 72557.800000
141.045800 11524061.000000
142.041000 885618.800000
153.033100 147634.100000
153.045900 61788.900000
155.049000 170647.900000
180.044000 355893.500000
182.059800 199715.100000
188.050600 208414.500000
191.061200 163511.900000
213.046100 89820.600000
214.053800 106122.900000
215.061600 46983504.000000
217.076900 63123.900000
228.069400 272623.000000
229.077300 99011.200000
240.056800 13052828.000000
242.072400 14571907.000000
253.064500 55144.100000
256.076100 88339.500000
257.083700 47503.500000

>ms2
64.019300 85173.300000
66.009800 4225224.000000
68.025500 371826.400000
90.034900 93743.200000
100.019300 46730.100000
102.034900 12435631.000000
113.027300 55675.800000
114.035100 53139.000000
115.030200 550718.600000
126.035000 488596.100000
127.030200 6112300.500000
139.030200 222115.600000
140.025700 150395.500000
141.045900 17093328.000000
142.041000 602632.900000
153.033200 94304.600000
180.044000 65709.300000
188.050500 416385.300000
191.061600 240677.900000
213.046000 256751.000000
214.053600 266304.900000
215.061600 23602314.000000
228.069600 41846.600000
239.048200 78154.200000
240.056900 11943937.000000
242.072500 1633650.500000

>ms2
50.003600 184949.100000
64.019300 156464.800000
66.009800 3728842.800000
68.025500 588147.900000
88.019300 44758.900000
90.035000 84840.200000
100.019400 72035.300000
102.034900 2844651.500000
113.027200 294003.200000
114.034900 447637.500000
115.030200 565259.600000
126.035000 72719.200000
127.030300 327744.800000
139.030300 408374.700000
140.025300 59041.500000
141.045900 6827879.000000
142.041100 68717.000000
153.033500 54447.000000
188.050400 175737.500000
213.045900 870566.400000
214.054300 152363.200000
215.061500 1558103.100000
238.041200 273306.900000
239.048700 171228.400000
240.056800 2884931.200000

>ms2
50.003600 376000.200000
64.019300 376903.700000
66.009800 3079655.200000
68.025500 763147.000000
74.003700 69919.900000
88.019400 139771.300000
89.014500 50986.100000
90.034800 279550.500000
102.034900 471070.400000
113.027200 185283.800000
114.034900 407030.300000
115.030200 356509.000000
139.030200 453812.200000
141.045800 822400.300000
213.045700 298704.600000
238.041100 208830.600000
240.056800 165883.200000

>ms2
50.003600 544516.700000
64.019300 328199.200000
66.009800 2220794.500000
68.025500 747865.300000
74.003800 75954.800000
88.019200 56776.200000
89.014500 45723.600000
90.035000 134847.000000
102.034900 41231.100000
113.027300 66729.500000
114.034900 49569.200000
115.030100 153922.500000
139.030300 241597.000000
141.045400 49801.500000
238.041200 63393.800000

