>compound EQ36564878
>parentmass 312.079
>ionization [M-H]-
>formula C16H12FN3O3
>rt 486.000000
>profile orbitrap
#smiles_iso COC(=O)NC1=NC2=C(N1)C=C(C=C2)C(=O)C3=CC=C(C=C3)F
#smiles_can COC(=O)NC1=NC2=C(N1)C=C(C=C2)C(=O)C3=CC=C(C=C3)F
#inchikey CPEUVMUXAHMANV-UHFFFAOYSA-N
#pubchem_id 35802
#mb_accession EQ365951,EQ365952,EQ365953,EQ365954,EQ365955,EQ365956,EQ365957,EQ365958,EQ365959

>ms2peaks
157.027800 65942.400000
280.053200 20728236.000000
312.079600 22256188.000000

>ms2peaks
280.053100 40034440.000000
312.079500 3339185.200000

>ms2peaks
280.053100 43106284.000000

>ms2peaks
65.014600 45134.300000
65.998600 37264.200000
92.025600 37124.300000
95.025100 54242.300000
106.017400 246088.100000
129.033400 672378.600000
133.028300 594982.900000
149.023400 84858.000000
156.020600 154653.700000
157.028300 2206191.800000
158.036100 95619.600000
160.015400 310962.000000
173.023300 107480.200000
209.052200 50793.000000
210.036200 66886.100000
232.051500 38168.300000
237.047400 385156.200000
251.050400 110717.200000
252.058800 88676.500000
253.042200 262973.300000
260.047100 224474.500000
262.042500 120190.000000
263.050500 42738.600000
278.037400 281628.100000
279.044000 50173.500000
280.053100 32066694.000000

>ms2peaks
50.003600 16150.600000
64.006700 30196.400000
65.014600 127756.500000
65.998600 123390.400000
68.001700 29365.400000
68.014300 12406.600000
87.011600 10820.500000
89.014700 36489.600000
90.022500 107789.100000
91.006300 15904.300000
92.025500 120147.700000
93.009500 31533.600000
95.025200 162411.500000
102.022400 45208.600000
105.033400 59793.800000
106.017400 721685.200000
114.022500 44179.900000
115.030300 70360.100000
116.025800 11617.100000
117.009600 12690.300000
118.017600 38567.000000
120.009200 40335.500000
129.033400 1771580.800000
130.017200 14055.700000
132.020500 103940.900000
133.028300 2098868.200000
134.012200 70837.900000
136.015300 44532.800000
145.028400 93454.500000
147.020300 113169.200000
148.015100 11564.700000
149.023200 262084.900000
156.020600 445668.700000
157.028400 5919133.000000
158.036200 228429.500000
160.015500 1086278.600000
161.023300 25872.500000
173.023200 393907.800000
186.031100 32949.100000
188.010300 15706.600000
207.036700 11036.400000
209.052400 71390.000000
210.036300 172101.600000
217.040900 16282.800000
223.055500 41073.600000
224.039200 71773.800000
225.047100 14159.000000
231.044200 16570.700000
232.052100 75533.500000
233.035800 27725.000000
234.047400 51123.200000
235.031700 54750.900000
236.063500 14907.700000
237.047300 477134.200000
242.036200 32566.600000
251.050400 235514.300000
252.034500 39003.800000
252.058000 74445.900000
253.042300 243246.600000
260.046900 230285.300000
262.042600 101426.200000
263.050000 50187.200000
278.037400 466763.900000
279.045500 36946.800000
280.053300 9689530.000000

>ms2peaks
50.003600 15786.300000
64.006800 34573.600000
65.014600 202904.400000
65.998600 148687.700000
68.001700 35877.000000
68.014300 13134.800000
78.022400 10261.200000
87.011500 38949.400000
89.014600 55375.000000
90.022500 165551.000000
91.006500 28431.700000
92.014300 31211.900000
92.025600 134420.600000
93.009500 42050.500000
93.022200 14414.000000
95.025200 226501.700000
101.014700 11630.800000
102.022500 166777.300000
103.017800 15288.500000
105.033300 70253.100000
106.017400 886783.000000
113.014700 15413.400000
114.022500 107101.500000
115.030400 459112.700000
116.025900 13840.500000
117.009400 8134.800000
118.017500 31149.300000
120.009300 67750.500000
128.025500 11424.400000
129.033500 2559735.800000
130.017400 37854.300000
132.020500 98592.000000
133.028300 2687180.800000
134.012500 48637.600000
136.015500 86122.600000
145.028200 106443.500000
147.020300 155078.300000
149.023200 388475.400000
156.020700 482086.900000
157.028400 6733622.000000
158.036200 242022.900000
160.015500 1372616.800000
161.023300 27391.200000
163.031000 6877.200000
173.023200 549757.800000
186.030300 21921.600000
188.010100 34885.600000
207.036000 8734.600000
209.052200 41779.800000
210.036700 131435.900000
212.051900 11969.700000
223.055400 32116.600000
224.039500 119269.000000
225.047100 9378.000000
231.044200 16036.800000
232.052000 41501.700000
233.035800 7619.500000
234.047400 33565.400000
235.031200 51782.300000
237.047300 163612.100000
242.035900 11589.700000
251.050400 112283.100000
252.034500 26771.500000
252.058000 26883.700000
253.042300 50961.600000
260.047100 40183.300000
262.042700 15931.700000
278.037400 295801.600000
280.053100 1304118.800000

>ms2peaks
50.003600 53111.900000
64.006800 12590.000000
64.019400 83315.000000
65.014600 77298.700000
65.998600 48759.800000
68.001700 10269.900000
74.003900 46394.800000
86.003600 7183.600000
87.011500 100630.200000
88.006800 32235.200000
88.019400 73316.400000
89.014600 47449.600000
90.022400 53290.800000
91.006400 13595.100000
92.025500 24303.500000
93.009500 9754.400000
93.022100 7324.900000
95.025200 61732.200000
101.014600 45464.700000
102.022500 232154.800000
103.017600 37705.800000
105.033200 14345.700000
106.017400 204332.800000
113.014800 98716.000000
114.022500 73245.900000
115.030300 1284932.000000
118.017300 9345.500000
120.009100 7907.800000
128.025400 9480.200000
129.033400 2070169.600000
130.017400 45128.000000
132.020500 29425.800000
133.028300 695681.600000
136.015400 36838.900000
145.028500 43369.800000
147.020200 32188.100000
149.023300 114291.100000
156.020600 295995.200000
157.028300 1453878.400000
158.036100 60193.600000
160.015500 313394.400000
173.023200 128451.500000
210.036300 7718.900000
224.040000 7850.200000
235.031100 9330.300000
278.037500 13308.600000

>ms2peaks
50.003600 63665.900000
64.019400 320787.300000
65.014600 12764.900000
65.998600 22326.500000
74.003900 66878.300000
86.003700 32875.400000
87.011600 63135.200000
88.006900 38257.400000
88.019300 168792.700000
89.014600 9952.300000
101.014600 34464.600000
102.022500 76091.500000
103.017700 25124.400000
106.017400 21711.900000
113.014800 94599.500000
114.022500 10531.600000
115.030400 960468.200000
129.033500 553062.200000
130.016800 6455.000000
133.028300 54413.700000
156.020700 227501.600000
157.028500 125052.100000
160.015500 28086.300000
173.023700 10354.400000

>ms2peaks
50.003700 53856.600000
64.006800 20174.600000
64.019400 283591.700000
65.014600 11279.000000
74.003800 77948.200000
86.003700 28683.200000
87.011500 29764.000000
88.006800 13313.500000
88.019300 111296.200000
101.014600 7135.400000
102.022500 10872.100000
113.014700 37102.000000
114.022600 6624.200000
115.030300 240923.800000
129.033400 73905.500000
133.028300 7357.300000
156.020600 92881.900000

