>compound EQ38567751
>parentmass 277.14449999999994
>ionization [M-H]-
>formula C16H22O4
>rt 828.000000
>profile orbitrap
#smiles_iso CCCCOC(=O)C1=CC=CC=C1C(=O)OCCCC
#smiles_can CCCCOC(=O)C1=CC=CC=C1C(=O)OCCCC
#inchikey DOIRQSBPFJWKBE-UHFFFAOYSA-N
#pubchem_id 3026
#mb_accession EQ367051,EQ367052,EQ367053,EQ367054,EQ367055,EQ367056,EQ367057,EQ367058,EQ367059

>ms2peaks
77.039700 153362.200000
105.034600 70630.900000
107.050400 725908.100000
121.029700 2501382.500000
125.097400 78647.100000
127.113000 3257161.500000
129.128600 355153.800000
134.037500 8201884.500000
135.045300 367145.200000
147.009000 904275.400000
149.024400 51266.400000
165.019600 53356.600000
173.118400 33101.500000
179.035200 31108.200000
190.998800 44772.300000
203.144200 28984.300000
205.160000 1120433.500000
231.138800 24376.300000
233.155000 2893003.500000
249.149900 37044.900000
277.144800 22897106.000000

>ms2peaks
75.024000 22752.400000
77.039700 128171.300000
93.034700 44235.700000
105.034600 61868.400000
107.050400 894724.400000
119.014100 21804.800000
121.029700 3630686.200000
125.097400 136150.100000
127.113000 6079253.000000
129.128700 539729.100000
134.037500 13641386.000000
135.045300 534051.400000
147.009000 1861103.200000
149.024600 48418.400000
155.107900 38938.800000
165.019200 76489.200000
173.118700 59432.500000
179.035100 55689.200000
190.998900 90714.200000
203.144400 58231.900000
205.160000 467999.800000
231.139400 100443.800000
233.155000 555735.300000
277.144800 1689538.400000

>ms2peaks
69.034600 5564.300000
75.024100 111030.400000
77.039700 80875.500000
93.034700 114439.700000
103.019000 42078.800000
105.034600 25919.200000
107.050400 279145.500000
108.021800 6251.400000
109.066000 5996.900000
111.081700 22731.600000
119.014000 129684.600000
121.029700 2330383.800000
125.097400 99013.000000
127.113000 3736312.000000
129.128700 78904.300000
134.037500 5002370.000000
135.045300 314543.500000
147.009000 1352102.900000
149.024600 21863.900000
155.108100 8312.900000
165.019400 51516.600000
173.118600 9155.100000
179.035400 41111.600000
190.998900 67829.700000
203.144300 68401.300000
205.160200 8805.600000
231.139100 20806.000000
233.154900 6193.700000
277.144500 7177.900000

>ms2peaks
69.034800 5800.300000
71.050400 20641.000000
75.024200 480436.500000
77.039800 38196.200000
83.050300 36749.800000
93.034700 131691.700000
103.019100 110813.100000
105.034700 22055.100000
107.050300 51080.200000
111.081700 32274.800000
119.014000 165678.000000
121.029700 1320025.400000
125.097300 94010.800000
127.113000 1492944.900000
129.128800 7672.700000
134.037500 844431.900000
135.045400 94193.400000
147.009000 571768.600000
165.019500 18687.800000
179.035300 8380.000000
190.998800 29215.800000
203.144000 17156.300000

>ms2peaks
71.050400 16990.300000
75.024200 986940.200000
77.039900 23372.600000
83.050300 8938.900000
93.034700 86859.600000
103.019000 100169.900000
107.050400 4862.700000
109.065900 4795.900000
111.081900 30503.900000
119.013900 91121.000000
121.029700 549128.900000
125.097300 55205.000000
127.113000 359716.400000
134.037600 65398.000000
135.045100 6897.000000
147.009000 179543.300000
165.019400 4891.300000
179.035400 4378.300000
190.998900 4063.100000

>ms2peaks
69.034600 4050.500000
71.050200 4943.200000
75.024200 982464.400000
77.039900 9121.700000
83.050400 6242.800000
93.034700 23142.700000
103.019100 39411.400000
111.081800 6848.800000
119.014200 20960.700000
121.029700 164264.500000
125.097300 20860.300000
127.113000 60499.700000
147.009100 35813.500000

>ms2peaks
75.024200 652217.900000
121.029500 6058.700000

>ms2peaks
75.024100 246858.300000

>ms2peaks
75.024200 56174.700000

