>compound EQ40852608
>parentmass 152.0021
>ionization [M-H]-
>formula C6H4ClN3
>rt 378.000000
>profile orbitrap
#smiles_iso C1=CC=C2C(=C1)N=NN2Cl
#smiles_can C1=CC=C2C(=C1)N=NN2Cl
#inchikey INOGLHRUEYDAHX-UHFFFAOYSA-N
#pubchem_id 88761
#mb_accession EQ369451,EQ369452,EQ369453,EQ369454,EQ369455,EQ369456,EQ369457,EQ369458,EQ369459

>ms2peaks
88.019200 6817652.000000
116.025500 853379.700000
152.002100 500595840.000000

>ms2peaks
88.019200 6736095.000000
116.025600 591806.800000
152.002000 504550880.000000

>ms2peaks
88.019300 32307468.000000
116.025500 2963890.200000
152.002100 448461024.000000

>ms2peaks
88.019200 70907152.000000
116.025500 4687526.500000
123.995800 295058.200000
152.002100 270129152.000000

>ms2peaks
61.008400 130730.400000
88.019200 82215992.000000
116.025500 4781010.500000
123.996000 313669.500000
152.002100 126280744.000000

>ms2peaks
50.003500 87894.900000
61.008400 401756.500000
88.019300 58806524.000000
116.025500 3701069.000000
152.002200 43994384.000000

>ms2peaks
50.003600 642436.600000
61.008400 829817.900000
77.003500 44940.200000
87.011400 189252.600000
88.019300 15141517.000000
116.025500 1560028.200000
152.002100 3042257.800000

>ms2peaks
50.003500 967673.400000
61.008400 862601.900000
66.009800 77731.800000
77.003200 86383.800000
87.011400 306873.000000
88.019200 2680446.000000
116.025300 291483.900000

>ms2peaks
50.003600 1484310.000000
61.008400 661529.600000
66.009700 55847.300000
87.011300 211825.400000
88.019200 534081.800000

