>compound EQ43077255
>parentmass 453.0227
>ionization [M-H]-
>formula C14H14N8O4S3
>rt 264.000000
>profile orbitrap
#smiles_iso CC1=NN=C(S1)SCC2=C(N3C(C(C3=O)NC(=O)CN4C=NN=N4)SC2)C(=O)O
#smiles_can CC1=NN=C(S1)SCC2=C(N3C(C(C3=O)NC(=O)CN4C=NN=N4)SC2)C(=O)O
#inchikey MLYYVTUWGNIJIB-UHFFFAOYSA-N
#pubchem_id 2618
#mb_accession EQ366351,EQ366352,EQ366353,EQ366354,EQ366355,EQ366356,EQ366357,EQ366358,EQ366359

>ms2
57.975700 3590.900000
69.020800 103162.200000
98.036000 1983.600000
108.031800 1679.700000
109.015800 1808.500000
126.042500 2447.200000
127.008600 13907.100000
127.026300 4663.900000
130.974500 20272.600000
137.018100 514.200000
143.003400 20214.000000
144.057000 546.800000
150.002100 516.000000
151.033800 1391.400000
156.012800 3070.000000
163.034000 2850.900000
165.012800 1486.300000
167.028700 121775.600000
168.012600 5926.700000
174.043200 896.300000
178.044800 3853.600000
179.028500 636.500000
184.030000 11356.200000
207.023600 36670.600000
234.046000 4133.600000
243.063600 3839.300000
251.013500 58596.800000
277.051500 15536.675780

>ms2
56.980300 347.400000
57.975700 14360.800000
69.020800 93200.800000
80.025600 346.300000
96.999400 379.200000
97.011900 1421.900000
98.007200 415.700000
98.036100 3493.900000
105.046000 592.100000
108.031800 786.300000
109.015600 2740.000000
110.012200 520.700000
112.022900 2053.200000
117.046000 1768.600000
122.007100 2083.300000
123.015100 709.500000
124.022800 2418.400000
126.042200 388.100000
127.008500 2746.800000
127.026100 754.800000
130.974400 32862.500000
133.040900 2864.400000
136.010400 1546.200000
136.022800 656.000000
137.018100 6438.100000
140.018000 536.800000
140.989200 2237.900000
143.003500 5229.400000
150.002000 1787.800000
156.012700 2198.100000
165.013000 3667.700000
167.028700 56139.700000
168.012700 4122.000000
173.036000 657.900000
174.043700 10349.900000
178.044900 445.900000
184.029900 3604.400000
207.023600 16624.400000
209.980700 1264.500000
234.045700 1428.100000
243.064300 481.300000
251.013300 2559.200000

>ms2
56.980500 446.100000
57.975700 40520.000000
60.975400 673.300000
65.014600 402.500000
69.020800 102492.400000
80.025600 444.600000
89.947800 2403.900000
96.999200 1674.200000
97.011800 2941.900000
98.007200 720.800000
98.036100 2669.900000
104.038000 3063.100000
105.046100 531.200000
109.004300 2724.600000
109.015800 1594.000000
110.007100 782.800000
110.012400 1465.200000
112.022900 746.500000
117.045900 2768.500000
122.007200 3339.900000
123.015000 3105.800000
124.022700 4864.200000
130.974400 35605.600000
133.040900 7354.700000
136.010200 1915.400000
136.022700 1421.900000
137.018000 7891.000000
140.017700 1487.400000
140.989200 3567.600000
143.003200 1214.300000
144.057000 472.000000
148.010300 497.100000
151.033900 459.300000
163.033900 1433.300000
165.013000 2617.300000
167.028700 14256.300000
168.012700 1524.800000
173.036100 528.000000
174.043600 9657.200000
179.028800 1551.100000
207.023600 1520.100000
209.980800 384.300000

>ms2
56.980400 801.200000
57.975800 61429.900000
60.975500 4181.700000
65.014600 350.200000
67.030300 370.600000
69.020800 83084.500000
80.025600 726.600000
83.991400 350.100000
89.948000 2115.200000
96.999200 1987.800000
97.011800 3602.200000
98.007200 754.600000
98.036100 1479.600000
104.038100 6004.800000
105.045800 627.400000
109.004500 3192.100000
110.007300 1331.300000
110.012300 534.200000
112.022900 436.500000
117.046200 1630.400000
122.007300 2221.100000
123.015100 1355.100000
124.022800 2774.000000
130.974500 14978.100000
133.040900 8707.800000
136.010200 1524.300000
137.018100 5808.000000
140.017900 596.300000
140.989200 371.900000
148.010400 605.100000
165.012900 510.500000
167.028600 2038.800000
174.043300 1396.500000

>ms2
56.980500 1445.200000
57.975800 99919.700000
60.975400 5153.300000
64.019200 454.600000
65.014600 1724.600000
65.998700 430.600000
69.020800 79495.900000
70.983800 384.800000
89.947900 1675.300000
96.999200 2031.700000
97.011800 2826.300000
98.007000 815.000000
104.038100 4982.900000
105.045700 1331.500000
109.004400 1977.800000
110.007000 1428.900000
117.046100 432.300000
122.007200 1300.700000
123.014800 1194.500000
124.022500 1445.600000
130.974400 5520.500000
133.040900 10037.100000
136.009900 395.600000
137.017900 1729.200000
148.010400 385.300000

>ms2
52.019400 358.600000
56.980500 1994.800000
57.975800 89298.600000
60.975400 3566.900000
64.019300 448.100000
65.014600 819.800000
65.998600 433.200000
67.030100 293.200000
69.020800 55046.200000
70.983600 452.500000
83.991300 319.200000
96.999200 578.200000
97.011900 1480.500000
98.036000 464.800000
104.038200 2264.900000
105.046000 1807.400000
109.004600 1405.300000
110.007300 491.800000
124.022700 606.500000
130.974400 556.400000
133.040900 5415.500000

>ms2
50.003600 410.100000
52.019200 314.300000
56.980500 1582.200000
57.975800 115075.200000
60.975500 3047.100000
64.019300 460.200000
65.014600 1744.400000
65.998700 690.400000
67.030400 462.400000
69.020800 33634.100000
70.983700 649.800000
81.975900 388.300000
105.045900 767.600000

>ms2
50.003700 482.700000
56.980500 1389.500000
57.975800 96350.300000
60.975400 577.500000
69.020800 11449.900000
81.975800 505.300000

>ms2
50.003600 410.900000
56.980600 1553.100000
57.975800 86197.700000
69.020800 3876.500000

