>compound EQ45753990
>parentmass 132.0567
>ionization [M-H]-
>formula C7H7N3
>rt 348.000000
>profile orbitrap
#smiles_iso CC1=CC=CC2=NNN=C12
#smiles_can CC1=CC=CC2=NNN=C12
#inchikey CMGDVUCDZOBDNL-UHFFFAOYSA-N
#pubchem_id 122499
#mb_accession EQ279151,EQ279152,EQ279153,EQ279154,EQ279155,EQ279156,EQ279157,EQ279158,EQ279159

>ms2peaks
102.034900 436366.300000
103.042800 2168488.000000
104.050600 1412328.900000
120.045600 362886.400000
132.056800 61134728.000000

>ms2peaks
102.035000 506916.300000
103.042800 2076624.600000
104.050600 1344796.100000
120.045500 316247.200000
132.056800 57814444.000000

>ms2peaks
102.035000 643066.200000
103.042800 2920981.200000
104.050600 1845430.100000
120.045600 424585.800000
132.056800 46012128.000000

>ms2peaks
50.003600 85470.500000
89.027000 44719.300000
102.035000 1017217.000000
103.042800 4799819.000000
104.050600 2334886.800000
120.045500 567187.900000
132.056800 27838298.000000

>ms2peaks
50.003600 232781.100000
64.019300 70229.900000
78.034900 16147.400000
88.019600 14303.500000
89.027200 137682.700000
102.034900 1025106.900000
103.042800 4966929.000000
104.050600 1774682.200000
120.045500 467829.200000
132.056800 13924307.000000

>ms2peaks
50.003600 289058.300000
52.019100 14029.300000
63.024000 10337.200000
64.019300 113685.600000
78.035000 17652.500000
88.019200 73661.900000
89.027200 125219.900000
102.035000 460296.400000
103.042800 2535732.800000
104.050700 865074.000000
120.045500 179029.100000
132.056800 4455347.000000

>ms2peaks
50.003600 368467.500000
51.024000 12260.400000
52.019200 13646.200000
63.011500 19328.500000
63.024000 17842.700000
64.019300 65135.000000
78.034900 10639.600000
88.019300 208900.200000
89.027100 130706.000000
102.035000 80947.300000
103.042800 440956.200000
104.050700 110026.300000
120.045700 16936.100000
132.056800 364794.900000

>ms2peaks
50.003600 403362.900000
63.011500 74481.400000
63.024000 10370.400000
64.019200 48849.400000
88.019300 343003.500000
89.027000 50300.200000
103.042700 58325.600000
132.056800 19320.300000

>ms2peaks
50.003600 453730.600000
51.024100 9777.300000
63.011500 70079.200000
88.019300 310329.100000
89.027200 18272.300000

