>compound EQ45598404
>parentmass 310.1197
>ionization [M-H]-
>formula C17H17N3O3
>rt 420.000000
>profile orbitrap
#smiles_iso CC(C)C1(C(=O)NC(=N1)C2=NC3=CC=CC=C3C=C2C(=O)O)C
#smiles_can CC(C)C1(C(=O)NC(=N1)C2=NC3=CC=CC=C3C=C2C(=O)O)C
#inchikey CABMTIJINOIHOD-UHFFFAOYSA-N
#pubchem_id 54739
#mb_accession EQ371151,EQ371152,EQ371153,EQ371154,EQ371155,EQ371156,EQ371157,EQ371158

>ms2
223.075200 404911.100000
266.129900 15178968.000000
310.120000 2972035.200000

>ms2
137.072000 15455.300000
222.067100 10552.400000
223.075200 7656209.000000
224.083000 166882.000000
225.103500 123324.700000
236.081900 10763.500000
251.106400 168227.600000
266.130000 8739657.000000
310.120400 19748.100000

>ms2
183.056500 30534.700000
208.051700 136565.600000
222.067400 96138.200000
223.075200 12757591.000000
224.083000 202925.500000
225.103500 58461.600000
236.082900 166945.900000
251.106500 316208.200000
266.129900 549861.300000

>ms2
183.056400 42490.900000
208.051700 779537.400000
222.067400 810583.200000
223.075200 6442428.500000
224.082800 52870.900000
236.083000 472327.000000
251.106400 78619.000000

>ms2
65.998400 1609.100000
128.050600 3655.200000
153.045900 7567.500000
155.061800 2418.300000
168.057100 2796.600000
183.056400 54627.700000
195.056700 1637.400000
208.051700 554459.000000
222.067500 1181083.200000
223.075300 1161391.500000
224.083200 3722.800000
236.083000 329929.300000
251.106200 2964.100000

>ms2
65.998500 3512.700000
153.045900 6952.900000
155.062000 1541.700000
168.056500 2143.900000
183.056300 34141.400000
195.056500 8541.800000
208.051700 119987.000000
222.067400 557126.200000
223.075300 108243.500000
236.082900 74669.000000

>ms2
65.998600 7498.700000
153.046000 3741.200000
208.051200 2082.700000
222.067200 20964.100000

>ms2
65.998500 3812.000000

