>compound EQ46622324
>parentmass 264.0812
>ionization [M-H]-
>formula C12H15N3O2S
>rt 468.000000
>profile orbitrap
#smiles_iso CCCSC1=CC2=C(C=C1)N=C(N2)NC(=O)OC
#smiles_can CCCSC1=CC2=C(C=C1)N=C(N2)NC(=O)OC
#inchikey HXHWSAZORRCQMX-UHFFFAOYSA-N
#pubchem_id 2082
#mb_accession EQ358051,EQ358052,EQ358053,EQ358054,EQ358055,EQ358056,EQ358057,EQ358058,EQ358059

>ms2peaks
189.000300 282604.700000
221.026800 315707.100000
232.055400 6387309.000000
264.081700 3328968.500000

>ms2peaks
189.000600 3120259.800000
190.008200 26084.100000
221.026800 1075666.000000
232.055300 6318785.000000
264.081600 644777.400000

>ms2peaks
161.005600 25302.800000
189.000500 8731297.000000
190.008600 34604.500000
221.026800 700519.300000
232.055300 1225354.900000
264.081300 14215.100000

>ms2peaks
57.975700 113735.300000
81.975800 10033.000000
90.022500 10314.300000
133.994700 20807.200000
159.997700 116527.000000
161.005600 446417.400000
189.000500 9695795.000000
190.008400 22977.900000
221.026900 100407.400000
232.055100 66080.500000

>ms2peaks
57.975800 588824.400000
65.014600 30905.200000
65.998600 7814.600000
81.975800 70400.500000
89.014700 7176.800000
90.022400 75090.500000
91.030300 13146.500000
94.983600 28333.600000
102.022500 7771.300000
106.017200 16491.900000
108.986700 29955.200000
116.025600 13029.900000
117.009600 11636.200000
132.986600 12622.300000
133.994600 112452.600000
135.002500 10774.300000
158.036300 15732.300000
159.997700 677110.200000
161.005600 1396935.900000
189.000500 6391191.500000
190.008800 8051.600000

>ms2peaks
57.975800 1361788.600000
64.006800 4645.600000
65.014600 95852.700000
65.998600 27766.500000
71.967700 7136.600000
74.003900 4566.100000
77.014800 7460.100000
79.006600 3905.400000
81.975800 143156.400000
89.014700 13009.500000
90.022400 144157.100000
91.030300 21602.600000
94.983600 48946.600000
101.014600 28813.400000
102.022400 23203.600000
106.017400 18139.400000
106.983900 3858.900000
107.978900 3046.400000
108.986700 79237.900000
116.025700 25767.300000
117.009700 19239.000000
118.017700 4454.100000
121.994700 4178.200000
128.025700 16114.100000
129.033400 15392.000000
132.986700 59066.300000
133.994600 167807.900000
135.002500 44759.500000
158.036200 13851.800000
159.997800 1424249.900000
161.005600 1297729.900000
162.013500 7903.300000
189.000600 2876475.800000

>ms2peaks
50.003600 8764.700000
56.980500 22103.900000
57.975800 1708655.500000
63.962500 1998.400000
64.006700 8669.100000
65.014600 221320.200000
65.998700 13857.200000
71.967800 8865.400000
74.003800 51546.100000
76.019400 12683.200000
77.014700 2343.900000
79.972800 10592.100000
80.980600 2672.500000
81.975800 253925.900000
83.978900 1969.100000
83.991300 2730.500000
89.014600 30352.900000
90.010000 7042.900000
90.022400 40497.600000
91.030200 17581.400000
94.983700 21048.400000
101.014600 57967.300000
102.022500 13248.300000
105.975800 28053.100000
106.017400 8534.100000
106.983500 12376.600000
107.978900 2684.700000
107.991600 7083.300000
108.986800 93458.700000
116.025500 21268.400000
117.009600 2403.600000
120.999400 2622.300000
126.010000 9594.500000
127.017900 6746.700000
128.025800 7795.700000
129.033500 35538.600000
132.986800 114062.300000
133.994600 49427.900000
135.002500 95865.200000
156.020700 35695.300000
158.036200 3613.600000
159.997800 994012.000000
161.005600 151543.200000
162.013300 2531.000000
189.000500 139880.500000

>ms2peaks
50.003600 25480.400000
56.980500 44384.000000
57.975800 1424140.200000
64.006800 7054.300000
64.019300 4055.400000
65.014600 228963.700000
71.967800 3531.200000
74.003800 107153.500000
76.019400 41298.900000
77.014700 1792.900000
79.972800 17239.100000
80.980600 8715.400000
81.975800 321550.500000
83.978900 1851.700000
83.991400 2704.300000
89.014700 64065.400000
90.009900 22496.800000
90.022300 3592.400000
91.030200 6523.100000
94.983600 7581.900000
101.014600 35700.200000
102.022500 3006.300000
105.975800 71338.300000
106.983600 3831.800000
107.979100 1739.800000
107.991500 9685.100000
108.986700 35191.300000
116.025500 7219.400000
120.999400 2001.300000
126.010100 2131.500000
127.017700 10242.700000
129.033400 11990.400000
132.986700 61182.400000
135.002500 33185.200000
156.020600 19986.800000
159.997700 282029.100000
161.005700 2235.200000
189.000000 1978.800000

>ms2peaks
50.003600 38646.400000
56.980500 43740.200000
57.975800 1112419.600000
64.006800 8094.000000
64.019300 12278.100000
65.014600 155146.100000
74.003800 101125.900000
76.019400 20910.800000
79.972800 12802.800000
80.980600 10594.800000
81.975800 259660.100000
83.991500 2935.400000
89.014700 41510.600000
90.009900 17839.900000
101.014700 10718.000000
105.975800 56580.800000
107.991600 7556.200000
108.986700 13105.100000
132.986700 12976.300000
135.002100 2254.200000
156.020600 8745.700000
159.997700 37121.000000

