>compound EQ47081626
>parentmass 179.05739999999997
>ionization [M-H]-
>formula C7H8N4O2
>rt 186.000000
>profile orbitrap
#smiles_iso CN1C2=C(C(=O)N(C1=O)C)NC=N2
#smiles_can CN1C2=C(C(=O)N(C1=O)C)NC=N2
#inchikey ZFXYFBGIUFBOJW-UHFFFAOYSA-N
#pubchem_id 2153
#mb_accession EQ363251,EQ363252,EQ363253,EQ363254,EQ363255,EQ363256,EQ363257,EQ363258,EQ363259

>ms2
122.036000 1341794.500000
140.046600 207802.800000
164.034100 5937045.000000
179.057500 192350416.000000

>ms2
122.036100 2162010.200000
140.046700 249273.900000
164.034100 8520118.000000
179.057500 198637456.000000

>ms2
65.998500 215189.200000
79.017500 322411.900000
94.041100 1156568.800000
122.036100 19753014.000000
135.007400 445289.300000
135.031200 270169.200000
136.039200 248141.000000
140.046700 1447500.800000
164.034200 52937260.000000
179.057500 140067728.000000

>ms2
65.998600 1116076.800000
66.009800 122502.300000
67.030200 560272.900000
68.014300 122277.500000
79.017700 2383446.500000
80.025500 191340.400000
92.025400 261270.800000
94.041100 7797635.500000
107.012400 383638.200000
109.028300 304913.100000
120.020500 406102.900000
121.028300 719928.900000
122.036100 49439308.000000
123.039500 168119.500000
124.015300 158763.800000
135.007600 4764453.000000
135.031400 2456890.200000
136.039100 1651463.800000
140.046600 1511661.400000
164.034200 88600288.000000
165.030900 104007.600000
179.057600 60872856.000000

>ms2
65.014600 125352.400000
65.998600 5242837.500000
66.009900 755594.800000
67.017600 145929.900000
67.030200 1716002.200000
68.014200 206449.900000
69.009500 415725.400000
79.017700 8849138.000000
80.025400 289533.300000
85.040900 104923.100000
92.025500 1079551.000000
94.041100 18230824.000000
95.025100 151930.400000
107.012500 1695812.400000
109.028200 645335.300000
120.020400 922035.800000
121.028300 1185651.200000
122.036100 46087544.000000
123.007500 368296.200000
123.039600 176536.000000
124.015200 415149.800000
135.007600 13454762.000000
135.031400 8986062.000000
136.039100 2831939.200000
140.046600 605585.800000
164.034200 61938044.000000
165.030900 81413.100000
179.057600 13830247.000000

>ms2
55.030100 231102.900000
65.014500 307786.200000
65.998600 12354584.000000
66.009800 1548703.100000
67.017600 152918.500000
67.030200 2803158.200000
68.014300 226732.000000
69.009500 1477330.600000
79.017700 15587779.000000
80.025500 277569.300000
82.017300 38009.000000
85.040800 49456.000000
92.025500 2330417.000000
94.041100 18669836.000000
95.025000 282531.200000
107.012600 3067155.200000
108.020400 42084.100000
109.028200 811191.000000
112.051500 27057.800000
120.020400 1325367.000000
121.028200 888592.000000
122.036100 25488188.000000
123.007500 782958.200000
123.039500 47791.600000
124.015200 401601.800000
135.007600 14776325.000000
135.031400 11919304.000000
136.039100 1928151.000000
140.046600 152086.000000
163.026400 31618.300000
164.034200 25016766.000000
179.057600 2231758.800000

>ms2
50.003500 28098.800000
55.030200 1150362.400000
64.006800 185540.300000
65.014600 1224773.200000
65.998600 23248424.000000
66.009800 1316275.400000
67.030200 3330994.000000
68.014200 153000.600000
69.009500 3097049.500000
79.017700 16149368.000000
80.025500 87998.200000
81.033300 117549.400000
92.025500 4729669.000000
94.041100 8996368.000000
95.025100 197404.000000
107.012600 2576526.000000
108.020400 762470.300000
109.028100 349481.800000
120.020400 746842.200000
121.028300 193180.400000
122.036100 3817391.000000
123.007600 630137.900000
124.015400 86784.100000
126.030800 110383.900000
135.007600 3946511.000000
135.031400 8007898.500000
136.039100 281694.200000
164.034200 1836324.900000

>ms2
50.003600 200965.900000
55.030200 1949145.500000
64.006700 351746.800000
65.014600 2111595.200000
65.998600 18100450.000000
67.030200 2069179.200000
68.014200 48121.400000
69.009500 1243665.000000
79.017700 5699694.500000
81.033300 43423.400000
92.025500 3215245.000000
93.009400 87121.000000
94.041100 1846441.200000
95.025200 45377.400000
107.012600 458338.400000
108.020400 692382.300000
109.028300 24529.600000
120.020600 171600.000000
122.036100 249617.000000
123.007600 180960.100000
126.031100 198544.300000
135.007600 307368.800000
135.031400 1981814.100000
164.034200 37336.800000

>ms2
50.003600 260336.100000
55.030200 1516302.000000
64.006800 540469.900000
65.014600 2211212.200000
65.998600 9564350.000000
67.030200 1076141.400000
68.014300 23009.200000
69.009500 199479.300000
79.017700 1042814.000000
80.025500 19248.200000
82.017300 30709.800000
92.025500 1102358.100000
93.009600 78767.400000
94.041100 289042.400000
107.012600 35841.800000
108.020400 287515.200000
120.020300 25524.200000
126.031100 75885.400000
135.031300 274818.400000

