>compound EQ47271232
>parentmass 528.1765
>ionization [M-H]-
>formula C28H22F3N7O
>rt 510.000000
>profile orbitrap
#smiles_iso CC1=C(C=C(C=C1)C(=O)NC2=CC(=CC(=C2)C(F)(F)F)N3C=C(N=C3)C)NC4=NC=CC(=N4)C5=CN=CC=C5
#smiles_can CC1=C(C=C(C=C1)C(=O)NC2=CC(=CC(=C2)C(F)(F)F)N3C=C(N=C3)C)NC4=NC=CC(=N4)C5=CN=CC=C5
#inchikey HHZIURLSWUIHRB-UHFFFAOYSA-N
#pubchem_id 644241
#mb_accession EQ358851,EQ358852,EQ358853,EQ358854,EQ358855,EQ358856,EQ358857,EQ358858,EQ358859

>ms2peaks
528.176600 2070905.800000

>ms2peaks
81.045700 3086.800000
240.075400 101387.800000
241.059500 2554.600000
259.098700 2871.300000
261.114400 11651.300000
266.054500 52597.200000
287.093500 8096.200000
328.106700 3981.200000
446.124000 3195.700000
485.170500 9083.900000
508.170700 8276.900000
528.176700 1887418.800000

>ms2peaks
68.995800 2970.100000
81.045700 20158.000000
116.050700 2104.100000
130.066200 3789.600000
131.061400 2723.300000
144.056600 2026.600000
157.077100 28190.800000
160.037700 1639.600000
171.067700 25463.300000
185.033000 1080.700000
187.049000 1037.900000
193.058100 4737.100000
196.051100 1533.800000
211.013000 4347.400000
211.048900 5424.100000
213.064500 19019.300000
218.053700 4051.200000
219.037500 7422.400000
220.069200 2365.700000
223.048800 7343.300000
226.042300 5385.900000
234.103800 19547.800000
236.043800 1045.000000
238.059700 2278.800000
239.043800 45737.400000
240.075500 961215.500000
241.059400 21145.400000
244.087300 3692.600000
251.031100 11320.300000
259.098700 7774.300000
261.114500 64383.800000
266.054700 366687.800000
273.078000 1049.600000
286.109800 2243.000000
287.093600 8752.900000
328.106800 14696.500000
354.122700 2407.200000
381.133600 7475.800000
446.123200 2791.700000
485.170300 11479.100000
488.164300 8090.500000
490.160300 2932.100000
500.182000 6396.500000
508.170700 5663.300000
511.149400 1671.500000
528.176300 169416.700000

>ms2peaks
52.019200 3171.400000
65.014500 866.500000
68.995700 3915.000000
79.030300 1029.700000
81.045800 22511.100000
103.030200 709.200000
116.050600 7018.900000
144.056700 3348.300000
153.046000 845.000000
155.049000 3993.400000
157.077100 28265.000000
158.022400 989.600000
160.037800 7416.500000
169.052100 816.200000
170.072200 1753.400000
171.067600 87717.600000
173.051900 5956.000000
178.041100 6036.600000
179.049400 631.800000
180.056800 7901.300000
185.033200 5682.000000
187.048800 7887.300000
191.006400 2167.200000
191.042800 885.700000
193.058200 29731.400000
193.077000 11304.700000
196.038000 2807.600000
196.051500 5776.100000
198.040300 8866.000000
198.048100 2228.000000
199.031400 8149.100000
199.049000 1891.200000
200.020100 993.600000
203.043400 6674.200000
206.036000 5779.200000
211.012700 6120.700000
211.048900 13804.600000
212.033200 2190.800000
213.064600 81045.900000
218.053600 13753.600000
219.037600 18294.000000
222.041100 730.900000
223.036400 5552.300000
223.048900 14121.700000
224.020300 6225.100000
224.044600 846.000000
225.027300 687.800000
226.042700 9054.900000
234.103600 9457.300000
236.044500 4034.700000
237.028200 2032.500000
237.048600 627.200000
238.059800 2121.400000
239.043800 57767.000000
240.075500 610536.600000
241.059400 14313.500000
244.087800 4347.200000
251.031000 13896.800000
259.099000 1772.600000
265.046300 1479.200000
266.054600 123184.600000
300.075200 808.500000
315.075700 761.300000
328.106300 2336.300000
354.122700 1026.900000

>ms2peaks
50.003500 681.900000
52.019300 3014.700000
65.014600 4011.100000
65.998600 923.400000
67.030200 3444.300000
68.995800 4847.300000
74.003900 416.100000
79.030200 4246.800000
81.045800 38379.300000
88.019300 390.500000
92.025600 2634.000000
98.003600 1688.000000
105.045900 837.800000
112.006700 466.300000
116.050600 7249.200000
118.010100 2607.100000
129.058900 444.000000
130.054000 1226.900000
130.066200 14600.900000
131.061400 14380.200000
138.016200 1652.100000
139.030200 780.300000
140.025600 689.800000
141.045900 2615.400000
144.056800 5089.900000
151.030300 3133.600000
153.045900 8227.400000
155.048900 11518.800000
155.061500 1948.800000
156.025700 733.700000
157.040500 1743.000000
157.077000 9047.200000
158.022200 3479.600000
160.037900 8315.800000
169.052000 439.000000
171.036500 6015.900000
171.067600 81043.300000
173.051900 9469.800000
175.048800 1946.900000
176.031600 1824.600000
177.026600 491.900000
178.041000 9292.400000
179.049100 929.200000
180.056800 7473.400000
183.017400 419.400000
183.036300 2172.100000
185.015900 470.300000
185.033100 8341.400000
186.016500 1405.300000
187.048800 7256.600000
191.006200 659.400000
191.042700 2999.400000
193.058200 27105.800000
193.077000 7625.900000
196.038200 4282.100000
198.040300 11866.500000
198.047100 2147.900000
199.031500 8204.300000
199.048800 1943.900000
200.020300 694.100000
200.044400 506.100000
200.063100 4995.000000
203.043300 5368.900000
206.035900 2824.500000
211.012800 5285.100000
211.048800 9325.500000
212.033000 2548.300000
212.057800 521.500000
213.064700 48014.300000
218.053600 8048.300000
219.037700 7641.400000
220.069200 3547.100000
222.040900 742.900000
223.036500 6304.300000
223.048900 6465.000000
224.020200 5963.100000
224.044500 1487.500000
225.028300 578.300000
225.051100 436.200000
226.043300 2891.100000
234.103700 460.900000
236.044100 2750.900000
237.048400 744.200000
238.059400 713.800000
239.043900 12764.300000
240.075400 111487.800000
241.059100 3270.100000
244.087900 2093.800000
246.048800 3136.800000
251.030800 3867.900000
259.099100 802.800000
266.054700 18402.600000

>ms2peaks
50.003600 3459.100000
52.019300 3182.600000
64.006700 364.300000
64.019200 593.500000
65.014500 6217.100000
65.998500 2366.100000
67.030200 5331.800000
68.995900 3682.200000
74.003700 1872.200000
79.030200 4067.600000
81.045800 53563.300000
90.035200 359.200000
92.025500 7033.300000
98.003600 4017.900000
100.019100 610.900000
103.030200 5194.100000
105.045800 3121.600000
112.006700 651.000000
115.030200 567.500000
116.050700 6220.400000
118.009900 3934.400000
129.058300 636.800000
130.017100 485.200000
130.040900 510.400000
130.053800 629.100000
130.066100 7417.400000
131.061400 9786.000000
136.019600 637.100000
138.016200 735.800000
139.030400 488.100000
141.045800 2455.800000
143.004800 835.600000
144.056600 6352.000000
151.030100 5378.300000
153.045800 9538.100000
155.049000 14583.300000
156.025600 1513.600000
157.040500 413.000000
157.076700 765.800000
160.037900 5863.600000
163.030000 2166.200000
169.051900 1481.900000
170.071800 445.200000
171.036500 4748.100000
171.067600 37953.200000
175.048500 584.000000
176.031300 1481.500000
177.026400 505.800000
178.041000 5402.100000
179.024800 1523.400000
179.048900 745.400000
180.056700 3745.200000
183.017200 587.400000
183.036300 1438.500000
185.015300 446.400000
185.033200 6866.200000
186.016700 1139.200000
187.048500 2478.900000
191.042700 1620.200000
193.058300 11529.100000
193.076900 2661.000000
196.038200 850.500000
196.051100 386.200000
198.040700 8107.000000
198.048300 683.500000
199.031900 3526.800000
199.048900 408.200000
200.044200 635.000000
200.063500 590.400000
211.012700 3751.100000
211.049000 4222.000000
212.033100 727.800000
212.056900 606.500000
213.064600 11282.100000
218.053800 3595.900000
219.037600 1799.900000
220.069200 535.200000
222.041900 547.300000
223.036400 3075.600000
223.048600 1783.400000
224.020200 3183.200000
236.044400 1625.100000
237.027400 570.900000
239.043700 1547.300000
240.075400 13205.100000
241.058400 764.200000
259.098300 399.100000
266.054400 1758.900000

>ms2peaks
50.003600 7397.700000
52.019300 1824.000000
64.006700 758.200000
64.019300 594.500000
65.014500 10368.500000
65.998500 1576.200000
67.030200 3979.400000
68.995800 4074.800000
74.003700 3081.100000
79.030300 3473.700000
81.045800 50244.400000
88.019300 661.200000
92.025400 5261.500000
92.995600 573.200000
98.003500 5617.100000
100.019000 359.600000
103.030100 2825.600000
105.045700 1844.500000
112.006800 1994.500000
115.030100 806.600000
116.050500 1599.200000
118.009900 1869.100000
129.058500 516.200000
130.017000 355.300000
130.040700 616.700000
130.066200 710.300000
131.061700 1569.500000
136.006600 2390.100000
136.019300 600.900000
139.030100 573.800000
141.046200 1408.400000
152.038000 576.100000
153.045900 3702.100000
155.048900 3938.900000
158.022200 477.700000
163.030100 585.300000
169.052200 529.200000
171.036300 625.800000
171.067600 2302.700000
178.040900 561.100000
183.017100 444.600000
185.033200 1625.800000
186.017100 546.200000
198.041200 447.900000
211.013000 372.600000
211.048900 552.900000

>ms2peaks
50.003600 7301.400000
52.019200 853.800000
64.006700 2606.600000
64.019200 1459.700000
65.014500 11968.400000
65.998500 1905.100000
67.030100 1655.500000
68.995800 2857.500000
74.003800 4226.500000
79.030200 1994.900000
81.045800 29530.000000
86.003600 463.000000
90.034900 344.100000
92.025400 2458.000000
92.995600 454.000000
98.003600 6838.800000
105.045600 553.000000
110.003600 823.500000
112.006600 1413.000000
115.030200 435.700000
118.009800 501.000000
136.006600 1449.200000
138.016000 366.600000
140.025400 564.400000
141.045800 397.900000
143.005100 463.300000
152.038000 391.500000
153.045900 501.500000

>ms2peaks
50.003600 9023.800000
52.019200 1449.800000
64.006700 2274.100000
64.019400 793.000000
65.014600 10693.500000
65.998500 856.700000
68.995800 794.000000
74.003700 4416.600000
79.030100 554.300000
81.045800 9312.400000
86.003600 596.200000
92.025500 710.000000
98.003600 6127.000000
110.003700 568.000000
112.006600 407.800000

