>compound EQ48193552
>parentmass 364.0528
>ionization [M-H]-
>formula C16H16ClN3O3S
>rt 402.000000
>profile orbitrap
#smiles_iso CC1CC2=CC=CC=C2N1NC(=O)C3=CC(=C(C=C3)Cl)S(=O)(=O)N
#smiles_can CC1CC2=CC=CC=C2N1NC(=O)C3=CC(=C(C=C3)Cl)S(=O)(=O)N
#inchikey NDDAHWYSQHTHNT-UHFFFAOYSA-N
#pubchem_id 3702
#mb_accession EQ368651,EQ368652,EQ368653,EQ368654,EQ368655,EQ368656,EQ368657,EQ368658,EQ368659

>ms2
188.964500 705708.100000
215.952600 179332.100000
232.979200 380635.700000
364.052600 142449280.000000

>ms2
53.003200 111213.200000
61.970600 230654.200000
63.962400 1388090.200000
65.998500 99493.100000
68.014200 299039.200000
77.003300 409533.100000
77.965500 1733427.400000
78.973300 1706741.000000
79.981200 2127971.500000
81.021900 177481.100000
92.014100 509750.400000
92.998100 118684.500000
93.021900 217542.800000
93.960300 93174.300000
98.931300 205282.000000
103.990400 131887.900000
105.022000 980782.100000
106.005900 814221.900000
109.016900 81948.000000
112.979900 76588.100000
113.942200 97895.100000
114.950000 70550.400000
120.009200 95552.500000
120.993100 772529.500000
125.003700 72581.300000
126.011500 1131830.600000
130.066000 113497.200000
131.024900 90850.000000
132.032900 9779101.000000
134.024700 162658.400000
141.982600 618276.600000
148.027800 2056760.500000
151.006900 111534.200000
152.989000 1114981.800000
153.996900 158916.300000
167.001700 1174587.100000
168.009500 1932187.400000
169.017300 1604509.800000
171.056300 102589.800000
173.071900 846713.900000
178.991700 129489.900000
188.965700 20868344.000000
189.973500 4873789.000000
194.986700 261084.100000
195.994700 1741948.400000
197.002600 591173.400000
204.960500 464908.200000
214.968800 2086032.100000
215.952700 7019738.000000
230.963400 551730.300000
231.971400 255859.500000
232.979300 7795611.500000
280.109700 135911.000000
300.090800 343664.200000
328.076000 746612.000000
364.052800 58336540.000000

>ms2
53.003200 119698.200000
57.975600 59351.500000
61.970600 682348.400000
63.962400 2211396.200000
65.003300 76140.500000
65.027100 54450.000000
65.998600 236491.200000
66.011100 68977.300000
68.014200 374997.900000
77.003300 685667.900000
77.965500 5085533.500000
78.973300 2700775.500000
79.981200 4324426.000000
81.022000 269520.500000
89.027100 238877.300000
90.034900 279065.100000
91.030200 191168.000000
92.014200 801828.400000
92.998100 228500.900000
93.022000 337697.400000
93.960300 135014.800000
94.006000 131923.000000
94.029800 83357.300000
96.009100 46268.900000
98.931300 301023.600000
103.030100 46369.900000
103.990400 208365.700000
105.022000 5111719.500000
106.006000 1315552.000000
107.991300 151784.900000
109.016900 144351.500000
111.986300 41830.800000
112.980000 149591.400000
113.942200 219734.000000
114.950000 139921.900000
115.030200 70360.000000
116.050500 189747.700000
117.045800 59142.200000
120.009100 206078.000000
120.032900 716865.600000
120.993100 1235510.600000
121.017000 81812.400000
122.001000 78347.700000
122.024800 81959.900000
123.008800 53376.300000
125.003800 375065.200000
126.011600 4194994.500000
126.995600 59719.500000
127.990800 58140.100000
128.974800 55265.000000
130.066200 248729.900000
131.025000 898108.800000
131.061500 121137.200000
132.032900 10714207.000000
132.081800 645129.200000
133.040700 59339.800000
134.024700 49016.500000
140.998600 81127.700000
141.982600 1080243.900000
148.027900 2773198.500000
151.006800 407342.500000
151.990800 819642.100000
152.989000 1446916.000000
153.996800 425761.800000
157.040500 49788.000000
167.001700 1038480.900000
167.986000 90698.800000
168.009600 767883.400000
168.984000 203921.200000
169.017500 701205.300000
171.056300 90283.800000
173.071900 423939.300000
178.992000 622116.400000
188.965700 32026238.000000
189.973500 3542638.500000
194.986900 167187.500000
195.994900 263345.200000
197.002500 500686.200000
204.960500 828974.900000
214.968900 5205968.000000
215.952700 2861333.000000
230.963600 165000.300000
232.979300 2013367.400000
280.109500 58827.000000
364.052900 1828822.500000

>ms2
53.003300 77272.500000
57.975600 94623.100000
61.970600 1533790.900000
63.962400 2135188.800000
64.019300 115596.300000
65.003400 42584.000000
65.027100 90146.300000
65.998500 314191.200000
66.011100 94446.100000
68.014200 175038.800000
68.998300 25010.100000
76.019300 23702.500000
77.003300 405299.100000
77.965500 11199938.000000
78.973300 5267295.000000
79.981200 4091704.800000
80.965100 43722.100000
81.022000 97592.600000
88.019200 167467.500000
89.027100 1316490.400000
90.034900 623683.600000
91.030100 407770.100000
92.014200 770179.300000
92.998200 124344.200000
93.022000 204336.400000
93.960400 421101.400000
94.006000 95855.900000
94.029900 21450.200000
95.013800 40426.100000
98.931300 247118.000000
103.030100 75094.800000
103.990400 114254.000000
105.022000 4940112.000000
106.006000 770569.200000
107.991300 371045.800000
108.021800 22729.400000
108.985000 20932.300000
109.016800 46168.200000
112.980000 81887.800000
113.942200 169464.000000
114.950000 69322.000000
115.030200 439082.000000
116.050600 537960.500000
117.045900 45158.600000
120.009100 285133.900000
120.032900 1254236.100000
120.993100 770749.300000
121.016900 52069.000000
122.001000 67177.800000
122.024800 43379.800000
123.995800 216169.600000
125.003700 1092513.600000
126.011600 1655399.500000
127.990900 47075.100000
130.066200 403737.100000
131.025100 1814776.200000
131.061400 98216.400000
132.032900 2625770.800000
132.081800 395625.900000
133.040800 53045.100000
135.995800 19962.500000
140.998700 205777.000000
141.982700 563998.400000
148.027900 813007.900000
151.006900 1511754.000000
151.990800 213548.400000
152.989100 408687.200000
153.996900 311290.000000
155.004200 24809.000000
157.040700 47990.000000
167.001800 203371.000000
168.009900 66878.900000
168.983900 51409.800000
169.017500 97713.700000
171.056600 47185.200000
173.071900 51838.800000
178.992100 1645671.200000
188.965800 17293460.000000
189.973500 739671.200000
197.002700 119570.700000
204.960500 480339.500000
214.968900 3022815.000000
215.952700 166301.400000
232.979200 112315.700000

>ms2
50.003500 39930.300000
56.980400 88417.200000
57.975700 82596.200000
61.970600 2453163.800000
63.011500 90093.900000
63.962500 2103097.500000
64.019300 146693.400000
65.003300 40439.900000
65.027100 100600.400000
65.998600 203231.100000
66.011100 57320.200000
68.014200 47000.000000
68.998300 18974.200000
76.019200 43475.000000
77.003300 87042.000000
77.965500 16797136.000000
78.973400 8811160.000000
79.981200 2800170.000000
80.965300 93991.600000
81.975700 47969.900000
88.019300 641317.800000
89.027100 1527416.500000
90.034900 607537.900000
91.030200 606715.200000
92.014200 395831.300000
93.022000 55476.500000
93.960400 691072.200000
98.931300 78083.500000
103.030200 152461.600000
103.990300 20318.100000
104.014300 23915.200000
105.022000 2308066.000000
106.006100 254869.300000
107.991300 328242.300000
108.985100 97262.200000
113.942200 50964.700000
115.030200 1128175.600000
116.050600 587356.600000
117.045700 48628.500000
119.024900 41963.400000
120.009100 192345.700000
120.032900 609501.100000
120.993000 152991.800000
122.024800 46989.700000
123.995900 303234.000000
125.003700 595754.900000
126.011600 240270.600000
130.066200 416497.900000
131.025100 1607540.100000
132.032900 358959.100000
132.081800 135723.700000
133.040800 17743.400000
135.995900 47745.000000
140.998700 169061.900000
141.982600 110581.100000
148.027900 139179.300000
151.006900 1128735.600000
151.991000 41724.500000
152.989000 72865.800000
153.997000 162717.300000
157.040900 20093.000000
167.001900 16948.800000
171.056000 18723.300000
178.992100 1021390.100000
188.965700 4138288.800000
189.973900 103035.300000
204.960700 148437.000000
214.968800 539738.200000

>ms2
50.003500 53629.600000
56.980400 125782.000000
57.975700 78739.300000
61.970600 3518493.800000
63.011500 163670.200000
63.962500 3303155.500000
65.027200 54581.800000
65.998500 126332.300000
68.014200 42713.700000
76.019300 20722.300000
77.965500 18945338.000000
78.973300 10903052.000000
79.981200 1917059.400000
80.965100 111428.500000
81.975700 62590.600000
88.019200 1268649.400000
89.027100 1056461.600000
90.034900 447849.500000
91.030200 505391.200000
92.014200 161604.900000
92.998100 20211.000000
93.960400 968058.000000
103.030100 145040.700000
105.022000 983553.900000
106.006000 19872.400000
107.991300 212741.400000
108.985000 133990.200000
115.030200 1301993.800000
116.050600 738895.300000
119.025000 45118.100000
120.009100 78041.400000
120.032900 131011.000000
120.993000 39405.800000
123.995900 289976.500000
125.003700 167688.600000
126.011600 21643.700000
130.066100 404896.200000
131.025100 847911.700000
132.032700 47847.800000
140.998700 48031.700000
151.006900 369361.800000
153.996800 54997.800000
178.992100 289394.700000
188.965700 603703.800000
214.968500 59063.100000

>ms2
50.003500 153193.300000
56.980400 187990.900000
57.975700 53128.600000
61.970600 5387989.000000
63.011400 238966.300000
63.962500 7749854.000000
65.998600 63306.900000
68.014200 17340.400000
76.019200 18989.100000
77.965500 16247895.000000
78.973300 8104357.000000
79.981200 704986.200000
80.965100 95426.900000
81.975700 74628.400000
88.019200 1581548.600000
89.027100 161105.700000
90.034900 216669.900000
91.030100 192725.500000
92.014200 41453.600000
93.960400 762815.400000
103.030000 17647.000000
105.022100 106820.200000
107.991300 37905.300000
108.985100 49493.400000
115.030200 679126.000000
116.050600 492531.700000
119.025100 43882.100000
123.996000 81194.600000
129.058300 46052.400000
130.066300 153609.100000
131.025100 96446.400000

>ms2
50.003500 185737.400000
56.980400 125696.900000
57.975700 22963.600000
61.970600 6609434.500000
63.011500 158950.700000
63.962400 13598453.000000
65.998600 65122.000000
77.965500 11019015.000000
78.973300 3567432.000000
79.981200 235156.500000
80.965100 37178.900000
81.975600 42042.700000
88.019200 723173.500000
90.034900 54795.400000
91.030100 69643.600000
93.960400 420567.000000
115.030200 184567.000000
116.050700 168902.900000
129.058200 14107.700000
130.066000 55451.600000

>ms2
50.003500 156457.800000
56.980400 64413.700000
61.970600 6384228.500000
63.011500 65110.900000
63.962400 15090715.000000
65.998500 38004.700000
77.965500 5959608.000000
78.973300 1109753.800000
79.981200 33963.700000
81.975700 21403.800000
88.019300 262050.800000
90.035000 18611.800000
93.960300 134789.900000
115.030100 46559.000000
116.050600 17416.400000

