>compound EQ48822096
>parentmass 201.0557
>ionization [M-H]-
>formula C12H10O3
>rt 504.000000
>profile orbitrap
#smiles_iso C1=CC=C2C=C(C=CC2=C1)OCC(=O)O
#smiles_can C1=CC=C2C=C(C=CC2=C1)OCC(=O)O
#inchikey RZCJYMOBWVJQGV-UHFFFAOYSA-N
#pubchem_id 8422
#mb_accession EQ371651,EQ371652,EQ371653,EQ371654,EQ371655,EQ371656,EQ371657,EQ371658,EQ371659

>ms2peaks
143.050200 23843952.000000
144.053600 350996.900000
157.065900 1460729.900000
201.055800 2087995.000000

>ms2peaks
142.042500 28487.000000
143.050200 26325070.000000
144.053600 404652.500000
157.065900 1142167.200000
201.055700 699576.900000

>ms2peaks
143.050200 27496782.000000
144.053600 403027.900000
157.065900 631410.400000

>ms2peaks
115.055400 79218.300000
143.050200 27206296.000000
144.053500 368198.500000
157.065900 353173.400000

>ms2peaks
115.055400 790586.800000
143.050200 25275522.000000
144.053600 318051.300000
157.065900 107140.200000

>ms2peaks
115.055400 3093293.200000
116.058900 32836.700000
143.050200 18924780.000000
144.053600 256432.800000
157.065700 22452.100000

>ms2peaks
65.039700 15392.100000
114.047300 14419.200000
115.055400 7351709.000000
116.058700 82395.100000
117.034700 33554.600000
125.039600 48211.200000
141.034500 8186.500000
143.050300 6135859.500000
144.053500 88431.100000

>ms2peaks
65.039700 63925.900000
113.039800 17286.000000
114.047400 6797.100000
115.055400 4466912.000000
116.058800 61473.900000
117.034600 18216.700000
125.039600 31014.500000
141.034800 6238.500000
143.050300 765843.500000
144.053600 14568.700000

>ms2peaks
65.039700 84860.800000
89.039700 4387.700000
113.039800 17131.400000
114.047500 3313.900000
115.055400 1295628.400000
116.058800 17682.700000
117.034800 9655.300000
125.039500 12897.200000
143.050300 66105.200000

