>compound EQ49293680
>parentmass 251.10840000000002
>ionization [M-H]-
>formula C10H16N6S
>rt 120.000000
>profile orbitrap
#smiles_iso CC1=C(N=CN1)CSCCNC(=NC)NC#N
#smiles_can CC1=C(N=CN1)CSCCNC(=NC)NC#N
#inchikey AQIXAKUUQRKLND-UHFFFAOYSA-N
#pubchem_id 2756
#mb_accession EQ372251,EQ372252,EQ372253,EQ372254,EQ372255,EQ372256,EQ372257,EQ372258,EQ372259

>ms2peaks
55.030100 67104.400000
66.009600 31878.100000
97.051900 10872903.000000
123.067700 398225.400000
157.055300 18970458.000000

>ms2peaks
55.030100 182137.700000
66.009500 36211.800000
97.051900 20430484.000000
123.067600 688510.900000
157.055300 6620654.000000

>ms2peaks
55.030100 843306.000000
66.009500 37306.700000
97.051900 21334210.000000
123.067700 673924.100000
157.055300 421272.900000

>ms2peaks
55.030100 1800411.200000
66.009700 59136.800000
76.022600 23258.800000
97.051900 12513036.000000
123.067600 491378.500000

>ms2peaks
55.030100 2481075.200000
66.009800 115902.000000
76.022700 23255.600000
80.025400 20547.700000
97.051900 5014636.500000
121.052000 7879.200000
123.067700 248342.000000

>ms2peaks
55.030100 2335850.500000
66.009800 191615.700000
76.022700 18076.300000
80.025400 20099.700000
97.051900 1464324.500000
121.051900 8545.800000
123.067700 105307.800000

>ms2peaks
55.030100 1273869.000000
66.009800 333920.700000
76.022700 6886.400000
80.025700 4167.200000
97.051900 87353.500000

>ms2peaks
55.030100 619576.400000
66.009800 603342.200000
97.051900 4380.400000

>ms2peaks
55.030100 242535.400000
66.009800 928286.800000

