>compound EQ49566801
>parentmass 179.03500000000003
>ionization [M-H]-
>formula C9H8O4
>rt 330.000000
>profile orbitrap
#smiles_iso CC(=O)OC1=CC=CC=C1C(=O)O
#smiles_can CC(=O)OC1=CC=CC=C1C(=O)O
#inchikey BSYNRYMUTXBXSQ-UHFFFAOYSA-N
#pubchem_id 2244
#mb_accession EQ357851,EQ357852,EQ357853,EQ357854,EQ357855,EQ357856,EQ357857,EQ357858,EQ357859

>ms2
59.013800 107853.400000
93.034500 115315.200000
107.050200 11836.800000
121.029500 5403.300000
135.991300 1596.200000
137.024300 1172072.200000
138.027700 9251.600000
151.039700 1490.300000
179.035000 9538.300000

>ms2
59.013800 121575.500000
93.034500 158245.600000
107.050200 10650.000000
121.029500 6204.900000
137.024300 1118237.900000
138.027700 8258.800000
179.035000 8319.000000

>ms2
59.013800 199417.100000
93.034500 574181.300000
94.038000 4152.800000
107.050300 4399.500000
121.029600 4722.000000
137.024400 596866.600000
138.027800 5323.000000

>ms2
59.013800 237178.700000
65.039700 3558.900000
93.034500 827971.800000
107.050200 861.800000
121.029500 2028.800000
135.045200 3725.500000
137.024400 183566.000000
138.027700 2386.700000

>ms2
59.013800 215127.000000
65.039700 16496.100000
93.034500 823409.400000
137.024300 37235.600000

>ms2
59.013800 166862.900000
65.039700 36544.800000
75.024100 2111.700000
93.034500 668602.200000
94.037900 5816.100000
137.024300 5867.500000

>ms2
59.013800 83371.800000
65.039700 75937.500000
67.019000 1563.600000
75.024100 6869.300000
93.034600 330450.400000

>ms2
59.013800 30376.400000
65.039700 62184.900000
67.018900 1767.400000
75.024000 7555.600000
93.034600 95389.800000
94.038000 515.600000

>ms2
59.013800 10162.900000
65.039700 29137.800000
67.018900 1371.300000
75.024100 2871.000000
93.034500 21762.300000

