>compound EQ49568900
>parentmass 293.94149999999996
>ionization [M-H]-
>formula C7H6ClN3O4S2
>rt 114.000000
>profile orbitrap
#smiles_iso C1=C2C(=CC(=C1Cl)S(=O)(=O)N)S(=O)(=O)N=CN2
#smiles_can C1=C2C(=CC(=C1Cl)S(=O)(=O)N)S(=O)(=O)N=CN2
#inchikey JBMKAUGHUNFTOL-UHFFFAOYSA-N
#pubchem_id 2720
#mb_accession EQ325651,EQ325652,EQ325653,EQ325654,EQ325655,EQ325656,EQ325657,EQ325658,EQ325659

>ms2
293.941600 60286196.000000

>ms2
213.960500 955790.000000
214.968800 637627.600000
293.941500 56828812.000000

>ms2
65.998600 198630.000000
77.965600 121746.400000
79.006300 54824.900000
90.022300 210415.800000
91.006400 40485.400000
106.017100 47018.000000
118.017400 627376.600000
119.001300 408731.600000
119.025100 86200.900000
120.009100 234264.600000
125.999000 60552.300000
126.983000 218293.700000
134.012100 42962.400000
142.977900 34387.700000
146.012300 36603.500000
146.036000 92117.500000
147.020100 62068.500000
149.998300 49011.900000
151.006800 144712.500000
152.986200 159473.700000
154.978000 310201.500000
166.018200 53532.600000
170.972900 47914.500000
178.991800 95735.400000
181.979200 366751.600000
182.987000 570787.100000
192.994800 71501.600000
209.997500 64542.400000
210.981800 99810.900000
213.961100 12409084.000000
214.968900 6359054.000000
216.948300 79746.800000
229.955800 600429.800000
229.979500 284701.900000
257.964600 109940.600000
293.941600 31611286.000000

>ms2
50.003500 27582.600000
63.011500 43475.000000
63.962500 30438.900000
65.998600 458436.800000
67.006400 32387.000000
77.965500 308909.600000
79.006400 87271.900000
81.975700 29504.400000
82.983600 40777.300000
89.998500 44641.700000
90.022400 412265.600000
91.006400 110534.300000
93.009500 64784.200000
95.001300 37708.900000
98.931300 38738.400000
106.017300 56218.000000
113.014600 32753.400000
114.022300 148266.300000
115.030200 150899.700000
118.017400 1255439.900000
119.001300 800304.400000
119.025100 234841.700000
120.009100 406795.900000
121.994400 28626.200000
122.978500 27232.000000
122.988200 40969.400000
125.999100 108860.600000
126.983100 526537.200000
129.033300 41456.200000
130.017200 86074.400000
134.012200 127281.200000
134.996300 34747.500000
137.999000 40262.500000
138.983000 49302.300000
142.977800 85901.200000
146.012100 103992.900000
146.036000 259164.800000
147.020100 108471.400000
148.991100 84692.100000
149.999000 154136.000000
151.006900 866261.900000
152.986100 258987.500000
154.978100 648247.700000
162.950000 30384.300000
165.984100 25236.900000
165.994000 52162.200000
167.001400 24922.700000
170.973100 71773.200000
172.988300 29369.800000
177.984300 95606.300000
178.992100 1353738.100000
180.981100 64466.500000
181.979200 702155.800000
182.987000 1132167.900000
185.973800 51548.000000
192.995100 247407.500000
201.961500 62685.100000
209.974100 28235.800000
209.997900 70220.400000
210.982000 181651.700000
213.961000 24403026.000000
214.968900 7510092.000000
216.947900 277850.400000
229.955800 1093143.500000
229.979300 237364.800000
257.964400 52060.300000
293.941800 5423424.000000

>ms2
50.003500 42299.200000
57.975700 45650.000000
61.970700 27585.800000
63.011500 89294.600000
63.962500 37041.300000
64.006700 72533.600000
65.014500 55826.400000
65.998600 431233.200000
77.965500 267297.200000
79.006400 55230.400000
81.975700 80424.000000
82.983600 63329.500000
87.011300 62490.900000
89.014600 36911.300000
89.998500 97998.100000
90.022300 392118.900000
91.006300 116174.300000
91.030100 23814.500000
93.009400 48669.000000
94.983600 32043.100000
95.001300 29088.200000
98.988100 47522.000000
102.022400 24528.900000
106.017300 39220.000000
113.014600 336681.400000
114.022400 970142.300000
115.030200 740823.700000
118.017400 885385.400000
119.001300 519203.300000
119.025100 273840.800000
120.009200 280551.000000
121.994400 75165.400000
122.978500 34116.300000
122.988200 208137.200000
125.999100 92663.100000
126.983100 369595.600000
129.033300 99539.600000
130.017300 409436.800000
134.012200 81670.400000
137.999100 28320.800000
138.983100 191416.400000
142.978200 53126.400000
146.012000 63213.400000
146.036100 147758.300000
147.020100 100679.400000
148.991200 484912.800000
149.999100 307894.800000
151.006900 1467428.400000
152.986200 203872.900000
153.984400 27086.200000
154.978100 437314.400000
162.950200 100982.900000
165.994100 67528.100000
167.001800 33299.100000
170.973000 41794.000000
172.988200 26639.300000
177.984300 470407.000000
178.992200 9343533.000000
180.981200 52357.300000
181.979200 562617.700000
182.987000 891815.000000
192.995000 241768.500000
201.961300 78507.200000
210.982000 171386.500000
213.961000 17329136.000000
214.968900 3318028.500000
216.948100 341263.200000
229.955800 695720.900000
293.941800 275217.600000

>ms2
50.003600 49797.200000
57.975700 62021.300000
61.970600 34941.800000
63.011500 115214.700000
63.962400 26683.600000
64.006700 108071.700000
64.019300 58361.800000
65.014500 135719.500000
65.998600 258297.000000
74.003700 27982.600000
75.011400 22635.900000
77.965500 235133.100000
81.975700 57856.000000
82.983500 29212.900000
87.011400 226830.400000
88.019300 92704.000000
89.014400 45079.800000
89.998500 117879.400000
90.022400 140201.400000
91.006300 82489.600000
91.030300 26487.600000
106.017300 23864.700000
108.986600 23279.200000
113.014600 1284513.500000
114.022400 1362862.100000
115.030200 1428946.400000
117.009600 29331.100000
118.017400 279084.000000
119.001300 162041.000000
119.025000 198553.700000
120.009200 83568.800000
121.994500 69394.500000
122.988200 341395.100000
125.998900 33916.100000
126.983100 146027.300000
129.033400 117128.400000
130.017200 357134.000000
134.012100 33178.300000
138.983100 214305.000000
142.977800 25194.900000
146.036000 44456.300000
147.020000 38846.900000
148.991200 840024.100000
149.999100 223251.000000
151.006900 883193.500000
152.986400 41596.000000
154.978200 123516.100000
162.949900 43470.300000
165.994000 45206.100000
177.984300 746577.600000
178.992200 18368146.000000
181.979100 141408.000000
182.987000 314186.300000
192.995000 92007.000000
201.961200 27799.700000
210.981800 49812.600000
213.961100 5620591.000000
214.968900 779395.600000
216.948000 163338.800000
229.956000 190424.800000

>ms2
50.003600 154593.800000
56.980400 128115.700000
57.975700 96938.400000
60.000500 34535.400000
61.970700 29943.000000
63.011500 60263.300000
63.962500 46516.300000
64.006700 70887.200000
64.019300 476974.000000
65.014600 599278.400000
65.998500 166140.900000
74.003700 43074.000000
76.019300 41629.200000
77.965600 167081.700000
80.980400 33343.100000
81.975800 44769.400000
86.003700 163728.000000
87.011400 705428.700000
88.019300 848937.400000
89.014500 123103.300000
89.998500 34025.500000
91.006200 24676.800000
101.965500 90507.700000
105.975700 21200.800000
107.991300 23523.000000
108.986700 104420.300000
113.014600 1987502.900000
114.022400 486270.300000
115.030300 3242726.500000
119.025200 38118.500000
120.009000 12451.700000
122.988200 94969.800000
129.033300 30344.100000
130.017300 56616.100000
138.983300 38615.000000
148.991200 282699.000000
151.006900 86550.500000
177.984300 211155.700000
178.992200 11273633.000000
213.960900 78251.800000

>ms2
50.003600 377470.200000
56.980400 168183.400000
57.975700 121697.200000
60.000600 114744.100000
61.008400 43715.600000
61.970600 55338.700000
62.003600 41081.300000
63.011500 32110.800000
63.962500 66538.000000
64.006700 122199.600000
64.019300 595184.600000
65.014600 988587.200000
65.998600 100782.500000
71.967600 4504.300000
73.008500 19241.300000
74.003800 81230.000000
76.019400 32461.900000
77.003400 4700.100000
77.965500 102846.500000
80.980500 29231.400000
81.975800 60945.700000
86.003700 384879.900000
87.011400 551586.400000
88.006800 56119.800000
88.019300 930259.500000
89.014500 224831.600000
89.998600 8072.100000
90.022200 7801.800000
92.014300 10442.100000
101.965500 98970.500000
105.975700 16847.400000
108.986600 45465.300000
112.006800 56206.100000
113.014600 864700.800000
114.022400 117112.600000
115.030200 1819987.900000
119.025000 7346.000000
120.009100 5652.500000
122.988200 5953.100000
130.017100 26207.700000
148.991200 25598.700000
177.984100 11157.500000
178.992200 1409088.600000

>ms2
50.003600 599337.000000
56.980500 97616.000000
57.975700 73574.100000
60.000600 140959.900000
61.008400 46647.100000
61.970700 94814.600000
62.003700 68000.500000
63.011400 24214.600000
63.962500 83917.400000
64.006700 144673.500000
64.019300 276754.200000
65.014600 788473.100000
65.998600 80219.000000
71.967600 4505.500000
73.008400 22122.200000
74.003700 102759.600000
76.019400 7392.500000
77.003500 10022.600000
77.965500 52523.200000
80.980400 18322.600000
81.975900 15853.900000
86.003700 277688.100000
87.011400 253916.400000
88.006700 86298.900000
88.019300 321771.900000
89.014500 163148.400000
101.965600 35066.000000
105.975800 10831.200000
107.990900 5022.800000
108.986500 5334.200000
112.006900 50423.400000
113.014600 218183.300000
114.022200 39311.700000
115.030300 357103.800000
178.992300 58343.000000

