>compound EQ50357440
>parentmass 368.0686
>ionization [M-H]-
>formula C16H14F3N3O2S
>rt 444.000000
>profile orbitrap
#smiles_iso CC1=C(C=CN=C1CS(=O)C2=NC3=CC=CC=C3N2)OCC(F)(F)F
#smiles_can CC1=C(C=CN=C1CS(=O)C2=NC3=CC=CC=C3N2)OCC(F)(F)F
#inchikey MJIHNNLFOKEZEW-UHFFFAOYSA-N
#pubchem_id 3883
#mb_accession EQ313751,EQ313752,EQ313753,EQ313754,EQ313755,EQ313756,EQ313757,EQ313758,EQ313759

>ms2peaks
149.017800 2408381.000000
164.005000 100542920.000000
165.012800 409248.600000

>ms2peaks
149.017800 1264071.900000
164.005000 132845224.000000
165.013000 229185.900000

>ms2peaks
106.017200 257370.200000
116.038000 1113079.600000
120.999100 271661.800000
132.032900 1134008.200000
149.017900 836404.600000
162.997200 623161.100000
164.005000 110749328.000000
165.013100 152214.000000

>ms2peaks
57.975700 199607.400000
61.970600 216492.900000
106.017200 916015.600000
115.030100 541838.300000
116.038000 6601474.000000
117.045800 131616.400000
119.025100 87363.700000
120.999100 944482.200000
132.032800 6628549.000000
135.002100 466429.900000
136.009800 322156.300000
148.009800 129316.300000
149.017900 630002.100000
162.997200 2037831.900000
164.005000 78626608.000000

>ms2peaks
57.975700 248870.800000
61.970600 552123.400000
104.038000 83536.100000
106.017200 838211.900000
108.999100 62612.200000
115.030100 1939959.800000
116.038000 10525441.000000
117.045900 271595.400000
119.025100 156064.000000
120.999100 790344.400000
131.025100 79200.800000
132.032900 10441418.000000
135.002300 595130.100000
136.009800 229227.700000
147.020100 105876.600000
148.010100 99881.100000
149.017900 313303.700000
162.997200 2294803.500000
164.005000 30638454.000000

>ms2peaks
56.980400 33994.200000
57.975700 232898.500000
61.970600 692516.800000
64.019100 14033.400000
74.003600 19687.200000
89.027100 26184.600000
92.014100 19451.400000
101.014400 32817.300000
104.038100 188069.100000
106.017200 480137.000000
107.991200 53365.200000
115.030200 3293572.500000
116.038000 6318638.500000
117.045900 272478.900000
119.025000 94674.400000
120.999200 369508.600000
131.025100 34164.000000
132.032900 8011111.500000
135.002200 525282.700000
136.010000 26915.400000
147.019800 75296.600000
148.010200 103707.200000
149.017900 120455.600000
162.997200 1117900.000000
164.005000 7478359.000000

>ms2peaks
50.003500 17701.900000
56.980400 82830.600000
57.975700 224341.800000
61.970600 837509.100000
64.019200 230363.400000
74.003700 64833.700000
88.019100 160242.000000
89.027000 68233.400000
101.014600 26209.400000
104.038000 184924.300000
106.017200 57783.200000
107.991300 23917.600000
108.999100 13175.100000
115.030200 3582750.800000
116.038000 746220.800000
117.045900 150974.000000
120.999100 23513.700000
132.032900 1681513.000000
135.002300 168843.100000
148.009900 16491.300000
162.997200 139132.400000
164.004900 260524.600000

>ms2peaks
50.003500 55739.000000
56.980300 54065.800000
57.975700 155352.500000
61.970600 725258.700000
64.019200 633294.900000
74.003700 134452.100000
88.019200 339080.200000
90.034800 20202.100000
104.037900 27937.900000
107.991300 18050.400000
115.030200 2033955.800000
116.037700 18324.200000
117.045900 17165.400000
132.033000 198971.300000
135.002100 12412.900000

>ms2peaks
50.003600 87458.600000
56.980400 29946.300000
57.975600 246275.600000
61.970600 676943.900000
64.019300 657586.200000
74.003700 186944.700000
88.019200 170000.300000
90.034900 21698.100000
115.030100 716518.500000
132.032900 15833.200000

