>compound EQ51380185
>parentmass 198.0707
>ionization [M-H]-
>formula C8H13N3OS
>rt 438.000000
>profile orbitrap
#smiles_iso CC(C)(C)C1=NN=C(NC1=O)SC
#smiles_can CC(C)(C)C1=NN=C(NC1=O)SC
#inchikey MIWRSUQXSCLDNV-UHFFFAOYSA-N
#pubchem_id 135502804
#mb_accession EQ009151,EQ009152,EQ009153,EQ009154,EQ009155,EQ009156,EQ009157,EQ009158,EQ009159

>ms2peaks
57.975500 1978627.900000
68.001500 1378488.900000
198.070500 801207936.000000

>ms2peaks
68.001400 2007708.000000
94.004400 884873.800000
183.047600 1430649.100000
198.070500 755326400.000000

>ms2peaks
56.001500 1108252.500000
57.975600 16804546.000000
59.991400 821789.300000
68.001600 15155552.000000
70.983600 860723.200000
71.978900 695411.200000
71.991400 1352053.400000
87.002100 1701786.500000
94.004600 9413236.000000
97.065800 6948939.000000
127.087600 1150860.900000
136.051500 3294884.800000
152.083000 1828920.100000
156.049100 666337.800000
168.023900 702293.400000
183.047100 9566416.000000
198.070500 554194176.000000

>ms2peaks
56.001600 1599900.600000
57.975700 36554528.000000
59.991400 1184237.500000
68.001600 24117326.000000
69.009500 371399.000000
70.983600 1420668.600000
71.978800 2978735.000000
71.991400 1413237.500000
87.002200 2521820.200000
94.004600 18425930.000000
97.065800 11902097.000000
113.005300 184548.500000
125.976800 391847.000000
127.087500 606679.200000
136.051500 10124036.000000
152.083000 1847186.100000
156.048700 494702.800000
165.090800 396949.600000
168.023700 3451960.800000
182.039300 691265.300000
183.047100 10904981.000000
198.070700 176791136.000000

>ms2peaks
56.001600 1303769.400000
57.975700 46480444.000000
59.991300 953513.600000
68.001600 16706217.000000
69.009500 420837.900000
70.983600 1084986.200000
71.978800 5981747.500000
71.991400 566805.900000
81.034500 554034.400000
87.002200 2091024.600000
94.004700 14114359.000000
97.065800 8890429.000000
113.005200 133058.200000
125.976700 282519.800000
136.051500 9747112.000000
150.067000 115749.100000
152.082900 743547.700000
165.090600 109275.900000
168.023600 3834369.200000
182.039400 915317.600000
183.047100 3783659.800000
198.070600 27851018.000000

>ms2peaks
56.001600 896301.100000
57.975700 52225708.000000
59.991400 703097.600000
68.001600 9074952.000000
69.009500 160950.400000
70.983600 707081.600000
71.978800 7676810.500000
81.034600 1001927.900000
87.002200 802787.200000
94.004700 7887701.500000
97.065800 5212352.000000
125.976800 98215.200000
136.051500 4046765.000000
152.083200 97400.500000
168.023700 1916110.200000
182.039200 1101948.500000
183.047200 543539.900000
198.070600 3114168.000000

>ms2peaks
56.001600 167205.400000
57.975700 65428560.000000
59.991300 322849.400000
68.001600 2443523.800000
69.009600 87629.000000
70.983600 165332.500000
71.978800 9328607.000000
81.034600 810601.900000
87.002200 156110.500000
94.004700 1411347.600000
97.065800 1316667.200000
136.051600 110294.800000
182.039600 159135.300000

>ms2peaks
57.975700 61876296.000000
59.991300 280625.100000
68.001600 391132.300000
71.978800 5931621.500000
81.034600 560685.500000
94.004800 80203.800000
97.065900 95148.100000

>ms2peaks
57.975700 69239496.000000
71.978800 3233909.800000
81.034500 80139.100000

