>compound EQ51665395
>parentmass 723.4689
>ionization [M-H]-
>formula C40H68O11
>rt 1182.000000
>profile orbitrap
#smiles_iso CC1CCC(OC1C(C)C(=O)O)CC2CC(C(C3(O2)C(CC(O3)(C)C4CCC(O4)(C)C5C(CC(O5)C6C(CC(C(O6)(CO)O)C)C)C)C)C)OC
#smiles_can CC1CCC(OC1C(C)C(=O)O)CC2CC(C(C3(O2)C(CC(O3)(C)C4CCC(O4)(C)C5C(CC(O5)C6C(CC(C(O6)(CO)O)C)C)C)C)C)OC
#inchikey DANUORFCFTYTSZ-UHFFFAOYSA-N
#pubchem_id 4490
#mb_accession EQ368251,EQ368252,EQ368253,EQ368254,EQ368255,EQ368256,EQ368257,EQ368258,EQ368259

>ms2
723.468900 4849195.000000

>ms2
57.034500 9992.100000
73.029600 8387.000000
85.029400 5335.000000
87.045100 136107.000000
99.045100 16493.600000
101.060700 127208.200000
111.081400 9280.300000
113.060900 10328.300000
123.081600 3396.700000
125.097100 3374.800000
139.076300 6331.700000
141.092200 11242.700000
151.112900 6712.700000
153.092100 29694.100000
165.091800 4292.200000
171.102700 5296.300000
177.128400 3656.300000
189.164800 6693.000000
191.144200 7030.600000
195.139100 5723.400000
197.154700 4609.800000
201.113300 8067.800000
213.149900 9612.100000
279.196400 3889.900000
297.206900 4638.000000
377.268800 3412.900000
439.270200 31980.700000
723.468800 1866173.200000

>ms2
55.018900 5859.000000
57.034600 150561.900000
58.006000 28197.200000
59.013800 14643.500000
59.050200 1579.400000
69.034700 11381.900000
71.013900 21649.800000
71.050300 34294.900000
72.021700 2013.400000
73.029600 73168.900000
81.034600 14709.800000
83.050200 16020.000000
84.021700 1890.900000
85.029500 57582.900000
85.065900 17602.400000
86.037400 3520.400000
87.045100 834612.200000
93.034400 857.200000
93.071000 1615.200000
95.050200 10617.100000
97.029400 1055.100000
97.065800 20653.000000
98.037400 3427.800000
99.045100 113465.200000
99.081600 10038.400000
101.060800 725366.100000
107.050200 7424.500000
107.086600 1508.100000
109.065800 22271.100000
111.045200 11004.000000
111.081500 93890.500000
113.060900 33137.400000
113.097200 10002.700000
115.076500 6649.600000
121.065800 11614.900000
123.045300 3152.400000
123.081600 30438.200000
125.060900 7303.600000
125.097200 23238.900000
127.076400 33912.600000
129.055800 2756.500000
129.092200 10663.200000
133.066000 1100.300000
133.102500 1958.900000
135.081600 22632.000000
136.052800 969.900000
137.060800 4151.600000
137.097200 16270.600000
139.076500 32693.800000
139.112800 6935.300000
141.092200 68443.500000
143.107700 7359.200000
147.081600 4783.900000
149.097200 12666.300000
151.076500 14420.400000
151.112900 74936.200000
153.092200 111263.200000
155.107900 5422.700000
157.086800 6537.300000
159.102800 5093.700000
159.117700 2722.500000
161.097300 3555.200000
161.133600 3867.800000
163.112900 8423.100000
164.084200 1208.900000
165.092100 21394.900000
165.128400 11098.000000
167.107500 6415.800000
171.102300 6376.200000
173.118600 6329.200000
175.112600 7901.000000
177.128500 32972.900000
179.107900 3280.500000
179.144000 8920.800000
183.102900 1217.100000
183.139200 4072.800000
188.105400 11520.300000
189.128500 3349.300000
189.164900 9715.000000
191.144100 25183.600000
193.123800 5546.900000
195.138900 11542.200000
197.154600 12583.000000
201.113100 3745.700000
213.150000 12494.300000
217.159600 7059.000000
219.175500 7364.100000
267.160400 3675.700000
267.196400 847.400000
279.197100 3472.200000
297.207200 1993.200000
339.218100 5219.200000
359.259600 1047.000000
377.270500 1095.000000
395.280000 899.300000
439.270100 25145.100000
723.468600 28951.200000

>ms2
55.018900 13486.100000
57.034600 177697.300000
58.006000 29426.200000
59.013800 15041.800000
69.034600 10750.700000
71.013900 19353.400000
71.050300 44896.600000
72.021800 4471.900000
73.029600 48160.100000
79.055300 1040.500000
81.034600 10626.500000
83.050300 17000.000000
84.021700 1509.500000
85.029500 61422.700000
85.065900 14086.000000
86.037400 1115.100000
87.045100 397640.800000
93.034600 1120.800000
93.071000 3494.000000
94.042500 905.700000
95.050200 12891.300000
97.029400 1336.400000
97.065800 26602.500000
98.037300 1755.300000
99.045100 49037.600000
99.081500 12537.900000
101.060800 251515.900000
105.071000 1342.800000
107.050200 10791.600000
107.086500 1185.400000
109.065800 29769.800000
111.045100 12646.000000
111.081500 73226.200000
113.060900 11919.900000
113.097100 6771.400000
115.076400 1106.100000
120.058000 1545.700000
121.065900 16667.900000
123.045300 2900.800000
123.081600 29921.600000
125.060800 4708.600000
125.097000 18071.400000
127.076300 12876.100000
129.055800 2816.100000
129.092200 5475.300000
133.065900 1366.600000
133.102200 1468.900000
135.081600 27479.400000
136.052900 776.200000
137.060700 6803.800000
137.097000 9490.100000
138.068400 1203.600000
139.076400 12265.600000
139.112700 1604.000000
141.092100 21914.300000
143.107600 1682.800000
147.081500 3134.700000
149.097200 14358.600000
151.076500 7861.800000
151.112900 24439.600000
153.092100 36844.500000
159.102200 744.600000
159.117400 1340.300000
161.096900 2851.600000
161.133200 1015.300000
163.112800 3490.000000
164.084200 894.900000
165.091800 6055.900000
165.128600 5318.800000
167.107400 982.100000
175.112500 5931.300000
177.128300 12290.800000
179.106900 802.200000
179.144600 856.600000
189.128200 763.500000
191.143900 4240.600000
193.123100 858.900000
195.138800 1502.400000
217.159600 1245.900000
219.175200 1357.200000

>ms2
55.018900 20104.600000
57.034600 172596.700000
58.006000 27105.100000
59.013800 13345.000000
59.050200 1629.700000
61.988300 857.700000
65.039600 1219.700000
69.034600 9941.600000
71.013900 11136.900000
71.050300 36635.100000
72.021800 1086.500000
73.029600 25402.200000
79.055200 1079.700000
80.026800 595.500000
81.034500 6701.400000
83.050300 13577.500000
84.021600 1554.000000
85.029500 40074.600000
85.065800 8794.600000
87.045100 130980.700000
93.034700 1441.000000
93.071000 1397.800000
94.042400 1191.200000
95.050200 15750.400000
97.065800 20252.200000
99.045100 22772.700000
99.081500 8032.000000
101.060700 51376.700000
105.071000 1344.800000
107.050200 9135.300000
109.065800 24923.200000
111.045200 8477.000000
111.081500 39529.500000
113.061000 3025.600000
113.097200 4781.500000
120.058100 1182.800000
121.065900 14990.700000
122.037300 796.400000
123.081600 20952.600000
125.061000 2859.400000
125.097200 8745.500000
127.076700 1452.300000
133.066300 1049.700000
133.102300 1122.600000
134.074000 692.300000
135.081600 21520.100000
136.053200 1017.400000
137.060600 5473.200000
137.097300 4378.000000
139.076600 3488.500000
141.092300 3326.200000
147.081700 1037.700000
149.097100 7687.000000
151.076300 4932.200000
151.113000 4367.300000
153.092200 7052.500000
161.096700 1120.100000
163.112800 1626.900000
165.128500 1135.800000
175.113000 3387.600000
177.128500 1692.700000

>ms2
55.018900 19147.300000
57.034600 104034.800000
58.006000 18614.000000
59.013800 8246.300000
65.039800 1159.500000
67.018900 1032.000000
69.034600 9301.300000
71.013900 5258.200000
71.050300 16823.000000
73.029600 9964.000000
80.026700 740.900000
81.034500 4164.200000
83.050300 9867.300000
85.029500 21153.100000
85.065900 3220.800000
87.045100 31811.000000
93.034600 3205.200000
93.070900 1477.900000
95.050200 13815.300000
97.065900 7950.900000
99.045200 7108.100000
99.081500 3880.800000
101.060800 6624.100000
105.070900 763.400000
107.050200 7288.400000
109.065800 16296.300000
111.045200 3600.000000
111.081500 15012.900000
113.060800 1080.500000
120.058000 906.100000
121.065900 12060.300000
122.037300 1068.800000
123.045000 958.000000
123.081600 6365.400000
125.060500 1001.400000
125.097200 1360.900000
133.065700 1209.800000
135.081500 8933.600000
137.060600 3576.000000
137.096900 1544.800000
141.092100 777.900000
147.081500 1198.500000
149.097100 1322.700000
151.076600 1099.500000

>ms2
55.018900 16239.200000
57.034600 30841.700000
58.006100 5231.700000
59.013800 976.400000
65.039600 971.600000
67.018900 672.300000
69.034700 2585.500000
71.014000 1028.900000
71.050300 3634.100000
79.055400 1010.800000
81.034500 648.500000
83.050200 738.400000
85.029400 3370.900000
87.045100 1326.700000
93.034500 649.300000
95.050200 3649.300000
97.065800 931.400000
107.050300 2875.300000
109.065900 3065.800000
121.065900 4193.800000
123.045400 722.200000
137.061000 812.800000

>ms2
55.018900 13072.200000
57.034600 11884.500000
58.006000 2681.600000
59.013900 776.400000
65.039700 795.900000
67.019000 767.700000
69.034500 717.200000
71.050200 824.000000
93.034500 836.200000
95.050300 1094.600000
99.045400 648.700000
107.050000 888.300000
109.065900 1007.000000
121.066000 1383.600000

>ms2
55.018900 12851.400000
57.034600 12991.000000
58.006000 714.400000
59.013800 1094.700000
61.988400 754.800000
65.039600 764.900000
67.018900 2431.900000
69.034600 1007.300000
93.034600 1286.700000
95.050300 949.500000
109.065800 931.900000
121.065900 795.500000

