>compound EQ54102283
>parentmass 298.943
>ionization [M-H]-
>formula C4HF9O3S
>rt 468.000000
>profile orbitrap
#smiles_iso C(C(C(F)(F)S(=O)(=O)O)(F)F)(C(F)(F)F)(F)F
#smiles_can C(C(C(F)(F)S(=O)(=O)O)(F)F)(C(F)(F)F)(F)F
#inchikey JGTNAGYHADQMCM-UHFFFAOYSA-N
#pubchem_id 67815
#mb_accession EQ367551,EQ367552,EQ367553,EQ367554,EQ367555,EQ367556,EQ367557,EQ367558,EQ367559

>ms2
79.957400 4214566.500000
298.943200 1058720896.000000

>ms2
79.957200 16213742.000000
82.960900 2474786.800000
98.955800 8707157.000000
118.992700 979138.900000
168.989600 1747807.900000
298.943200 952700096.000000

>ms2
79.957500 197299920.000000
82.960900 17921168.000000
84.990700 2587745.800000
98.955900 96841824.000000
118.992700 5266230.000000
168.989600 7617254.000000
218.986200 1856697.600000
298.943400 420731776.000000

>ms2
68.995800 567836.400000
79.957500 398312896.000000
82.960900 18147708.000000
84.990700 2112202.500000
98.955900 148139792.000000
118.992700 3069118.200000
168.989700 2018462.400000
218.986400 432086.800000
298.943400 42306940.000000

>ms2
68.995900 1376077.500000
79.957400 419006944.000000
82.960900 9763985.000000
84.990600 790105.800000
98.955800 133149024.000000
118.992700 474001.400000
298.943300 1403106.900000

>ms2
68.995900 1494194.900000
79.957500 349549824.000000
82.961000 4064693.200000
98.955900 92357248.000000

>ms2
68.995900 1503399.000000
79.957500 235648032.000000
82.960900 820689.100000
98.955900 49102152.000000

>ms2
63.962500 1356451.200000
68.995900 777342.100000
79.957500 137244624.000000
98.955900 20075022.000000

>ms2
63.962500 3196950.200000
79.957500 81218112.000000
98.955900 6686289.000000

