>compound EQ55094979
>parentmass 310.0043
>ionization [M-H]-
>formula C14H11Cl2NO3
>rt 624.000000
>profile orbitrap
#smiles_iso C1=CC(=C(C(=C1)Cl)NC2=C(C=C(C=C2)O)CC(=O)O)Cl
#smiles_can C1=CC(=C(C(=C1)Cl)NC2=C(C=C(C=C2)O)CC(=O)O)Cl
#inchikey VNQURRWYKFZKJZ-UHFFFAOYSA-N
#pubchem_id 3052566
#mb_accession EQ340351,EQ340352,EQ340353,EQ340354,EQ340355,EQ340356,EQ340357,EQ340358,EQ340359

>ms2
230.037600 366837.500000
266.014400 95897592.000000

>ms2
166.066400 97162.000000
167.050200 146607.300000
194.061100 1459725.200000
215.014400 548354.200000
228.022300 187451.000000
229.030000 666875.100000
230.037800 6916388.000000
230.951900 74618.000000
266.014600 45847768.000000

>ms2
166.066200 633256.500000
167.050200 663851.600000
187.019500 150652.900000
188.027400 15834.400000
192.045200 99361.900000
193.053400 157625.400000
194.061100 2836418.500000
198.055800 73447.100000
200.027800 19129.500000
202.043600 40479.700000
215.014500 1591668.500000
228.022400 170616.900000
229.030000 2394798.200000
230.037800 4336794.000000
230.951800 22155.100000
266.014500 2822978.500000

>ms2
123.995900 51400.000000
166.066200 821610.600000
167.050300 672231.700000
179.037600 91171.600000
187.019400 163915.300000
188.027300 27159.500000
192.045600 445398.600000
193.053300 261861.400000
194.061100 1635570.800000
198.055900 19156.400000
200.027400 18371.400000
202.042800 15482.400000
215.014500 868561.900000
228.022300 164719.400000
229.030000 1549143.400000
230.037800 592185.600000
266.015200 23177.700000

>ms2
123.995900 91163.600000
164.050400 12926.500000
166.066200 466331.900000
167.050300 352275.900000
179.037700 181686.400000
187.019700 55332.100000
192.045500 548617.600000
193.053200 233985.200000
194.061100 493173.900000
215.014400 192826.100000
228.022100 114995.200000
229.030000 255254.100000
230.036900 16377.600000

>ms2
90.035100 10087.200000
123.995800 96257.400000
140.050300 22974.900000
151.042500 28477.700000
164.050800 47028.900000
166.066100 179014.700000
167.049900 118943.800000
179.037800 101681.000000
192.045600 504322.500000
193.053200 229708.800000
194.061100 111412.800000
228.021900 28634.200000

>ms2
90.035000 12089.100000
123.995900 54778.800000
140.050400 10826.600000
151.042500 12362.900000
164.050500 151849.400000
192.045300 86581.500000
193.053400 26324.500000

>ms2
164.050500 48936.500000

>ms2
164.050400 12802.800000

