>compound EQ56446150
>parentmass 162.0309
>ionization [M-H]-
>formula C7H5N3O2
>rt 228.000000
>profile orbitrap
#smiles_iso C1=CC2=NNN=C2C=C1C(=O)O
#smiles_can C1=CC2=NNN=C2C=C1C(=O)O
#inchikey GUOVBFFLXKJFEE-UHFFFAOYSA-N
#pubchem_id 72917
#mb_accession EQ318451,EQ318452,EQ318453,EQ318454,EQ318455,EQ318456,EQ318457,EQ318458,EQ318459

>ms2
90.034900 2015184.100000
117.033100 253869.000000
118.041100 93413928.000000
162.030900 231676976.000000

>ms2
90.034800 2004527.000000
118.041100 89720072.000000
162.030900 229273376.000000

>ms2
50.003500 251420.900000
90.034900 13701119.000000
91.030100 208388.000000
118.041100 199622720.000000
162.031000 110232320.000000

>ms2
50.003500 1140533.000000
64.019200 250540.900000
90.034900 32312560.000000
91.030200 485569.400000
118.041100 197955968.000000
162.031000 29075338.000000

>ms2
50.003600 4288977.500000
64.019300 854986.400000
90.034900 48108256.000000
91.030200 536573.600000
118.041100 139620480.000000
162.030900 5711834.000000

>ms2
50.003600 11595256.000000
64.019300 1414768.200000
88.019200 158443.700000
90.034900 46114884.000000
91.030100 427852.900000
118.041100 77494448.000000
162.031000 1160780.200000

>ms2
50.003600 21116646.000000
63.024000 141876.800000
64.019300 2264176.500000
65.003200 176698.000000
65.014500 42213.100000
88.019200 66925.700000
89.003200 36883.500000
90.034900 18063524.000000
91.030100 195322.200000
118.041200 12599881.000000

>ms2
50.003600 21043158.000000
61.008400 48049.600000
62.003700 36277.000000
63.024100 72362.700000
64.019300 1775508.900000
65.003400 140819.300000
65.014600 42474.900000
65.998600 66250.900000
88.019300 248802.200000
89.003400 62545.200000
90.034900 4371728.500000
91.030300 38649.900000
118.041200 1235166.200000

>ms2
50.003600 17723984.000000
61.008300 60689.300000
62.003700 40039.900000
64.019300 970355.600000
65.003200 122619.700000
65.998500 69372.700000
88.019300 283863.300000
90.034900 1021861.800000
118.041000 129005.200000

