>compound EQ56644231
>parentmass 525.0707000000001
>ionization [M-H]-
>formula C30H23BrO4
>rt 918.000000
>profile orbitrap
#smiles_iso C1=CC=C(C=C1)C(CC(C2=CC=C(C=C2)C3=CC=C(C=C3)Br)O)C4=C(C5=CC=CC=C5OC4=O)O
#smiles_can C1=CC=C(C=C1)C(CC(C2=CC=C(C=C2)C3=CC=C(C=C3)Br)O)C4=C(C5=CC=CC=C5OC4=O)O
#inchikey OWNRRUFOJXFKCU-UHFFFAOYSA-N
#pubchem_id 54680085
#mb_accession EQ365651,EQ365652,EQ365653,EQ365654,EQ365655,EQ365656,EQ365657,EQ365658,EQ365659

>ms2
525.070600 7955471.500000

>ms2
60.993100 6635.200000
78.918900 417327.400000
93.034600 261410.100000
117.034600 11448.600000
121.029400 15715.800000
135.045100 30969.000000
137.024400 248391.900000
145.029600 8848.900000
153.071100 8494.000000
161.024500 95106.500000
169.066000 7655.700000
181.066100 23415.200000
187.040000 5742.900000
197.060800 15979.300000
199.076500 22778.000000
207.081700 12143.300000
219.081600 5855.600000
221.097100 46979.900000
223.076400 82694.600000
225.056000 8624.200000
237.092100 48580.700000
247.076300 5648.600000
249.091900 22036.800000
250.063600 541078.500000
251.071300 52861.100000
260.992000 44831.400000
263.071500 31396.100000
265.087000 47058.300000
272.992200 70385.400000
274.971300 7215.200000
275.071400 41928.200000
349.023200 8907.900000
361.059900 40502.700000
363.002400 7712.000000
375.038400 6391.500000
387.039200 40183.200000
405.049100 10314.000000
463.070300 75947.600000
479.065100 6982.800000
489.050300 21863.400000
507.059900 61474.500000
525.070800 5578509.000000

>ms2
60.993100 16489.400000
65.039700 2582.400000
78.918900 1886236.000000
92.026300 2012.900000
93.034600 802169.000000
101.039700 2435.000000
108.021600 5824.700000
115.055400 7941.000000
117.034700 120428.200000
119.050200 10515.300000
121.029500 22681.800000
130.042400 20355.400000
131.050400 5260.800000
133.029400 8341.900000
135.045200 96238.900000
137.024400 260446.000000
141.071000 37013.100000
143.050100 25130.000000
145.029500 12672.600000
145.065900 14325.500000
147.045300 16230.400000
153.070800 11674.300000
159.045100 2232.800000
161.024500 197876.200000
163.040200 2505.300000
169.065900 11736.200000
173.060800 21647.000000
179.086700 11400.000000
181.066000 60408.200000
187.040000 50455.900000
191.086500 6306.400000
193.102000 2372.100000
195.081500 53975.500000
197.060800 38946.900000
199.076500 56468.700000
205.065900 5954.300000
206.073700 87072.400000
207.081500 106943.100000
209.097000 2544.200000
219.081600 127745.400000
221.061000 15997.100000
221.097300 177878.100000
222.068700 29874.900000
223.076600 110399.500000
225.055900 22105.300000
231.081800 2579.100000
237.092200 128299.800000
247.076300 28413.600000
249.055600 5806.900000
249.092100 21283.400000
250.063700 1926612.200000
251.071400 65459.800000
260.992100 14461.000000
263.071400 206431.000000
265.087000 41972.600000
270.976500 6954.600000
272.992100 262998.400000
274.971900 2987.500000
275.071600 35852.100000
300.986900 2137.100000
349.023300 17638.800000
361.061200 2114.400000
363.003400 2942.100000
363.040500 1982.300000
375.003600 6241.700000
375.039600 6833.600000
377.017500 8374.700000
387.038900 87467.700000
405.048700 2012.400000
463.070700 33240.300000
479.065400 6119.400000
489.049900 21439.300000
507.059900 21356.200000
525.070600 250465.700000

>ms2
59.013800 2340.200000
60.993100 2947.000000
65.039700 5831.000000
78.918900 1937258.900000
92.026700 2853.200000
93.034600 736149.000000
95.013900 4972.400000
101.039700 24386.400000
108.021700 8983.600000
115.055400 15564.400000
117.034600 195532.500000
119.050300 9973.800000
121.029700 8616.100000
130.042400 28321.100000
131.050200 6289.300000
133.029600 7769.800000
135.045200 42979.800000
137.024400 67199.400000
141.071000 52179.900000
143.050300 67978.900000
145.029600 5527.700000
145.065800 10870.400000
147.045500 4857.800000
159.045100 6715.800000
161.024500 81630.100000
173.060700 2388.600000
178.078800 14010.100000
179.086600 18638.600000
181.066000 7537.000000
187.040100 60788.900000
191.086700 8767.400000
193.065700 15042.300000
193.102200 1997.100000
195.081500 57058.200000
197.060800 8196.400000
199.076500 9066.400000
205.066000 15713.100000
206.073700 124136.900000
207.081500 65540.800000
209.097400 6706.500000
217.065800 4488.700000
219.081500 188830.700000
221.061200 10551.200000
221.097300 51874.600000
222.068700 19193.700000
223.076500 25483.800000
235.076700 2225.900000
237.092300 19156.400000
247.076300 10672.800000
249.055700 10141.700000
250.063600 344973.300000
251.071300 5365.900000
263.071300 158686.300000
265.086900 2259.200000
270.976900 2920.100000
272.992200 55249.700000
387.039400 5958.700000

>ms2
59.013900 5866.000000
65.039700 10907.000000
67.019000 2357.800000
78.918900 1968967.600000
93.034600 611418.400000
95.013900 4629.300000
101.039700 56478.900000
108.021700 8897.900000
115.055300 18949.200000
117.034700 203728.500000
119.050200 5435.300000
121.029700 2329.000000
130.042300 9460.700000
131.050200 4684.100000
133.029400 2061.000000
135.045300 17720.000000
137.024400 14625.300000
141.071100 38504.500000
143.050200 131410.100000
145.029800 4564.200000
145.066100 2884.200000
147.045300 4124.000000
159.045400 2635.300000
161.024500 23409.800000
178.078800 13036.500000
179.086900 5518.000000
187.040100 22119.300000
191.086300 8991.200000
193.065700 25724.500000
195.081600 22012.200000
205.065900 14515.400000
206.073600 37096.200000
207.081900 11510.600000
217.065900 5591.300000
219.081500 124274.700000
221.060800 7759.700000
221.097600 2356.100000
235.076600 2024.900000
249.056000 10587.900000
250.063500 17033.600000
263.071400 40251.500000
272.993000 1992.000000

>ms2
65.039700 32091.100000
67.018900 6566.200000
78.918900 2009872.800000
93.034600 494412.300000
95.013900 4526.500000
101.039600 65331.500000
108.021700 6369.800000
115.055400 33377.000000
117.034600 159851.400000
130.042200 2541.400000
135.045300 5130.200000
141.071000 20598.800000
143.050300 128657.500000
145.029600 2262.700000
161.024500 2790.000000
165.070700 2174.300000
178.078900 2599.800000
187.039600 2586.800000
191.086400 6406.000000
193.065600 17865.500000
195.081300 5798.400000
205.065700 6126.800000
206.073600 4750.600000
217.065900 5774.700000
219.081600 46365.300000
249.055500 6660.700000
263.071500 6534.400000

>ms2
65.039700 42394.300000
67.019000 12788.000000
78.918900 2093116.100000
93.034600 257507.600000
101.039600 41639.300000
115.055400 39514.200000
117.034700 56032.100000
141.071000 5226.600000
143.050200 38593.300000

>ms2
65.039700 42495.100000
67.019000 10312.100000
75.024100 2693.000000
78.918900 1996834.800000
93.034600 81197.900000
101.039700 11583.300000
115.055400 15080.200000
117.034700 13571.100000
143.050200 2541.200000

>ms2
65.039700 19746.200000
67.018900 6022.100000
78.918900 1749035.900000
93.034600 19386.400000
101.039600 1757.900000

