>compound EQ58710100
>parentmass 231.07509999999996
>ionization [M-H]-
>formula C10H11F3N2O
>rt 480.000000
>profile orbitrap
#smiles_iso CN(C)C(=O)NC1=CC=CC(=C1)C(F)(F)F
#smiles_can CN(C)C(=O)NC1=CC=CC(=C1)C(F)(F)F
#inchikey RZILCCPWPBTYDO-UHFFFAOYSA-N
#pubchem_id 16562
#mb_accession EQ370951,EQ370952,EQ370953,EQ370954,EQ370955,EQ370956,EQ370957,EQ370958,EQ370959

>ms2
160.037800 25463.800000
186.017300 305352.700000
215.042700 8015.200000
231.075000 7182381.500000
232.078600 12978.500000

>ms2
154.047300 15991.900000
160.037900 146811.000000
166.011000 36444.300000
186.017200 1524405.800000
188.032500 11658.500000
191.062000 7456.600000
211.069100 18050.100000
231.075000 5800579.500000
232.078400 13891.500000

>ms2
134.041300 6036.000000
138.016400 5793.400000
142.047300 24576.300000
145.027200 4609.700000
146.004800 24142.300000
154.047400 38934.000000
160.038000 435011.500000
166.011000 342027.700000
168.026400 6668.900000
171.056800 7578.300000
184.021600 13060.600000
186.017200 3252508.800000
187.020500 4278.100000
188.032700 31878.900000
191.062400 11636.000000
211.069100 21228.700000
215.044600 4223.800000
230.006700 8039.200000
231.075200 1771365.500000
232.078100 3671.300000

>ms2
68.995700 2914.000000
98.003600 26821.400000
118.010000 19520.000000
134.041200 5150.800000
136.020400 4139.200000
138.016200 25411.900000
142.047300 27167.900000
143.011600 3180.700000
143.060900 2058.400000
145.027000 8835.300000
146.004900 186007.500000
154.047400 24926.100000
158.022500 3928.800000
160.038000 312882.500000
166.011100 507144.200000
168.026400 7074.200000
171.056600 4189.600000
184.021600 27446.900000
186.017300 1671545.000000
187.020800 3964.900000
188.032800 20824.300000
191.062300 1734.300000
211.069200 4013.200000
215.044200 6392.800000
231.075100 182952.900000

>ms2
68.995900 993.500000
74.003700 754.500000
98.003600 109162.700000
100.019300 1331.200000
118.010000 57220.800000
118.993900 1519.600000
120.025500 4119.200000
125.998700 868.100000
134.041300 2914.000000
136.020600 2953.400000
138.016100 37825.300000
140.031900 1182.200000
142.047400 6710.700000
143.011500 4276.100000
143.061600 874.300000
145.027200 4826.400000
146.004900 269071.600000
154.047500 6069.500000
156.026600 1329.100000
158.022400 6786.500000
159.030200 2580.400000
160.038100 150807.300000
161.021900 730.200000
166.011100 258749.600000
168.026500 1445.300000
171.056700 1148.300000
182.006200 1120.300000
184.021700 11689.700000
186.017300 464062.800000
188.032700 6140.600000
200.020500 1295.800000
215.044100 6828.700000
231.075100 12635.400000

>ms2
50.003600 1298.700000
65.998600 707.200000
68.995700 2512.100000
74.003800 2674.700000
92.995800 2936.900000
98.003600 231322.000000
100.019300 5035.300000
118.010000 76245.200000
118.993900 3942.800000
120.025600 8649.700000
125.998600 1084.800000
136.020500 1285.500000
138.016200 24395.100000
140.031800 2659.600000
142.047400 1293.300000
143.011400 5729.700000
146.004900 177313.700000
156.027000 671.100000
158.022400 4020.500000
160.038000 60569.300000
166.011000 60649.900000
182.006100 775.600000
184.021600 3174.100000
186.017300 89233.800000
188.032000 647.800000
200.020400 4209.700000
215.044100 2886.700000

>ms2
50.003600 7248.400000
65.998600 805.000000
66.998900 927.400000
68.995800 4846.400000
73.008500 2400.100000
74.003700 7217.700000
90.035100 1312.400000
90.999100 967.700000
92.995800 3610.800000
98.003600 251126.100000
100.019400 6794.200000
118.010000 28676.000000
118.993800 1223.700000
120.025600 10588.600000
138.016100 3649.900000
146.004900 15587.200000
158.022400 732.000000
160.038000 9502.200000
166.011400 1398.300000
186.017200 1408.700000
200.020500 3508.600000

>ms2
50.003600 7361.600000
65.003500 556.700000
65.998500 897.700000
66.999000 751.200000
68.995800 4061.700000
72.000600 1250.200000
73.008500 3838.700000
74.003700 10699.500000
90.998900 1192.000000
92.995800 3068.200000
98.003600 148966.800000
100.019300 4744.200000
112.006600 3041.400000
118.010000 3085.200000
120.025700 1088.600000

>ms2
50.003600 7603.800000
65.003200 568.000000
65.998500 740.700000
66.998900 872.700000
68.995700 2941.600000
72.000600 2988.300000
73.008400 3396.700000
74.003700 9042.500000
90.998900 680.400000
98.003600 70223.800000
112.006700 1068.700000

