>compound EQ59178051
>parentmass 359.1864
>ionization [M-H]-
>formula C21H28O5
>rt 444.000000
>profile orbitrap
#smiles_iso C[C@]12CCC(=O)C=C1CC[C@@H]3[C@@H]2C(=O)C[C@]4([C@H]3CC[C@@]4(C(=O)CO)O)C
#smiles_can CC12CCC(=O)C=C1CCC3C2C(=O)CC4(C3CCC4(C(=O)CO)O)C
#inchikey MFYSYFVPBJMHGN-ZPOLXVRWSA-N
#pubchem_id 222786
#mb_accession EQ319951,EQ319952,EQ319953,EQ319954,EQ319955,EQ319956,EQ319957,EQ319958,EQ319959

>ms2
57.034500 11425.100000
123.044900 12348.300000
125.060700 67160.200000
149.060500 9256.200000
203.107600 54644.100000
299.165200 385808.300000
301.180900 2287371.000000
311.166100 13868.800000
327.160300 1175785.900000
329.175500 7482935.500000
341.175400 364873.300000

>ms2
57.034500 34682.600000
59.013800 6792.600000
107.050100 7401.200000
109.065800 159740.800000
123.045100 67151.400000
123.081500 177942.700000
125.060700 277662.400000
135.081500 72892.900000
136.052700 21835.100000
137.060700 409095.200000
149.060300 63033.300000
151.040000 6530.300000
151.076300 8498.000000
161.097100 10126.700000
163.076400 7518.500000
165.091900 14124.600000
177.092000 9296.300000
179.107700 93545.700000
203.107600 88253.800000
205.123300 22602.300000
257.154600 173095.800000
259.133800 36820.800000
259.169300 6946.600000
271.133900 88140.400000
283.170400 22714.500000
284.142100 14660.900000
299.165100 76289.500000
301.181000 1358961.000000
311.165400 702676.800000
312.136000 10618.900000
326.152300 91950.500000
327.159700 25903.700000
329.175600 6295543.500000
341.175500 250829.400000

>ms2
57.034600 183879.300000
59.013800 10351.200000
69.034600 4519.900000
71.013900 4169.200000
73.029600 4885.100000
79.055300 6762.000000
81.034500 24219.000000
83.050300 11627.700000
85.029400 9504.300000
93.034500 5058.700000
95.013700 4453.500000
95.050200 27022.400000
96.021600 5519.600000
97.065800 26675.100000
99.045100 17267.000000
107.050200 54303.900000
107.086600 11501.400000
109.065800 535929.600000
111.045100 13123.200000
111.081500 3705.900000
119.050300 10197.500000
121.065800 27339.700000
121.102300 3251.300000
122.037300 81663.400000
123.045200 246650.800000
123.081600 295344.100000
124.016600 5311.200000
125.060700 268367.900000
133.066100 3689.300000
135.045200 56374.200000
135.081600 158724.600000
136.052900 275279.100000
137.060700 3078369.200000
138.032100 37719.300000
139.039500 5643.800000
145.066000 6054.400000
147.081600 35411.700000
148.052700 6281.800000
149.060700 298476.200000
150.032200 21667.100000
151.040000 124358.700000
151.076400 22900.800000
154.027100 3664.800000
159.081300 4913.000000
161.097100 79537.400000
162.068600 20385.400000
163.076400 94760.000000
165.019100 3310.300000
165.091900 25835.700000
167.034900 29537.500000
168.042700 20099.300000
173.060600 3912.300000
173.097200 3469.500000
175.076300 24032.200000
175.112600 53014.300000
176.084000 23751.900000
177.092100 18013.600000
179.107700 66756.200000
187.076400 10991.300000
187.112700 5375.300000
189.091900 7460.000000
191.071300 4949.900000
191.107700 18160.500000
193.087000 3699.600000
193.123400 3527.600000
203.107700 59686.000000
205.123200 24800.700000
217.086800 3867.600000
229.123200 5804.700000
233.118200 17814.200000
239.144200 4224.200000
241.123600 4804.000000
242.131300 3119.500000
243.138800 12402.500000
253.123200 7960.400000
255.139200 4503.400000
257.154600 197674.700000
259.133700 166100.900000
259.169700 9306.800000
269.154600 17208.700000
271.133900 203555.500000
283.134700 6433.800000
283.170200 46320.100000
284.141700 53875.100000
285.149200 10424.100000
285.186400 3591.100000
286.157300 13443.800000
287.165800 5571.700000
296.141500 6214.200000
299.165200 24392.400000
301.180800 97010.900000
311.165400 913833.600000
312.136500 12356.100000
323.165600 4409.600000
325.144700 4737.800000
326.152200 120707.800000
329.175800 1790155.800000
341.175700 28805.200000

>ms2
57.034600 336903.700000
59.013800 16472.600000
69.034600 8923.000000
71.013900 4913.700000
71.050300 5020.900000
79.055300 16963.700000
81.034500 26436.800000
83.013900 4069.300000
83.050300 19332.900000
85.029500 9400.500000
91.055300 6047.300000
93.034500 9041.800000
93.070900 5860.700000
94.042300 6520.200000
95.013800 7298.100000
95.050200 59754.800000
96.021700 4935.600000
97.065900 78561.500000
99.045100 17385.200000
106.042500 3108.300000
107.050300 131100.000000
107.086600 22570.600000
108.021700 13440.300000
109.065900 583008.300000
111.045100 10569.700000
111.081600 11027.300000
119.050200 51816.700000
119.086600 3639.300000
120.058300 4375.300000
121.029600 5324.700000
121.065900 51195.100000
121.102300 4695.500000
122.037400 368154.400000
123.045200 283739.000000
123.081600 216675.000000
124.016600 24636.300000
125.024300 9238.400000
125.060700 153928.800000
133.065900 10407.500000
133.102400 6718.600000
134.037500 3730.300000
135.045200 75199.800000
135.081600 158931.700000
136.053000 320294.800000
137.060700 2819023.500000
138.032200 42826.500000
138.068400 3530.300000
139.040000 6301.100000
145.065900 16093.700000
145.102400 3431.300000
146.073400 8600.600000
147.045200 17675.000000
147.081600 47646.900000
148.052900 30682.800000
149.060700 594249.100000
150.032200 22575.600000
150.068400 8370.900000
151.040000 131719.300000
151.076500 17720.900000
153.019600 8627.100000
154.027100 19733.400000
159.045300 3251.700000
159.081500 11243.200000
160.052600 4088.300000
161.060900 10826.500000
161.097200 80627.600000
162.068600 38383.100000
163.076500 118728.500000
163.113000 8339.700000
164.084200 7018.300000
165.019300 4910.100000
165.091900 9489.600000
167.035000 27789.600000
168.042800 23175.800000
173.060500 7128.600000
173.097100 6575.800000
175.076400 31410.400000
175.112700 63630.700000
176.084200 28477.900000
177.092000 12164.200000
179.107800 12805.800000
187.076400 21076.800000
187.112700 8798.800000
188.084000 4068.600000
189.092400 6395.100000
191.071600 5425.100000
191.107700 8158.800000
201.092100 5222.200000
203.107500 17370.400000
205.123100 5417.000000
214.099900 4621.500000
215.107900 5179.900000
215.144100 3081.200000
227.108100 3410.900000
228.115400 3320.300000
229.123300 10058.400000
233.117900 10083.800000
239.107700 2851.900000
239.143800 4463.400000
241.123300 6555.900000
242.130900 3935.200000
243.138700 9073.400000
253.123500 11877.100000
256.110300 8786.600000
257.154600 49853.200000
259.133800 37194.400000
269.154600 22574.100000
271.133900 80852.500000
283.170200 20138.700000
284.141700 16536.800000
285.150000 10823.400000
287.165700 3589.400000
299.165400 3394.300000
311.165400 74891.500000
326.152800 9462.800000
329.175900 75120.400000

>ms2
55.018900 6347.900000
57.034600 336944.800000
59.013900 11492.900000
65.039700 5625.100000
67.019000 2365.900000
69.034600 11382.900000
71.013900 5011.200000
71.050300 4442.600000
73.029600 4519.100000
79.055300 19054.100000
80.026800 5104.400000
81.034600 22886.800000
83.013900 2292.200000
83.050200 14623.200000
85.029500 6147.100000
91.055300 12890.100000
93.034500 14269.600000
93.071000 8112.800000
94.042400 16101.200000
95.013700 5708.200000
95.050200 80679.000000
96.021700 3298.700000
97.065900 84241.800000
99.045200 8903.900000
105.070900 5936.600000
106.042400 8389.800000
107.050300 164059.800000
107.086600 17667.200000
108.021700 31450.400000
109.065900 382750.800000
110.037100 2279.700000
111.045100 5857.400000
111.081600 9062.900000
117.071000 2785.800000
119.050200 86139.400000
119.086500 4610.700000
120.058200 8618.100000
121.029600 8273.800000
121.065900 63024.500000
122.037400 521157.300000
123.045200 203174.300000
123.081600 121902.500000
124.016500 35660.900000
125.024400 4970.000000
125.060700 59394.700000
129.071000 3971.000000
130.042400 3085.400000
131.050300 3368.200000
132.057900 3730.400000
133.065900 14654.100000
133.102300 5066.800000
134.037300 12851.800000
135.045200 63410.800000
135.081600 83688.900000
136.052900 184834.400000
137.024400 70586.700000
137.060800 1218007.100000
138.032200 15456.400000
138.068500 2894.400000
143.050100 4593.200000
144.057800 2072.000000
145.065900 19149.000000
145.102600 1754.600000
146.037400 2459.100000
146.073700 11477.700000
147.045200 36901.400000
147.081500 28065.100000
148.053000 59069.400000
149.060800 732441.300000
150.032200 8273.200000
150.068300 3630.700000
151.040000 48830.100000
151.076500 7821.300000
153.019400 6052.200000
154.027200 36147.200000
157.065900 5079.800000
159.045100 9533.700000
159.081500 16107.000000
160.053000 6307.500000
161.060800 14118.200000
161.097200 62772.900000
162.068600 18594.200000
163.076500 48510.900000
163.113000 3823.200000
164.084200 5479.600000
167.035000 9316.700000
168.042700 11524.500000
171.081400 4711.700000
173.060800 8436.900000
173.097300 5666.000000
174.068400 2502.100000
175.076400 20211.700000
175.112800 25217.700000
176.084300 6964.500000
177.055500 3292.900000
177.092400 4830.600000
179.107600 2489.300000
183.081200 2141.200000
185.097100 2877.200000
187.076400 22877.100000
187.112700 8809.700000
189.092100 5014.600000
191.071300 4842.300000
199.076300 7735.000000
201.091900 2971.800000
201.128300 5227.000000
203.107900 2192.100000
211.112700 1910.700000
213.091900 4510.300000
214.100000 8164.300000
215.107700 3272.700000
225.091700 2219.400000
227.108000 3025.400000
229.123400 5938.900000
231.138800 1893.200000
237.091600 2024.900000
239.107700 2152.800000
241.123600 3505.600000
243.138500 4197.100000
253.123500 6879.800000
255.102800 4140.900000
256.110400 5857.000000
257.154700 5176.300000
259.133600 2299.500000
269.154800 19015.600000
271.134000 20791.500000
283.170500 4449.000000
284.141800 1231.200000

>ms2
55.018900 4235.500000
57.034600 284517.600000
59.013900 8822.800000
65.039700 9045.300000
67.018900 3702.100000
67.055300 623.800000
69.034600 9048.600000
71.014000 4821.300000
71.050300 2274.500000
73.029600 1770.900000
77.039800 715.500000
79.055300 19302.000000
80.026800 8288.000000
81.034600 14181.200000
83.013700 756.400000
83.050300 8493.100000
85.029500 3504.300000
91.055400 11687.600000
93.034600 17489.100000
93.070900 7213.400000
94.042400 13890.800000
95.014000 4133.100000
95.050300 64612.900000
96.021700 619.500000
97.065900 47476.600000
99.045100 3359.400000
105.034500 1721.800000
105.071000 7036.900000
106.042400 10729.800000
107.050300 148552.700000
107.086600 10208.100000
108.021700 39131.000000
109.065900 201336.200000
110.037300 1844.500000
111.008700 754.800000
111.045200 1997.200000
111.081500 2581.300000
115.055100 1028.300000
117.070900 1931.700000
119.050200 59812.000000
120.058100 8671.800000
121.029500 14178.000000
121.065900 59258.100000
122.037400 370319.900000
123.045200 125176.200000
123.081600 50074.400000
124.016600 21622.000000
125.024400 980.900000
125.060800 14807.900000
129.034600 2854.200000
129.071000 3819.100000
130.042300 5939.600000
131.050200 6944.400000
132.058200 1889.100000
133.065900 12997.100000
133.102300 1119.200000
134.037300 30394.000000
135.045200 43742.000000
135.081600 31284.000000
136.016400 6263.100000
136.052900 94906.800000
137.024400 47309.400000
137.060800 375120.000000
138.032200 6283.800000
143.050200 8565.700000
143.086500 805.200000
144.057800 854.900000
145.065900 26968.700000
146.037500 4203.900000
146.073800 5542.100000
147.045200 45008.100000
147.081600 11896.100000
148.053100 57689.400000
149.060800 546595.200000
150.032300 3985.000000
150.068800 1009.900000
151.040100 17989.200000
151.076600 1986.700000
153.019300 4564.500000
154.027200 21013.000000
156.058000 1035.800000
157.065900 5888.800000
158.037400 964.200000
159.045200 14690.300000
159.081500 11642.200000
160.053100 4876.100000
161.060900 14184.600000
161.097200 27852.400000
162.068400 5727.200000
163.076500 13368.700000
163.112800 1001.700000
164.084000 876.900000
167.034900 2396.200000
168.042900 2598.200000
169.065500 589.600000
171.081600 4746.300000
172.053100 970.800000
173.060800 11689.300000
173.097100 1023.300000
174.068500 1816.100000
175.076400 13926.300000
175.112800 5224.600000
176.084000 1975.000000
177.055600 2482.400000
177.091700 1547.800000
183.081600 1103.400000
185.060600 830.800000
185.097300 1553.400000
187.076500 19140.900000
187.113000 3623.400000
189.092100 2364.200000
191.071400 758.800000
197.097600 721.900000
198.068000 1481.100000
199.076500 6559.700000
199.112900 786.300000
200.084700 580.400000
201.092500 969.300000
201.128200 2895.800000
209.096900 903.300000
211.076300 2002.000000
211.113200 633.700000
213.092100 5081.000000
214.099900 4463.200000
215.107300 607.100000
223.076000 613.100000
225.091900 1019.000000
225.128600 802.700000
227.107700 2090.800000
229.122700 1631.500000
237.092500 1861.300000
239.107800 1002.600000
241.086400 579.600000
253.123300 2643.400000
255.102300 2550.700000
256.109900 682.000000
267.139300 752.800000
269.154700 7196.000000
271.134400 3185.400000

>ms2
55.018900 5731.700000
57.034600 140665.300000
59.013800 3220.700000
65.039700 10778.600000
67.019000 2928.400000
69.034600 4652.600000
71.013900 2247.500000
73.029700 382.600000
77.039900 378.400000
79.055300 12157.400000
80.026800 6955.100000
81.034600 6446.300000
83.050200 2874.000000
89.039300 386.600000
91.055300 6170.300000
93.034500 17453.000000
93.070900 2960.900000
94.042500 2356.600000
95.050300 23527.600000
97.065900 4285.400000
101.039700 905.200000
103.055400 2842.500000
105.034600 2024.400000
105.071000 4070.900000
106.042400 8061.500000
107.050300 68599.200000
108.021700 19510.900000
109.029500 2826.800000
109.065900 38012.300000
111.045000 451.000000
115.055400 2936.100000
117.034700 1431.800000
117.071000 688.200000
119.050200 23624.100000
120.057800 1160.900000
121.029600 16689.300000
121.065900 26447.200000
122.037400 78383.600000
123.045200 33430.800000
123.081600 4937.700000
124.016500 669.900000
129.034500 6379.600000
129.071100 895.200000
130.042300 8865.900000
131.050100 7062.200000
133.065900 4828.600000
134.037400 28071.900000
135.045200 16257.300000
135.081700 2289.200000
136.016700 860.900000
136.052900 17180.800000
137.024300 5876.300000
137.060800 16242.800000
143.050200 10220.200000
144.058000 1656.900000
145.029300 1478.200000
145.065900 23714.900000
146.037500 4295.100000
147.045200 39075.500000
148.053100 28153.900000
149.060800 94306.100000
151.040100 405.100000
154.027200 2080.400000
156.058100 480.500000
157.066000 3746.900000
158.037400 1906.600000
159.045100 9427.800000
159.081500 4972.700000
160.053200 1414.800000
161.060900 5055.400000
161.097300 2056.900000
163.076800 626.800000
169.065700 760.400000
171.081600 2317.900000
172.053200 2111.000000
173.060700 3952.400000
183.082000 601.800000
185.060700 831.000000
187.076500 2943.800000
193.065900 354.000000
195.081800 601.900000
197.060700 1494.000000
198.069000 644.800000
199.076600 1746.900000
211.076600 518.200000
213.092200 903.700000
223.076600 732.000000
227.108200 408.700000

>ms2
55.018900 3420.400000
57.034600 46602.700000
59.013900 1522.000000
65.003300 643.200000
65.039700 8804.800000
67.019000 2462.800000
69.034500 2056.900000
71.013900 443.100000
77.039500 574.900000
79.055300 4906.600000
80.026700 1521.800000
81.034400 1643.000000
89.039600 2162.400000
91.055300 4457.700000
93.034500 10223.100000
95.013800 429.100000
95.050200 5286.100000
101.039700 2710.200000
102.047300 518.600000
103.055300 784.000000
105.034800 545.800000
105.071000 681.500000
106.042400 2930.300000
107.050200 19161.700000
108.021700 5488.400000
109.029400 410.600000
109.065900 5918.200000
115.055200 3255.300000
117.034800 1624.600000
117.071000 524.500000
119.050200 15016.500000
121.029500 10864.300000
121.065900 3266.100000
122.037400 13913.000000
123.045200 6028.900000
129.034700 4699.300000
129.071100 441.200000
130.042300 6080.900000
131.050200 2787.400000
133.066100 570.600000
134.037400 3292.700000
135.045300 3677.700000
136.052900 1509.100000
137.060400 365.400000
143.050200 6224.900000
144.057900 1381.900000
145.029400 2074.400000
145.065800 7149.000000
146.037300 2441.400000
147.045200 21260.800000
148.053000 3154.800000
149.060800 6228.400000
156.057900 524.200000
157.065600 637.200000
158.037400 690.200000
159.045100 2966.600000
159.082200 308.400000
169.065900 558.900000
173.060400 346.000000

>ms2
55.018900 1963.600000
57.034600 11517.600000
65.003300 644.500000
65.039700 8587.200000
67.019000 1256.700000
69.034600 319.700000
79.055200 1238.200000
89.039600 1137.300000
91.055300 2527.500000
93.034600 5110.900000
95.050100 1506.400000
101.039600 2327.300000
102.047500 407.900000
103.055300 447.300000
106.042600 321.300000
107.050200 3831.500000
108.021600 1553.700000
115.055300 1998.600000
117.034500 1819.900000
119.050300 5515.900000
121.029500 4560.400000
122.037200 2632.100000
123.045400 356.300000
129.034600 2032.200000
130.042400 3203.200000
143.050200 3892.200000
145.029300 1250.200000
145.065900 1229.700000
146.037400 1556.900000
147.045200 6936.000000
158.037200 362.800000
193.065700 370.200000

