>compound EQ62456581
>parentmass 227.05929999999995
>ionization [M-H]-
>formula C10H13ClN2O2
>rt 360.000000
>profile orbitrap
#smiles_iso CN(C)C(=O)NC1=CC(=C(C=C1)OC)Cl
#smiles_can CN(C)C(=O)NC1=CC(=C(C=C1)OC)Cl
#inchikey DSRNRYQBBJQVCW-UHFFFAOYSA-N
#pubchem_id 29863
#mb_accession EQ320451,EQ320452,EQ320453,EQ320454,EQ320455,EQ320456,EQ320457,EQ320458,EQ320459

>ms2
154.006400 13380.400000
167.985600 46524.700000
168.022100 64399.900000
169.029900 5930.300000
197.012300 223617.800000
212.035700 2865409.200000
227.059300 933281.700000

>ms2
154.006500 103513.600000
167.985700 190703.600000
168.022100 260125.700000
169.030000 19651.500000
197.012300 835879.400000
212.035700 2567116.200000
227.059200 204041.700000

>ms2
132.009100 2638.500000
140.998800 1693.900000
151.989800 3843.700000
154.006500 978123.400000
155.009800 2118.300000
167.985800 860118.200000
168.022100 738336.900000
169.030100 21795.900000
197.012200 1240159.000000
211.028000 6535.500000
212.035800 660422.000000
227.059100 4382.400000

>ms2
118.029800 3044.000000
132.009000 32940.700000
139.991100 4099.500000
140.998900 5852.400000
151.990600 11017.600000
154.006500 1505656.800000
167.985700 1267752.900000
168.022100 702424.400000
197.012300 324649.800000
211.028000 5285.500000
212.035700 47174.200000

>ms2
65.998600 2026.500000
89.003300 17676.200000
118.029800 15498.600000
132.009100 123861.600000
132.045400 7399.100000
139.990800 9254.500000
140.998800 7806.300000
151.990800 42990.300000
152.998900 3113.300000
154.006500 1208711.200000
155.009800 2271.500000
167.985800 1015996.400000
168.022100 473939.900000
197.012300 39020.800000
211.028000 3141.500000
212.035400 2006.800000

>ms2
64.019200 660.300000
65.003300 2157.400000
65.998500 6673.200000
76.019300 1957.200000
89.003300 46071.700000
91.018900 1838.800000
106.029800 712.300000
118.029900 25260.500000
126.995300 1633.300000
132.009100 152056.600000
132.045400 7662.000000
139.990800 6432.500000
140.998800 4853.800000
151.990900 89089.600000
152.998700 2982.700000
154.006600 581547.900000
155.010100 1430.600000
166.006200 880.900000
167.985800 429754.000000
168.022100 198665.500000
197.012600 2170.600000

>ms2
50.003500 1890.900000
61.008300 522.900000
63.024000 1381.000000
64.019200 721.800000
65.003300 2286.600000
65.998500 6617.600000
76.019300 4127.000000
77.003500 1202.000000
89.003300 67528.300000
91.018800 3942.700000
116.014300 2975.500000
118.029900 8997.600000
132.009000 33883.900000
151.990800 73244.900000
152.998700 502.400000
154.006500 42525.100000
167.985800 20364.300000
168.022200 11438.100000

>ms2
50.003600 2279.200000
61.008300 2012.100000
63.024000 1581.500000
65.003300 2203.400000
65.998600 3076.300000
76.019300 2989.200000
77.003300 3704.300000
89.003300 30960.400000
91.018900 1974.100000
116.014200 5493.100000
118.029800 661.800000
132.009100 2121.800000
151.990800 24604.900000
167.985100 417.900000

>ms2
50.003600 2241.900000
61.008300 1594.500000
63.024100 418.900000
65.003200 1976.600000
65.998500 2000.700000
76.019200 607.800000
77.003300 3059.100000
89.003200 7674.500000
116.014000 483.000000
151.990900 2399.500000

