>compound EQ64347522
>parentmass 421.1549
>ionization [M-H]-
>formula C22H23ClN6O
>rt 540.000000
>profile orbitrap
#smiles_iso CCCCC1=NC(=C(N1CC2=CC=C(C=C2)C3=CC=CC=C3C4=NNN=N4)CO)Cl
#smiles_can CCCCC1=NC(=C(N1CC2=CC=C(C=C2)C3=CC=CC=C3C4=NNN=N4)CO)Cl
#inchikey PSIFNNKUMBGKDQ-UHFFFAOYSA-N
#pubchem_id 3961
#mb_accession EQ279451,EQ279452,EQ279453,EQ279454,EQ279455,EQ279456,EQ279457,EQ279458,EQ279459

>ms2
155.038100 1078454.000000
156.046000 1228846.500000
179.086500 2212680.200000
187.064100 2219818.800000
188.035900 131727.300000
195.081300 537969.800000
272.144700 319317.500000
299.155000 341651.500000
320.108600 132098.400000
335.131900 3978129.800000
363.138200 1177765.500000
393.148700 1645450.000000
421.154800 119595392.000000

>ms2
100.991200 90946.600000
121.077300 59764.500000
127.006800 20476856.000000
155.038200 5629148.000000
156.046000 5350146.500000
157.053700 14864392.000000
165.070900 305434.200000
168.045900 111336.600000
169.054000 253006.400000
177.070700 77245.600000
178.078400 112193.400000
179.086600 20885706.000000
180.058000 181325.700000
184.040500 28409.600000
185.048700 407215.500000
187.064300 12923715.000000
188.035700 1044460.600000
193.065700 1002756.500000
194.073700 38488.100000
195.081400 4752552.500000
207.092400 133015.300000
216.081900 95971.100000
230.097700 28615.500000
242.084700 96852.300000
256.100900 23623.800000
259.136900 213379.400000
270.115900 315298.300000
272.144300 1886813.000000
277.053700 39012.100000
278.061600 70828.800000
284.131800 25311.100000
291.069300 671177.800000
292.077200 421474.900000
297.140500 25645.700000
299.155100 1426876.900000
320.108300 943441.000000
333.116000 173951.900000
334.123700 66389.900000
335.132000 4825259.500000
363.138100 1489130.100000
393.149100 172841.500000
421.154800 5178839.000000

>ms2
100.991200 71575.400000
113.999000 1049245.200000
121.077100 63613.700000
127.006800 30526570.000000
140.014600 177644.500000
141.993800 32093.400000
155.001800 233547.300000
155.038200 1552604.100000
156.046000 696953.700000
157.053800 15900330.000000
164.063000 36148.300000
165.070800 384612.500000
169.053800 268598.700000
177.071300 231053.900000
178.078800 282933.700000
179.086600 15107318.000000
180.058100 302419.500000
185.048600 549242.600000
187.064300 7524210.000000
188.035800 102314.300000
193.065700 1288360.800000
195.081400 2436023.000000
207.092600 108162.900000
216.082000 210948.700000
229.076900 99726.600000
229.089700 91080.800000
230.097800 85218.300000
241.076900 168993.700000
242.084900 151476.800000
255.092600 113009.300000
256.100800 114044.300000
269.108500 30864.500000
270.116000 143177.600000
272.144400 906098.100000
277.053800 229832.800000
284.132300 63588.800000
291.069500 1015722.100000
292.077200 128383.000000
297.139300 80956.700000
299.155200 159931.200000
320.108400 486558.600000
333.116800 92971.900000
334.124100 31071.800000
335.132100 229887.300000

>ms2
93.034500 75140.300000
100.991100 60294.000000
113.999000 3739438.200000
127.006800 27180626.000000
140.014600 308049.200000
141.993700 169739.900000
145.988800 106817.400000
155.001800 245031.900000
155.038200 411022.700000
157.053800 10840696.000000
164.063200 35065.800000
165.070800 344783.300000
169.053400 109197.400000
177.071000 150472.900000
178.078800 359469.000000
179.086600 4839032.500000
180.058200 198301.500000
185.048700 344170.000000
187.064300 2424067.800000
192.057700 32533.300000
193.065800 997264.800000
195.081500 447074.000000
215.061300 72792.500000
216.081500 172272.300000
229.077100 100584.600000
229.089400 104413.900000
230.097600 122526.800000
241.077400 166513.400000
255.092600 204730.300000
256.100000 32575.900000
269.108500 32868.600000
272.144300 187840.100000
277.053700 232314.800000
291.069500 638313.800000
297.139600 30118.700000
320.107600 27855.300000

>ms2
91.030200 71925.300000
93.034400 127925.900000
100.991000 53367.500000
113.999000 5280027.000000
115.007000 27120.200000
117.045900 26673.300000
127.006800 21589322.000000
140.014600 188781.500000
141.022300 22630.100000
141.994000 243965.200000
145.988800 175398.700000
155.001900 208218.800000
155.038300 101226.200000
157.053700 5302979.500000
164.062900 62146.000000
165.070800 322286.400000
178.078700 328621.600000
179.086600 1196065.900000
180.058000 29277.500000
185.048700 146610.500000
187.064300 503884.200000
193.065700 551672.800000
195.081400 61595.900000
204.081900 32296.200000
215.061300 138953.400000
216.081900 114657.500000
228.069500 24347.700000
229.077000 121304.500000
229.088700 26440.700000
241.076700 105316.400000
242.072700 54133.700000
254.085200 64577.700000
255.093000 83979.900000
277.053700 53711.700000
290.061600 30321.200000
291.069800 218256.500000

>ms2
50.003500 47494.200000
64.019300 15723.000000
65.014500 73948.200000
65.998500 20945.900000
91.030100 119561.300000
93.034500 71484.200000
100.991200 27752.500000
113.999000 4047925.800000
115.006700 28586.700000
117.046100 14267.300000
127.006900 13737316.000000
140.014500 102775.900000
141.022500 21788.900000
141.070700 20324.600000
141.993800 193574.500000
145.988700 137753.900000
155.001700 146432.800000
155.038400 21954.000000
157.053800 1824980.500000
164.063000 21779.900000
165.071000 223786.000000
178.078700 148390.300000
179.086500 319091.200000
185.049100 62577.500000
187.064400 123330.700000
192.058200 19648.100000
193.065700 196116.200000
204.081900 14962.400000
215.061400 98370.300000
216.081900 63520.200000
228.069600 60140.000000
229.077600 49981.000000
230.097700 15914.600000
242.072400 18308.600000
254.085100 18471.700000
255.092900 23544.600000

>ms2
50.003500 65596.900000
64.019200 19051.400000
65.014500 47593.100000
65.998500 22251.300000
91.030100 53453.300000
93.034500 64911.200000
113.999000 804398.000000
127.006800 3235962.200000
141.993600 15382.200000
145.989100 13603.600000
155.001900 21271.900000
157.053800 76008.200000
165.070500 82056.300000
190.066800 13321.000000
215.061400 76036.400000
228.069200 28264.700000

>ms2
50.003500 45217.500000
65.014500 55434.500000
65.998500 10420.900000
91.029900 12182.300000
113.999000 60430.500000
127.006900 415217.000000

>ms2
50.003500 27469.300000
65.014500 12395.900000
65.998500 20950.700000
127.006700 77524.600000

