>compound EQ64381001
>parentmass 388.199
>ionization [M-H]-
>formula C19H27N5O4
>rt 318.000000
>profile orbitrap
#smiles_iso CN(CCCNC(=O)C1CCCO1)C2=NC3=CC(=C(C=C3C(=N2)N)OC)OC
#smiles_can CN(CCCNC(=O)C1CCCO1)C2=NC3=CC(=C(C=C3C(=N2)N)OC)OC
#inchikey WNMJYKCGWZFFKR-UHFFFAOYSA-N
#pubchem_id 2092
#mb_accession EQ335051,EQ335052,EQ335053,EQ335054,EQ335055,EQ335056,EQ335057,EQ335058,EQ335059

>ms2
177.066700 23417.700000
210.124800 28104.300000
233.104400 38044.800000
373.175700 235517.500000
388.198800 16578382.000000

>ms2
55.030100 69342.000000
72.009200 10062.300000
84.045500 44731.000000
114.056000 307552.200000
162.043500 333091.600000
177.066900 540066.500000
185.129200 12035.000000
187.038700 41406.200000
188.046300 8257.300000
202.062200 198852.500000
203.057600 21537.800000
203.070000 220973.100000
210.124800 386482.000000
216.064800 8928.600000
216.077800 12705.900000
217.073100 837937.600000
218.080900 501269.200000
230.080100 11463.300000
231.088600 196687.000000
232.096100 10519.500000
233.104400 1135482.800000
235.059500 6182.200000
243.088700 13048.900000
244.096900 9143.800000
245.104400 1269866.100000
258.112000 126378.000000
259.119800 25337.700000
273.135600 197724.800000
274.131000 6151.600000
275.138700 10756.500000
290.162200 91426.600000
302.125800 303969.500000
303.133900 7103.500000
317.149600 6746.100000
329.125700 21397.000000
330.119500 19840.400000
330.156900 25845.100000
331.141400 16922.800000
342.157200 18653.600000
344.149000 14653.900000
345.144200 252224.500000
358.152200 1236560.400000
360.167400 10039.600000
372.168300 11603.100000
373.175500 5708582.000000
388.199100 4750153.000000

>ms2
55.030100 75153.700000
72.009200 40345.300000
84.045500 214290.100000
86.024800 5568.800000
96.045500 18409.300000
114.056000 416208.800000
115.040100 15894.500000
119.025000 16600.700000
136.004000 9321.000000
144.020000 5635.700000
147.020000 59966.200000
158.011700 6683.100000
160.051700 30102.700000
162.031300 102801.500000
162.043500 520542.800000
172.015300 15524.500000
173.023000 5597.100000
173.035600 46753.100000
174.030700 13588.100000
174.055000 6228.600000
175.062300 32420.100000
176.046500 34026.500000
177.066900 70780.700000
177.078900 4561.100000
185.129800 14809.300000
187.038700 140603.300000
188.046500 129356.300000
189.054200 27780.800000
189.078100 6970.200000
190.062500 4563.000000
200.046400 4989.500000
201.041700 7770.100000
202.049700 241641.900000
202.062100 47417.600000
202.086000 21461.200000
203.057600 988720.500000
203.070000 636644.900000
204.065400 4819.300000
204.077800 28090.200000
205.049100 7331.500000
205.073000 20132.100000
210.124900 24671.400000
215.057600 7581.000000
215.070000 14144.300000
215.093500 19884.600000
216.065300 90571.900000
216.077700 49086.400000
217.073100 1705776.100000
218.081000 1456654.900000
219.088600 18493.100000
221.067900 8036.400000
228.065300 24749.300000
229.072800 6304.500000
229.109600 4469.400000
230.080900 730250.100000
231.088700 672524.100000
232.096500 5662.500000
233.104400 289573.100000
235.059800 26622.800000
242.104900 7000.800000
243.088600 355186.300000
244.096300 153583.600000
245.104400 2709845.000000
257.104800 14941.700000
258.112100 189594.600000
259.119800 341557.200000
260.115200 37792.500000
273.135600 33304.900000
274.131100 18022.100000
275.138800 52466.800000
287.102300 90796.700000
290.162100 27323.600000
302.125900 541424.100000
303.133500 5704.300000
329.125200 14804.300000
330.121500 56914.200000
330.157300 255693.300000
331.141300 440027.700000
342.156400 10923.700000
343.127900 15303.400000
344.173000 5670.600000
345.144000 80100.900000
358.152200 4428216.500000
372.167500 30203.100000
373.175500 513935.200000
376.162600 122775.800000
388.199100 38553.400000

>ms2
55.030100 85905.400000
65.998500 7607.600000
66.009800 6513.400000
69.034600 5662.900000
72.009200 88358.600000
77.014500 8589.300000
84.045500 438537.700000
86.024700 7772.900000
92.014300 4894.400000
94.029800 4810.600000
96.045500 35518.600000
114.056100 533342.000000
115.040100 38948.400000
119.025100 302296.500000
120.032700 6419.500000
121.040900 10010.700000
130.017000 5277.300000
133.040600 6573.100000
136.004000 4506.900000
144.020300 82825.500000
145.028200 97466.800000
146.036000 12502.900000
147.020100 275572.100000
147.043900 36602.000000
148.027800 8686.000000
148.051600 28320.100000
158.012100 46735.600000
158.036000 8592.000000
159.043900 16992.100000
160.051700 590305.000000
161.035600 7511.800000
161.059400 13737.500000
162.031200 60458.200000
162.043500 217364.000000
163.051400 8428.900000
172.015300 79310.300000
172.051800 5404.100000
173.023600 36584.500000
173.035600 105869.600000
173.046500 13111.600000
174.030800 34505.800000
174.054700 193515.800000
175.062500 610134.700000
176.046500 173643.800000
177.078200 35379.100000
185.046700 5144.700000
186.030700 4272.800000
187.026400 11271.700000
187.038700 81510.500000
187.062400 38470.100000
188.046600 322312.200000
188.070200 85310.900000
189.054400 53782.600000
189.078100 35925.000000
190.049500 6485.900000
190.062200 9380.500000
199.062400 5307.500000
200.046300 19064.900000
200.070500 36374.200000
201.041900 170072.100000
201.078500 15415.500000
202.049800 1141783.500000
202.086100 506598.400000
203.057500 3191460.000000
203.069300 175876.300000
204.065600 18011.800000
204.077300 11919.100000
205.073000 31996.300000
213.041900 6921.800000
213.054600 6746.000000
214.085800 5366.100000
215.057400 63626.300000
215.093700 154201.800000
216.065300 345649.700000
216.077300 35760.200000
216.101200 32382.400000
217.073100 705863.900000
218.080900 474487.900000
219.088700 17260.700000
220.060000 6248.100000
221.068000 50698.000000
228.065400 130647.200000
229.073100 29170.400000
229.109500 20989.500000
230.081000 1586356.600000
231.088700 277210.300000
232.120300 16233.800000
233.104100 17818.800000
234.075800 38297.800000
235.059700 6701.000000
242.080900 6383.100000
242.105300 8085.400000
243.088600 596020.500000
244.096500 569013.000000
245.104300 514468.800000
257.104200 29369.200000
258.112100 21648.900000
259.107200 40773.600000
259.120000 116331.100000
260.115200 117795.800000
261.099600 14395.000000
272.079100 4950.200000
274.130700 5235.200000
275.138600 13500.200000
287.102300 110459.700000
288.123000 4474.400000
300.109800 5833.100000
302.125600 45525.500000
303.146100 23915.600000
315.135000 14430.600000
329.126100 4405.200000
330.157200 366737.500000
331.141300 198818.400000
343.128400 26766.700000
344.171700 5361.700000
358.152200 1329321.900000
372.167100 9430.500000
376.162700 26994.800000

>ms2
55.030200 250744.400000
64.019100 1603.100000
65.014500 13256.200000
65.998500 38353.100000
66.009800 22027.100000
67.030200 39126.500000
69.034700 5196.900000
72.009200 80580.800000
77.014600 31786.100000
81.045800 1497.000000
84.045500 387894.000000
90.034900 1761.000000
91.030100 13033.100000
92.014200 18038.000000
93.009600 1830.300000
94.029800 6890.400000
96.045500 28187.300000
96.056800 1877.200000
102.022300 2114.300000
105.022000 4978.500000
105.045900 2144.400000
106.017300 2358.900000
106.029900 5437.700000
107.025200 4027.200000
114.056100 267623.000000
115.040100 14953.100000
116.025400 4025.700000
117.009500 1612.100000
118.030000 8418.600000
118.041300 2488.400000
119.025100 770045.900000
120.008900 4157.900000
120.020300 4538.100000
120.032900 49773.100000
121.040800 23378.900000
122.024400 1561.200000
122.036000 1976.700000
130.017200 23460.900000
131.025100 10611.300000
132.032900 14526.500000
132.056500 1573.100000
133.028000 4792.900000
133.040800 39300.800000
134.036000 1446.700000
135.056400 1647.500000
143.025200 4134.800000
144.020300 272323.600000
145.028200 549148.200000
146.012400 7760.000000
146.024800 6638.800000
146.036000 52969.000000
147.020100 373160.900000
147.043800 121179.400000
148.027900 42674.600000
148.051700 72017.200000
149.035600 6975.300000
149.046900 2333.000000
155.119000 2112.900000
157.028000 1745.300000
158.012200 100263.200000
158.036000 28751.200000
159.020200 2166.000000
159.031500 11545.400000
159.043700 28977.500000
159.056500 4529.800000
160.051700 1036629.800000
161.035700 18550.600000
161.047600 4148.400000
161.059500 38568.000000
162.031100 10905.900000
162.043500 35509.600000
162.054400 10723.100000
162.067400 6850.100000
163.051500 7053.300000
171.019900 1510.400000
172.015400 58516.600000
172.051800 18603.900000
173.023200 70513.000000
173.035600 57134.800000
173.046900 94422.200000
173.058800 27071.200000
173.083400 6831.400000
174.030900 34752.800000
174.054700 587371.700000
175.062500 830730.000000
176.046500 129731.600000
176.070300 14046.700000
177.078200 28478.800000
184.052100 1532.500000
185.046800 35377.000000
186.030800 4027.000000
186.043400 1801.700000
186.054700 6904.200000
186.067200 7209.400000
187.026100 58841.100000
187.038900 37978.700000
187.062500 240966.000000
188.034400 29619.200000
188.046600 242901.400000
188.070300 210711.400000
189.054400 31198.700000
189.078100 29216.100000
190.049500 4415.500000
190.062500 2494.700000
191.033600 1784.000000
199.026200 2279.300000
199.062500 18710.600000
200.034200 6938.000000
200.046600 23944.100000
200.070400 76898.100000
201.041900 385595.700000
201.078200 72174.500000
202.049700 824772.600000
202.086100 906777.400000
203.057600 1432052.600000
204.065200 16378.300000
205.072800 14676.500000
206.043900 3554.300000
212.046600 4111.600000
213.041900 38837.600000
213.054100 7471.500000
213.078700 2356.900000
214.062300 10101.600000
214.086000 11222.300000
215.057400 79085.700000
215.093800 128576.100000
216.065300 187156.800000
216.077200 10333.400000
216.101500 53674.100000
217.073000 114512.900000
218.081000 42843.100000
219.028300 4585.300000
219.051900 7579.300000
219.088100 1548.800000
220.060100 4729.700000
221.068100 39211.500000
227.057800 6881.400000
228.065300 84960.200000
229.073100 69780.800000
229.109100 14347.000000
230.080900 445435.300000
231.088800 36711.100000
232.120400 25818.200000
233.104200 4013.200000
234.075900 62334.000000
242.080800 2090.300000
243.088600 169350.800000
244.096500 228227.800000
245.104300 28425.500000
248.091100 1966.000000
257.104200 8440.000000
259.107300 16957.000000
259.119900 6595.500000
260.115200 39704.100000
261.099500 4355.200000
272.078900 4761.500000
287.102600 13679.200000
288.122900 2263.900000
300.110600 2176.600000
303.146500 5860.600000
315.134500 2486.000000
330.157200 44551.400000
331.140900 14479.500000
358.152000 56691.500000

>ms2
50.003500 5896.100000
55.030200 471086.400000
64.006700 1943.400000
64.019300 5911.800000
65.014500 58310.800000
65.998600 103777.400000
66.009800 67679.200000
67.030200 210699.300000
68.014200 3931.100000
69.034700 4276.700000
72.009200 58722.300000
76.019200 7820.300000
77.014600 71835.200000
78.022400 1887.100000
78.034900 1239.200000
79.030200 2140.400000
81.045800 8592.800000
84.045500 253757.500000
89.014500 9616.000000
89.998500 6934.400000
90.009800 7538.800000
90.022400 4430.700000
90.034900 7095.200000
91.030200 26150.100000
92.014200 45661.000000
93.009400 5745.100000
94.029900 14144.000000
95.025000 3969.400000
95.061600 2142.300000
96.045600 19472.900000
96.056600 1876.200000
102.022200 8173.200000
104.038000 5011.500000
105.009200 1371.900000
105.022000 11363.200000
105.033300 1795.300000
105.045900 12464.400000
106.017300 9249.800000
106.029900 7027.300000
106.041000 5189.600000
107.025200 10981.600000
107.061500 1543.500000
114.056100 90638.800000
115.039900 3826.500000
116.025500 18441.900000
117.009600 10695.300000
117.046000 4715.700000
118.017300 6905.700000
118.029800 18052.800000
118.041200 10005.400000
119.025100 1088542.600000
120.009100 9837.800000
120.020400 16009.400000
120.032900 140414.400000
121.028400 2305.000000
121.040800 36177.100000
122.024600 4225.100000
122.036000 7097.200000
129.033300 1525.700000
130.017300 73629.800000
130.041000 6218.400000
131.025100 18444.700000
131.036600 2076.700000
132.032900 40859.200000
132.056800 7689.600000
133.028200 19924.900000
133.040800 80433.700000
134.012200 1285.500000
134.024800 1322.800000
134.035800 6935.800000
135.020200 3977.500000
135.056400 2172.700000
140.072100 1160.500000
142.041100 2210.800000
143.025100 12093.300000
144.020400 485695.100000
145.028200 926485.400000
146.012300 12441.000000
146.036000 117328.700000
147.020100 273802.600000
147.043800 135480.000000
148.027900 66075.300000
148.051700 78216.600000
149.035700 10197.100000
149.046800 5278.200000
152.023200 1944.100000
157.028100 8375.700000
157.052400 1645.100000
158.012200 113883.900000
158.036000 55163.600000
159.020600 9107.300000
159.031300 25281.200000
159.043700 20622.600000
159.056500 4964.700000
159.067600 6105.000000
160.051700 671919.700000
161.035900 17103.600000
161.046800 15134.200000
161.059400 35485.100000
162.031600 1298.500000
162.043800 8218.000000
162.054600 13053.300000
162.067200 4914.200000
163.051700 1501.200000
171.020300 1165.000000
171.031600 4193.200000
171.067500 2004.700000
172.015400 32392.400000
172.039500 8528.300000
172.051700 43507.700000
173.023100 67070.100000
173.036100 13948.400000
173.046900 245373.600000
173.059300 24265.800000
173.083200 31665.500000
174.030900 32875.500000
174.054700 614709.100000
175.062500 481248.200000
176.046500 61757.500000
176.070400 17610.800000
177.078100 22750.100000
184.051700 5583.300000
185.046900 58818.400000
186.030900 6175.500000
186.054900 16389.300000
186.067200 19379.200000
187.026200 69317.900000
187.062600 409528.300000
188.034000 43685.800000
188.046600 129476.500000
188.070300 146587.100000
189.054700 11093.900000
189.078100 18109.200000
190.049900 3655.900000
191.033800 4049.100000
198.054800 1678.400000
199.026400 6875.900000
199.062700 25207.400000
200.034000 6763.100000
200.046600 16432.100000
200.070400 42244.500000
201.041900 366010.100000
201.078200 121557.400000
202.049700 249584.100000
202.086100 434818.200000
203.057500 331155.500000
204.065100 4629.800000
206.044500 4346.900000
212.046800 4238.400000
213.041900 41591.900000
213.077900 3617.300000
214.050000 4670.600000
214.062000 7351.000000
214.086100 7122.500000
215.057400 42048.600000
215.093700 43881.700000
216.065300 44658.300000
216.101800 17034.900000
217.073000 17828.000000
218.080800 4251.000000
219.029000 3795.100000
219.052500 12618.000000
220.060400 2247.600000
221.067900 15518.100000
227.057400 6360.000000
228.065500 18469.200000
229.073000 45771.600000
229.109400 2316.200000
230.080800 46027.600000
231.088500 2324.400000
232.120200 12330.200000
234.075800 25595.000000
243.088800 16918.200000
244.096600 31796.900000
245.104500 1620.900000
260.114900 4338.000000

>ms2
50.003600 34029.200000
55.030200 453852.000000
62.003700 1446.400000
63.011500 943.200000
64.006700 8526.800000
64.019300 22424.600000
65.014500 203894.100000
65.998600 349530.900000
66.009800 121935.300000
67.030200 361640.000000
68.014200 11501.500000
69.009500 1199.700000
69.034600 1730.600000
72.009200 17904.800000
74.003700 6807.600000
76.019300 42063.300000
77.014600 103422.400000
78.022400 1727.400000
78.034900 1886.600000
79.030100 5823.200000
81.045800 10988.700000
84.045500 45382.300000
88.006600 928.300000
88.019400 1591.300000
89.014500 57550.300000
89.998500 47946.300000
90.009700 60794.900000
90.022300 10292.400000
90.034900 19219.500000
91.030200 29726.600000
92.014200 72857.800000
92.025400 6392.900000
93.009400 26678.800000
94.029800 15932.900000
95.025200 1494.000000
96.045500 1756.500000
96.056800 1779.200000
101.014600 1741.300000
102.009700 1154.800000
102.022400 11423.900000
103.006400 4973.400000
103.030200 3886.000000
104.001600 1769.700000
104.014200 5718.100000
104.038000 5093.400000
105.022000 13155.500000
105.033400 6526.600000
105.045800 38879.100000
106.017200 17370.900000
106.030000 6004.000000
106.041000 7371.600000
107.025100 9231.800000
107.036400 2007.100000
107.061300 887.500000
114.056100 5870.300000
115.030200 9349.800000
116.025500 37857.400000
117.009500 28037.100000
117.045900 3315.400000
118.017300 6242.800000
118.029900 22078.100000
118.041100 26204.200000
119.025100 587589.100000
120.009100 7422.000000
120.020400 16387.100000
120.032900 107031.200000
121.028300 3194.500000
121.040800 20785.800000
122.036000 2013.200000
129.033300 7233.900000
130.017200 130262.600000
130.041100 9309.300000
131.025100 23194.000000
131.036300 3955.000000
132.020300 4362.700000
132.032900 41471.100000
132.056700 7081.300000
133.028200 24756.500000
133.040700 75212.500000
134.012100 1495.400000
134.024700 2070.100000
134.035900 3497.100000
135.020300 1247.600000
142.041000 3313.900000
143.025000 12420.200000
143.036300 6110.500000
144.020400 549036.800000
145.028200 327475.100000
145.051900 23480.000000
146.012400 7884.800000
146.036000 142685.400000
147.020100 42554.200000
147.043800 26630.100000
147.067800 5731.600000
148.027900 24786.800000
148.051700 18585.900000
149.035700 3948.200000
152.022700 1361.600000
157.028100 15285.600000
157.052000 6326.500000
158.012300 24402.700000
158.036000 41478.600000
158.059800 5760.500000
159.020600 6022.000000
159.031200 16048.000000
159.044000 6771.800000
159.056600 1986.600000
159.067400 5405.100000
160.051700 109715.500000
161.035700 3240.400000
161.046700 7071.500000
161.059500 5578.500000
162.054500 1589.400000
171.031300 14512.100000
171.067700 1455.900000
172.015400 6192.700000
172.039200 22273.100000
172.051500 19010.600000
173.023000 7444.800000
173.046800 136816.600000
173.083200 35343.300000
174.030800 11700.700000
174.054700 72414.500000
175.062500 33670.900000
176.046300 1638.600000
176.070200 1604.100000
184.051900 4834.300000
185.046800 26940.700000
186.030900 4347.800000
186.054700 15866.400000
186.067100 5933.100000
187.026300 8293.100000
187.062500 54818.600000
188.034200 5614.200000
188.046600 8370.500000
188.070300 8335.300000
191.034100 950.400000
198.055200 1065.200000
199.026200 5756.200000
199.062500 10977.200000
200.034700 1393.200000
200.046600 1433.600000
201.041900 40206.200000
201.078300 37294.600000
202.049400 5100.700000
202.086100 5533.900000
203.057300 4962.100000
213.041800 5946.300000
214.050600 917.000000
215.057300 1717.900000
219.052200 1359.100000

>ms2
50.003600 88728.100000
55.030200 314079.000000
62.003600 7632.100000
63.011500 4323.900000
64.006700 16637.700000
64.019300 33240.600000
65.014600 267469.100000
65.998600 536204.300000
66.009800 105844.800000
67.030200 201485.900000
68.014200 10083.300000
69.009400 896.300000
69.034800 1271.500000
72.009200 3648.700000
74.003700 16396.900000
76.019400 51486.700000
77.014600 54228.100000
77.998600 1211.200000
78.034900 4225.900000
79.030300 4035.300000
81.045800 4524.200000
84.045500 4137.900000
88.006800 1590.200000
88.019200 1887.900000
89.014500 94641.700000
89.998500 77864.500000
90.009700 91785.800000
90.034900 13135.200000
91.030200 27960.500000
92.014200 45548.200000
92.025300 7385.100000
93.009400 32474.900000
94.029900 9458.300000
101.014500 1433.100000
102.009700 1573.800000
102.022400 1766.200000
103.006300 6202.100000
103.030200 3713.600000
104.001700 4136.400000
104.014200 3405.900000
104.038100 1720.300000
105.009400 1040.800000
105.022000 5597.500000
105.033300 3730.200000
105.045800 18567.000000
106.017200 9792.300000
106.028900 5026.800000
106.041000 1886.200000
107.025100 5406.400000
107.036400 1547.900000
115.030200 10830.900000
116.025500 31580.800000
117.009500 30857.500000
118.017300 1253.500000
118.029900 12575.600000
118.041200 19153.600000
119.025100 185006.200000
120.009200 1861.300000
120.020400 5249.900000
120.032900 21052.000000
121.040800 4885.900000
129.033300 5039.800000
130.017200 58577.700000
131.025100 7965.600000
132.020400 3243.300000
132.032900 18765.000000
132.056800 1403.300000
133.028200 6280.100000
133.040800 19788.900000
134.024500 956.200000
134.035800 965.200000
142.041400 1578.100000
143.025100 7588.600000
143.036400 10940.700000
144.020400 279724.300000
145.028200 39629.900000
145.052100 10893.700000
146.036000 36571.000000
147.020100 6699.300000
147.043700 2701.100000
147.068000 2764.500000
148.028000 942.000000
148.051800 1278.300000
157.028200 10496.100000
157.051900 5905.800000
158.012200 3544.500000
158.036000 9583.100000
158.059300 982.500000
159.020300 1783.700000
159.031700 3289.100000
160.051600 8114.600000
171.031400 6981.800000
172.039000 8347.700000
172.051500 1203.100000
173.046800 13641.100000
173.083500 3442.000000
174.054500 1753.700000
175.062200 1131.400000
185.046800 1899.300000
186.054400 1336.100000
199.062100 815.300000
201.078900 824.100000

>ms2
50.003600 125581.600000
55.030200 147052.600000
62.003700 15125.900000
63.011500 4124.500000
64.006700 20896.800000
64.019300 21457.000000
65.014600 237671.400000
65.998600 511477.200000
66.009800 100988.200000
67.030200 66114.700000
68.014200 5523.700000
74.003700 21212.400000
76.019300 29559.100000
77.014600 13186.000000
77.998500 4032.100000
78.035000 1276.700000
79.030200 1057.600000
81.045700 1073.900000
88.006700 1067.900000
88.019200 3062.500000
89.014500 81067.200000
89.998500 54325.300000
90.009700 72873.500000
90.034800 5873.000000
91.030200 12904.600000
92.014300 13991.300000
92.025300 4502.400000
93.009400 20103.100000
94.029900 1142.800000
103.006600 2006.700000
103.030000 1207.700000
104.001600 1305.700000
104.038000 1414.000000
105.021900 2888.200000
105.033200 992.500000
105.045700 3742.800000
106.017000 1417.200000
106.028500 1406.600000
106.041000 796.000000
107.036200 1059.800000
115.030400 5907.700000
116.025400 12388.200000
117.009500 14344.000000
118.029800 3594.800000
118.041000 4583.900000
119.025000 40501.100000
120.008800 1250.000000
120.020000 833.100000
129.033300 2931.500000
130.017200 15156.200000
131.024900 826.200000
132.032700 4327.700000
133.040400 2970.600000
143.025000 1216.800000
143.036000 3702.100000
144.020400 72939.900000
145.027800 4604.800000
146.036000 4909.100000
157.028000 2886.900000
158.035800 1257.300000

