>compound EQ64061213
>parentmass 459.14089999999993
>ionization [M-H]-
>formula C22H24N2O9
>rt 258.000000
>profile orbitrap
#smiles_iso CC1(C2C(C3C(C(=O)C(=C(C3(C(=O)C2=C(C4=C1C=CC=C4O)O)O)O)C(=O)N)N(C)C)O)O
#smiles_can CC1(C2C(C3C(C(=O)C(=C(C3(C(=O)C2=C(C4=C1C=CC=C4O)O)O)O)C(=O)N)N(C)C)O)O
#inchikey OWFJMIVZYSDULZ-UHFFFAOYSA-N
#pubchem_id 54686003
#mb_accession EQ361051,EQ361052,EQ361053,EQ361054,EQ361055,EQ361056,EQ361057,EQ361058,EQ361059

>ms2peaks
142.014500 138274.300000
151.027300 27622.800000
163.040200 11432.300000
168.030200 50491.600000
169.061900 7551.700000
180.030000 22632.500000
181.037900 16975.700000
182.082300 11129.900000
195.077300 42137.200000
196.025000 39889.700000
201.055600 115856.100000
203.071500 26692.600000
207.077400 26552.100000
211.072600 19527.300000
213.087900 38578.300000
225.088100 63416.200000
227.071000 14591.000000
245.045300 60029.800000
247.061000 44385.000000
271.061200 31812.500000
285.076000 7874.300000
289.071600 164886.000000
295.093200 8276.300000
309.076900 25805.000000
310.144600 10511.500000
314.103300 24710.100000
327.087600 15531.100000
334.072200 7021.400000
335.056400 9093.200000
336.124600 7807.800000
352.082800 36450.700000
353.066800 21522.400000
353.090500 88311.700000
354.134600 52522.500000
356.113800 14433.800000
370.093200 112268.200000
371.100700 179972.900000
372.144800 56307.100000
374.124400 767674.200000
378.062000 8301.200000
379.129300 30844.100000
380.113600 32742.900000
387.156500 8569.800000
396.072500 29642.200000
397.054900 7788.900000
397.140500 114795.500000
398.124200 96892.400000
413.134700 6618.900000
414.082400 19972.100000
415.150800 437142.300000
416.134900 798847.300000
423.120100 7068.900000
424.102900 12570.800000
441.130400 73944.800000
442.114300 1615175.500000
459.140900 6554102.000000
460.124500 110640.800000

>ms2peaks
72.993100 8854.900000
83.013800 4360.800000
84.009000 10894.000000
87.008700 46311.800000
95.013800 28882.500000
96.009000 7180.600000
96.993000 11513.900000
97.029400 16334.500000
99.008700 29610.700000
100.076700 17080.600000
108.021700 11762.500000
109.029400 24743.600000
111.008700 42707.900000
121.029300 3829.900000
123.008700 12599.800000
124.016400 20241.900000
124.988000 24461.400000
125.024300 98379.200000
125.072000 35064.400000
126.055900 10772.900000
135.008900 16976.000000
135.045000 70912.100000
136.040300 4197.900000
136.076600 9140.400000
136.987800 7666.500000
137.024400 41293.700000
138.032300 17390.000000
140.035300 10855.400000
140.071700 25450.300000
141.019400 10765.800000
142.014500 602562.200000
142.998500 54993.100000
147.045100 10147.000000
150.019700 16658.100000
151.003700 29127.000000
151.027500 101097.200000
152.011500 9716.000000
152.035300 12816.500000
152.071700 35638.900000
153.019400 27819.400000
154.014600 9780.900000
154.038400 9998.500000
159.045000 25247.100000
161.024400 82260.800000
161.060800 10904.500000
162.019700 13293.300000
162.032300 8010.800000
163.003600 47522.100000
163.028200 23871.200000
163.040100 149867.800000
164.011500 39086.600000
164.071700 47126.000000
165.055800 3937.400000
166.087000 7443.500000
167.022300 46516.800000
168.030200 166016.000000
168.066600 83322.400000
169.014300 9813.800000
169.025700 7948.100000
169.061800 85292.700000
170.082400 9163.700000
173.024100 17352.100000
173.060600 116179.100000
174.032300 22191.500000
175.039700 6745.900000
177.055700 14238.600000
178.014800 16988.700000
178.050900 4305.200000
178.998500 9112.500000
179.022300 11880.000000
180.030200 99607.100000
180.066600 12368.000000
181.038100 319282.100000
182.082200 78338.200000
184.025100 21247.700000
185.060500 10162.200000
187.040000 43394.200000
187.076500 10351.700000
188.047700 38519.800000
189.019200 9128.000000
189.055800 90446.900000
190.050900 25286.800000
190.087500 9660.600000
191.035200 18165.000000
191.071700 4381.600000
192.054000 7568.600000
192.066700 3821.700000
192.103000 4154.600000
193.061700 8066.100000
195.077400 50074.000000
196.025100 88806.800000
196.061300 15286.400000
199.076500 44779.100000
201.055700 330460.900000
202.063800 3937.500000
203.071400 199001.400000
207.077400 107243.000000
208.061400 68419.200000
209.060600 24193.200000
211.072300 43535.300000
212.048100 11535.500000
213.055900 19327.900000
215.035000 11216.200000
216.043000 3917.200000
217.014200 12741.100000
217.050600 15902.000000
218.021600 8744.200000
218.082100 7994.000000
219.066000 31422.900000
223.076300 21807.400000
224.047300 6295.900000
225.055600 11581.600000
225.088100 80813.500000
227.035200 23036.500000
227.071300 139543.900000
228.042500 10935.400000
229.050500 112367.400000
230.058300 4486.800000
231.065900 14855.800000
233.045400 78025.600000
235.076100 6925.500000
237.055600 11558.500000
237.091800 12699.300000
239.071500 38944.800000
241.087000 24567.200000
243.066100 42879.000000
245.045500 278499.800000
245.081400 24436.700000
247.061200 37455.200000
247.076200 10410.900000
249.055800 8469.900000
250.063000 6329.000000
251.071500 11885.200000
252.042600 4164.100000
253.050500 119054.800000
253.086900 37646.500000
254.058300 12107.900000
254.118400 7951.000000
255.030000 8947.500000
255.066200 74116.400000
256.038300 15855.100000
256.134500 14233.000000
257.082400 8039.000000
263.056000 7490.500000
263.071400 31794.700000
265.051300 3947.800000
265.087000 78583.000000
266.058400 32051.800000
266.095000 8257.700000
267.066300 179427.100000
268.134500 17532.900000
269.081100 13992.600000
270.053000 12830.900000
271.061200 216806.900000
271.097600 66760.000000
272.069100 7839.200000
273.040700 52169.400000
273.076900 23809.900000
274.048000 23897.700000
277.049300 6495.900000
279.066100 20317.100000
280.098000 12310.200000
281.081700 52768.300000
282.113900 11177.700000
283.061500 28454.600000
284.129100 7836.800000
285.076600 55082.800000
289.071700 428583.500000
291.066300 104832.000000
292.074500 22863.000000
292.134600 16474.800000
293.045300 11561.200000
293.081800 4425.900000
294.053700 27654.700000
294.113800 17871.000000
295.061300 31370.700000
295.094700 13059.200000
296.092800 25356.500000
297.076700 148340.800000
298.108400 36779.800000
300.123600 31020.400000
301.071900 27363.500000
306.077000 10636.700000
307.061300 59477.500000
308.092700 12911.200000
308.129000 19845.800000
309.076900 187201.400000
310.085200 50532.700000
310.145000 68100.600000
311.056000 116780.800000
312.124200 123412.800000
314.103500 79744.900000
316.118900 19362.100000
317.045500 22214.400000
318.077000 11633.900000
318.113400 9904.100000
321.100100 7545.600000
323.055800 4212.900000
324.087700 4151.300000
325.071500 37256.100000
326.103200 9654.900000
326.139300 18117.800000
327.087600 66933.000000
328.095100 37054.800000
330.135000 16648.500000
334.072000 29163.800000
335.056200 124035.100000
335.079800 28421.500000
336.065300 16764.200000
336.088900 11129.600000
336.124200 114246.000000
338.103000 7834.500000
342.098200 11656.800000
342.135400 7805.200000
350.066400 17965.700000
351.051400 12890.300000
352.083200 61824.100000
352.118800 73615.000000
353.066800 77896.500000
353.090500 353784.100000
354.074700 109045.200000
354.134700 179179.400000
356.113900 70406.500000
361.035300 19897.900000
362.103700 18021.500000
368.077200 44190.400000
370.093500 41040.600000
370.129300 61372.500000
371.100900 70971.500000
372.145100 90648.000000
374.124600 3719161.500000
378.062100 27481.500000
379.045700 24374.700000
379.129600 29096.800000
380.113800 54903.400000
386.087700 7368.000000
387.155600 3866.800000
396.072700 36775.100000
397.055800 13701.600000
397.140500 48989.000000
398.124300 221985.000000
413.136900 7675.100000
415.151100 60833.100000
416.135000 277027.800000
424.103500 56114.100000
441.130400 17238.400000
442.114100 198621.600000
459.140900 93103.100000
460.124900 27349.600000

>ms2peaks
55.018800 3581.400000
57.034500 2000.700000
59.013800 2445.500000
63.024100 2266.000000
65.039700 1826.100000
65.998400 12717.100000
67.018800 2749.800000
67.051600 2552.600000
68.014100 1940.600000
68.998200 23098.700000
69.034600 14880.600000
71.013900 12499.000000
72.993200 11661.000000
75.008800 3868.800000
79.018900 8274.600000
80.026800 3423.700000
81.034500 20096.200000
82.029800 2032.300000
83.013800 34715.300000
84.009000 52249.000000
85.029500 8935.600000
86.024800 4074.000000
87.008700 130556.800000
91.018800 12978.800000
93.034600 13732.600000
95.013800 50055.600000
96.009200 11112.900000
96.993000 42930.700000
97.029400 40124.300000
98.024700 2096.600000
99.008700 35447.700000
100.076800 30285.700000
106.029700 3001.200000
107.013800 16602.600000
107.050400 1768.800000
108.021700 29318.900000
109.029500 53812.100000
111.008800 308928.100000
112.076900 2292.300000
115.003600 1918.200000
117.034600 2044.600000
119.013900 17017.900000
119.050200 7650.300000
121.029600 20670.900000
122.024800 1668.900000
122.037200 3436.500000
122.061100 4003.500000
123.008800 62087.700000
123.045100 4427.300000
124.016500 66607.700000
124.040300 7226.300000
124.988000 63847.200000
125.024300 111260.400000
125.072000 77271.200000
126.019600 7725.900000
126.032200 10234.100000
126.056000 57896.200000
127.040300 2699.300000
129.067100 1761.000000
133.029400 7522.400000
134.024800 48545.800000
134.037100 7709.900000
135.008700 60449.400000
135.045100 316598.400000
136.016400 9747.100000
136.040300 2363.500000
136.076600 12714.300000
136.988000 13380.300000
137.024400 49172.200000
137.048200 12823.300000
137.060500 3478.100000
138.019400 3754.900000
138.032100 27973.300000
138.056100 8158.300000
139.003500 9746.900000
139.014900 17307.500000
140.035100 7137.400000
140.071800 47121.100000
141.006700 2244.500000
141.019400 20215.000000
141.066800 2357.800000
142.014500 222859.500000
142.998500 144379.600000
144.066900 2726.800000
145.029300 17145.600000
146.037300 7021.000000
147.045100 27619.200000
148.040000 1866.100000
149.011800 2802.700000
149.024400 17570.700000
149.048200 11405.700000
149.995600 3774.300000
150.019600 44641.000000
151.003800 52694.400000
151.027500 73829.100000
152.011700 8686.700000
152.035300 13964.800000
152.071700 36447.200000
153.019400 30602.600000
154.014800 1803.500000
154.038300 16581.600000
154.086900 2423.500000
157.065700 15743.300000
158.036800 3451.600000
159.045100 68913.900000
161.024400 196614.200000
162.019900 32140.900000
162.032200 35344.100000
163.003800 55721.100000
163.027600 108947.100000
163.040100 212011.000000
164.011500 172885.000000
164.035400 34777.000000
164.071400 34784.500000
165.019200 7795.500000
165.043100 13476.400000
165.055700 3162.300000
166.014500 10493.800000
166.087100 8268.800000
167.022300 31675.100000
168.030200 48402.100000
168.066500 48574.200000
169.014200 3779.900000
169.025500 26306.100000
169.061600 39762.000000
170.082200 2213.000000
171.045000 16387.300000
172.053000 37482.700000
173.024500 30097.100000
173.060700 298333.200000
174.032100 97616.800000
175.039700 15959.900000
175.076100 1823.000000
177.030600 17856.800000
177.055600 9961.900000
178.014600 49964.700000
178.051400 12318.600000
178.998600 17170.400000
179.022500 7506.200000
180.030200 61086.600000
180.066200 17677.900000
181.038000 205449.900000
182.082100 26595.800000
183.045000 6767.300000
183.081700 25075.500000
184.053200 2659.400000
185.024100 2785.400000
185.060700 44812.100000
186.031900 9639.000000
186.068700 16234.600000
187.040000 149115.000000
187.076300 9398.000000
188.047900 87054.500000
189.019400 23806.900000
189.055700 129618.400000
190.027300 7538.400000
190.051100 18252.900000
190.087200 4095.100000
191.035000 32533.700000
191.071500 16848.100000
192.030900 1972.900000
192.053800 20397.400000
192.066800 2359.300000
192.102700 2887.400000
193.062200 10253.900000
194.021900 3549.400000
194.045900 2682.500000
195.040900 30541.900000
196.024900 29910.900000
196.052800 23629.300000
196.060900 3472.500000
197.060900 35632.800000
199.039500 16016.800000
199.076400 99436.600000
200.047600 16058.400000
201.055700 373724.800000
202.026900 4190.900000
202.063600 8138.100000
203.034900 35915.600000
203.071400 137121.700000
207.077500 35106.900000
208.053200 3052.300000
208.061300 14768.800000
209.060600 75131.800000
210.069100 38553.900000
211.039800 23697.900000
211.076500 107684.300000
212.047900 28266.500000
212.084500 2474.900000
213.019100 2054.900000
213.055800 30276.700000
213.092000 9848.400000
214.026700 17148.300000
214.063300 2077.800000
214.998900 2261.100000
215.035000 32714.100000
215.071200 7351.500000
216.030600 2915.900000
216.042600 12354.000000
217.014400 16970.700000
217.050500 28420.200000
217.086900 3393.400000
218.022000 25499.300000
218.081900 2861.300000
219.065800 12736.500000
219.081300 3102.400000
220.053500 1897.800000
221.060200 3302.000000
222.068500 9953.200000
223.076500 71383.400000
224.047800 35229.500000
225.055700 90484.800000
225.092100 27291.100000
226.063300 14780.800000
226.087000 2741.100000
227.035200 39807.300000
227.071300 159649.900000
228.042800 17191.300000
229.050500 65306.800000
229.087000 17183.300000
230.021800 10036.900000
230.058300 9796.300000
231.029800 13725.500000
231.066300 2614.200000
233.045700 10766.500000
233.060800 7689.100000
235.039800 39556.400000
235.076200 25595.800000
236.083700 3500.800000
237.055500 33769.900000
237.092000 19348.700000
238.063600 29869.200000
238.087600 8191.700000
239.035400 9094.800000
239.071400 134986.000000
240.043300 17023.100000
241.051200 15778.800000
241.087100 34672.700000
242.058300 7832.400000
243.066100 127497.300000
245.045400 135694.200000
245.081700 11612.200000
246.068200 2337.500000
247.076400 26626.500000
248.048100 15015.500000
249.055700 61801.500000
250.062900 14066.500000
251.034900 7435.200000
251.071100 37168.400000
252.042800 73872.100000
252.102700 7855.900000
253.050600 373554.800000
253.086600 42280.200000
254.058400 64743.200000
254.118100 4029.500000
255.030000 12114.700000
255.066200 169058.400000
256.037600 52143.400000
256.134000 18544.600000
257.045600 2885.200000
257.082100 24340.000000
258.052800 6171.600000
259.061300 10743.000000
261.055400 10409.600000
262.063600 3852.000000
263.071200 71977.500000
264.043400 8393.900000
264.066000 6025.600000
264.079300 16603.900000
265.050300 19155.500000
265.087200 37267.900000
266.058200 36691.900000
266.094900 7371.500000
266.118800 6825.200000
267.066200 546539.600000
268.037600 6525.500000
268.061400 2555.800000
268.074300 10547.800000
268.097700 3296.100000
268.134300 17930.800000
269.045900 2389.200000
269.082100 32324.900000
270.053500 40150.000000
271.061100 245733.400000
271.097400 42800.700000
272.068900 3177.700000
273.040300 18002.000000
273.055700 11923.100000
273.076700 32210.600000
274.048400 48463.400000
274.063200 3158.900000
275.072100 2342.500000
276.042600 11082.000000
277.050500 41277.100000
278.058100 3235.000000
278.082300 8260.600000
279.029800 2924.100000
279.066100 46324.600000
279.089800 7973.300000
280.074200 8246.900000
280.097900 19194.100000
281.045600 3082.400000
281.082000 30364.700000
282.053400 2712.300000
282.077000 2515.500000
282.113500 13292.400000
283.061000 56076.600000
284.129100 25881.600000
285.076500 33839.400000
289.050900 20522.700000
289.071700 255953.900000
290.057900 13329.300000
290.118700 2855.500000
291.066200 89531.600000
292.037600 16166.000000
292.074300 25806.500000
292.134100 3666.500000
293.045600 33397.300000
293.081700 6866.600000
294.053500 23979.800000
294.113300 21448.600000
295.061100 34342.600000
296.092800 25515.500000
297.076700 45780.500000
298.108700 16506.300000
300.123300 15146.300000
301.071100 16937.500000
303.029400 8664.100000
305.045000 11612.100000
306.077200 10315.900000
306.113100 3726.400000
307.061000 63119.000000
308.069300 8963.900000
308.129300 12804.700000
309.040800 6497.900000
309.077200 38115.200000
310.085200 22934.000000
310.144800 11768.900000
311.056000 101200.900000
312.124100 268087.000000
314.103300 3074.600000
316.060900 4240.300000
316.118900 10073.500000
317.045300 17806.300000
318.077000 14104.400000
318.114500 2209.400000
319.061100 10824.900000
320.032800 11145.500000
321.040800 10827.500000
321.100600 10652.700000
323.055400 4172.700000
324.086900 9035.700000
325.072100 14066.200000
326.079300 4429.200000
326.139400 9211.100000
327.088100 2659.200000
330.135100 7170.700000
332.055400 2587.900000
333.039600 11943.900000
334.072200 17744.000000
334.108100 4184.900000
335.055900 33845.100000
335.079700 19086.700000
336.064500 7709.500000
336.087900 8917.600000
336.124300 20035.700000
338.043300 3851.300000
338.067300 8015.500000
338.104000 3475.700000
342.134000 6839.900000
346.011900 2473.500000
350.066400 15064.600000
351.051100 9129.800000
352.082700 7372.200000
352.118400 10593.300000
353.066600 7308.600000
353.090500 32968.300000
354.074600 28451.200000
354.134600 10147.400000
356.114500 20910.000000
361.034600 8544.400000
362.103800 3472.000000
368.077700 2789.200000
370.129400 7225.100000
374.124400 565378.800000
379.047400 2448.400000
398.124900 2757.700000
424.103200 2637.700000

>ms2peaks
55.018900 17300.000000
57.034600 1819.600000
58.029800 1871.000000
59.013800 8848.300000
63.023900 15672.800000
65.003300 10914.700000
65.039700 15791.800000
65.998600 33853.600000
67.018900 10707.000000
67.051400 1483.100000
68.014300 3002.600000
68.998200 58594.100000
69.034600 31317.000000
71.014000 14932.500000
72.993200 6796.500000
73.029500 2917.300000
78.034900 2092.000000
79.018900 16701.800000
80.026700 8117.700000
81.034500 25909.600000
83.013900 98792.200000
84.009000 106417.200000
85.029500 11269.700000
86.024700 3768.900000
87.008700 113074.300000
90.034700 1974.000000
91.018900 54899.000000
92.026500 2067.600000
93.034500 42852.500000
94.029900 1623.700000
95.013800 67640.300000
95.050100 4306.600000
96.009100 23099.300000
96.045400 1903.700000
96.993000 108462.500000
97.029400 67791.100000
98.024700 1971.700000
99.008700 32070.500000
99.045300 3669.900000
100.076800 15673.300000
105.034500 4280.300000
106.029600 2505.300000
107.013900 28675.200000
107.050100 7501.500000
107.061400 2840.300000
108.021700 64090.000000
109.029500 95571.800000
110.024700 3864.000000
110.060800 2674.900000
111.008800 226315.500000
112.076500 2996.800000
117.034600 19848.700000
119.013800 16109.800000
119.050200 23088.100000
121.029500 42308.800000
121.053300 4289.100000
122.024800 8408.000000
122.037400 3804.200000
122.061000 3533.100000
123.008800 80862.900000
123.032500 4192.000000
123.045400 12143.600000
124.003800 3977.500000
124.016500 61356.600000
124.040200 6726.800000
124.988000 55232.600000
125.024400 80171.000000
125.072000 40340.200000
126.019600 12855.500000
126.032200 9913.700000
126.056000 82031.700000
127.040000 3089.900000
129.034800 2488.100000
129.070700 2934.500000
130.042300 2714.300000
131.013900 2757.200000
131.050100 7119.400000
133.017000 1643.500000
133.029400 9991.900000
134.024700 77862.000000
134.037300 19944.900000
135.008800 71446.500000
135.045200 654647.300000
136.016500 10080.200000
136.040600 2464.100000
136.076600 8233.500000
136.988000 8974.800000
137.024300 38703.400000
137.048300 16157.300000
137.060800 7708.600000
138.019500 6991.400000
138.032300 18042.900000
138.056300 11463.100000
139.003700 3114.500000
139.014900 55169.400000
140.035300 1803.900000
140.071700 17887.500000
141.019300 17038.200000
141.066900 2184.700000
142.014500 40845.000000
142.998500 121999.600000
143.050200 8382.300000
144.057900 20785.900000
144.066700 2153.300000
145.029500 50809.900000
145.065900 10363.200000
146.024800 2286.300000
146.037300 13926.000000
147.045300 29878.000000
148.004300 2064.500000
148.016700 3848.900000
148.040500 2183.400000
149.011700 16254.400000
149.024300 25535.400000
149.048100 3913.400000
149.995800 18190.700000
150.019600 68856.800000
151.003700 36577.900000
151.027500 61587.000000
152.011500 8415.700000
152.035400 8602.200000
152.071800 15848.800000
153.019300 15329.900000
154.038400 10525.600000
155.050100 6990.500000
157.065900 39678.200000
158.037400 20947.900000
159.045100 109289.300000
160.016600 3427.500000
160.040400 6492.200000
161.024400 271890.400000
162.019700 51720.100000
162.032200 26099.400000
163.003800 34417.000000
163.027600 131425.300000
163.040000 124045.600000
164.011600 132428.400000
164.035300 24874.200000
164.071800 11336.600000
165.019100 6921.100000
165.043100 13414.600000
165.055200 3049.000000
166.014400 2696.300000
166.050900 3097.300000
166.087300 2214.500000
167.022200 16586.800000
168.030000 18893.300000
168.066500 18380.400000
169.025400 16124.800000
171.045100 52311.100000
172.053000 156301.300000
173.024200 43213.500000
173.060700 460320.500000
174.032200 178239.500000
175.040000 47415.800000
175.076400 6998.100000
176.035000 3140.700000
177.030400 52435.800000
177.055700 9375.600000
178.014600 46913.100000
178.050700 3681.500000
178.998900 7772.800000
179.022800 2332.100000
180.030200 11553.400000
180.058200 7009.100000
180.065900 3946.300000
181.038100 26504.300000
181.066200 15171.600000
182.082000 2598.200000
183.044700 9541.100000
183.081400 54721.700000
184.053400 6917.700000
185.024100 15016.700000
185.060800 69982.600000
186.032300 13256.000000
186.068300 17560.700000
187.040000 213901.300000
187.076500 12036.200000
188.047800 84116.000000
189.019300 29319.900000
189.055600 79209.100000
190.027100 2813.200000
190.050800 3711.500000
191.035100 24445.000000
191.071200 12632.600000
192.054100 7193.100000
193.066500 13605.700000
194.022100 6312.000000
195.041500 22135.000000
195.081600 27757.000000
196.052800 67237.900000
196.061500 4021.600000
197.060800 109881.600000
198.032500 2542.200000
198.068800 2848.300000
199.039900 18642.200000
199.076500 127356.200000
200.047700 21182.900000
201.055700 315265.100000
202.027300 24829.000000
202.063400 7120.900000
203.035000 66218.900000
203.071400 40293.500000
204.043000 2273.000000
205.065100 2424.400000
206.022300 2165.200000
207.044600 2792.900000
208.052900 19367.400000
208.061600 2574.300000
209.060800 146516.900000
210.068600 57798.200000
211.040100 56718.100000
211.076400 169886.500000
212.047800 35775.000000
212.084700 3157.000000
213.055600 35803.200000
213.091700 3975.200000
214.027000 13036.900000
214.063600 4093.700000
214.998400 2350.600000
215.035200 16445.400000
215.071200 20187.200000
216.030800 3183.800000
216.042600 11416.400000
217.013700 2189.600000
217.050600 17141.900000
217.065600 3294.000000
217.087100 1914.000000
218.022000 16204.900000
218.058800 3316.000000
219.066200 1968.600000
219.081600 2287.500000
220.053200 11165.800000
221.060800 30088.900000
222.068400 16170.800000
223.039900 11932.300000
223.076400 80949.500000
224.047800 82768.600000
224.071800 8049.700000
225.055800 166279.400000
225.092100 52488.700000
226.063900 12288.100000
226.087200 1798.500000
227.035000 46586.100000
227.071400 82543.400000
228.042900 16172.300000
229.050000 21982.300000
229.087200 10340.200000
230.022400 14487.200000
230.058400 11901.400000
231.030100 22959.300000
231.066300 7674.500000
232.052800 2524.900000
233.060700 27120.300000
234.067800 2659.000000
235.040100 154983.500000
235.076400 31535.100000
236.048100 10484.900000
236.072100 3578.100000
236.083700 3748.300000
237.055600 55928.300000
237.092300 10940.600000
238.026600 3997.700000
238.063400 44891.900000
238.087300 10841.100000
239.035100 19736.100000
239.071300 134278.800000
240.042900 25860.800000
241.050600 24467.700000
241.087000 9595.300000
242.058300 4025.100000
243.066100 72147.600000
245.045500 30425.500000
245.060600 14188.800000
246.068900 7585.300000
247.076100 10054.800000
248.047700 29323.600000
249.055600 73485.600000
250.026300 2010.700000
250.063200 18171.500000
250.087000 3983.500000
251.034700 17306.000000
251.071300 39381.000000
252.042800 91449.700000
252.102800 26828.800000
253.050600 541839.200000
254.058300 49017.700000
255.030100 30541.200000
255.066300 64196.800000
256.037800 61050.100000
257.045900 3755.400000
257.082600 1972.500000
258.053500 18002.100000
259.061700 4218.100000
261.055700 30337.900000
262.063800 7760.100000
263.071100 44466.400000
264.042100 13089.900000
264.066300 3244.200000
264.078900 7650.400000
265.050300 36803.700000
265.087100 9504.000000
266.058700 23425.000000
267.066200 151724.500000
268.038400 4535.700000
268.061400 4252.000000
268.097100 6929.900000
268.134700 2261.400000
269.045100 2749.100000
269.081600 12640.400000
270.053400 19865.800000
271.061200 74420.700000
271.097100 3730.500000
273.055100 4090.600000
273.078100 3907.000000
274.048200 21853.000000
274.062900 4091.300000
275.071800 6447.700000
276.042800 14028.400000
277.050600 38103.600000
278.058400 2665.300000
278.082600 6712.400000
279.030400 3152.400000
279.066400 24270.600000
279.090400 2807.900000
280.037700 3635.400000
280.074100 2990.400000
280.098000 4251.300000
281.045600 3524.900000
281.081900 8760.500000
282.052900 3657.200000
282.077500 4152.200000
283.060900 9253.300000
284.129300 6849.600000
289.051900 20792.300000
289.071300 23580.400000
290.059300 9046.900000
291.066400 31747.900000
292.037400 19232.700000
292.074200 3175.600000
293.045600 28475.000000
294.052100 5969.300000
294.113800 4286.100000
295.061100 11303.100000
296.092800 9987.500000
297.077300 2564.500000
303.029600 7617.700000
304.061600 8772.300000
305.045600 7218.600000
306.077700 4115.000000
306.112500 2390.400000
307.061300 14552.100000
308.068500 2103.200000
308.093100 2377.000000
309.040900 2499.800000
311.056400 6900.300000
312.124300 28764.100000
314.103100 3382.400000
316.061100 3234.100000
317.045500 9503.100000
318.077400 7678.400000
319.061400 3400.700000
321.041000 3883.800000
326.079700 2290.200000
333.041400 3461.500000
335.056500 3752.200000
374.124300 3621.200000

>ms2peaks
50.003500 1838.400000
51.023900 2031.400000
55.018900 31414.300000
57.034500 7882.200000
58.029800 2461.600000
59.013800 8775.900000
63.024000 27271.700000
65.003300 22429.100000
65.039700 26781.400000
65.998500 50594.700000
67.019000 14604.100000
68.014300 3740.900000
68.998200 112250.400000
69.034600 40439.500000
71.014000 18728.700000
72.993200 6401.900000
73.029600 2547.200000
75.024000 2047.100000
78.035000 2793.800000
79.018900 29614.400000
80.026800 10909.800000
81.034600 22342.600000
83.013900 80375.700000
84.009000 93594.600000
85.029500 8855.300000
87.008700 50520.900000
89.039700 8302.500000
90.034900 7323.000000
91.018900 64416.800000
91.055300 7782.500000
92.026800 9890.300000
93.034500 84340.900000
95.013800 86274.100000
96.009100 26102.800000
96.045500 2091.900000
96.993100 110074.500000
97.029400 48789.000000
98.024700 2211.100000
99.008700 19447.000000
99.045100 2509.900000
100.076800 9607.800000
103.055400 1764.800000
105.034500 11469.200000
106.029900 2807.000000
107.013800 22902.500000
107.050300 8634.100000
107.061500 2047.000000
108.021700 81493.400000
109.029500 87081.400000
110.024900 2832.300000
111.008800 68746.900000
115.055000 1962.800000
117.034600 48969.400000
118.030000 2054.900000
119.013900 9653.200000
119.050200 23297.000000
120.009100 8126.500000
121.029500 45180.000000
121.053400 2395.100000
122.025000 12686.600000
122.037400 7455.800000
122.061100 2077.200000
123.008800 79115.100000
123.032700 8365.700000
124.016500 55165.300000
124.040400 3348.500000
124.987800 18480.900000
125.024300 37631.500000
125.072000 10523.700000
126.019500 6813.700000
126.056100 40045.700000
129.034800 2532.600000
129.071100 7500.900000
130.042200 16970.200000
131.013500 2133.600000
131.050200 16503.200000
132.021800 2782.400000
133.017000 3607.600000
133.029300 14778.500000
133.066100 2036.100000
134.024800 60017.000000
134.037300 14972.800000
135.008800 45297.500000
135.045200 647768.300000
136.016400 4038.000000
136.040200 3421.500000
136.076200 1986.500000
136.988100 5945.100000
137.024400 26493.700000
137.048300 9473.500000
138.019600 3289.900000
138.032300 8899.500000
138.056100 2540.500000
139.014900 75057.500000
140.071800 2589.600000
141.019300 3303.000000
142.014400 3886.100000
142.998600 41687.800000
143.050200 21562.500000
144.058000 73693.400000
145.029400 37234.400000
145.065800 16306.800000
146.024700 3162.100000
146.037000 12491.900000
147.020000 2136.700000
147.032700 2354.100000
147.045200 18861.400000
148.004000 3201.100000
148.016800 2411.200000
148.040300 1842.600000
149.011800 20277.200000
149.024300 14904.600000
149.035300 1610.800000
149.048100 2704.500000
149.996000 12419.500000
150.019600 64838.200000
151.003700 17219.200000
151.027500 28820.500000
152.011800 2273.300000
152.035600 6710.500000
152.071400 3734.800000
153.019500 6614.800000
155.050100 12651.200000
156.058000 8746.000000
157.065800 37622.100000
158.037300 62428.200000
159.045200 119378.400000
160.016300 2886.700000
160.040100 3510.600000
161.024500 207463.900000
162.019700 61029.200000
162.032300 10389.400000
163.004000 7451.200000
163.015200 6782.600000
163.027600 59240.200000
163.040100 41270.400000
164.011500 30677.600000
164.035300 6757.700000
165.019300 2636.200000
165.071200 3336.600000
167.022100 3110.600000
167.050100 7210.100000
168.066400 2440.400000
169.025000 2784.400000
169.066000 35826.500000
170.037200 2486.300000
171.045200 112707.700000
172.053000 235179.000000
173.024400 54752.700000
173.060700 438035.800000
174.032200 151113.800000
175.040000 45249.900000
176.035000 3047.700000
177.030600 38898.200000
178.014600 23944.100000
180.058300 19259.000000
181.066000 23839.900000
182.036800 3556.800000
183.044900 35692.900000
183.081500 56245.700000
184.052800 11577.800000
185.024400 14771.700000
185.060800 54350.900000
186.032300 11786.400000
186.068600 15387.400000
187.040100 195185.300000
188.047900 32153.000000
189.019300 16236.600000
189.055700 24907.200000
190.051000 2784.600000
191.034800 3031.700000
191.050700 2454.500000
191.071400 3176.500000
192.030500 1749.100000
193.065900 21159.200000
195.045900 23930.700000
195.081400 17404.600000
196.053000 72276.900000
197.060800 101913.500000
198.031900 2832.600000
198.069000 2896.600000
199.039700 22231.100000
199.076400 72529.400000
200.048000 12242.000000
201.055700 193464.600000
202.027100 19479.300000
203.034900 58292.500000
203.071300 3096.000000
204.042400 3606.300000
204.058400 1724.000000
205.065600 3020.200000
206.021100 1700.100000
207.045100 12042.600000
207.081500 9959.500000
208.053200 26302.400000
209.060800 149513.300000
210.032200 12409.600000
210.068400 35424.200000
211.040000 69851.700000
211.076400 87012.800000
212.048000 20218.600000
213.055600 30552.200000
214.026900 3774.000000
214.063600 2240.200000
215.035100 3522.900000
215.071600 11239.800000
216.042700 3123.700000
217.050700 2217.100000
217.066100 3717.200000
218.022300 1869.900000
218.059000 6976.200000
219.044900 8723.900000
220.053100 10060.500000
221.060700 36578.900000
222.068300 11520.800000
223.040100 16761.500000
223.076300 40407.500000
224.047900 90254.000000
224.071400 7727.500000
225.055700 161022.200000
225.092400 18843.000000
226.027000 3348.200000
226.063500 2773.100000
227.035000 31993.700000
227.071300 26987.100000
228.043000 11126.900000
229.051100 3461.900000
230.021800 2459.300000
230.058100 2071.000000
231.030000 10915.000000
232.053100 6565.700000
233.060800 26822.300000
234.068600 1823.700000
235.040100 146234.100000
235.076200 21209.900000
236.048200 2576.600000
236.071600 9501.500000
237.055700 43501.600000
237.092100 2481.100000
238.027200 2340.300000
238.063700 18798.500000
238.087700 3537.300000
239.035000 26085.500000
239.071300 38090.900000
240.042600 14861.200000
241.051000 14053.600000
241.087400 2031.900000
243.066400 12816.900000
245.060200 2256.000000
246.068400 8277.700000
247.040200 6745.200000
247.076400 7722.800000
248.047600 25154.500000
249.055700 32874.900000
250.027700 2058.800000
250.063700 9195.700000
250.087500 6264.200000
251.034700 6694.900000
251.071200 19557.100000
252.042800 37731.800000
252.102700 12923.400000
253.050600 391593.300000
254.058600 6979.500000
255.030000 53366.200000
255.066500 9966.400000
256.037700 21195.100000
261.055300 15665.300000
262.064000 5327.600000
263.035100 7503.000000
263.058600 2681.900000
263.071300 17638.100000
264.042700 7101.700000
264.066700 2583.900000
265.050300 21406.900000
265.087000 3368.800000
266.058400 7386.000000
267.066000 19846.800000
268.061300 2121.400000
269.045900 7256.000000
271.061600 5936.800000
273.056000 3693.200000
274.063900 2101.100000
275.071600 1650.900000
276.042800 7216.500000
277.050400 17529.900000
278.057900 2461.700000
278.082400 1818.700000
279.029300 7906.600000
279.066600 3423.400000
280.038200 2692.300000
282.053900 1757.300000
289.050700 6691.100000
291.066000 9672.800000
292.037400 3119.100000
293.045600 8361.700000
303.029900 2536.400000
304.061800 1709.500000
305.045200 2603.400000
316.062900 2291.700000

>ms2peaks
51.023900 2154.100000
53.003200 2619.800000
55.018900 36710.600000
57.034600 7419.900000
59.013800 9089.400000
63.024000 42482.200000
64.019300 1978.100000
65.003300 38569.700000
65.039700 30794.800000
65.998500 76515.300000
67.018900 22907.200000
68.014200 3609.800000
68.998200 159870.500000
69.034600 50549.600000
71.013900 17513.100000
72.993400 1877.400000
75.024100 6941.500000
76.019400 2511.600000
78.035000 7207.900000
79.018900 44938.600000
80.026700 3052.000000
81.034500 21222.100000
82.005900 7037.500000
82.029900 2309.500000
83.013800 54684.800000
84.009000 63317.900000
85.029500 8716.300000
87.008700 20121.600000
89.039700 16760.300000
90.034900 20985.900000
91.018900 73072.300000
91.055300 6666.000000
92.014100 2821.000000
92.026700 13468.000000
93.034500 158408.300000
94.029800 2515.200000
95.013800 93712.100000
95.050200 8845.400000
96.009100 49994.200000
96.045500 6327.200000
96.993100 56379.100000
97.029400 38947.100000
99.008900 11399.800000
99.045000 3308.500000
101.039600 6728.600000
103.055400 2636.900000
105.034400 8268.900000
107.013900 14718.100000
107.050200 9295.100000
108.021700 101676.600000
109.029500 90416.500000
110.024800 3154.200000
110.061000 2513.600000
111.008700 20183.900000
115.055400 5749.100000
117.034600 113173.800000
118.029800 6243.300000
119.013600 10969.200000
119.050200 22391.300000
120.009100 8567.500000
121.029500 37345.900000
122.024800 13624.800000
122.037200 3160.800000
123.008800 58894.700000
124.016500 36835.900000
124.040200 5831.900000
124.987800 5587.300000
125.024400 20991.500000
126.019800 1552.600000
126.056100 16960.600000
129.070800 6997.800000
130.042300 27247.500000
131.013600 3721.100000
131.050200 23160.400000
132.021300 3201.200000
133.016400 2268.400000
133.029500 12485.400000
133.066000 2189.900000
134.024700 60566.300000
134.037300 9548.000000
135.045200 509402.900000
136.016500 2117.400000
136.040600 2061.100000
137.024300 18939.800000
137.048000 3374.100000
138.019800 2498.000000
138.032300 3033.400000
139.014900 71660.100000
141.034600 3057.200000
142.998400 10500.300000
143.050200 66346.900000
144.058000 143262.800000
145.029400 46717.600000
145.065800 10388.800000
146.037500 6473.500000
147.020200 3645.200000
147.032200 2002.600000
147.045200 12745.000000
148.004200 16914.600000
148.040500 2535.200000
149.011700 16207.700000
149.024300 3855.800000
149.035600 3229.400000
149.995800 7373.900000
150.019700 29823.500000
151.003800 6816.000000
151.027300 12790.900000
152.035300 6791.300000
152.063200 1795.600000
154.042300 2435.800000
155.050100 18724.500000
156.058200 7259.200000
157.029500 2096.700000
157.065900 28720.900000
158.037300 103088.300000
159.045100 87998.500000
160.040700 2884.400000
161.024500 150827.300000
161.060600 7728.400000
162.019600 54766.800000
163.003700 2630.400000
163.015200 5651.800000
163.027700 16724.700000
163.039900 11681.500000
163.055500 1742.600000
164.011500 6424.200000
164.035500 2088.900000
165.070800 5771.000000
167.050300 22934.200000
168.058000 7880.200000
169.065900 58034.400000
170.037200 2509.600000
171.045200 181551.700000
172.053000 200502.000000
173.024300 66013.400000
173.060700 322110.200000
174.032200 102286.500000
175.039900 36328.700000
177.030300 19635.900000
178.014600 6794.800000
179.050300 8136.600000
180.057900 23783.800000
181.065900 33179.500000
182.037500 21561.500000
183.045000 43494.300000
183.081300 33876.400000
184.053100 6538.200000
185.024000 16610.100000
185.060700 37435.900000
186.032200 6394.900000
186.068400 2583.600000
187.040000 171983.800000
188.047900 14993.700000
189.019100 3789.300000
189.055700 10516.500000
190.051900 1735.200000
191.050400 18942.500000
193.065200 16510.700000
195.045100 50322.900000
195.081400 10939.200000
196.052900 69495.800000
197.060800 95977.500000
198.032000 2872.600000
199.040200 12966.900000
199.076400 32090.300000
200.047500 2619.600000
201.055700 85574.300000
202.026900 7705.200000
203.035000 28340.400000
204.042600 2145.100000
204.057900 8308.500000
205.065600 7259.700000
206.022500 2068.900000
207.044900 17005.600000
207.081700 3151.100000
208.052900 34999.600000
209.060800 118037.100000
210.032100 18893.600000
210.068700 9971.000000
211.040100 67626.500000
211.076300 25629.600000
212.047500 7152.400000
213.019000 2687.900000
213.055600 19228.400000
215.071400 1545.100000
216.041900 1720.700000
217.065900 2961.100000
219.044700 10916.500000
220.053000 16814.800000
221.061000 27427.900000
222.068400 11099.300000
223.040000 11789.100000
223.076300 14730.100000
224.047900 106444.500000
225.055600 149535.200000
226.026500 4927.600000
226.087500 1663.100000
227.035000 32929.800000
227.071500 7067.400000
228.042400 1696.000000
232.052900 7972.900000
233.060700 18769.500000
234.068300 2107.400000
235.040100 88205.000000
236.048100 3536.600000
236.071900 2721.400000
237.055900 38754.700000
238.063000 9045.500000
238.087200 1956.200000
239.035000 34516.200000
239.071100 8570.600000
240.043000 7258.200000
241.049900 7683.300000
245.060000 3259.500000
246.068700 2655.300000
247.040300 3061.300000
248.047600 18889.700000
249.055900 20353.600000
250.063400 2785.200000
250.087300 2017.500000
251.035000 7877.600000
251.071300 10288.700000
252.042400 13164.100000
252.102700 3008.600000
253.050500 230995.500000
254.059100 2650.800000
255.029800 59064.900000
261.055500 13757.800000
262.063400 2093.400000
263.034600 8655.300000
263.058500 2828.100000
263.071400 3111.800000
264.042700 2301.600000
265.050500 9437.800000
267.065900 1944.400000
275.071100 2012.000000
276.041900 3716.000000
277.050300 8391.600000
279.030100 2437.300000
289.050300 1965.500000
292.037300 1673.700000
303.029400 1809.700000

>ms2peaks
50.003600 15506.600000
51.023900 11076.400000
53.003200 9224.600000
55.018900 20739.900000
57.034500 1824.800000
59.013900 1667.400000
63.024000 23899.700000
64.019200 3089.500000
65.003300 61068.900000
65.039700 47211.300000
65.998500 130522.100000
67.019000 21157.800000
68.014200 14247.600000
68.998200 123586.900000
69.034600 20333.800000
71.013900 9027.600000
75.024100 4780.800000
76.019300 3226.600000
78.034800 5638.900000
79.018900 19656.400000
81.034500 7958.200000
82.006100 10063.900000
82.029800 1530.700000
83.013800 8992.200000
84.009100 23898.600000
89.039700 24279.600000
90.034800 9278.400000
91.018900 45010.200000
91.055200 2375.100000
92.014300 3166.200000
92.026700 16869.900000
93.034500 144929.000000
95.013800 64578.400000
96.009100 44234.900000
96.993100 8295.200000
97.029500 11780.600000
101.039600 6946.600000
103.055100 2242.100000
106.029700 1311.200000
107.013700 2950.800000
107.050200 2424.900000
108.021700 90649.100000
109.029500 41214.300000
113.039900 2095.200000
115.055400 13674.800000
117.034600 96137.100000
118.029800 3079.600000
119.013700 3124.000000
119.050100 7628.800000
120.008900 8314.000000
121.029500 12102.500000
122.024700 6430.400000
123.008800 29652.900000
123.045100 2448.000000
124.016500 6069.300000
124.040300 1504.100000
129.034600 2228.100000
130.042300 43639.300000
131.050300 18945.100000
132.021500 2560.700000
133.017100 2968.700000
133.029600 3235.100000
134.024800 25967.700000
134.037600 1474.400000
135.045200 82383.600000
139.014900 15973.600000
139.055200 6741.300000
141.034500 10461.800000
143.050200 101319.400000
144.057900 32618.400000
145.029500 52589.700000
145.065700 7142.600000
146.024900 1525.400000
147.019800 2900.500000
147.044900 7633.200000
148.004100 13823.200000
149.011800 6095.100000
150.019500 2560.900000
152.063000 1923.200000
154.042500 8032.400000
155.050300 8322.800000
156.057900 6914.700000
157.029300 2126.700000
157.065600 6534.300000
158.037300 61839.400000
159.045100 38885.000000
161.024500 33056.100000
161.061000 1963.500000
162.019800 11316.700000
163.055100 3176.500000
165.070600 1913.100000
167.050200 38481.600000
168.057800 7823.000000
169.029300 7750.600000
169.065900 30616.900000
170.037100 2030.700000
171.045200 156480.500000
172.053000 23615.100000
173.024300 34409.200000
173.060700 57399.600000
174.032200 21346.100000
175.040000 3342.400000
179.050200 4935.700000
180.058000 22441.300000
181.065600 11865.600000
182.037300 25618.800000
183.045000 33979.200000
183.081000 2349.700000
184.052800 2131.300000
185.024000 1857.000000
185.060400 7063.800000
187.040100 50823.900000
191.050000 9422.000000
193.066200 3461.600000
195.045000 32200.300000
196.052800 22156.000000
197.060700 20382.400000
198.031800 2368.200000
199.039900 6969.200000
199.076000 2413.000000
201.055100 6205.000000
204.057900 3330.400000
207.044800 10167.400000
208.052900 12572.200000
209.060700 26755.900000
210.031900 7061.900000
211.040000 25494.900000
211.076200 1825.700000
213.056300 1514.100000
219.044700 2363.400000
220.053000 1702.900000
221.060200 1697.200000
223.039800 5468.100000
223.075900 1493.900000
224.047800 38305.900000
225.055800 16813.200000
226.027000 11599.600000
227.035400 9902.400000
232.053100 1562.600000
233.060100 6583.100000
235.039600 8011.600000
237.055300 7462.700000
239.034900 6091.800000
253.050200 9287.200000
255.029700 11634.200000

>ms2peaks
50.003500 16924.600000
51.023900 6947.400000
53.003300 10766.100000
55.018900 10011.200000
59.013900 1678.700000
63.024000 12821.300000
64.019200 2988.300000
65.003300 56071.000000
65.039700 45988.900000
65.998500 181641.300000
67.019000 9462.000000
68.014200 8034.600000
68.998200 62091.300000
69.034600 6230.200000
71.013900 1609.900000
75.024000 2135.800000
79.018900 9930.500000
81.034700 1391.600000
82.006000 2474.900000
83.013500 1630.900000
84.009000 8591.700000
89.039600 31338.700000
90.034900 1779.400000
91.018900 28437.300000
91.055400 1692.700000
92.026700 2867.600000
93.034600 64965.100000
95.013900 26120.800000
96.009200 10175.600000
97.029400 2429.800000
101.039600 2787.000000
108.021700 45013.500000
109.029400 8817.300000
113.039600 7249.400000
115.055400 13755.400000
117.034600 57607.200000
119.050100 2865.800000
120.009000 5647.700000
123.008900 9807.300000
130.042300 17035.700000
131.050400 2209.800000
134.024700 6290.800000
135.045000 8002.700000
139.014600 1747.400000
139.055100 5937.500000
141.034300 6808.700000
143.050200 65516.200000
144.058200 2644.900000
145.029500 24968.700000
147.045500 4781.700000
148.003700 1349.800000
154.042400 8545.400000
155.050400 2432.500000
156.058500 1327.600000
157.029300 1865.000000
158.037200 17771.500000
159.045000 7728.000000
161.024200 3038.300000
167.050200 25238.500000
168.057800 2000.600000
169.029800 3059.700000
169.066100 2772.500000
171.045100 39827.400000
172.053100 1836.600000
173.024300 5965.600000
173.060100 1521.800000
180.058100 5679.900000
181.065600 2383.400000
182.037100 8151.900000
183.045000 7161.200000
187.039900 2406.700000
191.050000 1473.100000
195.045400 8992.800000
207.045300 1780.300000
209.060300 2212.700000
211.040000 2511.200000
224.047500 1351.700000
226.026500 2277.300000

>ms2peaks
50.003500 21622.700000
51.023900 1613.700000
53.003300 9895.300000
55.018800 2030.600000
63.024000 5375.500000
64.019200 3093.800000
65.003300 50501.100000
65.039700 21537.500000
65.998500 163381.200000
67.018900 5451.500000
68.014300 1697.900000
68.998200 31164.100000
69.034400 1650.100000
79.018900 1872.000000
89.039700 22620.700000
91.018900 11156.000000
93.034600 21020.300000
95.013800 8013.300000
96.009200 1318.300000
108.021700 10974.300000
113.039600 5928.600000
115.055300 7132.500000
117.034700 21553.300000
120.008800 2995.300000
130.042000 4268.700000
139.055100 1330.300000
141.034400 4713.700000
143.050100 15411.400000
145.029400 7190.500000
167.050200 5257.300000
169.029100 2295.100000
171.045200 2550.700000

