>compound EQ66895769
>parentmass 298.1085
>ionization [M-H]-
>formula C17H17NO4
>rt 672.000000
>profile orbitrap
#smiles_iso CC1=CC=CC=C1OCC2=CC=CC=C2/C(=N\OC)/C(=O)O
#smiles_can CC1=CC=CC=C1OCC2=CC=CC=C2C(=NOC)C(=O)O
#inchikey LXOPDEDFRXZTNO-FBMGVBCBSA-N
#pubchem_id 20055208
#mb_accession EQ346351,EQ346352,EQ346353,EQ346354,EQ346355,EQ346356,EQ346357

>ms2peaks
91.055500 1876.900000
102.034900 216750.400000
116.050600 47251.000000
119.050200 10223.100000
131.037500 2072.800000
146.024700 18706.700000
222.092400 41994.200000

>ms2peaks
91.055400 8078.300000
102.034900 201761.500000
107.050100 2581.800000
116.050600 78395.900000
119.050300 3864.800000
131.037600 2014.600000
146.024800 22407.300000
222.092300 5200.300000

>ms2peaks
91.055200 4488.200000
102.034900 101615.400000
107.050200 5968.700000
116.050600 63414.500000
120.045400 1894.000000
131.037200 1290.800000
146.024800 9133.000000

>ms2peaks
91.055300 1395.200000
102.034900 48414.600000
107.050200 10190.600000
116.050600 39672.000000
146.024600 5062.300000

>ms2peaks
102.034900 12661.900000
107.050200 10017.200000
116.050600 21407.700000
120.045200 1471.100000

>ms2peaks
102.034800 2129.500000
107.050200 12763.900000
116.050600 9406.800000

>ms2peaks
107.050200 6768.100000

