>compound EQ67742081
>parentmass 249.12449999999995
>ionization [M-H]-
>formula C13H18N2O3
>rt 300.000000
>profile orbitrap
#smiles_iso CC(=O)NC(COC)C(=O)NCC1=CC=CC=C1
#smiles_can CC(=O)NC(COC)C(=O)NCC1=CC=CC=C1
#inchikey VPPJLAIAVCUEMN-UHFFFAOYSA-N
#pubchem_id 21634109
#mb_accession EQ362751,EQ362752,EQ362753,EQ362754,EQ362755,EQ362756,EQ362757,EQ362758,EQ362759

>ms2
57.034500 15789.300000
58.029700 15912.100000
77.039500 12070.100000
84.045400 121078.600000
104.050200 20346.000000
112.040300 29194.100000
114.056000 13310.300000
132.045400 35020.400000
148.076800 1682721.100000
159.056300 96076.200000
174.092300 26127.500000
175.087600 1617445.100000
187.087600 22284.700000
199.087600 686237.400000
201.066800 31702.100000
202.074600 187573.200000
207.113900 2944893.800000
217.098000 10519357.000000
231.112900 17936.800000
249.124400 3933361.500000

>ms2
57.034500 58752.000000
57.993300 10409.500000
58.029800 29192.100000
59.013800 27233.200000
68.050600 7934.200000
70.030000 6125.800000
77.039500 16844.900000
82.029800 18169.100000
84.045400 353792.400000
86.061100 9828.000000
98.024700 11701.000000
102.034800 24727.500000
104.050400 58762.300000
110.024600 33755.700000
111.019900 23587.000000
112.040300 79619.200000
114.056000 18542.900000
116.050300 6628.800000
118.029700 18457.200000
120.045300 10720.600000
130.065800 13487.900000
131.037700 8221.600000
132.045400 83374.600000
134.061100 54057.100000
142.051100 8919.900000
146.061200 26789.900000
148.076800 3072422.500000
158.061300 9951.600000
159.056300 105420.800000
162.056000 7723.700000
171.092700 30769.000000
174.092200 68901.600000
175.087600 4171731.500000
184.064000 31908.100000
187.087200 22593.000000
199.087600 947077.400000
201.066800 75616.600000
202.074700 357165.700000
207.113800 4440599.000000
217.098100 4253968.500000
231.113700 10664.400000
234.064700 10965.600000
249.124300 329591.900000

>ms2
57.034500 116136.600000
57.993400 8525.700000
58.029800 56345.900000
59.013800 49457.000000
70.029900 28539.400000
77.039500 8932.100000
82.029800 21867.200000
84.045400 426583.000000
85.017100 11391.800000
86.061100 6656.600000
90.034800 10332.200000
91.055300 20757.000000
96.032700 12677.000000
98.024600 8921.300000
100.040200 5752.700000
102.034800 36362.300000
104.050500 67603.000000
106.066100 6644.500000
110.024700 43469.000000
111.019900 152867.100000
112.040300 67426.400000
114.056000 13371.500000
116.050500 36307.800000
118.029800 22701.400000
118.066200 15910.000000
120.045400 8939.400000
121.029400 7227.600000
130.066100 26265.700000
131.037700 7597.400000
132.045500 58163.300000
133.065700 10849.900000
134.061100 143301.400000
142.050700 10717.700000
146.024600 3400.600000
146.061300 7217.200000
148.076800 1976653.400000
150.056100 7860.000000
156.081600 3430.800000
157.077100 2780.900000
158.061100 18850.700000
159.056200 10998.200000
161.071900 2863.000000
162.055900 2806.500000
171.092700 76667.000000
174.092400 48647.200000
175.087600 2514726.200000
184.064000 67028.500000
187.087500 11204.600000
190.087200 12415.700000
199.087600 400608.800000
201.066900 44316.600000
202.074700 198429.000000
207.113800 2651741.000000
217.098100 277868.500000
234.064700 3907.300000

>ms2
57.034500 179678.100000
58.029800 67212.300000
59.013800 42258.800000
66.034900 6717.300000
68.014200 2865.700000
68.050800 1699.800000
70.029900 32316.800000
77.039600 5732.500000
82.029800 22598.600000
84.045400 338228.600000
85.016900 18685.400000
86.061100 3342.500000
90.034900 6224.200000
91.055300 28826.700000
92.050700 1316.800000
93.034500 3182.200000
96.032900 10990.200000
97.040600 5677.900000
98.024600 8092.500000
99.032500 2497.900000
100.040300 3259.700000
102.034800 37408.000000
104.050500 52933.700000
105.070900 1644.000000
106.066100 2477.000000
108.021700 1686.000000
108.032800 1624.900000
110.024700 43968.600000
111.020000 212768.000000
112.040400 33622.900000
114.056300 1663.600000
116.050600 75780.400000
118.030000 17822.300000
118.066300 16592.400000
119.050100 3289.100000
120.045600 6581.800000
121.029500 26429.300000
130.066100 34000.100000
131.037500 2421.300000
132.045400 53111.400000
133.065800 12312.000000
134.061100 86307.700000
142.050800 9704.700000
143.061200 1480.900000
146.024400 1859.000000
146.060900 1962.700000
148.076800 729469.500000
150.055900 7800.800000
156.081600 3492.900000
157.077300 2144.200000
158.061000 12108.700000
161.071900 6385.700000
164.035300 3418.800000
171.092700 62879.300000
174.092300 12501.700000
175.087600 451237.800000
184.064100 70377.500000
190.087300 10483.300000
199.087600 91725.400000
201.067000 14076.300000
202.074800 34741.400000
207.113800 497775.000000
217.097900 6566.100000

>ms2
52.019100 1240.900000
57.034500 222548.900000
58.029800 68795.600000
59.013800 24032.700000
66.034900 5292.700000
68.014200 5702.400000
70.029900 12955.900000
72.045600 1436.700000
77.039600 2048.300000
82.029700 18948.600000
84.045400 206752.600000
85.016800 15430.200000
90.034800 2198.000000
91.055300 16364.100000
93.034500 7670.200000
96.032900 9941.800000
97.040600 4609.600000
98.024600 5499.500000
99.032600 2230.400000
102.034800 14965.100000
104.050500 16692.800000
108.021500 2365.700000
108.032800 1504.000000
110.024700 29343.900000
111.020000 129403.500000
112.040400 10541.100000
116.050600 58930.200000
118.029900 4943.100000
118.066000 2570.900000
119.050000 2028.400000
121.029500 23428.900000
130.066300 17178.200000
132.045500 27427.600000
133.065500 5724.400000
134.061200 20845.100000
142.051100 2900.000000
146.061300 2265.700000
148.076800 146372.300000
158.060900 2974.600000
171.092700 30738.100000
175.087600 36885.200000
184.064000 25803.300000
199.087800 21527.600000
201.066400 1749.500000
202.074700 2314.000000
207.113800 38581.700000

>ms2
52.019100 2113.300000
57.034500 190413.000000
58.029800 52760.700000
59.013800 19650.600000
66.034900 2963.600000
68.014100 4831.900000
70.029800 5158.500000
82.029800 13169.200000
84.045400 107879.700000
85.016800 10920.900000
91.055300 5271.100000
93.034400 6409.800000
96.032800 2658.000000
102.034900 10278.600000
104.050700 2315.000000
110.024800 14160.500000
111.020000 58156.300000
116.050500 32343.200000
121.029400 19893.000000
130.066000 7857.500000
132.045200 7204.800000
134.061200 2509.000000
143.061400 1427.400000
148.076800 23297.000000
171.092500 6282.600000
184.063900 6430.500000
199.087300 1911.800000

>ms2
57.034500 90705.500000
58.029800 23911.600000
59.013800 10981.400000
68.014200 2047.200000
82.029800 2576.400000
84.045400 18076.100000
85.016900 1517.900000
93.034600 2300.600000
102.034800 2195.600000
111.019700 2086.500000
116.050600 9827.500000
121.029500 4444.300000

>ms2
57.034600 31403.800000
58.029800 10992.400000
59.013800 4896.200000
84.045300 1257.800000

>ms2
57.034500 7092.700000
58.029800 2448.400000
59.013600 1138.000000

