>compound EQ68700250
>parentmass 221.08189999999996
>ionization [M-H]-
>formula C12H14O4
>rt 522.000000
>profile orbitrap
#smiles_iso CCOC(=O)C1=CC=CC=C1C(=O)OCC
#smiles_can CCOC(=O)C1=CC=CC=C1C(=O)OCC
#inchikey FLKPEMZONWLCSK-UHFFFAOYSA-N
#pubchem_id 6781
#mb_accession EQ367251,EQ367252,EQ367253,EQ367254,EQ367255,EQ367256,EQ367257,EQ367258

>ms2peaks
60.993100 503.800000
69.034700 80618.900000
71.050300 127439.900000
73.066100 645.600000
77.039500 745.600000
93.034600 1262.300000
99.045200 594.100000
105.034500 520.400000
107.050200 5481.800000
121.029600 74913.800000
134.037400 28550.600000
135.045200 1895.300000
147.008900 12759.600000
147.081500 2151.100000
149.097200 49241.600000
151.040200 397.700000
165.019400 4094.200000
175.076200 3372.500000
177.092200 75014.300000
179.034900 1659.900000
190.999000 3636.600000
193.087000 4899.700000
221.082100 169331.500000

>ms2peaks
60.993100 378.400000
69.034600 69049.700000
71.050300 161076.300000
73.066000 497.100000
77.039600 1408.600000
93.034700 1335.000000
99.045000 1100.700000
105.034400 581.700000
107.050300 7412.400000
108.989000 405.300000
121.029600 76656.800000
134.037400 37925.500000
135.045300 2020.500000
147.008900 15450.300000
147.081600 3438.300000
149.097200 26291.000000
151.040200 1196.000000
165.019200 3963.200000
175.076400 2928.100000
177.092100 26419.600000
179.034800 2203.100000
190.998600 3811.400000
193.087000 2640.500000
221.082000 32184.700000

>ms2peaks
69.034600 42103.100000
71.050300 107052.800000
73.066000 298.500000
75.024100 1703.900000
77.039600 338.300000
93.034500 2894.300000
99.045300 665.200000
107.050200 5597.300000
108.021900 436.400000
119.014100 443.000000
121.029600 52702.500000
134.037400 19665.500000
135.045300 1261.600000
147.008700 8813.100000
147.081700 6277.900000
149.097100 2124.600000
165.019200 3203.000000
175.076400 1265.700000
177.092200 1308.500000
179.034900 523.700000
190.998400 2895.100000
193.086800 448.000000
221.082200 610.500000

>ms2peaks
69.034600 27638.700000
71.050300 63325.700000
75.024000 6931.500000
93.034600 5478.900000
99.045300 520.000000
103.019100 1107.400000
107.050200 1469.600000
108.021900 402.600000
108.988700 522.600000
119.013900 658.900000
121.029600 31865.600000
134.037500 3696.400000
147.009000 3919.500000
147.081600 4383.400000
149.056400 312.900000
165.019200 635.800000
179.035700 288.400000
190.998600 1444.200000

>ms2peaks
69.034600 15505.300000
71.050300 28424.800000
75.024100 12072.900000
93.034600 2224.000000
103.018900 620.800000
119.014100 572.400000
121.029600 14549.700000
134.037200 542.900000
147.008800 596.500000
147.081600 1556.400000
149.056200 438.900000

>ms2peaks
69.034700 9819.500000
71.050300 12998.000000
75.024100 12627.000000
93.034600 1595.300000
121.029500 5192.300000

>ms2peaks
69.034600 2911.500000
71.050300 1244.500000
75.024100 7593.800000

>ms2peaks
69.034700 355.700000
75.024100 2314.600000

