>compound EQ69221246
>parentmass 443.1460000000001
>ionization [M-H]-
>formula C22H24N2O8
>rt 378.000000
>profile orbitrap
#smiles_iso CC1C2C(C3C(C(=O)C(=C(C3(C(=O)C2=C(C4=C1C=CC=C4O)O)O)O)C(=O)N)N(C)C)O
#smiles_can CC1C2C(C3C(C(=O)C(=C(C3(C(=O)C2=C(C4=C1C=CC=C4O)O)O)O)C(=O)N)N(C)C)O
#inchikey SGKRLCUYIXIAHR-UHFFFAOYSA-N
#pubchem_id 54681536
#mb_accession EQ367851,EQ367852,EQ367853,EQ367854,EQ367855,EQ367856,EQ367857,EQ367858,EQ367859

>ms2
142.014500 56162.200000
152.035400 4587.100000
163.003800 8614.600000
168.030200 36092.500000
169.061600 12307.200000
173.060700 66146.600000
180.030000 9634.200000
187.076300 23303.800000
196.025100 9972.300000
197.093000 8893.800000
207.077400 24112.200000
208.061300 7013.800000
217.050600 101499.200000
225.088100 210462.100000
229.050200 4832.500000
255.066100 29528.400000
269.081700 8705.700000
273.076800 202840.400000
293.081900 15901.600000
297.076900 8712.100000
311.092500 7131.200000
323.139900 12769.600000
326.103900 6004.900000
336.088300 7467.300000
337.072000 23567.700000
338.140100 50674.400000
354.133900 22072.500000
356.151100 21061.800000
358.129600 455737.300000
363.135300 11330.500000
364.119100 84766.200000
371.161200 141598.800000
380.077200 8105.000000
381.061200 6238.800000
381.145500 104610.000000
382.129500 64657.500000
399.156200 1447619.000000
400.140000 614277.200000
408.108100 8249.300000
425.135400 60015.700000
426.119500 1206098.400000
443.146100 4411777.000000
444.129800 169912.800000

>ms2
84.008900 10965.000000
85.029400 2102.000000
93.034600 6053.300000
95.013800 77250.200000
96.009100 2628.100000
97.029500 6104.800000
99.008700 16017.200000
100.076800 6725.200000
108.021500 2950.400000
109.029400 100099.400000
111.008700 7060.600000
119.013800 35673.100000
119.049900 2290.600000
123.008800 16896.900000
124.016500 13440.500000
124.076600 2529.300000
124.988000 11767.300000
125.024300 16871.500000
125.072000 41305.900000
126.056000 23406.300000
128.035300 5708.800000
134.024700 14050.500000
135.008800 42209.400000
136.040100 5017.100000
136.076600 12646.400000
136.988000 8281.600000
137.024300 38950.700000
138.032000 2553.400000
138.055800 12923.700000
138.092400 2377.500000
140.035300 20202.500000
140.071600 9750.300000
141.019100 3152.200000
142.014500 280629.600000
142.998500 30065.600000
143.082400 22967.800000
147.045100 38549.100000
149.060800 12113.800000
150.019600 9320.700000
151.003800 10335.500000
151.027500 2584.800000
152.035300 123030.400000
152.071700 30850.600000
153.019100 9800.600000
154.038400 8180.600000
154.087400 18277.700000
159.044800 5401.200000
159.081500 5176.200000
161.061000 9788.600000
162.020000 9578.300000
163.003700 123917.500000
164.011700 13004.100000
164.071600 43680.100000
166.014500 5655.000000
166.051300 2361.400000
167.022300 26650.000000
168.030200 144515.200000
168.066600 75294.000000
169.025500 11777.100000
169.061900 95128.000000
171.081700 6541.900000
172.053200 6117.200000
173.060700 322196.100000
178.014500 7679.300000
178.998600 9202.800000
179.082500 16213.500000
180.030300 82976.300000
180.066600 34906.400000
181.038100 18575.000000
181.061800 14991.100000
182.082000 52314.000000
186.068800 3109.900000
187.076400 164572.700000
189.055900 2586.100000
189.066800 9112.200000
192.053900 4843.700000
195.077300 23366.900000
196.025000 39389.700000
196.061000 9675.600000
197.093100 107109.400000
198.077100 5597.000000
199.039700 2185.400000
199.076400 7837.200000
201.055700 23901.200000
203.071400 42497.800000
207.077500 221912.500000
208.061500 55051.400000
211.040000 6196.700000
211.076800 39038.500000
213.055400 16461.500000
213.091900 7362.600000
215.071200 7615.100000
217.050600 579943.000000
221.097000 5075.600000
223.077300 9100.500000
225.088100 259913.100000
226.072400 36122.400000
227.035200 4907.900000
227.071400 24937.900000
229.050500 27681.800000
229.087100 32990.200000
231.066600 15362.800000
234.068500 6505.800000
237.092000 7059.700000
238.063800 5593.900000
239.071400 40722.000000
240.042700 103962.700000
241.050700 10061.900000
241.087100 28378.400000
243.066500 2651.300000
247.075500 5065.700000
249.055600 3190.200000
249.091800 23495.000000
250.063200 5251.800000
251.071200 26462.000000
252.078800 2569.000000
253.050700 5128.200000
253.086900 24225.600000
254.082300 5598.000000
255.066300 620636.400000
256.097600 7738.300000
256.134700 5357.500000
257.045600 54919.500000
257.081700 14586.100000
258.113500 2920.500000
260.047100 2514.200000
261.055400 5885.000000
263.070800 2774.700000
265.086900 68882.600000
266.094900 2590.400000
267.066200 22937.800000
267.102300 15201.600000
268.097400 6213.200000
268.134100 8634.100000
269.081900 137589.800000
270.113600 6291.600000
271.097900 2781.000000
273.076800 352648.100000
275.071400 75546.100000
276.079700 6538.700000
277.050200 11073.400000
277.086900 2395.500000
278.058500 18946.800000
278.081500 2374.100000
278.118600 7220.900000
279.066000 15338.600000
280.074700 2726.500000
280.097300 5479.800000
281.081800 43111.300000
281.105300 2282.700000
282.113200 12568.500000
283.097500 31826.400000
284.129000 12379.100000
285.076500 18512.200000
290.082200 2494.900000
291.066300 29570.400000
292.073900 7540.400000
292.097500 2704.400000
292.134600 13999.800000
293.082000 205673.100000
294.090100 23938.300000
294.113600 8782.900000
294.149900 40522.200000
295.061200 15351.700000
295.097400 7233.700000
296.092100 3072.300000
296.129200 41591.400000
297.076800 135785.000000
300.124400 11514.700000
304.061900 7670.600000
305.045600 26963.800000
305.105900 8545.800000
305.130100 2365.800000
308.092800 21795.200000
308.129000 3048.600000
309.076900 138955.800000
310.145000 50601.300000
311.092700 40941.400000
312.124400 38615.600000
312.160500 18646.000000
313.071600 2433.100000
314.140000 27397.700000
318.077100 8454.700000
318.113500 10494.100000
319.061400 27603.500000
320.069500 9825.100000
320.128900 50575.300000
321.063900 2628.100000
321.101000 4660.800000
322.047900 6056.900000
323.116100 10924.800000
323.139600 4735.700000
326.103700 31283.600000
326.139600 51311.900000
327.088200 13580.300000
328.155400 59393.500000
334.070900 6793.300000
335.056400 8502.800000
335.140400 5158.500000
336.089000 24324.500000
336.124200 129148.700000
337.072100 96980.600000
337.095100 17176.800000
338.080700 18081.700000
338.139800 210976.800000
340.118900 31098.600000
349.095800 5416.500000
353.150700 36996.200000
354.134600 92163.800000
356.150300 70451.500000
358.129700 2099432.000000
359.132000 2547.600000
362.066800 5360.800000
363.050600 11914.800000
363.134200 11467.000000
364.119100 70083.200000
371.161000 259946.000000
380.077000 15124.800000
381.061300 6328.800000
381.145600 28362.800000
382.129500 135286.200000
399.155900 174434.600000
400.139900 282968.000000
408.108800 67335.500000
425.135000 8937.000000
426.119300 169496.400000
443.145800 37723.600000
444.129500 41196.400000

>ms2
58.029800 1907.900000
63.024000 3057.900000
65.003200 2088.900000
65.039600 2509.900000
65.998600 15520.800000
67.018900 2613.000000
68.014100 1567.500000
68.998300 14743.900000
69.034600 6150.100000
71.013900 6453.300000
72.993300 1891.500000
79.018900 2774.300000
80.026600 2012.100000
81.034600 6213.700000
83.013900 10277.200000
83.050300 1788.500000
84.009000 46254.800000
85.029500 6161.400000
86.024700 5461.200000
91.019000 2142.400000
93.034500 17531.700000
94.029900 1581.900000
95.013800 115104.000000
96.009000 9569.000000
96.021700 2832.200000
96.045500 1753.400000
96.993000 25263.800000
97.029400 23044.900000
99.008800 19761.000000
100.076800 13146.200000
102.056000 1756.000000
107.013800 11842.400000
107.050300 5641.600000
108.021700 25154.000000
109.029500 126815.900000
110.061100 7668.900000
111.008700 15550.700000
112.040500 7794.100000
112.076800 2725.500000
117.034500 2663.800000
119.013800 69170.700000
119.050200 36946.000000
120.021800 7560.600000
121.029300 4731.400000
121.053300 2192.200000
121.065900 25079.500000
122.037300 2049.500000
123.008800 64522.400000
124.016500 35528.200000
124.040400 2878.800000
124.076900 5202.100000
124.988100 28186.800000
125.024400 25108.900000
125.072000 84277.600000
126.019500 11479.500000
126.056100 67411.000000
134.024800 35829.900000
135.008800 115683.800000
135.045300 6692.700000
136.016600 5374.700000
136.040300 6687.600000
136.076700 23425.900000
136.988000 6239.800000
137.024400 53507.700000
137.048100 9810.100000
138.019500 6271.600000
138.032300 15431.700000
138.056000 26788.400000
138.092500 1933.300000
139.015000 16501.400000
139.027400 2616.200000
140.035500 14869.600000
140.071800 20729.600000
141.019300 17647.700000
141.066700 5476.200000
142.014500 114705.900000
142.998500 85108.100000
143.082600 18470.300000
146.037400 1830.900000
147.045100 41973.900000
149.012100 4714.100000
149.023700 2316.600000
149.048100 9880.100000
149.060700 29447.000000
150.019700 53673.800000
151.003800 17040.800000
151.027600 8179.200000
152.011500 4749.500000
152.035300 81606.800000
152.071700 48201.900000
153.019600 10761.400000
153.043400 1537.400000
154.038400 17824.600000
154.087400 16036.600000
157.065900 7999.200000
158.037100 8382.200000
159.045100 26001.900000
159.081500 29144.300000
161.024500 22611.700000
161.060800 28141.900000
162.019700 18166.200000
163.003800 81688.200000
163.027500 12885.000000
163.076500 7458.300000
164.011700 31369.400000
164.035500 8700.000000
164.059200 5552.200000
164.071700 43367.300000
165.019300 2862.600000
165.043200 6113.900000
166.014600 2550.000000
166.051100 2678.100000
167.022400 21441.300000
167.046300 6372.800000
168.030300 68366.000000
168.066600 77390.100000
169.014200 2042.000000
169.025400 28791.000000
169.061600 35240.500000
171.045400 2046.900000
171.081800 8302.100000
172.052900 22325.800000
173.060700 424786.900000
174.032300 2003.300000
175.040300 2239.600000
175.076500 5811.700000
177.030400 8630.300000
177.066900 2753.100000
178.014500 31203.800000
178.050800 5505.400000
178.998700 16000.700000
179.082600 13035.900000
180.030200 38993.300000
180.066600 46645.000000
181.038200 13893.700000
181.061400 11858.100000
182.082100 27346.300000
185.060700 18826.000000
186.068800 14862.900000
187.040000 29585.900000
187.076400 156521.100000
188.048000 6359.800000
189.056300 2092.100000
189.067000 5905.700000
189.092100 2592.200000
192.054200 11933.400000
194.073500 1709.100000
195.041000 7017.300000
195.077500 10375.600000
196.025200 16211.400000
196.053100 32462.500000
196.061600 4443.900000
197.060800 14250.600000
197.092700 28773.600000
198.077100 4680.400000
199.039900 9030.400000
199.076400 19462.400000
200.048200 2517.500000
201.055800 37294.600000
201.092400 6246.900000
203.071500 70349.600000
204.042200 1482.900000
207.077400 53413.600000
208.061100 11328.200000
209.060800 19536.000000
210.068700 31902.000000
211.040300 22554.200000
211.076500 103546.100000
212.047900 12827.700000
213.055600 26562.900000
213.091900 20346.900000
214.027300 10716.800000
214.063800 6532.200000
215.034600 1900.200000
215.071400 8378.500000
217.050600 362880.800000
218.058800 2216.500000
219.081300 4869.500000
221.061400 2714.800000
221.097400 8928.000000
222.068600 8599.200000
223.076700 45110.200000
224.048000 28672.100000
224.084300 5265.300000
225.056000 27488.600000
225.092200 47568.600000
226.063500 18331.300000
226.072800 4910.800000
226.087500 1646.500000
227.035100 4600.300000
227.071400 63816.600000
229.050600 75804.300000
229.087000 41173.900000
231.066500 11117.200000
232.052300 1701.700000
233.060700 5881.400000
234.068600 18154.100000
235.076500 13311.700000
236.047200 9577.000000
237.056000 20373.100000
237.092100 29564.200000
238.063500 25496.500000
238.087400 5491.500000
239.071400 103839.500000
240.042900 900714.400000
241.050900 19084.000000
241.087100 143306.500000
243.102600 11564.500000
244.037700 1834.100000
247.076200 26192.400000
248.047900 4849.300000
248.071900 10815.600000
248.083900 2494.100000
249.055400 15015.100000
249.091800 22062.600000
250.063500 34254.300000
251.071300 62831.900000
252.042700 2707.400000
252.066900 2305.600000
252.079200 8799.600000
252.103000 4779.200000
253.051500 12053.900000
253.086900 32357.700000
254.058300 30437.300000
255.066400 1473375.400000
256.097900 4680.500000
256.134300 4906.200000
257.045900 18491.300000
257.081700 20668.400000
258.113900 1532.200000
258.150000 17469.400000
260.047500 19662.700000
261.055500 18126.700000
262.087300 7980.900000
263.071200 26624.600000
264.042800 11706.700000
264.078700 3029.700000
264.102900 6500.700000
265.050200 5441.200000
265.087000 73974.500000
266.058400 7306.200000
266.095200 8768.000000
267.066300 50590.100000
267.102900 7366.900000
268.074100 2403.500000
268.097900 5099.200000
268.134500 18184.000000
269.081900 100831.600000
270.113200 2594.600000
270.149100 5082.000000
271.061600 2513.900000
271.097600 8650.700000
273.076900 218455.900000
275.071500 48568.900000
276.042700 6786.200000
276.065300 1991.100000
276.079500 5978.200000
276.103600 2865.100000
277.050500 27590.600000
277.086700 5930.700000
277.110400 2740.200000
278.058500 42403.600000
278.082300 3801.200000
278.118800 13758.200000
279.066100 38994.200000
280.037900 5099.500000
280.074500 2930.700000
280.097800 21093.600000
281.082000 47561.300000
281.105300 16669.300000
282.053300 6463.800000
282.076500 1724.600000
282.113500 6300.200000
283.097000 15674.500000
284.129100 16902.900000
285.076800 27933.700000
286.144500 7186.200000
288.067000 2455.900000
290.022200 29799.000000
290.082200 16652.400000
291.066400 44836.100000
292.037000 1791.000000
292.074600 14839.100000
292.097600 1742.100000
292.134100 8326.500000
293.045900 6158.000000
293.082100 67634.600000
294.053700 5888.900000
294.089900 17298.900000
294.114200 13798.200000
294.149900 10671.600000
295.061000 21139.300000
295.097700 3125.700000
296.093000 2900.600000
296.129200 48361.400000
297.076800 61840.800000
300.124400 10669.100000
304.037200 2743.700000
304.061400 5979.800000
304.097600 2406.900000
305.045400 37604.800000
305.105100 10570.200000
306.076100 10112.600000
307.061200 8129.600000
308.093000 25512.300000
308.129400 10273.500000
309.076700 44705.300000
310.145000 38645.400000
311.092800 10828.400000
312.124200 15487.300000
313.072200 1707.500000
314.139500 2789.100000
318.077200 6142.600000
318.113800 3139.000000
319.062100 13423.400000
320.069500 6595.400000
320.128500 9152.600000
321.062900 1571.900000
321.100800 5115.200000
322.048500 16518.100000
322.109300 4427.500000
323.117800 4590.000000
324.087400 1576.200000
326.103700 1660.700000
326.139600 23238.200000
328.156000 8131.300000
334.072000 6885.200000
335.055500 4700.200000
335.139700 2275.700000
336.087400 5702.000000
336.124100 27522.500000
337.072200 12878.900000
337.095000 2843.700000
338.079900 5640.700000
338.140100 19715.300000
340.119100 16535.400000
349.096300 2608.100000
353.150900 6147.900000
354.134900 22675.800000
356.150100 2182.600000
358.129700 503370.800000
362.068000 1509.400000
363.050600 2093.300000
364.119400 2275.900000
371.161900 7344.900000
382.129800 10058.400000
400.140500 3044.200000
408.108800 7177.000000

>ms2
57.034600 2513.000000
63.024000 35344.900000
65.003300 12586.700000
65.039700 7670.700000
65.998500 33719.900000
67.019000 7038.200000
68.998200 38643.600000
69.034600 25875.700000
71.013900 11113.000000
79.018900 12721.000000
80.026800 11408.600000
81.022000 4842.900000
81.034500 13039.900000
83.013900 10519.100000
84.009100 93070.000000
85.029400 12692.800000
91.019000 14011.100000
93.034500 25379.300000
95.013800 133962.400000
96.009100 15383.200000
96.045400 2832.600000
96.993000 57140.400000
97.029500 30761.600000
99.008800 13413.600000
100.076800 13886.200000
107.013800 17399.000000
107.050400 2456.500000
107.061500 2632.500000
108.021700 54111.600000
109.029500 103907.900000
110.061100 9785.500000
111.008800 9924.400000
112.040400 5408.900000
112.076900 2917.400000
117.034500 15758.700000
119.013800 54069.400000
119.050200 87195.600000
120.021700 2398.000000
121.029500 13100.500000
121.053300 8284.000000
121.065900 35356.800000
122.024800 7859.000000
123.008800 71964.200000
123.032700 10451.800000
124.016500 37670.000000
124.076700 3097.500000
124.988000 20211.800000
125.024400 28769.300000
125.072000 40420.900000
126.019600 11479.700000
126.056000 80295.000000
131.050300 2333.300000
134.024700 46321.800000
135.008800 122085.900000
135.045100 9199.300000
136.016600 7597.000000
136.040300 5823.400000
136.076700 13683.900000
137.024300 40113.200000
137.048000 9921.600000
138.019500 17851.900000
138.032200 6191.300000
138.056000 19662.500000
139.014900 50640.600000
139.027300 2563.400000
140.035400 2937.800000
140.071800 6904.100000
141.019400 11940.500000
141.067000 6165.000000
142.014600 21506.000000
142.998600 65216.400000
143.050400 10139.800000
143.082600 8600.100000
144.058000 2778.300000
145.029500 3112.400000
145.066000 2299.700000
146.037200 9380.500000
147.045100 22265.500000
148.016700 5891.300000
148.040200 2268.400000
149.011700 11880.800000
149.048200 10580.800000
149.060800 19309.000000
149.995700 10861.200000
150.019600 77844.800000
151.003700 21065.800000
151.027500 11091.100000
152.011400 5123.100000
152.035300 32061.800000
152.071600 16539.700000
153.019400 5839.800000
154.038600 10405.400000
154.087600 7956.700000
157.066000 22896.500000
158.037300 38692.500000
159.045200 49892.100000
159.081500 30824.000000
161.024600 18675.000000
161.060900 16799.700000
162.019800 22666.900000
162.056100 2189.600000
163.003800 39866.400000
163.027400 8818.200000
163.076600 5075.200000
164.011600 13941.600000
164.035800 8680.500000
164.059700 2679.300000
164.071900 12740.600000
165.043000 7354.900000
166.050900 2911.900000
167.022300 8907.200000
167.046200 7947.300000
168.030300 16219.900000
168.066500 26380.700000
169.014100 2434.400000
169.025400 14054.300000
169.066700 10396.900000
171.045000 5488.700000
171.081800 9324.000000
172.053100 55575.500000
173.060700 560573.600000
174.032100 3006.300000
175.076300 11239.200000
177.030700 15221.300000
178.014600 29223.900000
178.051100 4792.200000
178.998400 9309.200000
179.082500 2514.700000
180.030300 10492.600000
180.058100 5203.100000
180.066700 16861.100000
181.066100 2532.800000
182.082200 3059.000000
183.044900 6485.100000
183.081600 9664.700000
185.060800 49158.500000
186.031900 2178.600000
186.068700 27084.800000
187.040100 74584.500000
187.076400 61042.600000
188.047900 6296.400000
189.066700 2360.600000
189.091900 2303.500000
194.073800 4814.600000
195.081800 13604.500000
196.024900 6840.800000
196.052900 97201.000000
197.060800 40594.300000
198.032100 5741.400000
198.068900 6030.100000
199.039500 9010.800000
199.076400 31869.500000
200.048300 4508.400000
201.019300 7515.100000
201.055700 35976.600000
201.092100 2387.000000
203.071500 66470.300000
204.042800 4848.900000
206.073700 2370.600000
207.082000 8718.500000
208.052900 7359.100000
209.060700 53819.600000
210.068600 35176.200000
211.040100 43627.900000
211.076500 73308.100000
212.048100 33974.000000
213.055700 20403.800000
213.092100 29274.800000
214.027300 33260.300000
215.071400 2868.200000
217.050600 87571.700000
218.057900 3069.700000
219.081200 5496.900000
220.053400 5942.100000
221.060800 9905.600000
221.097300 4999.900000
222.068600 27380.200000
223.040300 5395.400000
223.076500 44442.800000
224.047800 68676.400000
224.084400 7299.200000
225.055700 52224.900000
225.092200 36565.000000
226.063600 20048.800000
226.087200 9871.100000
227.071400 65976.000000
229.050600 42348.100000
229.086900 14456.600000
231.066600 2739.400000
232.053200 9856.000000
233.060700 16266.600000
234.068700 10541.200000
235.040400 6107.200000
235.076400 17066.400000
236.048100 16799.900000
236.084500 5071.600000
237.055800 42784.200000
237.080600 2589.600000
237.092000 25781.800000
238.063500 38856.100000
238.087300 7818.500000
239.035200 21613.900000
239.071400 60265.100000
240.043000 2167918.500000
241.051000 19573.200000
241.086900 76524.800000
243.102800 5278.700000
244.037700 5644.000000
247.063800 2481.600000
247.076100 23303.300000
248.048000 11688.800000
248.071500 7690.900000
248.083600 2361.300000
249.055500 29805.400000
249.091900 10620.800000
250.050100 2782.700000
250.063300 34123.700000
251.071400 47007.100000
252.042800 9421.500000
252.066700 4555.200000
252.078900 6026.500000
252.102800 5806.500000
253.051000 20779.900000
253.087200 11822.600000
254.058500 45245.700000
254.082200 4701.700000
255.066300 647357.800000
257.082200 7974.700000
258.149800 17876.000000
260.048000 13082.000000
261.055800 24193.100000
262.063500 5374.500000
262.086800 13237.800000
263.071300 28543.600000
264.043100 20923.100000
264.066400 4747.100000
264.079000 2422.300000
264.103600 5642.700000
265.049900 5506.900000
265.074200 2769.900000
265.087100 27703.200000
266.058200 8519.400000
266.082200 13852.000000
266.095000 2229.200000
267.066200 31796.100000
268.134800 5480.600000
269.081800 23025.300000
273.076700 16798.300000
275.071400 14714.700000
276.043200 10899.400000
277.050600 40982.000000
278.058200 19860.600000
278.081800 4887.500000
278.118600 2640.200000
279.066300 19737.800000
280.038000 8527.700000
280.098100 22454.300000
281.081700 10218.300000
281.106000 6285.400000
282.052900 3024.200000
282.077500 2280.100000
282.113200 2422.300000
288.066500 2448.800000
290.022200 39797.200000
290.082500 11632.500000
291.053300 2337.700000
291.066500 20079.600000
292.074900 2526.000000
293.045800 7552.900000
293.082900 9389.500000
293.105500 3061.000000
294.053600 2346.400000
294.113600 2558.000000
295.061500 7771.300000
296.129300 6340.100000
297.076000 2957.800000
304.037600 2773.000000
304.062200 2594.700000
305.045600 9606.700000
306.076600 9442.700000
308.092900 4871.600000
309.077000 2640.500000
319.061100 4343.900000
322.048500 2652.900000
358.130200 10180.900000

>ms2
55.018900 4720.500000
57.034500 2682.600000
59.013800 2285.400000
63.024000 61446.000000
65.003300 21553.100000
65.039600 12680.900000
65.998500 59529.600000
67.019000 14533.000000
68.014200 4498.600000
68.998200 71479.800000
69.034600 28350.400000
71.013900 12840.400000
72.993300 2342.000000
78.034900 5286.700000
79.018900 20106.200000
80.026800 12403.300000
81.022000 5449.300000
81.034600 16231.900000
82.029900 2309.300000
83.013900 16282.700000
84.009000 86944.900000
85.029500 5347.800000
86.024700 2222.000000
90.034900 2151.400000
91.018900 23442.500000
93.034500 25631.800000
94.029600 2137.500000
95.013800 116377.300000
96.009100 31408.600000
96.045400 5196.800000
96.993100 64243.500000
97.029400 22981.600000
99.008900 9699.800000
100.076800 2831.500000
106.029800 5081.200000
107.013800 20977.300000
108.021700 54353.600000
109.029500 69050.800000
110.024800 2356.400000
110.061000 4760.600000
111.008800 11598.200000
117.034600 23834.900000
118.029800 2847.700000
119.013900 30133.400000
119.050200 90299.500000
120.009100 4223.300000
120.045500 2646.700000
121.029500 15271.300000
121.053500 2658.100000
121.065800 39488.200000
122.024800 13773.600000
122.061100 1977.700000
123.008800 66153.500000
123.032400 8978.900000
124.016500 33533.900000
124.040400 7056.000000
124.987900 7625.600000
125.024200 14969.800000
125.072000 10222.100000
126.019600 7512.000000
126.056000 44069.900000
129.071200 4121.300000
130.042400 15643.700000
133.016800 2201.300000
133.065800 2273.700000
134.024700 34729.000000
135.008800 67156.600000
135.045200 5915.400000
136.016700 2666.100000
136.040300 2700.800000
136.076700 4408.300000
137.024400 17994.700000
137.048200 7882.300000
138.019600 21201.300000
138.056200 4997.600000
139.014900 77513.800000
141.019500 7672.900000
142.998600 26260.200000
143.050200 19982.400000
144.058100 12815.200000
145.029500 5333.400000
145.065900 5463.600000
146.024600 2583.000000
146.037700 11178.500000
147.045200 6645.600000
148.003900 5764.800000
149.011800 11586.900000
149.024300 4266.500000
149.048000 2597.800000
149.060700 6555.400000
149.995900 10315.900000
150.019600 56398.000000
151.003700 12977.600000
151.027400 4649.800000
152.011500 5089.500000
152.035400 11727.900000
152.071600 2745.100000
153.019400 4864.000000
154.038200 2268.100000
155.050100 2723.100000
156.058000 5099.700000
157.065800 41404.000000
158.037300 73847.700000
159.045100 51835.900000
159.081600 18905.700000
161.024500 8977.700000
161.060700 2790.200000
162.019700 16649.600000
163.003700 10649.400000
163.027400 5554.300000
164.011700 5953.400000
164.035500 5643.100000
166.051100 2034.500000
167.022300 2162.700000
167.051000 2061.200000
168.066600 5991.300000
169.025600 2809.000000
169.065800 16744.300000
171.045100 17585.800000
171.081600 9112.100000
172.053100 71262.500000
173.060700 453496.100000
174.032300 5858.200000
175.076400 7399.100000
177.030700 12659.100000
178.014500 15848.800000
180.058100 10590.100000
181.066100 19738.900000
182.037300 2460.400000
183.045100 20725.700000
183.081500 11778.500000
184.053200 9503.800000
185.060800 73054.700000
186.031800 13578.100000
186.068600 18021.200000
187.040000 98132.400000
187.076400 18766.300000
188.047900 5545.400000
193.066100 8892.600000
194.073600 7879.300000
195.045400 13286.700000
195.081800 15185.700000
196.052900 91888.100000
197.060800 54759.700000
198.032100 7228.700000
198.068500 5570.600000
199.040000 4606.500000
199.076500 30068.300000
201.019200 9116.600000
201.055700 22103.100000
203.035200 2292.200000
203.071500 30014.700000
204.042600 9132.200000
204.058000 5543.600000
206.074100 2257.000000
207.045000 2323.200000
207.081900 14014.900000
208.052800 14019.900000
209.060800 66078.100000
210.068500 22573.400000
211.040000 73360.800000
211.076400 34168.200000
212.048100 33186.900000
213.055600 17416.600000
213.092000 18102.700000
214.027200 28405.600000
217.050400 7304.700000
220.052800 11568.600000
221.061100 19576.200000
222.032300 1960.200000
222.068700 26017.300000
223.039700 8145.300000
223.065000 2069.300000
223.076400 35804.500000
224.047900 73332.700000
225.055700 48604.700000
225.092100 14462.800000
226.064000 9642.500000
226.087100 9389.200000
227.071300 33793.600000
229.050600 4725.100000
229.087200 2595.900000
232.052900 14707.000000
233.060800 27611.900000
234.068300 6404.500000
235.039900 15304.000000
235.076400 15375.400000
236.048300 12864.800000
236.072700 2426.100000
236.084600 4374.100000
237.055800 41329.300000
237.092600 8554.300000
238.063500 31400.600000
238.087300 4490.000000
239.035100 132610.500000
239.071300 24494.600000
240.042900 1927824.900000
241.050700 14599.900000
241.086900 13542.500000
246.068400 2317.400000
247.063700 6134.900000
247.076600 12884.600000
248.048000 20975.100000
248.071000 8227.600000
249.055600 35963.500000
250.051400 2424.600000
250.063100 15189.900000
250.087000 2162.700000
251.034500 2640.000000
251.071200 25833.200000
252.043200 6489.100000
252.066800 5378.000000
252.103100 6101.400000
253.050800 22538.200000
253.087000 2583.900000
254.058500 26442.800000
254.083000 2770.400000
255.066300 67001.900000
261.055600 22259.800000
262.064400 4509.900000
262.087000 6309.500000
263.071300 13815.700000
264.042700 12942.700000
264.066500 4880.700000
265.050500 9721.100000
265.074200 5216.000000
265.087400 6800.500000
266.058300 4328.200000
266.082100 5804.700000
267.065900 8447.900000
269.081900 2872.700000
275.058300 2917.100000
275.071700 5077.900000
276.042500 9624.500000
276.066400 2845.200000
277.050500 23118.500000
278.058000 5342.800000
279.066700 6243.100000
280.038200 6975.500000
280.098300 6352.000000
281.082200 2291.600000
290.022100 27282.300000
290.082100 6362.800000
291.052700 2226.900000
291.066900 2532.700000
293.046000 5590.700000
293.105700 1994.000000

>ms2
50.003600 2681.800000
51.023900 2502.900000
53.003200 2254.900000
55.018900 6422.900000
57.034500 2120.900000
59.013800 5895.400000
63.024000 74966.400000
65.003300 29308.700000
65.039700 16393.300000
65.998500 71386.800000
67.019000 20726.800000
68.014200 2644.000000
68.998200 86779.100000
69.034600 25322.500000
71.013900 10374.100000
76.019300 1077.500000
78.034900 4715.000000
79.018900 29889.300000
80.026700 4953.900000
80.050500 1191.800000
81.021900 2662.200000
81.034600 8181.400000
82.029900 1461.900000
82.066200 1758.900000
83.013800 12199.100000
84.009000 72682.900000
85.029500 2019.000000
86.024800 1563.200000
89.039700 1936.600000
90.034800 1956.100000
91.019000 18294.900000
91.055400 2642.600000
92.014100 1293.100000
93.034500 23708.100000
94.029800 4799.800000
95.013800 103811.400000
96.009100 41821.200000
96.045500 2138.000000
96.993100 32030.500000
97.029400 19733.700000
99.008700 1664.700000
100.076700 1372.400000
106.029900 1528.800000
106.042200 1390.600000
107.013800 13796.600000
108.021700 35132.700000
109.029500 48157.700000
110.024900 2192.400000
110.061300 4467.200000
111.008800 4663.600000
112.040500 2055.400000
117.034600 26382.300000
118.029800 1516.300000
119.013900 11609.500000
119.050200 82240.700000
120.009100 5273.500000
120.045600 5443.100000
121.029500 18756.000000
121.065900 29263.500000
122.024900 14532.000000
122.037100 1265.000000
123.008800 48251.300000
123.032800 3945.400000
124.003900 2232.100000
124.016500 21109.600000
124.040300 2243.400000
124.987600 1141.600000
125.024300 6308.300000
125.071900 1127.700000
126.019600 1554.000000
126.056000 21831.000000
129.071000 2675.300000
130.042400 33997.000000
131.050000 1332.400000
133.016500 1237.900000
133.029200 2069.800000
133.066100 4650.100000
134.024800 25275.400000
135.008800 27684.500000
135.045000 1484.400000
136.040500 2696.000000
137.024300 9431.800000
138.019600 11624.600000
139.014900 64706.400000
141.071200 1430.700000
142.998600 4718.800000
143.050200 35476.800000
144.058000 12262.200000
145.029400 5748.600000
145.065800 9194.500000
146.024700 4428.900000
146.037500 9296.200000
147.020200 1517.900000
147.032700 1209.000000
147.045500 2054.500000
148.004200 9040.500000
148.040400 5171.400000
149.011800 9849.100000
149.035600 2661.100000
150.019600 28127.700000
151.003900 4482.500000
151.027800 1716.200000
152.011800 1488.100000
152.035200 7598.300000
155.050400 5845.900000
156.058000 12043.700000
157.065900 38561.100000
158.037300 97392.000000
159.045200 70631.300000
159.081500 5123.200000
161.024300 9684.000000
161.060800 4175.300000
162.019700 8671.300000
163.004000 2416.100000
163.015000 2116.800000
163.027600 1497.400000
164.035600 1507.300000
167.050300 15162.100000
168.057700 1124.300000
169.030000 1132.500000
169.066000 13386.100000
170.037500 7781.300000
171.045200 28890.500000
171.081600 5215.600000
172.053000 69038.200000
173.060700 257330.600000
174.032300 4274.400000
175.076500 2741.200000
177.030500 4685.100000
178.014500 6018.500000
180.058000 16440.100000
181.066100 21529.200000
182.037500 9133.400000
183.045100 37486.000000
183.081700 7398.700000
184.053400 8254.700000
185.060800 54427.700000
186.032100 17042.600000
186.068600 2657.700000
187.040100 79923.300000
188.047000 1544.000000
193.065600 10525.600000
194.073800 5979.200000
195.045100 22504.400000
195.081600 7222.700000
196.052900 57865.500000
197.060800 57861.100000
198.032400 5230.700000
198.068300 1475.300000
199.039500 1577.900000
199.076400 22163.400000
201.056000 10437.700000
203.034900 1075.600000
203.071600 6512.000000
204.042800 9962.800000
204.058000 7644.600000
205.065700 4089.300000
206.074000 2046.100000
207.045200 6891.200000
207.081900 4457.600000
208.053100 16927.300000
209.060800 71057.100000
210.032600 1635.600000
210.056000 4728.000000
210.068200 7820.800000
211.040100 161977.200000
211.076000 10689.200000
212.048000 11887.000000
213.055900 13554.700000
213.092000 4626.300000
214.027100 10965.900000
219.045200 2397.000000
220.052900 12097.700000
221.060700 23895.500000
222.032400 6552.700000
222.068700 11500.100000
223.040200 8956.000000
223.065000 2017.100000
223.076200 20705.500000
224.047900 50320.200000
225.055700 42023.800000
225.092200 6052.100000
226.087200 5700.800000
227.035000 1790.500000
227.070900 8595.700000
232.053000 10081.000000
233.060900 23100.900000
234.067700 1369.900000
235.040300 15672.400000
235.076600 7461.200000
236.048400 4148.600000
236.071800 2021.400000
237.055800 34420.500000
237.079300 1895.000000
238.063500 10038.700000
238.087600 1299.800000
239.035000 258596.900000
240.042900 816001.300000
241.049900 6513.500000
246.068300 2168.500000
247.063900 6481.700000
247.075600 1623.600000
248.047700 18999.300000
248.071500 4831.100000
249.055700 21502.000000
250.050900 6630.000000
250.063500 2193.100000
250.087400 2112.200000
251.034900 1672.700000
251.071000 8482.600000
252.066900 1563.500000
253.050500 16823.700000
254.058300 7155.900000
255.066200 1958.300000
260.071700 1631.500000
261.055900 10558.300000
262.063300 4096.200000
263.034800 1803.500000
263.071300 4304.500000
264.042600 5246.700000
264.066800 1784.700000
265.050700 2387.600000
265.074300 1576.100000
265.087900 1212.300000
275.058900 1166.600000
276.043300 4183.300000
277.049900 7801.700000
279.031200 1333.900000
280.037400 2411.400000
290.021600 5856.300000
291.053000 1389.600000

>ms2
50.003600 11406.700000
51.023900 5714.400000
53.003200 6900.100000
55.018900 5765.400000
59.013800 4408.200000
63.024000 36121.400000
64.019200 4035.300000
65.003300 29999.100000
65.039700 10712.500000
65.998600 112945.600000
67.019000 12456.600000
68.014300 9310.300000
68.998200 84769.100000
69.034600 10574.600000
71.013800 1826.400000
76.019200 1598.900000
78.034900 1903.100000
79.019000 17640.200000
81.034500 3587.800000
83.013800 1806.900000
84.009000 19994.400000
85.029500 1202.200000
89.039600 7928.100000
90.034900 4440.900000
91.018900 8867.500000
91.055300 5915.700000
92.014000 1662.100000
93.034600 14346.900000
94.029800 1113.000000
95.013900 55204.800000
96.009100 41759.800000
96.993000 5627.600000
97.029500 9598.000000
106.042400 1505.600000
107.014000 1387.600000
108.021700 12115.000000
109.029400 16466.000000
115.055300 5161.700000
117.034700 15745.800000
118.029900 1175.700000
119.050200 36580.300000
120.009200 7093.900000
120.045500 1834.100000
121.029500 17455.800000
121.066000 4324.600000
122.024700 5234.800000
123.008800 21248.000000
124.016600 5471.600000
124.040200 1452.300000
126.056000 1402.900000
130.042400 51647.100000
131.050000 6896.500000
133.029400 892.700000
133.066500 1021.600000
134.024600 8655.600000
135.009100 1381.000000
137.024600 3466.500000
137.039700 1621.200000
138.019600 2353.600000
138.047400 1471.200000
139.014900 13606.600000
139.055300 4315.300000
141.034600 7931.100000
141.071200 1270.400000
143.050200 37877.700000
144.058000 2272.400000
145.029400 5057.900000
145.065900 5617.200000
147.020000 1789.200000
147.045300 1088.200000
148.004100 9850.000000
149.011800 3673.200000
149.035900 1092.200000
150.019700 3616.200000
154.042600 6404.700000
155.050400 11582.300000
156.058000 7765.900000
157.065600 8842.400000
158.037300 43763.900000
159.045200 58844.300000
161.024300 5837.800000
163.015100 1639.800000
165.034400 5214.600000
167.050300 33795.900000
169.029600 3927.900000
169.065700 9842.300000
170.037300 4258.900000
171.045200 27221.200000
172.053000 17397.200000
173.060700 30501.700000
180.058100 13531.200000
181.065500 9200.500000
182.037300 15128.300000
183.045000 79023.900000
184.052900 2442.000000
185.060800 14222.700000
186.032400 1417.400000
187.040100 29907.500000
191.050000 5665.800000
193.029500 1999.400000
193.065800 5845.900000
194.073500 1402.400000
195.045200 18564.700000
196.052900 19382.300000
197.060700 20155.500000
199.076300 3726.900000
204.058000 5722.800000
205.065800 1129.800000
207.044800 6143.100000
208.052700 9237.300000
209.060800 27395.400000
210.031900 8409.700000
210.056100 5957.700000
210.068700 1340.600000
211.040200 333849.100000
213.055600 1655.900000
219.045100 2129.100000
220.053100 4527.400000
221.049900 1010.900000
221.060700 4420.300000
222.068400 1319.700000
223.040200 4261.200000
224.048100 13184.500000
225.055900 12472.500000
232.052900 2240.600000
233.060700 5175.900000
235.040800 4567.300000
237.056000 13357.300000
239.035100 84923.700000
240.043000 26800.000000
248.047900 5472.900000
249.055900 2082.400000
250.051200 1088.400000
253.050900 2331.200000
261.055700 1977.400000

>ms2
50.003600 15817.100000
51.024000 2051.200000
53.003200 6308.200000
55.018900 4003.300000
63.024000 10482.300000
64.019200 5154.300000
65.003300 27006.300000
65.039700 7793.200000
65.998600 133609.200000
67.019000 7812.000000
68.014200 6895.800000
68.998200 48040.000000
76.019500 1068.100000
79.019000 4536.400000
81.022000 1080.800000
84.009100 4277.900000
89.039700 9008.200000
90.034900 1672.400000
91.019000 1993.600000
91.055400 5590.600000
93.034500 7354.700000
95.013800 25599.000000
96.009100 10866.100000
101.039400 1337.900000
102.047300 814.500000
108.021700 4298.100000
109.029500 4005.300000
113.039700 1777.900000
115.055500 4315.200000
117.034500 13781.800000
119.050300 8459.400000
120.009100 6011.100000
121.029400 1154.500000
123.008700 5912.800000
130.042400 21976.900000
131.050300 3883.500000
137.039600 12313.700000
138.047700 3618.400000
139.055400 6550.200000
141.034500 6109.700000
143.050300 20640.100000
144.058800 1017.000000
145.029500 1155.400000
145.065600 1278.600000
147.019900 855.400000
147.045300 3925.800000
148.004000 2037.400000
154.042400 18700.700000
155.050500 12759.600000
157.066000 1122.300000
158.037300 14955.500000
159.045200 12639.500000
161.024900 1575.200000
165.034400 16037.200000
167.050300 20091.800000
169.029400 926.400000
169.065700 3699.500000
171.045200 6029.900000
173.060700 1306.500000
180.058100 3269.700000
181.065500 1623.300000
182.037200 31301.200000
183.045100 56041.300000
187.039700 3618.300000
191.050300 1351.000000
193.029400 1238.700000
195.045100 5159.200000
196.053100 4372.000000
197.060700 1561.400000
204.058000 1513.600000
207.045100 1150.100000
208.052700 1544.600000
209.060900 2157.600000
210.032200 5935.300000
211.040200 84667.900000
220.053300 1108.300000
224.048000 1169.800000
225.055900 871.800000
239.034000 1865.500000

>ms2
50.003600 14172.800000
51.023900 3759.200000
53.003200 4556.100000
55.018900 1380.500000
63.023900 5833.200000
64.019300 2093.800000
65.003300 18098.700000
65.039700 6467.100000
65.998600 121816.900000
67.018900 3861.000000
68.014200 3367.700000
68.998200 24117.500000
79.019000 2137.700000
89.039500 6833.900000
91.055300 1017.300000
93.034500 3793.200000
95.013800 5223.400000
96.009100 999.200000
101.039500 3456.500000
102.047200 822.200000
108.021600 1311.200000
113.039700 2033.700000
115.055400 3770.900000
117.034800 7265.300000
119.050200 4890.400000
120.009100 3263.200000
123.008900 871.200000
130.042500 8088.800000
137.039700 12853.500000
139.055400 1843.200000
141.034500 1646.600000
143.050100 4113.300000
147.045800 1177.800000
154.042400 13880.200000
155.050200 1838.800000
158.037400 2080.900000
159.045300 883.700000
165.034600 6088.800000
167.049700 1536.600000
182.037200 12746.100000
183.045200 8898.300000
211.040200 3776.800000

