>compound EQ69618970
>parentmass 332.0904
>ionization [M-H]-
>formula C18H14F3NO2
>rt 606.000000
>profile orbitrap
#smiles_iso CNC1=C(C(=O)C(O1)C2=CC=CC=C2)C3=CC(=CC=C3)C(F)(F)F
#smiles_can CNC1=C(C(=O)C(O1)C2=CC=CC=C2)C3=CC(=CC=C3)C(F)(F)F
#inchikey NYRMIJKDBAQCHC-UHFFFAOYSA-N
#pubchem_id 91755
#mb_accession EQ360051,EQ360052,EQ360053,EQ360054,EQ360055,EQ360056,EQ360057,EQ360058,EQ360059

>ms2peaks
332.090300 421859360.000000

>ms2peaks
134.061100 906133.100000
145.027000 1665306.800000
183.029400 912987.600000
185.021700 1111799.100000
186.056000 1071757.200000
198.053500 2991735.000000
247.073900 17722434.000000
255.051100 657250.300000
275.068800 3922533.000000
291.063500 449352.500000
304.095500 5341160.000000
317.067200 739002.900000
331.083100 519940.500000
332.090300 381238720.000000

>ms2peaks
68.995700 424142.900000
101.039600 3219045.000000
121.029500 226463.300000
129.034700 246019.300000
131.037700 257970.100000
132.045500 128118.400000
134.061100 6825193.500000
142.066200 193326.600000
145.027100 13074644.000000
146.061100 525163.100000
159.042700 1041559.600000
161.022200 496356.500000
162.056000 485978.400000
169.027000 3314978.000000
171.032800 544462.200000
171.042700 2058068.500000
178.047300 565297.200000
183.030000 7998477.000000
184.037900 236258.400000
185.021900 15871268.000000
186.056000 2022843.100000
187.064000 299784.500000
189.016700 698449.200000
198.053600 17171596.000000
207.061500 967119.200000
210.053700 732803.100000
214.024900 514383.600000
226.048600 449292.000000
227.067900 2180610.200000
228.082000 317358.600000
235.056200 431049.000000
237.072300 205083.200000
239.020000 822247.000000
240.027800 1492878.400000
245.058200 616575.900000
247.074000 47774276.000000
248.045400 218637.300000
254.043400 1498503.900000
255.051300 1214517.000000
255.062900 1251651.100000
259.073800 700758.600000
263.069100 241001.600000
272.071700 246297.900000
273.077100 851937.100000
274.061000 2189765.800000
275.068800 5700903.500000
277.084500 2059846.500000
286.084800 2017973.900000
288.063300 455328.000000
291.063800 1406195.000000
292.078800 126078.900000
302.056300 250091.100000
303.064300 416916.200000
304.095500 8698982.000000
314.079800 1316666.400000
316.059000 3376249.200000
317.066800 4222789.000000
330.074700 576376.600000
331.082300 660674.800000
332.090600 120817288.000000

>ms2peaks
68.995700 557623.300000
77.039700 110069.100000
101.039700 5292262.500000
102.034800 91985.200000
116.050500 99111.100000
117.034700 318927.900000
118.066400 93803.600000
121.029300 189106.500000
129.034700 187202.500000
131.037700 372078.900000
132.045500 76294.500000
134.061100 5298623.000000
142.066000 238744.100000
144.045500 60792.700000
145.027100 19916298.000000
146.025100 58450.700000
146.061100 263409.900000
147.045500 188703.400000
151.023600 104016.700000
156.019300 741193.900000
158.041300 198819.100000
159.042700 980067.800000
160.014100 487159.700000
161.022000 2212781.000000
162.056100 70767.100000
165.015800 580352.200000
169.027100 8144335.000000
170.022400 243787.600000
171.032800 176293.000000
171.042800 1809194.100000
172.040500 96477.900000
178.047300 491741.000000
182.022100 500534.200000
183.030100 27567764.000000
184.037800 592845.800000
185.022000 36785852.000000
186.055900 265112.200000
187.037700 93815.000000
187.055600 80669.400000
187.063900 69414.800000
189.016900 1681261.900000
196.037900 252708.300000
198.053600 7458453.000000
199.025000 105526.300000
207.061500 1476172.500000
210.053800 551120.200000
212.032900 48643.300000
214.012500 655320.900000
214.024700 279095.600000
215.032700 64639.000000
215.050700 52305.200000
217.066200 64236.200000
222.048600 107930.200000
226.048400 307447.200000
226.067100 63151.000000
227.020200 261998.300000
227.067700 1829890.400000
228.082000 288511.000000
235.056400 497051.100000
237.072600 91882.700000
239.019600 458246.000000
240.027900 5461099.000000
242.043600 79333.800000
242.054900 241756.500000
245.058100 499904.900000
247.074000 12345993.000000
248.046200 71560.000000
254.043100 920770.800000
255.051100 192310.500000
255.062900 719363.200000
259.074300 543405.200000
263.069000 258583.900000
272.072400 58247.900000
273.077400 290507.400000
274.060900 1091353.600000
275.069100 1007690.800000
277.084600 642660.200000
284.069200 236011.300000
286.085000 2083556.800000
287.068900 116038.300000
288.064300 1315572.400000
291.063800 435580.100000
292.078400 93820.800000
302.056600 328658.500000
303.063900 171700.900000
304.095700 961704.100000
314.079700 1504555.800000
316.059000 6650908.500000
317.066800 968009.200000
330.074800 257619.000000
331.082300 58779.500000
332.090400 10188429.000000

>ms2peaks
50.003500 110684.000000
68.995700 465172.800000
77.039700 52223.000000
97.008300 283739.900000
101.039600 6023783.500000
102.034900 218004.100000
116.050500 223328.800000
117.014400 82069.900000
117.034600 347152.900000
119.017500 61417.600000
121.029500 107478.100000
126.034900 71623.100000
129.034700 57124.600000
131.037500 221114.300000
134.061100 1229069.500000
137.020700 110477.000000
142.066200 187588.200000
143.017800 95243.100000
144.045600 86052.000000
145.009600 1155712.900000
145.027100 13524755.000000
146.024600 228064.000000
146.060900 51419.400000
149.020700 252568.700000
151.024100 75137.300000
156.019300 4810167.500000
158.041400 343523.200000
159.042800 359454.600000
160.014100 421805.700000
161.022000 2857123.200000
163.024300 810008.100000
165.015700 4069372.800000
169.027100 10198160.000000
170.022400 351308.200000
171.042800 639523.200000
172.040200 89535.700000
178.047700 145086.800000
182.022300 3960699.000000
183.030100 30085168.000000
184.037800 581510.200000
185.022000 43960892.000000
187.037400 91728.000000
187.055200 222201.800000
189.016800 1353666.100000
196.037800 77743.500000
198.053600 1110143.000000
199.024800 210420.100000
207.061400 921559.600000
208.037900 232721.700000
210.053800 472987.400000
212.033000 100962.000000
214.012100 725364.400000
215.050200 63862.400000
217.065600 99864.200000
222.048800 59867.200000
226.048900 83458.700000
226.066400 96781.300000
227.020100 495250.000000
227.067800 604910.800000
228.081800 195437.900000
235.056200 110482.500000
239.019500 62207.100000
240.027800 5951226.000000
245.058300 234880.800000
247.074000 747562.100000
255.062300 73363.400000
259.074200 257418.000000
263.069400 60392.000000
274.060700 109555.700000
275.069600 86657.500000
284.069000 170440.500000
286.084900 617214.800000
287.069400 66568.900000
288.064300 1957932.400000
292.077700 98819.200000
302.055200 72678.000000
314.079800 459489.500000
316.058900 3494031.200000
332.090500 393510.900000

>ms2peaks
50.003500 498260.000000
65.998500 45542.500000
68.995800 336446.400000
97.008300 1759102.400000
99.011300 56464.500000
99.023900 94508.100000
101.039600 3794260.800000
102.034900 80879.800000
105.014400 63331.300000
111.011400 51051.800000
116.050600 100565.500000
117.014600 889362.100000
117.034600 59451.000000
119.017600 53884.700000
126.035000 76998.900000
129.014600 439930.900000
131.037600 94745.800000
134.061100 99436.200000
136.012900 229166.300000
137.020700 543688.100000
138.034900 100286.300000
142.009700 83762.100000
143.017600 548762.800000
145.009500 4345704.000000
145.027000 4744529.000000
146.025100 55988.700000
149.020700 980571.900000
151.024000 71244.300000
156.019300 7562358.500000
158.041200 196229.700000
159.042200 58941.500000
160.014000 187641.300000
161.022000 1408529.200000
162.015900 327178.300000
163.024200 1097367.600000
165.015700 7354247.000000
169.027000 7228219.500000
170.022600 77537.000000
171.042900 73283.600000
182.022200 7093996.000000
183.030100 11589730.000000
184.037900 462483.400000
185.021900 30139254.000000
187.055300 235062.200000
189.016400 428544.800000
207.061800 223924.800000
208.038400 232957.100000
210.053700 81858.300000
212.032900 192080.600000
214.012300 252716.800000
226.067800 59807.800000
227.020800 164889.800000
228.082200 51057.800000
240.027700 2223890.200000
286.086100 64576.300000
288.064300 993848.200000
316.058800 498816.100000

>ms2peaks
50.003500 1402310.600000
65.998500 53976.200000
68.995700 401735.200000
70.993900 201144.000000
73.008500 271781.500000
74.003600 95347.900000
75.024000 48292.300000
85.008400 98651.200000
94.993700 47019.200000
96.000200 69964.100000
97.008300 10273385.000000
99.011400 64859.400000
99.024100 611642.800000
101.039600 1627231.600000
105.014400 69049.800000
109.008300 717800.600000
109.997200 48666.600000
111.011300 85251.600000
114.034900 163781.000000
117.014600 3609268.000000
122.003600 1465171.400000
123.011500 277961.700000
129.014600 1326574.000000
131.037700 46238.200000
135.005100 59416.400000
136.013000 1289011.000000
137.020800 823361.400000
138.035000 43840.200000
142.009800 1272119.500000
143.017600 674591.200000
145.009500 5149158.000000
145.026900 320007.800000
149.020800 1098408.600000
156.019300 3869590.800000
161.021800 94008.900000
162.016100 1708189.500000
163.024400 284341.900000
165.015700 4308800.500000
169.027000 1648299.400000
180.026700 177163.200000
182.022200 4032083.500000
183.030200 711915.900000
184.038000 44247.800000
185.021900 6328213.000000
189.016100 55066.400000

>ms2peaks
50.003600 2414546.800000
65.003300 66079.300000
66.999000 401377.100000
68.995800 604106.900000
70.993900 173739.900000
73.008400 849555.700000
74.003700 211608.900000
75.024100 80728.500000
85.008300 93157.600000
90.998900 45159.500000
94.993900 63786.600000
96.000500 408510.400000
97.008300 14018197.000000
98.003600 160464.900000
99.024000 472457.200000
101.039600 252023.300000
108.000500 92932.100000
109.008300 1549276.800000
109.997400 286254.500000
113.027200 46188.800000
114.034900 66159.500000
117.014700 2076390.600000
122.003600 4364108.000000
123.011500 90869.500000
129.014600 644864.600000
135.005300 268830.700000
136.013000 749904.600000
137.020900 216941.000000
142.009800 1316401.100000
143.017600 49751.500000
145.009500 1414998.400000
149.020500 182197.900000
156.019400 870431.500000
162.016200 673098.100000
165.015800 781278.000000
169.026900 74926.200000
180.026000 44520.400000
182.022200 627307.200000
185.021900 594415.700000

>ms2peaks
50.003500 2573491.200000
65.003300 73050.400000
65.998600 44982.500000
66.998900 673616.900000
68.995800 456073.300000
70.993900 74121.200000
73.008400 941596.900000
74.003700 384260.000000
75.024200 47345.400000
85.008300 177702.600000
90.998900 75324.800000
96.000600 1268189.200000
97.008300 8884135.000000
98.003600 279057.600000
99.024000 94980.900000
108.000600 201445.800000
109.008400 668924.800000
109.997400 331214.800000
113.027200 32952.400000
114.034800 47900.600000
117.014700 454759.700000
122.003600 4554837.500000
129.014500 175779.800000
135.005100 253580.600000
136.013100 75260.700000
137.020400 40494.700000
142.009800 271378.800000
145.009300 81919.100000
162.016000 47548.900000

