>compound EQ70312069
>parentmass 331.1662999999999
>ionization [M-H]-
>formula C18H24N2O4
>rt 636.000000
>profile orbitrap
#smiles_iso CCC(C)(CC)C1=NOC(=C1)NC(=O)C2=C(C=CC=C2OC)OC
#smiles_can CCC(C)(CC)C1=NOC(=C1)NC(=O)C2=C(C=CC=C2OC)OC
#inchikey PMHURSZHKKJGBM-UHFFFAOYSA-N
#pubchem_id 73672
#mb_accession EQ360251,EQ360252,EQ360253,EQ360254,EQ360255,EQ360256,EQ360257,EQ360258,EQ360259

>ms2
137.060700 41738.700000
220.061400 137554.700000
331.166100 24391532.000000

>ms2
65.014500 18799.400000
65.998500 38736.900000
72.993200 539590.900000
83.050200 17614.800000
93.034500 145291.800000
102.034800 59901.300000
105.034600 51215.700000
107.050200 167609.200000
118.029900 23636.600000
121.029500 119670.100000
122.037300 35776.700000
132.045400 285943.400000
133.029300 31844.300000
134.037300 22333.000000
135.045100 161078.500000
137.060800 1498202.600000
148.040400 201673.900000
151.040000 47937.300000
161.024500 43127.300000
162.019500 13162.400000
162.032300 117680.300000
162.056000 238875.300000
164.071500 109498.200000
166.111100 13601.100000
167.119100 47449.500000
176.035400 22608.900000
181.050500 63704.800000
188.035200 71690.300000
190.014700 36845.500000
202.050700 13798.500000
205.038000 152983.000000
206.045800 61115.500000
215.046000 22333.600000
220.061500 2322025.800000
331.166300 11570663.000000

>ms2
59.985300 4277.900000
64.006700 13547.600000
65.014500 23489.100000
65.998500 126625.800000
72.993200 492739.500000
77.039700 11076.600000
81.009300 3885.700000
81.034600 3409.600000
82.005900 2374.900000
83.050200 16953.800000
92.026800 5206.400000
93.034500 258306.200000
95.013900 11054.900000
102.034900 139265.200000
105.034500 89855.600000
107.050200 122264.500000
108.021600 11835.900000
108.081900 2863.700000
117.022000 13991.500000
118.029900 51642.900000
120.009000 9473.000000
121.029500 231735.200000
122.037300 54500.600000
123.008500 2618.500000
123.045200 23962.000000
132.045400 252528.200000
133.016900 12406.100000
133.029500 133955.200000
134.024800 21366.100000
134.037300 85620.800000
135.008800 9957.800000
135.045100 116021.900000
136.040300 14504.100000
137.060800 406730.700000
146.024800 36346.600000
147.032500 28425.000000
147.045300 10969.800000
148.040400 213496.700000
149.024300 16120.200000
149.060900 13206.000000
151.040100 80178.900000
160.040400 19571.600000
161.024400 160311.000000
162.020100 36341.700000
162.032300 133342.800000
162.056100 115505.900000
164.035400 35457.600000
164.071600 46646.300000
166.111100 48679.000000
167.118500 3953.100000
172.040200 5194.900000
173.011800 19934.800000
174.020000 3182.800000
176.035300 50870.700000
179.035000 2381.400000
181.050500 30907.500000
188.035200 41186.700000
190.014500 53621.000000
202.051400 9073.200000
205.037900 61088.000000
206.046000 24826.100000
215.046100 3796.100000
220.061500 334682.700000
273.087900 13560.300000
287.103400 13919.800000
331.166400 363475.800000

>ms2
64.006700 18809.800000
65.014500 29376.100000
65.998500 250631.300000
66.034900 12919.400000
72.993200 145974.200000
77.039600 3116.300000
81.009400 5155.500000
81.034400 3006.600000
82.006000 10918.200000
83.050200 19907.100000
91.018900 3611.400000
92.026800 35763.800000
93.034500 146014.900000
95.013800 20471.200000
102.034900 98398.700000
105.034500 75115.700000
107.050100 43878.800000
108.021600 47538.200000
108.081800 17408.400000
117.022000 75256.600000
117.034700 5249.800000
118.029800 45372.800000
120.008900 31539.800000
121.029500 265346.600000
122.037200 21041.100000
123.008700 2405.200000
123.045200 17161.400000
132.021700 17274.100000
132.045500 119694.800000
133.016900 78047.700000
133.029500 241128.300000
134.024800 49441.300000
134.037200 59378.100000
135.008800 27366.900000
135.045200 22672.200000
136.040600 20636.300000
136.112900 15626.600000
137.060600 34324.900000
137.071900 4312.400000
145.016700 3193.200000
146.024700 58020.400000
147.032600 33587.400000
148.040400 169084.200000
149.024200 14089.500000
149.060900 2218.500000
151.039900 40541.300000
160.040500 8087.700000
161.024400 206274.100000
162.019700 35361.500000
162.032100 23563.500000
162.056000 16240.900000
164.035300 19681.100000
164.071600 2685.400000
166.111100 48658.500000
172.027500 3155.500000
172.039700 3837.000000
173.011400 40032.600000
174.019600 3936.800000
176.035000 20099.400000
188.035100 8821.100000
190.014700 16879.000000
206.046500 6727.900000
220.061600 7939.000000
273.087700 5053.300000
287.103500 11794.700000

>ms2
64.006700 8196.900000
65.014500 19550.800000
65.998500 235219.500000
66.035000 26149.500000
72.993200 29676.300000
81.034500 7701.400000
82.005900 18941.200000
83.050200 3067.700000
89.026900 2490.200000
91.018700 8649.400000
92.026800 54060.900000
93.034500 50583.800000
94.005900 2492.100000
95.013900 32885.200000
102.034900 28400.100000
105.021900 10037.900000
105.034600 18628.500000
107.050200 15387.000000
108.021700 76660.400000
108.081900 24753.700000
117.022100 66433.200000
117.034500 21270.600000
118.029800 30769.700000
120.009000 29003.000000
121.029500 225899.600000
122.037100 2252.200000
123.045000 5096.100000
132.009100 10576.200000
132.021600 16327.100000
132.045500 26215.000000
133.016900 130052.300000
133.029500 156198.300000
134.024800 40103.200000
134.037300 12682.700000
135.008800 20692.100000
135.045100 2071.700000
136.040100 2707.900000
136.112800 7231.900000
137.071600 3318.100000
145.016800 3288.400000
146.024700 31319.800000
147.032500 20958.900000
148.040400 75865.100000
149.024300 3338.200000
151.040000 8831.000000
161.024400 109989.500000
162.019700 13438.100000
166.110900 11849.000000
172.028100 2812.000000
173.011600 19420.700000
176.035200 2654.700000

>ms2
64.006700 11977.000000
65.003300 1907.200000
65.014500 23374.800000
65.998500 258505.500000
66.034900 30870.400000
72.993200 9069.400000
81.034600 2810.700000
82.006000 22780.900000
89.027100 4677.100000
89.039600 3382.200000
91.018900 23618.600000
92.026800 72058.000000
93.034500 46592.000000
94.006000 2420.300000
95.013800 49376.500000
102.035000 9504.100000
105.022000 33412.100000
105.034600 8282.000000
108.021700 96818.500000
108.081900 14600.600000
117.022100 39117.500000
117.034600 22843.100000
118.029900 23450.800000
120.009000 20421.500000
121.029500 215687.400000
123.008900 4246.700000
123.044700 2377.700000
132.009200 8313.300000
132.021600 2168.000000
133.016900 130271.600000
133.029400 112295.800000
134.024800 26309.500000
135.008800 4587.600000
146.024800 14849.600000
147.032700 3927.400000
148.040400 22454.300000
161.024400 43925.400000
162.019900 3980.900000
172.027500 2235.800000
173.011600 12050.500000

>ms2
50.003400 1712.200000
64.006700 4104.200000
65.003300 3640.600000
65.014600 18318.400000
65.998500 209794.000000
66.035000 17117.900000
72.993300 1875.800000
80.026800 3850.600000
82.006000 9521.700000
88.019200 9669.000000
89.026900 8359.600000
89.039800 5985.900000
90.034800 3717.100000
91.018900 18312.800000
92.026800 43832.600000
93.034500 50117.400000
95.013800 28320.500000
105.021900 53874.700000
108.021600 69318.400000
117.021700 2651.900000
117.034400 7279.100000
118.029900 4482.000000
121.029500 107354.100000
132.009100 2518.600000
133.016900 53816.500000
133.029500 24791.600000
134.024700 2574.500000
146.024800 2884.200000

>ms2
50.003500 2419.600000
64.006600 2374.300000
65.003200 10497.900000
65.014500 16918.500000
65.039700 4739.700000
65.998500 187493.700000
80.026700 3913.900000
82.005900 8038.900000
88.019200 23538.900000
90.034900 2113.300000
91.018800 8653.500000
92.026600 3415.300000
93.034500 37615.700000
95.013800 10818.300000
105.022100 31259.300000
108.021600 31759.000000
121.029600 36240.700000
133.016800 3064.100000
133.028900 2035.800000

>ms2
64.006700 3022.200000
65.003200 13406.400000
65.014500 8160.000000
65.039700 3515.500000
65.998500 117372.100000
80.026700 3562.100000
88.019300 13920.400000
91.019000 2301.800000
93.034600 16430.300000
105.021900 7712.600000
108.021600 9840.800000
121.029500 9061.800000

