>compound EQ71119666
>parentmass 356.9427999999999
>ionization [M-H]-
>formula C14H9Cl3N2OS
>rt 852.000000
>profile orbitrap
#smiles_iso CSC1=NC2=CC(=C(C=C2N1)Cl)OC3=C(C(=CC=C3)Cl)Cl
#smiles_can CSC1=NC2=CC(=C(C=C2N1)Cl)OC3=C(C(=CC=C3)Cl)Cl
#inchikey NQPDXQQQCQDHHW-UHFFFAOYSA-N
#pubchem_id 50248
#mb_accession EQ321151,EQ321152,EQ321153,EQ321154,EQ321155,EQ321156,EQ321157,EQ321158,EQ321159

>ms2peaks
196.957700 342606.800000
211.980900 139809.800000
356.942800 131767432.000000

>ms2peaks
165.993600 249989.700000
196.957800 2549557.000000
211.981700 12039336.000000
305.941600 120816.400000
309.947200 150956.600000
310.955200 1399713.200000
323.964000 118977.900000
341.919500 29584908.000000
356.942800 96120328.000000

>ms2peaks
57.975500 253896.700000
160.956600 98971.000000
165.993900 2321117.500000
179.001700 634768.200000
196.958100 59968792.000000
211.981800 23379546.000000
274.978400 566171.200000
305.942500 568656.800000
309.947000 146937.100000
310.955100 1217040.900000
341.919500 37647508.000000
356.942900 8438964.000000

>ms2peaks
57.975700 2262069.800000
130.017200 143310.200000
160.956800 534758.400000
165.993900 3217438.000000
167.002000 131758.800000
179.001700 907577.600000
196.958100 103933296.000000
211.981700 5649975.500000
274.978900 141837.300000
305.942700 329313.200000
310.955500 105714.100000
341.919300 3930281.000000
356.942000 153224.900000

>ms2peaks
57.975700 7381235.000000
65.998500 334275.200000
102.022300 85902.800000
113.014700 132443.500000
130.017200 349791.500000
136.991100 95786.100000
152.986200 550060.100000
160.956700 648450.800000
165.993900 1760517.900000
167.001600 99653.900000
179.001800 598959.500000
196.958200 64446268.000000
211.981700 480629.700000
341.919200 81098.500000

>ms2peaks
50.003600 75891.400000
57.975700 8298778.000000
65.998600 1861879.400000
74.003700 28434.100000
85.980300 180401.800000
89.014600 51669.900000
102.022400 89020.200000
113.014500 98763.700000
117.009700 27060.700000
124.980100 51569.900000
130.017300 283096.400000
136.991200 55456.400000
152.986200 1164557.200000
160.956800 326922.900000
160.981600 59110.100000
165.994000 499789.800000
179.001900 291269.200000
196.958300 22520888.000000
211.982000 43480.800000

>ms2peaks
50.003600 515619.200000
57.975700 5792426.000000
65.998600 7303381.000000
74.003700 47530.400000
81.975800 10696.800000
85.980300 730347.100000
86.003600 61767.300000
89.014500 116982.900000
113.014500 59145.700000
117.009500 42563.900000
124.980000 20095.100000
130.017200 24230.300000
152.986200 436476.400000
160.956700 20279.100000
165.993300 17080.900000
196.958200 932470.000000

>ms2peaks
50.003600 1244615.000000
57.975700 4922651.500000
62.003700 16105.000000
65.998600 7721322.500000
74.003800 52960.600000
81.975700 24189.300000
85.980300 345704.700000
86.003700 42416.900000
89.014600 87869.400000
113.014400 10496.500000
152.986200 19203.300000

>ms2peaks
50.003600 1597394.200000
57.975700 5249644.000000
62.003600 48147.900000
65.998600 6371841.500000
74.003700 102489.300000
81.975600 13127.100000
85.980300 67407.500000
86.003600 24406.500000
89.014400 48361.700000

