>compound EQ72211517
>parentmass 353.9975
>ionization [M-H]-
>formula C12H15Cl2NO5S
>rt 210.000000
>profile orbitrap
#smiles_iso CS(=O)(=O)C1=CC=C(C=C1)C(C(CO)NC(=O)C(Cl)Cl)O
#smiles_can CS(=O)(=O)C1=CC=C(C=C1)C(C(CO)NC(=O)C(Cl)Cl)O
#inchikey OTVAEFIXJLOWRX-UHFFFAOYSA-N
#pubchem_id 5433
#mb_accession EQ363451,EQ363452,EQ363453,EQ363454,EQ363455,EQ363456,EQ363457,EQ363458,EQ363459

>ms2peaks
70.946200 58459.900000
78.985800 173843.700000
84.009100 121972.400000
86.024800 446201.300000
98.024800 40721.200000
114.019700 43729.400000
119.050300 675150.400000
125.951900 145175.200000
126.936000 231880.600000
134.001500 62258.800000
145.065900 297646.300000
183.012200 628282.500000
184.019800 70335.200000
185.027700 1108793.900000
208.044000 31587.200000
209.027900 458044.900000
212.038700 38209.000000
227.038600 3215979.200000
240.033800 1928307.500000
252.033700 158441.100000
270.044400 3205658.800000
282.044300 1295221.000000
290.026300 10445420.000000
353.997700 31502124.000000

>ms2peaks
63.962400 252523.900000
70.029900 66807.600000
70.946200 89563.600000
71.013900 40191.800000
78.985900 1553836.100000
82.946100 259786.200000
84.009100 475380.200000
86.024800 680075.100000
98.024800 186642.500000
114.019700 95140.100000
117.071000 89789.600000
119.050300 2457366.500000
121.029600 33224.600000
121.066000 10854.400000
125.951900 130256.400000
126.936000 700077.900000
134.001400 14408.200000
145.066000 1404456.600000
155.017300 131757.800000
156.082000 34265.400000
168.996500 236086.600000
181.033000 738885.600000
183.012200 1714660.200000
184.020000 451313.800000
185.027900 9107414.000000
194.004200 88476.200000
194.028400 44965.100000
195.012100 71313.500000
196.043900 12021.300000
197.027400 60258.600000
199.007000 70009.700000
208.043800 75024.200000
209.027900 1883174.100000
212.038800 1109688.000000
213.022700 13652.400000
224.038800 10570.800000
227.038500 1199437.125000
240.033800 1854621.200000
252.033700 326932.500000
254.049600 9810.700000
270.044300 351526.200000
282.044300 704365.200000
290.026200 1029389.800000
353.997700 519101.100000

>ms2peaks
63.962500 1230766.500000
68.014300 8107.600000
70.029900 92630.500000
70.946200 62671.800000
71.014000 58733.000000
72.993300 14324.300000
78.986000 6216264.000000
82.946100 734390.500000
84.009100 501637.000000
86.024800 307611.500000
98.024800 89553.900000
105.034400 12605.000000
114.019800 31670.300000
117.071100 314052.400000
119.050300 3536691.000000
121.029600 219935.500000
121.066000 176632.000000
125.952000 30890.200000
126.935900 291825.800000
130.042200 12308.100000
133.053700 7638.700000
135.045300 7488.300000
145.066000 926032.400000
146.037600 47308.600000
148.040400 15141.200000
154.009500 27026.500000
155.017400 699050.200000
166.009200 9087.300000
168.996600 1602587.900000
170.004400 321683.100000
173.048000 7043.500000
181.033000 718827.400000
183.012300 421381.800000
184.020000 232119.800000
185.027900 6413600.000000
192.012700 12694.400000
194.004400 156463.400000
194.028100 96467.900000
195.012200 100481.000000
196.007500 14404.700000
196.044100 30984.000000
197.015400 150244.300000
197.027200 43379.200000
199.007100 72052.200000
208.043700 24496.600000
209.028000 344739.200000
212.038800 1204923.000000
213.022800 14479.900000
222.023300 8082.100000
224.038500 25213.100000
227.038700 33552.700000
240.033900 86284.800000
252.034000 45070.900000
282.044700 39666.900000

>ms2peaks
63.962500 2202725.500000
68.014100 8673.700000
70.029900 89096.900000
70.946200 12890.000000
71.014000 40578.700000
78.986000 7543294.000000
82.946100 760936.900000
84.009100 446882.100000
86.024800 72401.200000
98.024900 21877.200000
105.034400 111594.500000
117.071200 149160.600000
119.050300 4110791.000000
121.029600 1142770.800000
121.066000 257752.900000
126.936000 74938.800000
130.042400 83648.100000
131.037900 36167.300000
133.053400 57812.100000
139.994000 69169.900000
144.045800 8082.600000
145.066000 253126.300000
146.037400 70803.500000
148.040600 169478.200000
149.024600 9360.000000
151.993800 13513.700000
154.009600 36077.200000
155.017400 1021009.900000
166.009300 10775.700000
168.996600 3204752.200000
170.004400 486467.400000
179.005000 23093.700000
181.033000 116669.100000
183.012200 87017.800000
184.019800 88143.600000
185.027800 970700.200000
192.012600 15081.200000
194.004100 45234.600000
194.028100 42980.800000
195.012000 69213.600000
196.007900 58036.600000
197.015400 294775.200000
212.038700 284503.600000

>ms2peaks
63.962500 3411892.800000
70.029900 42758.100000
70.946100 10514.700000
71.014000 13307.500000
78.986000 5947041.000000
82.946100 562934.200000
84.009100 268628.400000
86.024800 14384.400000
92.026800 14305.200000
93.034500 10402.000000
95.014000 13821.500000
105.034600 321717.400000
108.021800 27870.600000
116.050500 9319.000000
117.035000 6951.700000
117.071000 13988.300000
119.050300 2539383.000000
120.021600 7527.000000
121.029600 2710084.800000
123.045200 23716.800000
123.999000 43525.700000
128.050700 8554.200000
130.042300 78983.900000
131.037700 47701.500000
132.021800 8767.700000
133.053300 111364.500000
139.993900 104592.600000
144.045600 9533.700000
145.029700 32939.200000
145.065900 38203.600000
146.037500 33344.200000
148.040600 197310.600000
149.024600 46672.300000
150.986000 9567.600000
154.009500 22201.200000
155.017400 585300.200000
168.996600 2521655.200000
170.004400 150494.700000
179.004800 7737.700000
183.012300 12719.800000
184.019800 9850.300000
185.027700 67491.800000
194.028100 8623.200000
196.007900 29547.700000
197.015300 105131.900000
199.007100 7315.200000
212.039200 6508.300000

>ms2peaks
63.962500 5186357.000000
65.039700 7880.500000
70.029900 7041.800000
77.039800 23292.300000
78.986000 4249797.000000
82.946200 317163.900000
84.009100 141776.800000
91.019000 28352.200000
92.026800 11944.900000
93.034500 50286.700000
105.034600 574354.900000
106.042500 10781.100000
108.021600 9589.200000
116.050700 8657.100000
117.034500 13818.800000
119.050300 1189179.200000
121.029600 3757610.800000
123.045200 58687.800000
123.998700 32532.700000
128.050700 9734.700000
130.042400 37708.200000
131.037600 57603.100000
132.021700 25460.600000
133.053400 69901.000000
139.993900 116259.500000
144.045700 12603.600000
145.029600 52055.800000
148.040600 103489.400000
149.024600 72811.700000
150.986100 6253.200000
151.993800 11312.100000
155.017400 177496.100000
168.996600 910007.400000
170.004400 10374.700000
197.015600 11617.600000

>ms2peaks
56.980400 7693.200000
63.962500 6794246.500000
77.039800 23879.400000
78.986000 1299245.100000
82.946100 103378.900000
84.009200 26628.700000
91.019000 60514.000000
92.026700 39533.900000
93.034600 72349.300000
95.013900 11733.800000
105.034600 402234.700000
108.021800 46970.000000
117.034800 8743.800000
119.050300 106275.500000
121.029600 2253228.000000
123.045300 33434.300000
131.037600 7251.800000
139.993700 8777.800000
145.029700 29363.200000
148.040700 13398.800000
149.024600 64007.900000
168.996800 31054.300000

>ms2peaks
56.980400 9449.000000
63.962500 5557260.000000
65.039700 19463.900000
78.986000 238653.300000
82.946200 18376.800000
91.019000 36253.400000
92.026800 34162.900000
93.034600 82534.500000
95.013900 35195.900000
105.034700 62929.100000
108.021800 68948.100000
117.034200 7073.000000
120.021800 9878.200000
121.029600 636004.800000

>ms2peaks
63.962500 4163231.500000
65.039700 8650.700000
78.986100 41389.600000
91.019000 6062.600000
92.026800 29579.300000
93.034500 44129.100000
95.014000 24753.000000
108.021800 25163.400000
121.029700 102930.700000

