>compound EQ73256514
>parentmass 327.12719999999996
>ionization [M-H]-
>formula C16H24O5S
>rt 654.000000
>profile orbitrap
#smiles_iso C1=CC(=CC=C1CCCCCCCCCC(=O)O)S(=O)(=O)O
#smiles_can C1=CC(=CC=C1CCCCCCCCCC(=O)O)S(=O)(=O)O
#inchikey VCKAUONIDRWIGP-UHFFFAOYSA-N
#pubchem_id 100942782
#mb_accession EQ357051,EQ357052,EQ357053,EQ357054,EQ357055,EQ357056,EQ357057,EQ357058,EQ357059

>ms2peaks
327.127100 405667584.000000

>ms2peaks
309.116600 1139356.600000
327.127100 404376672.000000

>ms2peaks
79.957300 6379754.000000
170.004300 38137520.000000
183.011900 2331105.500000
184.019700 345686.800000
197.028100 389180.600000
201.994200 869651.800000
245.154700 1579698.600000
263.166300 475626.400000
283.137400 1598447.200000
309.116600 19272478.000000
327.127100 305577216.000000

>ms2peaks
63.962400 706459.900000
79.957400 22742490.000000
80.965100 1395316.600000
106.042400 784849.400000
155.988800 807820.800000
170.004300 194802784.000000
171.012400 553767.900000
183.012100 19566492.000000
184.019900 1973033.500000
197.027700 2656875.800000
201.994100 4668472.500000
211.043500 813246.100000
216.009800 326287.500000
219.175600 316438.900000
225.059100 1042644.800000
239.074500 407416.800000
245.154600 2205959.800000
247.170100 224221.500000
253.090400 241916.500000
263.165400 609548.500000
267.106400 241336.000000
283.137400 1853129.400000
309.116700 21606688.000000
327.127400 80539528.000000

>ms2peaks
63.962500 4644136.500000
79.957400 30518302.000000
80.965100 2336849.000000
95.013800 325321.300000
106.042400 1183363.200000
119.050200 1610601.800000
133.065800 205639.500000
155.988800 2412369.800000
158.975600 267814.900000
170.004300 192788736.000000
171.012100 238539.500000
183.012100 35730616.000000
184.019900 1289851.600000
197.027700 4591501.000000
201.994100 4755282.500000
211.043500 1215706.400000
225.059100 1639154.200000
239.074800 708796.100000
245.154700 349134.100000
267.106300 266193.200000
283.137200 261624.800000
309.116600 2598725.000000
327.127200 3968572.800000

>ms2peaks
63.962500 8777938.000000
79.957400 50037024.000000
80.965200 2230441.800000
95.013900 422679.800000
106.042400 1188193.100000
119.050200 7873787.000000
121.029500 348843.500000
133.065900 726913.300000
155.988800 3083517.500000
158.975700 196903.200000
170.004400 93124728.000000
183.012100 31838864.000000
184.019800 321190.800000
197.027700 3320021.800000
201.994200 2345998.200000
211.043600 943054.800000
225.059400 760197.200000
239.074700 376528.100000

>ms2peaks
63.962500 10002205.000000
79.957400 112550696.000000
80.965100 2272878.500000
91.055300 173242.900000
93.034600 746709.200000
95.013900 401923.900000
106.042400 175751.600000
119.050200 16596984.000000
132.058100 178635.100000
133.065900 738617.300000
155.988800 1645364.600000
158.975800 173054.400000
170.004400 9029928.000000
183.012100 8705021.000000
195.012000 368291.900000
197.028000 438467.200000
201.993700 183097.500000

>ms2peaks
63.962500 6280355.000000
79.957400 117047104.000000
80.965100 1861428.100000
91.055400 283292.800000
93.034600 1189322.400000
117.034700 202031.400000
119.050200 7390341.500000
155.988900 326037.200000
170.004400 445092.000000
183.012100 714970.300000

>ms2peaks
63.962500 4600516.500000
65.039700 191432.400000
79.957400 99064368.000000
80.965200 1226932.000000
91.055300 230005.600000
93.034600 1223693.000000
117.034600 295953.300000
119.050200 1441091.400000

