>compound EQ74976181
>parentmass 279.1503
>ionization [M-H]-
>formula C18H20N2O
>rt 846.000000
>profile orbitrap
#smiles_iso C[N+]1(CCN2C(C1)C3=CC=CC=C3CC4=CC=CC=C42)[O-]
#smiles_can C[N+]1(CCN2C(C1)C3=CC=CC=C3CC4=CC=CC=C42)[O-]
#inchikey VVDXWJOYXVNLLQ-UHFFFAOYSA-N
#pubchem_id 3085244
#mb_accession EQ327851,EQ327852,EQ327853,EQ327854,EQ327855,EQ327856,EQ327857,EQ327858,EQ327859

>ms2
107.050200 6965.000000
121.029500 31000.300000
127.112800 36391.700000
134.037300 70601.800000
167.024600 858.500000
251.156200 2786.600000
279.150400 605788.900000

>ms2
93.034400 718.100000
107.050200 8449.300000
121.029500 48581.800000
125.097000 751.400000
127.112800 71373.900000
134.037300 133463.800000
251.156400 622.800000
279.150000 40887.400000

>ms2
71.050200 390.200000
75.024000 1962.100000
93.034600 3425.500000
107.050300 3595.800000
119.013800 461.900000
121.029500 32734.300000
125.097000 1401.200000
127.112800 44882.200000
134.037300 45949.400000
167.024300 1368.100000

>ms2
71.050300 330.800000
75.024100 9822.300000
76.027500 4909.100000
93.034500 4901.100000
103.018800 1510.200000
107.050200 405.600000
119.013900 1241.600000
121.029400 18355.000000
125.097100 1223.100000
127.112800 17482.200000
134.037300 7935.800000

>ms2
75.024000 18169.000000
93.034600 3764.400000
103.018900 702.100000
119.013600 624.000000
121.029500 7360.900000
127.112800 3636.400000

>ms2
75.024100 18890.700000
93.034500 498.900000
119.013800 300.700000
121.029400 2479.000000
125.097100 413.300000
127.112600 713.400000

>ms2
75.024100 11480.300000

>ms2
75.024100 4396.200000
76.027500 2544.600000

>ms2
75.024100 1255.200000

