>compound EQ75588101
>parentmass 468.01930000000004
>ionization [M-H]-
>formula C19H17Cl2N3O5S
>rt 570.000000
>profile orbitrap
#smiles_iso CC1=C(C(=NO1)C2=C(C=CC=C2Cl)Cl)C(=O)NC3C4N(C3=O)C(C(S4)(C)C)C(=O)O
#smiles_can CC1=C(C(=NO1)C2=C(C=CC=C2Cl)Cl)C(=O)NC3C4N(C3=O)C(C(S4)(C)C)C(=O)O
#inchikey YFAGHNZHGGCZAX-UHFFFAOYSA-N
#pubchem_id 3041
#mb_accession EQ366551,EQ366552,EQ366553,EQ366554,EQ366555,EQ366556,EQ366557,EQ366558,EQ366559

>ms2
57.975700 28251.700000
74.991100 85135.100000
83.014000 23122.100000
156.012900 23859.300000
190.006600 21270.000000
233.011500 28547.700000
247.982300 21199.800000
247.994500 282428.300000
248.990100 46325.200000
255.023700 14922.100000
258.020000 52726.500000
275.977000 13788.600000
291.000500 2147160.200000
326.977100 12732829.000000
388.053200 514610.600000
424.030000 1157956.625000

>ms2
56.980400 3432.400000
57.975700 142114.700000
58.996100 27590.000000
59.991400 11399.300000
65.998500 13635.300000
67.019100 3874.100000
70.983600 18954.100000
71.991500 30566.100000
74.991100 391157.200000
82.029900 24448.000000
83.013900 487617.900000
85.011700 4268.500000
90.035000 14686.500000
99.986300 13437.200000
107.025100 15753.700000
110.991000 4077.100000
113.006800 35020.400000
114.001900 14945.600000
123.986300 32140.200000
126.001900 3563.300000
150.011700 41607.200000
151.007100 18978.400000
151.991000 12339.800000
153.996700 3601.800000
156.012800 59613.600000
159.972800 107373.400000
167.968300 14126.700000
168.045700 27578.200000
175.006800 7108.800000
181.983800 6049.100000
182.015800 103917.000000
188.998500 12571.000000
189.022700 50626.500000
190.006700 113592.900000
191.001900 13792.900000
193.984000 4876.500000
204.975700 22343.600000
205.983900 31398.500000
206.979300 28238.200000
211.034200 5487.800000
213.013400 23269.900000
215.003800 5928.900000
216.009900 38389.800000
217.017300 12479.400000
219.999300 5510.500000
221.035800 6574.800000
221.978900 11901.400000
225.030800 6400.400000
225.983400 10954.300000
227.028900 18622.600000
230.996600 3277.300000
232.004900 57091.700000
232.970900 29501.900000
233.012600 403399.300000
235.010400 19614.500000
247.981900 152250.328100
247.994500 499231.200000
248.989700 299581.500000
254.016100 4738.700000
255.023600 170273.200000
257.012700 150946.300000
258.020300 440771.000000
263.005300 140541.000000
275.976800 219344.300000
289.993700 3397.900000
290.010500 4403.400000
291.000500 1993394.200000
326.977100 557479.700000
388.053300 98089.300000

>ms2
56.980500 5334.700000
57.975700 111253.900000
58.996200 29831.000000
59.991300 12537.700000
65.998600 35636.900000
66.941700 2678.000000
67.019100 5451.400000
67.051100 24263.200000
70.983700 72784.100000
71.991500 34541.400000
72.999300 33890.800000
74.991100 264081.500000
82.029900 125579.500000
83.014000 603170.600000
83.991400 3804.100000
85.011900 10640.200000
90.035000 10316.000000
99.986400 11229.500000
107.025300 3238.400000
110.991100 6038.100000
113.006700 5595.100000
114.001800 3243.200000
118.030100 3566.000000
123.986400 31904.000000
126.002100 3844.300000
139.009600 5011.300000
150.011900 16223.300000
151.007100 19667.100000
151.991000 27550.400000
152.038100 4300.200000
153.996800 3275.500000
156.012800 5666.300000
159.972900 133916.000000
167.968300 5469.300000
168.045600 47579.200000
181.983700 4994.400000
182.015800 61343.113280
184.022800 17302.900000
185.018500 4222.900000
189.022700 28290.400000
190.006600 71086.500000
191.002000 96002.200000
193.040800 12395.400000
193.983900 2514.600000
197.035800 3875.400000
199.015300 3015.400000
202.007000 20631.000000
203.001900 5440.400000
204.976200 18032.400000
205.983900 14266.000000
206.979400 4987.900000
211.034100 3998.700000
212.018000 71841.900000
215.003200 19349.500000
215.014100 3898.600000
216.010100 43971.600000
217.017400 6379.600000
218.979600 11112.500000
219.999200 4559.400000
220.995100 5847.700000
221.979400 2553.600000
225.030900 4847.100000
225.983400 28411.200000
232.971400 36294.300000
233.012600 338218.900000
235.010000 18062.900000
240.000300 16796.100000
242.996900 17432.000000
247.982000 43273.300000
247.994800 35988.200000
248.989800 98868.300000
254.016300 5414.800000
255.023800 25281.800000
257.012900 41665.200000
258.020400 181091.500000
263.005200 20779.700000
271.990100 22430.900000
289.993900 3344.800000
290.010500 11145.600000
291.000500 57993.500000

>ms2
50.003600 4851.000000
56.980500 16210.000000
57.975700 126412.500000
58.996200 25169.000000
59.991500 10728.100000
64.019400 3690.100000
65.998600 138355.500000
66.941500 4504.200000
67.018900 3105.600000
70.983700 113255.000000
71.991500 27964.000000
72.999400 149921.900000
74.007200 13199.800000
74.991100 282886.800000
82.029900 176538.300000
83.014000 669865.700000
83.991500 4437.900000
85.011900 3685.600000
90.034900 4538.700000
99.986400 24214.500000
109.017000 3351.900000
110.991200 3469.500000
112.994100 6173.500000
114.001900 3624.200000
115.030500 4280.100000
118.030100 5775.900000
123.986300 18294.100000
123.996100 10802.200000
135.996000 2544.900000
139.009600 2534.800000
150.012000 5471.200000
151.007000 6526.200000
151.991000 38018.400000
152.038300 3435.300000
158.007100 5126.800000
159.972800 99864.700000
165.046000 14484.700000
166.029700 2774.100000
167.968500 3320.300000
175.006700 12958.600000
179.037900 5028.200000
182.015700 10182.200000
183.002100 3109.900000
183.972500 11606.100000
184.023000 17756.500000
185.018100 4054.700000
188.998700 4752.300000
189.022900 12196.800000
191.002000 256981.700000
193.040700 18007.500000
193.983600 6089.400000
197.035300 10326.300000
199.015700 5002.600000
202.007000 11310.500000
203.002000 11982.800000
204.976400 9838.900000
212.018000 17891.000000
213.013100 11620.400000
215.013900 3792.000000
216.009800 33898.800000
217.017300 3486.000000
218.979100 17623.400000
220.994500 3751.500000
221.035400 5403.700000
225.983700 36599.900000
227.028700 6378.100000
230.996800 4150.700000
232.004900 3704.700000
232.971200 23126.200000
233.012600 160361.400000
240.000400 14765.500000
247.982500 6253.700000
248.990300 12999.000000
257.012700 5212.900000
258.020200 31388.100000
271.990300 16521.900000
290.010400 3169.800000

>ms2
50.003600 5386.300000
56.980400 13813.700000
57.975700 83300.100000
58.996200 19486.100000
59.991400 4192.700000
64.019300 3839.700000
65.998600 178946.500000
66.941500 2789.800000
67.019000 5923.500000
70.983700 85249.500000
71.991400 15191.700000
72.999300 172280.700000
74.007100 3279.100000
74.991100 175222.900000
81.975800 11184.000000
82.029900 90589.800000
83.013900 379115.900000
83.991100 2911.900000
90.035100 3239.000000
99.986200 13289.800000
110.991500 2611.400000
112.994100 4307.000000
113.027000 2946.200000
115.030200 11153.100000
116.014400 3317.300000
123.995900 13795.000000
139.030200 3666.100000
140.050700 6083.500000
141.045700 4610.700000
151.991200 27116.300000
158.006900 5967.300000
159.972800 21419.400000
165.046000 21640.600000
166.029800 3773.900000
168.045600 18699.400000
169.040700 13965.900000
174.995800 10717.000000
175.006900 9955.400000
179.037500 4858.900000
183.972500 10764.100000
184.022900 4315.000000
189.994100 4532.500000
190.006600 3821.100000
191.001900 196689.500000
193.040200 4965.800000
193.983700 2708.500000
203.001900 2580.700000
216.009900 5110.100000
218.979200 6243.800000
225.983500 11172.500000
232.970600 5072.300000
233.013000 24418.900000
240.001100 3424.600000
242.996600 5262.100000
271.990500 5172.700000

>ms2
50.003600 14215.900000
56.980500 18700.700000
57.975800 93726.200000
58.996200 14959.200000
64.019400 5765.300000
65.014600 9710.600000
65.998600 266631.300000
67.019000 10475.600000
70.983700 91403.800000
71.991600 10134.900000
72.999300 188279.100000
74.007100 3243.200000
74.991200 120820.600000
81.975800 5913.200000
82.029900 85657.300000
83.014000 266512.000000
83.991500 4152.700000
90.035000 4544.900000
99.986400 5321.200000
107.025100 4340.000000
110.991300 3327.900000
112.994200 3197.800000
113.027200 2544.300000
114.035200 2910.500000
115.030300 9267.500000
116.014300 4423.800000
118.030200 4656.000000
123.996100 5042.600000
135.996300 5753.100000
139.030100 5329.200000
140.050900 4585.200000
141.046100 5527.900000
151.991100 17867.500000
152.038000 2973.900000
166.030000 3657.400000
168.045700 12501.900000
169.040800 5521.900000
174.995600 5783.900000
175.006700 2652.600000
183.002500 3313.600000
183.973200 4020.600000
189.994300 5543.900000
191.002000 100302.100000
193.040800 4238.600000
218.979400 3872.700000

>ms2
50.003500 13531.900000
56.980500 23253.000000
57.975700 54006.900000
58.996100 3556.500000
59.991400 2719.500000
64.006700 3987.200000
64.019300 5365.000000
65.014600 14763.600000
65.998600 310937.100000
70.983600 59571.400000
72.999400 71389.000000
74.003800 4676.400000
74.991200 32778.000000
81.975800 5439.000000
82.029900 10483.500000
83.013900 56549.000000
90.035000 5221.200000
115.030000 2736.900000
116.014300 2847.000000
151.990800 2827.500000

>ms2
50.003600 23981.100000
56.980500 36791.100000
57.975700 48572.900000
60.975500 3575.300000
64.006700 10986.000000
64.019300 10738.600000
65.014500 16419.000000
65.998600 349195.000000
67.051400 20874.000000
70.983700 42481.400000
72.999300 27647.100000
74.003700 10799.900000
74.991100 6092.400000
81.975700 5369.000000
82.029900 3794.400000
83.014000 13874.200000
114.035200 3142.100000

>ms2
50.003700 17642.000000
56.980500 26451.300000
57.975800 32327.400000
60.975400 5763.300000
64.006700 16336.300000
64.019400 9666.000000
65.014500 5691.300000
65.998600 234046.200000
70.983700 21823.400000
74.003900 4066.800000
81.975700 4532.500000

