>compound EQ77667711
>parentmass 294.00939999999997
>ionization [M-H]-
>formula C14H11Cl2NO2
>rt 834.000000
>profile orbitrap
#smiles_iso CC1=C(C(=C(C=C1)Cl)NC2=CC=CC=C2C(=O)O)Cl
#smiles_can CC1=C(C(=C(C=C1)Cl)NC2=CC=CC=C2C(=O)O)Cl
#inchikey SBDNJUWAMKYJOX-UHFFFAOYSA-N
#pubchem_id 4037
#mb_accession EQ369051,EQ369052,EQ369053,EQ369054,EQ369055,EQ369056,EQ369057

>ms2peaks
214.042800 952205.900000
250.018900 354703.000000
258.032600 14341657.000000
294.009300 108792944.000000

>ms2peaks
174.972300 285477.600000
178.066300 90338.300000
214.042900 6133753.500000
222.056200 229115.300000
250.019500 2535509.000000
258.032600 11395706.000000
294.009500 13312298.000000

>ms2peaks
174.972300 184608.500000
178.066200 676036.500000
194.061000 48487.000000
213.035000 18660.700000
214.043000 5832458.000000
222.056100 190163.800000
250.019400 776785.100000
258.032600 589349.900000
294.009500 204029.400000

>ms2peaks
174.972100 110674.600000
178.066200 1251212.800000
194.061000 14462.700000
213.035100 63712.000000
214.043000 1826349.000000
222.055900 72882.300000
250.019900 26938.300000

>ms2peaks
173.988000 14888.100000
174.972300 24879.100000
177.058200 12764.900000
178.066200 976118.900000
214.043000 221803.600000
222.056300 15432.000000

>ms2peaks
173.987900 12168.900000
177.058200 19975.300000
178.066200 390380.700000

>ms2peaks
178.065600 12528.800000

