>compound EQ79659794
>parentmass 137.0244
>ionization [M-H]-
>formula C7H6O3
>rt 378.000000
>profile orbitrap
#smiles_iso C1=CC=C(C(=C1)C(=O)O)O
#smiles_can C1=CC=C(C(=C1)C(=O)O)O
#inchikey YGSDEFSMJLZEOE-UHFFFAOYSA-N
#pubchem_id 338
#mb_accession EQ369651,EQ369652,EQ369653,EQ369654,EQ369655,EQ369656,EQ369657,EQ369658,EQ369659

>ms2peaks
93.034600 154232832.000000
137.024500 72426536.000000

>ms2peaks
93.034600 156864688.000000
137.024500 72614928.000000

>ms2peaks
65.039700 620393.900000
93.034600 182821936.000000
137.024500 35772632.000000

>ms2peaks
65.039700 2592212.000000
93.034600 201430160.000000
137.024500 7601725.500000

>ms2peaks
65.039700 7421926.500000
75.024100 395185.300000
93.034600 181110736.000000
137.024500 1518862.500000

>ms2peaks
65.039700 15308947.000000
67.019000 377522.600000
75.024100 1188486.500000
93.034600 153690032.000000
137.024600 191095.100000

>ms2peaks
65.039700 22792494.000000
67.019000 598560.800000
75.024100 2487196.800000
93.034600 71734288.000000

>ms2peaks
65.039700 17724064.000000
67.019000 572807.000000
75.024100 2191946.200000
93.034600 21054608.000000

>ms2peaks
65.039700 9876653.000000
67.018900 440043.500000
75.024100 1155479.500000
93.034600 5091651.500000

