>compound EQ82470540
>parentmass 492.2516999999999
>ionization [M-H]-
>formula C29H31N7O
>rt 348.000000
>profile orbitrap
#smiles_iso CC1=C(C=C(C=C1)NC(=O)C2=CC=C(C=C2)CN3CCN(CC3)C)NC4=NC=CC(=N4)C5=CN=CC=C5
#smiles_can CC1=C(C=C(C=C1)NC(=O)C2=CC=C(C=C2)CN3CCN(CC3)C)NC4=NC=CC(=N4)C5=CN=CC=C5
#inchikey KTUFNOKKBVMGRW-UHFFFAOYSA-N
#pubchem_id 5291
#mb_accession EQ363351,EQ363352,EQ363353,EQ363354,EQ363355,EQ363356,EQ363357,EQ363358,EQ363359

>ms2peaks
492.251700 2555120.200000

>ms2peaks
172.051500 3507.300000
259.098600 3336.700000
264.114100 11723.400000
276.125300 3412.000000
302.104600 51922.700000
388.214700 4373.600000
393.159300 37665.200000
421.177200 4176.300000
425.149500 11030.500000
465.238900 2868.600000
492.251800 2176235.200000

>ms2peaks
65.014500 1001.900000
142.041100 912.900000
144.056700 727.200000
147.056400 9964.500000
155.049500 534.300000
157.040500 2151.200000
169.051900 31567.500000
171.056300 2906.800000
171.067600 5240.000000
171.080100 4924.200000
172.051700 26558.800000
195.067400 798.000000
198.067300 36715.300000
207.080100 790.600000
234.067300 3313.800000
235.100100 600.900000
237.103400 1065.700000
238.111600 594.700000
247.098500 579.200000
248.107100 3897.400000
249.103100 2734.100000
259.098700 34870.500000
260.094100 2791.500000
263.106300 4309.300000
264.114200 319398.400000
274.109900 4792.800000
275.093800 25695.300000
275.117800 29374.400000
276.125400 34519.600000
277.108700 948.500000
285.078000 5143.700000
288.115100 779.400000
289.122100 1963.300000
302.104800 401927.100000
314.117300 547.600000
315.125000 986.600000
335.188100 4483.200000
350.153300 1573.000000
362.199900 854.000000
365.140800 2245.100000
374.141600 610.100000
377.140700 1741.900000
378.136000 8988.800000
388.214300 23379.800000
392.151700 21345.600000
393.159400 284008.900000
394.167100 7071.800000
419.161300 864.100000
421.178200 22967.600000
425.149400 89310.100000
465.240900 13356.500000
492.251700 361921.500000

>ms2peaks
65.014500 2329.200000
117.046100 666.600000
142.041000 2506.300000
143.061700 381.100000
144.056700 2965.500000
145.064600 3668.300000
146.072600 1742.200000
147.056400 7159.600000
157.040700 8731.400000
158.035900 648.300000
169.052000 34250.100000
171.044100 2064.600000
171.056500 24229.100000
171.067600 8401.700000
171.080100 11820.700000
172.051700 28195.800000
182.036000 604.500000
195.067400 1913.000000
196.051700 613.400000
198.067200 89662.800000
207.080000 1571.000000
209.083300 4391.400000
222.092400 961.300000
234.067300 14798.900000
235.099000 749.600000
237.103400 8208.100000
238.110600 383.300000
247.099000 1553.600000
248.083000 700.600000
248.106700 8642.700000
249.091100 486.800000
249.103500 2134.600000
258.091300 1673.200000
259.098700 25058.000000
260.094100 12993.700000
262.099200 609.000000
263.106200 976.000000
264.114200 302106.600000
273.078300 966.500000
274.109900 14473.300000
275.093900 42939.100000
275.116900 13007.700000
276.125700 6850.500000
277.110100 805.300000
285.078100 7673.600000
286.073600 752.000000
287.093300 632.700000
288.088800 650.600000
288.114300 1530.500000
289.123000 500.300000
302.104800 212221.700000
314.117500 482.600000
315.125600 2618.200000
335.188300 591.600000
350.153200 1579.300000
351.122900 529.800000
362.197600 657.500000
365.140600 2657.500000
374.140600 1674.200000
377.141900 992.400000
378.135800 6810.200000
388.214400 979.300000
392.151800 15470.200000
393.159400 25160.000000
394.165700 599.800000
419.161300 383.600000
421.179500 1492.200000
425.149600 8988.200000
465.241400 491.700000
492.252000 1828.400000

>ms2peaks
65.014500 5905.300000
76.019300 316.600000
103.030200 519.200000
116.050900 427.400000
128.038400 546.500000
129.045900 3724.500000
142.041100 2284.100000
143.049000 1591.500000
143.061400 1816.200000
144.056700 3085.200000
145.064500 11925.600000
146.072400 6810.800000
147.056300 3859.200000
155.049000 870.300000
157.040700 10304.300000
158.035800 5948.100000
169.051900 10800.900000
170.072300 550.700000
171.056400 29609.500000
171.067300 6457.400000
171.079900 5594.300000
172.051700 35483.900000
182.036000 828.400000
182.072300 365.900000
195.067300 902.900000
196.051100 1803.800000
198.067300 51644.700000
207.080400 461.300000
209.083400 8984.000000
222.092800 2635.800000
234.067300 14503.900000
237.103300 11680.300000
247.099200 640.500000
248.082400 1905.700000
248.106000 1658.000000
249.090400 411.800000
257.082900 411.100000
258.091500 2066.100000
259.085400 1535.400000
259.098400 6853.700000
260.094200 10994.800000
262.098100 682.900000
264.114100 71101.300000
273.078500 1685.700000
274.110100 8040.500000
275.093900 15395.000000
285.078200 4464.500000
286.072800 812.000000
287.094100 466.500000
288.088400 478.000000
302.104700 31482.300000
351.125000 420.600000
392.151700 1477.300000
393.159200 401.500000

>ms2peaks
50.003600 456.300000
65.014500 5872.500000
76.019200 1676.400000
79.030300 353.900000
102.034900 412.500000
103.030100 764.700000
116.050400 797.700000
117.045900 791.400000
128.037800 1859.800000
129.046000 3292.100000
142.040900 1300.000000
143.048800 2618.000000
143.061300 2693.500000
144.056700 4062.500000
145.064500 8165.700000
146.072300 2776.000000
147.056300 1477.000000
155.048700 1759.000000
157.040700 6655.500000
158.035900 9521.400000
169.051900 2601.800000
170.072400 444.700000
171.044600 3443.600000
171.056400 16947.000000
171.067400 3448.800000
172.051600 25133.300000
182.035600 1926.800000
182.071900 807.400000
196.051500 1687.000000
198.067400 14431.200000
209.083300 6227.900000
222.092100 506.300000
232.075800 774.700000
234.067400 5980.000000
237.103200 3266.600000
248.082500 1893.900000
257.082000 380.000000
258.090800 1528.400000
259.085900 2301.000000
259.097900 862.600000
260.094100 2789.000000
264.114400 6957.200000
272.093600 463.500000
274.109800 2415.300000
275.094200 4141.300000
285.078000 1397.200000
302.105000 2507.400000

>ms2peaks
50.003500 536.000000
65.014500 5474.100000
79.030200 527.100000
103.030200 370.200000
117.045700 676.500000
128.037900 421.200000
129.045600 1597.600000
142.041000 504.800000
144.056700 2127.200000
155.048800 349.300000
158.036100 2904.800000
172.051600 2363.100000
182.035700 1424.400000
182.072100 506.200000
232.075100 2153.200000
272.093700 399.600000

>ms2peaks
50.003500 806.000000
65.014500 5469.000000
79.030000 646.600000
102.034800 454.300000
232.075100 518.500000

>ms2peaks
50.003600 1400.300000
65.014500 3129.600000
79.030300 607.700000

