>compound EQ82669561
>parentmass 299.0959
>ionization [M-H]-
>formula C14H20O5S
>rt 480.000000
>profile orbitrap
#smiles_iso C1=CC(=CC=C1CCCCCCCC(=O)O)S(=O)(=O)O
#smiles_can C1=CC(=CC=C1CCCCCCCC(=O)O)S(=O)(=O)O
#inchikey KCKCVKAROJRVBA-UHFFFAOYSA-N
#pubchem_id 53987276
#mb_accession EQ357151,EQ357152,EQ357153,EQ357154,EQ357155,EQ357156,EQ357157,EQ357158,EQ357159

>ms2
170.003000 835267.500000
299.095800 362306368.000000

>ms2
79.957200 489758.800000
170.003300 1255709.400000
281.084300 990972.800000
299.095800 351231872.000000

>ms2
79.957400 6701286.000000
80.965200 386624.100000
170.004400 41450400.000000
183.011900 1607441.600000
184.020100 454311.700000
201.994200 644697.900000
217.123500 971157.500000
235.133900 757574.400000
255.105800 525147.900000
281.085300 13137700.000000
299.095800 274720384.000000

>ms2
63.962500 753120.600000
79.957400 24481070.000000
80.965200 1806492.600000
106.042500 379808.500000
132.058000 207901.300000
155.988800 714142.200000
170.004400 183337488.000000
171.012300 451731.200000
183.012100 13179970.000000
184.020000 1205859.500000
197.027700 1516401.100000
201.994200 3315244.000000
211.043700 464979.300000
217.123400 1449145.000000
225.059100 196952.000000
235.134100 773802.400000
239.074400 293005.800000
255.106300 809919.800000
281.085300 14456870.000000
299.096100 75648168.000000

>ms2
63.962500 4779072.500000
79.957400 34473656.000000
80.965200 3030338.200000
95.013900 237679.600000
106.042400 1017639.600000
119.050200 1155792.500000
155.988800 2181914.200000
158.975900 212457.300000
170.004400 192208272.000000
171.011900 212381.800000
183.012200 24925852.000000
184.020000 862427.400000
197.027800 2399102.200000
201.994200 3903273.200000
211.043500 735819.400000
217.123300 381601.300000
225.059300 222222.500000
239.074800 278931.800000
281.085400 2366468.800000
299.095900 5115053.500000

>ms2
63.962500 9745277.000000
79.957400 52456208.000000
80.965200 3132931.000000
95.013800 381464.000000
106.042400 877662.300000
119.050300 5488347.000000
133.065900 371383.000000
155.988800 2563538.000000
158.976000 308095.800000
170.004400 97909392.000000
183.012200 23594616.000000
184.019800 141628.300000
197.027800 1664387.800000
201.994200 2274774.200000
211.043500 620740.300000
281.085400 147424.700000
299.095900 137944.900000

>ms2
63.962500 8477156.000000
79.957400 97095392.000000
80.965200 2191491.800000
93.034600 515154.600000
95.014100 159839.800000
106.042500 134912.400000
119.050300 11162022.000000
133.065900 237533.600000
155.988800 1513319.500000
170.004400 7144602.500000
183.012100 5491772.000000
201.994700 134072.000000

>ms2
63.962500 6173656.000000
65.039800 130899.500000
79.957400 114270176.000000
80.965100 1735230.400000
91.055400 207132.500000
93.034600 978615.000000
117.034600 234877.100000
119.050300 5177189.000000
155.988900 284444.000000
170.004400 401668.300000
183.012200 457584.500000

>ms2
63.962500 4418024.000000
65.039700 146347.600000
79.957400 86196808.000000
80.965100 991626.200000
91.055300 156134.200000
93.034600 875013.400000
117.034800 205753.400000
119.050300 1108110.800000

