>compound EQ83676314
>parentmass 469.3322999999999
>ionization [M-H]-
>formula C30H46O4
>rt 1014.000000
>profile orbitrap
#smiles_iso C[C@]12CC[C@](C[C@H]1C3=CC(=O)[C@@H]4[C@]5(CC[C@@H](C([C@@H]5CC[C@]4([C@@]3(CC2)C)C)(C)C)O)C)(C)C(=O)O
#smiles_can CC1(C2CCC3(C(C2(CCC1O)C)C(=O)C=C4C3(CCC5(C4CC(CC5)(C)C(=O)O)C)C)C)C
#inchikey MPDGHEJMBKOTSU-YKLVYJNSSA-N
#pubchem_id 10114
#mb_accession EQ326351,EQ326352,EQ326353,EQ326354,EQ326355,EQ326356,EQ326357,EQ326358,EQ326359

>ms2peaks
469.332100 93531000.000000

>ms2peaks
425.342600 676947.100000
469.332100 86180184.000000

>ms2peaks
353.248800 108015.500000
355.264200 1637723.900000
409.311000 607751.400000
423.326700 465303.200000
425.342800 13907546.000000
469.332300 42846360.000000

>ms2peaks
71.050400 26238.200000
99.045100 60329.400000
147.081400 13707.100000
185.097000 7364.700000
201.129300 7417.500000
217.159600 44111.800000
253.159000 7381.300000
283.206800 8909.500000
287.201500 13101.200000
289.217400 35715.600000
299.237500 7556.900000
323.201400 9623.600000
325.217500 88398.600000
337.217500 13544.300000
339.233000 144169.200000
341.248400 81357.700000
353.248800 154002.900000
355.264300 4509337.500000
357.281000 43803.800000
379.264500 69039.800000
391.263300 10031.100000
393.279900 176718.100000
395.294500 7286.300000
407.295100 81892.700000
409.311300 2493426.500000
423.326900 661453.600000
425.342700 5080447.000000
469.332400 2927101.500000

>ms2peaks
71.050300 25843.500000
81.034500 5955.200000
99.045200 13056.900000
137.097200 9008.300000
147.081500 49512.300000
171.081100 10975.800000
185.097500 10247.600000
198.104400 5619.700000
199.113000 25644.200000
201.128000 10222.000000
217.159700 20304.800000
233.154300 22218.100000
239.144200 24908.600000
253.159400 43170.600000
287.201300 21017.800000
289.217400 11486.400000
307.206200 24242.000000
321.221900 7175.900000
323.201700 49593.800000
323.237900 10657.300000
324.209400 50875.900000
325.217500 348546.200000
337.217500 10499.900000
338.225600 29467.400000
339.233000 289566.800000
341.248000 32945.900000
353.249200 56337.200000
355.264400 2032359.000000
377.248700 29781.500000
377.285000 24356.700000
379.264300 245226.600000
391.263300 12862.900000
393.280100 230612.200000
395.296700 10065.100000
407.295500 72446.900000
409.311400 755570.400000
423.326800 108951.400000
425.343000 104849.200000

>ms2peaks
71.050400 73415.200000
81.034400 6050.500000
99.045200 6945.500000
107.050100 5743.700000
137.097100 20450.300000
145.065800 12236.500000
147.081700 70563.400000
156.058300 4982.400000
170.073600 25629.900000
171.081500 34388.200000
172.089300 12174.000000
173.096900 38246.000000
183.081200 12594.300000
184.089400 20092.200000
185.097100 74233.300000
197.096900 7697.600000
198.104900 9723.100000
199.113000 27100.400000
224.120800 10046.500000
225.128300 28658.000000
233.154300 6985.000000
237.128200 30131.800000
239.144300 36927.700000
253.160000 52445.800000
283.206900 6349.000000
287.200900 6912.800000
307.206700 41096.300000
309.185500 77176.100000
321.221900 11693.100000
323.201500 58193.700000
323.238700 26247.700000
324.209800 69236.600000
325.217400 638207.100000
337.217500 6890.000000
338.225300 7393.600000
339.232900 138982.000000
353.247200 23047.300000
355.264300 630639.200000
377.248100 33676.100000
377.285100 7407.700000
379.264600 120973.300000
391.263900 11641.500000
393.280300 86894.400000
407.295400 6881.400000
409.310600 59931.900000

>ms2peaks
71.050300 43947.900000
107.050300 7632.600000
130.042700 6877.000000
137.097300 7476.500000
145.065600 34377.600000
156.057700 6035.900000
157.065700 25295.500000
159.045200 6368.900000
169.066000 19408.700000
170.073800 105489.000000
171.081600 107085.400000
172.089200 42921.800000
173.097000 40556.800000
183.081400 55548.200000
184.088800 28678.500000
185.060600 25643.600000
185.097300 65028.700000
195.081300 8069.100000
197.060200 5580.100000
197.097100 21908.700000
202.063500 22011.638670
209.096900 24423.998050
221.097800 7551.700000
223.113100 23726.500000
224.120600 8833.300000
225.128400 32303.200000
237.128400 22333.700000
239.144000 22506.300000
253.160000 8096.800000
307.207300 6994.700000
309.185500 33152.200000
323.201300 21373.800000
323.237600 6178.600000
325.217900 46259.200000

>ms2peaks
130.042000 6842.300000
156.057700 4620.400000
157.065700 12347.100000
159.045400 5417.200000
169.065800 8409.100000
170.073900 56641.400000
171.081600 81057.800000
183.081100 45798.400000
185.060700 20865.300000
195.080700 6916.000000
197.060500 5245.100000
221.097200 7573.200000
223.112900 6403.400000

>ms2peaks
156.058200 5786.600000
170.073600 25337.300000
171.081300 12477.700000
183.081600 6178.500000

