>compound EQ84751364
>parentmass 358.03659999999996
>ionization [M-H]-
>formula C15H12F3NO4S
>rt 516.000000
>profile orbitrap
#smiles_iso CS(=O)(=O)C1=C(C=CC(=C1)C(F)(F)F)C(=O)C2=C(ON=C2)C3CC3
#smiles_can CS(=O)(=O)C1=C(C=CC(=C1)C(F)(F)F)C(=O)C2=C(ON=C2)C3CC3
#inchikey OYIKARCXOQLFHF-UHFFFAOYSA-N
#pubchem_id 84098
#mb_accession EQ348851,EQ348852,EQ348853,EQ348854,EQ348855,EQ348856,EQ348857,EQ348858,EQ348859

>ms2peaks
63.962500 284022.400000
78.986000 5308563.000000
108.045400 9938.000000
208.989100 6221.900000
248.984100 13466.800000
276.064500 9760.200000
278.043600 222559.100000
294.074700 9725.500000
340.026400 51511.900000
358.037200 3783853.500000

>ms2peaks
63.962500 1189789.200000
78.986000 7289022.000000
108.045600 112136.100000
208.989300 8180.500000
248.984000 52732.000000
251.032700 15970.600000
276.064300 66802.000000
278.043600 153941.800000
340.026400 57708.400000
358.037100 63501.300000

>ms2peaks
63.962500 2212729.500000
65.998600 17916.000000
67.018900 8881.500000
78.986000 5410253.000000
90.034900 10533.000000
108.045600 309735.800000
145.027300 12417.700000
159.042900 72861.600000
185.022100 5691.000000
213.017000 10043.900000
228.062800 9111.500000
248.032900 11061.000000
248.984100 75182.500000
251.032700 23135.400000
276.064300 118746.000000
278.043600 24404.100000
340.025900 11361.300000

>ms2peaks
60.975400 5729.100000
63.962500 3270656.000000
65.998600 57638.500000
67.019000 18449.200000
78.986000 3346112.200000
85.029500 6124.200000
90.035000 20521.700000
108.045600 312604.200000
145.027200 21343.700000
159.042800 116600.500000
161.022100 9280.100000
168.025600 8034.200000
170.022600 4491.800000
185.022200 15466.000000
201.016700 7994.700000
203.032600 4667.800000
208.057200 6087.100000
210.017200 5482.200000
213.017100 6395.800000
228.063300 20583.600000
231.981600 4980.900000
247.062300 8720.900000
248.984000 47410.600000
250.049000 4920.200000
251.032700 5520.900000
264.027600 4559.900000
276.064400 30099.800000
278.043700 13368.400000

>ms2peaks
60.975500 11351.100000
63.962500 4519095.500000
65.998600 110779.100000
67.019000 23019.400000
78.986000 1894934.500000
90.035100 24483.100000
108.045600 170830.300000
145.027100 20803.800000
148.019600 4622.200000
159.042900 63325.600000
161.022100 22063.500000
165.015700 4806.500000
168.025700 9128.200000
170.022400 8356.400000
185.022000 15065.800000
188.050500 7322.300000
201.016800 6233.700000
208.057000 4976.400000
228.063200 5942.000000
248.983900 11072.600000
278.043500 9541.700000

>ms2peaks
55.018900 5943.400000
60.975400 16243.000000
63.962500 4597142.500000
65.998600 124701.700000
67.019000 15237.200000
78.986000 848091.000000
90.034900 20842.500000
108.045600 59054.200000
121.009400 4786.400000
145.009300 4969.300000
145.027100 13708.700000
148.019500 11411.700000
159.042700 15543.400000
161.022000 17743.800000
165.015600 4602.100000
168.025600 10049.600000
180.025400 5533.400000
185.021600 5118.300000
188.050300 6328.600000
249.041200 7727.500000

>ms2peaks
50.003600 5498.300000
55.019000 5964.100000
60.975500 16743.200000
63.962500 4353970.000000
65.998600 124267.600000
67.019000 6968.900000
73.008500 17634.300000
74.003800 6724.600000
78.986000 168059.900000
90.035000 10175.500000
93.014700 4633.600000
97.008400 11282.700000
99.024200 4541.100000
108.045600 5026.200000
117.014800 6019.000000
121.009700 6742.800000
122.003600 9897.600000
148.019600 11505.900000
162.016400 4775.000000

>ms2peaks
50.003600 9556.600000
60.975500 12739.900000
63.962500 3042049.200000
65.998600 85753.200000
73.008500 28640.300000
74.003800 10379.300000
78.986000 28736.800000
97.008500 13560.100000
98.003700 6174.200000
122.003800 20805.100000
135.011800 4285.000000

>ms2peaks
50.003600 11964.000000
60.975400 5192.900000
63.962500 2096514.400000
65.998600 86017.700000
73.008500 20175.500000
74.003800 13012.600000
78.985900 3776.400000
97.008400 12212.400000
98.003700 9462.000000
122.003700 22653.500000

