>compound EQ84896923
>parentmass 295.07
>ionization [M-H]-
>formula C14H11F3N2O2
>rt 660.000000
>profile orbitrap
#smiles_iso CC1=C(C=CC=C1NC2=C(C=CC=N2)C(=O)O)C(F)(F)F
#smiles_can CC1=C(C=CC=C1NC2=C(C=CC=N2)C(=O)O)C(F)(F)F
#inchikey NOOCSNJCXJYGPE-UHFFFAOYSA-N
#pubchem_id 38081
#mb_accession EQ368551,EQ368552,EQ368553,EQ368554,EQ368555,EQ368556,EQ368557,EQ368558,EQ368559

>ms2peaks
231.073900 5090159.500000
235.048900 319325.900000
249.064200 558030.400000
251.080200 88299024.000000
295.069800 313113952.000000

>ms2peaks
191.061500 1176884.500000
209.052000 2298474.000000
211.067700 7735841.500000
224.069200 4626564.000000
230.066100 799637.900000
231.073900 29662110.000000
234.053700 1851348.500000
235.048900 1646931.000000
249.064500 2916983.200000
251.080100 341425248.000000
295.069900 54183484.000000

>ms2peaks
62.988800 206154.000000
68.995700 1235201.800000
164.050400 292435.800000
182.048600 340960.800000
184.056700 858561.900000
190.053400 511799.000000
191.061500 20810658.000000
200.039200 491049.800000
204.062900 558764.200000
208.027700 204572.700000
209.052100 32653860.000000
210.059800 943187.800000
211.067700 42651012.000000
216.050300 2021382.400000
222.043500 326742.600000
224.069300 25040652.000000
225.046600 510108.200000
228.034000 680793.900000
229.058200 499433.900000
230.066000 6728506.500000
231.073900 54476264.000000
234.053600 11154051.000000
235.048800 2396608.800000
242.049300 377912.400000
249.064400 6530281.000000
251.080100 177432640.000000
255.057200 255545.200000
278.042800 195210.800000
295.069600 922149.100000

>ms2peaks
62.988800 176952.700000
66.035000 255181.500000
68.995800 1825995.000000
91.030200 82275.600000
114.034900 399186.900000
127.036600 71114.200000
134.041100 696286.800000
141.045700 88818.400000
155.037700 173157.300000
164.050600 2462251.000000
165.045800 583235.800000
166.053600 1065842.500000
169.040900 76339.300000
180.069200 263023.100000
181.077200 109471.400000
182.048500 291110.400000
184.056700 4931159.500000
185.051700 73831.700000
189.046500 315448.800000
190.053700 4554108.500000
191.061600 56010364.000000
193.040500 472297.300000
194.040800 1140020.000000
194.048700 195157.100000
196.044000 260848.700000
200.039300 648297.200000
204.062900 1208611.900000
208.028100 349946.500000
209.052100 55885352.000000
210.059900 2429983.000000
211.067700 43291048.000000
214.046500 317685.600000
216.050300 3042270.200000
222.043600 222935.500000
222.073100 314012.400000
224.069300 20050748.000000
225.046900 1796208.200000
228.034000 1091802.200000
229.058100 2228253.200000
230.066000 6107737.500000
231.073900 30570226.000000
234.053600 10033851.000000
235.049100 2261552.000000
242.049900 258583.700000
249.064400 7566870.000000
251.080100 29474846.000000
255.057300 501783.000000
262.056200 177480.800000
278.043700 107353.500000

>ms2peaks
50.003500 48219.000000
62.988700 49781.300000
64.019200 58516.900000
66.034900 237656.200000
68.995800 1141322.400000
76.019300 253584.800000
91.030200 285128.100000
93.045700 257313.400000
114.034900 3587414.000000
115.030100 89780.200000
127.036400 49780.600000
134.041100 2083191.400000
140.050800 341734.000000
141.045900 578755.500000
142.053400 74254.300000
154.047500 63580.400000
155.037800 285224.400000
163.042900 49102.800000
164.050600 4966043.500000
165.045700 2394608.200000
166.053600 1756146.100000
169.040600 205772.700000
174.034900 417766.300000
178.053500 155531.400000
180.033000 160657.100000
180.069000 79383.300000
181.077500 46840.800000
182.048400 181258.500000
184.056700 5856991.000000
185.052100 145595.400000
189.046000 2670788.000000
190.053700 9456865.000000
191.061600 46605320.000000
193.040600 927068.300000
194.041000 2402198.000000
194.048300 172545.100000
195.036600 308501.700000
196.044200 422234.200000
200.039000 515708.900000
204.063000 775421.100000
206.048600 79544.800000
208.027900 271450.600000
209.052100 45629932.000000
210.059900 1089611.800000
211.067700 11882144.000000
214.047100 358135.500000
215.042800 60833.400000
216.050400 1787604.200000
222.044200 67475.100000
222.073800 325837.000000
224.069300 5097674.000000
225.046900 829077.900000
228.034200 697062.800000
229.058200 2322093.800000
230.066000 1213989.900000
231.073800 4677869.000000
234.053600 2511316.500000
235.049100 1096340.800000
249.064500 3123043.800000
251.080100 1923950.200000
255.058400 73993.600000

>ms2peaks
50.003600 255549.500000
64.019300 187593.000000
65.014400 57273.100000
66.035000 234388.200000
68.995800 910403.100000
76.019300 284818.200000
87.024100 43209.700000
88.019100 92504.600000
90.035000 56913.400000
91.030200 449017.300000
93.045700 412512.900000
107.030300 91252.600000
113.027000 39020.400000
114.034900 7151989.000000
115.030200 190957.100000
117.046000 87763.000000
132.025300 44384.600000
134.041100 2131090.500000
138.035000 281540.200000
139.029900 75641.300000
140.050600 492797.400000
141.045900 1613276.800000
142.053500 156873.100000
154.047400 81826.100000
155.038100 159146.700000
162.034800 63040.600000
163.030000 57505.200000
163.042900 196108.800000
164.050600 4883399.000000
165.045700 4273401.500000
166.053600 1868397.900000
169.040700 224510.000000
174.034900 978090.400000
175.030400 193117.600000
176.038100 180097.600000
178.053900 56932.100000
180.033000 41460.300000
182.041300 66661.400000
182.048800 140500.200000
183.036200 62110.700000
184.056700 4048634.800000
185.052200 61797.500000
189.045900 10905251.000000
190.053700 8230565.500000
191.061500 22677850.000000
193.040500 557327.400000
194.041100 1522853.400000
194.048700 129351.400000
195.036300 551899.500000
196.044300 370388.600000
200.039000 186358.400000
206.048700 90555.100000
208.027400 145853.000000
209.052100 29409060.000000
210.060000 308364.800000
211.067700 1940785.500000
214.047200 88315.100000
215.042400 56701.600000
216.050500 434103.700000
222.072800 78084.200000
224.069300 672789.200000
225.047400 92479.100000
228.034000 277867.700000
229.058200 948877.000000
230.066600 147565.800000
231.074000 449829.500000
234.053500 353827.200000
235.048500 333443.000000
249.064500 433293.500000
251.080100 73121.900000

>ms2peaks
50.003500 654026.400000
63.024000 161477.200000
64.019300 520055.500000
65.014500 145402.900000
66.034900 285386.500000
68.995900 313670.400000
73.008400 80529.500000
74.003700 424314.800000
76.019300 130435.500000
87.011200 44423.100000
87.023900 267371.700000
88.019300 239833.400000
89.014400 38889.100000
90.034900 234059.500000
91.030300 454026.800000
93.045800 512833.800000
97.008300 297412.600000
98.003600 84354.700000
107.030100 67278.100000
112.019200 154903.500000
113.027000 222929.200000
114.034900 5204934.000000
115.030000 263689.000000
117.045800 152348.000000
132.025700 180550.900000
134.041100 330275.000000
137.027000 36767.800000
138.034900 1543874.200000
139.030200 812553.800000
140.050500 231516.100000
141.045800 1115198.900000
142.053100 35086.700000
162.035000 888462.500000
163.030300 961752.700000
163.042400 342158.400000
164.038100 215151.000000
164.050600 1556800.100000
165.045800 4060316.000000
166.053500 432355.300000
169.040700 33365.000000
174.034900 694640.100000
175.030400 321820.700000
176.038100 42750.600000
182.041000 137299.000000
183.036300 146536.100000
184.056800 263706.500000
187.029900 268459.100000
188.038100 324387.000000
189.045800 14379438.000000
190.053700 1270354.100000
191.061500 1803669.800000
193.040800 61959.300000
194.041000 69186.900000
195.036500 73646.800000
209.052100 3935372.800000

>ms2peaks
50.003500 1107756.600000
63.011400 46460.700000
63.023900 131812.200000
64.019300 879898.400000
65.014400 247787.100000
66.034900 201761.500000
68.995800 170269.100000
73.008500 233369.500000
74.003700 810457.800000
86.016200 41571.700000
87.011400 182189.400000
87.024000 210751.900000
88.019200 484671.300000
89.014600 74757.300000
90.034900 149589.200000
91.030100 209045.500000
93.045800 350186.200000
97.008300 298211.400000
98.003500 308799.600000
112.019400 325761.100000
113.027200 73197.500000
114.034900 1861153.800000
115.030000 167068.900000
132.025300 221309.100000
134.040900 43646.900000
136.019200 135462.600000
137.027100 33548.000000
138.034900 1548489.200000
139.030100 1001426.900000
140.050700 39194.300000
141.045600 280612.900000
161.027300 47022.300000
162.035100 999583.300000
163.030300 862912.500000
164.037800 65961.000000
164.050500 149036.400000
165.045800 1205878.800000
174.034500 68643.800000
175.030300 48235.100000
183.036600 52042.400000
187.030100 661732.100000
188.037900 185074.000000
189.045800 3045922.800000
190.052800 41847.800000
191.061200 58394.000000
209.052000 205470.700000

>ms2peaks
50.003500 1297674.900000
63.011400 52056.300000
63.024000 150404.400000
64.019200 963743.900000
65.014400 145813.900000
66.034800 131110.700000
68.995900 38631.900000
73.008400 294905.000000
74.003700 915317.200000
85.008300 120415.601600
86.016100 154221.900000
87.011300 163804.100000
87.024000 38087.800000
88.019200 442790.600000
89.014400 200683.300000
90.034900 62917.300000
91.030000 60909.400000
93.045700 73653.300000
97.008300 317073.800000
98.003600 359444.500000
112.019300 420218.100000
113.027100 61380.500000
114.034900 561995.100000
115.030100 57304.000000
132.025000 77135.800000
136.018800 64890.000000
138.034800 673096.400000
139.030100 470979.200000
161.026500 40235.000000
162.034900 425350.300000
163.030200 471287.400000
165.045800 205548.600000
187.030000 412580.800000
189.045700 328312.500000

