>compound EQ85990524
>parentmass 294.08840000000004
>ionization [M-H]-
>formula C16H13N3O3
>rt 450.000000
>profile orbitrap
#smiles_iso COC(=O)NC1=NC2=C(N1)C=C(C=C2)C(=O)C3=CC=CC=C3
#smiles_can COC(=O)NC1=NC2=C(N1)C=C(C=C2)C(=O)C3=CC=CC=C3
#inchikey OPXLLQIJSORQAM-UHFFFAOYSA-N
#pubchem_id 4030
#mb_accession EQ366851,EQ366852,EQ366853,EQ366854,EQ366855,EQ366856,EQ366857,EQ366858,EQ366859

>ms2peaks
262.062600 19252118.000000
294.089000 15390121.000000

>ms2peaks
262.062500 30988610.000000
294.088900 2618240.800000

>ms2peaks
157.027500 166720.000000
262.062500 32303414.000000

>ms2peaks
65.014600 40670.100000
65.998600 29776.800000
95.025100 33385.200000
106.017400 190376.000000
129.033500 373979.600000
132.020400 34474.100000
133.028400 453194.900000
149.023200 71533.000000
156.020600 39271.700000
157.028300 1516186.400000
160.015500 260825.500000
173.023300 92592.900000
219.056800 176523.600000
233.060000 48372.200000
234.068500 44078.600000
235.051400 91950.600000
244.051700 30548.600000
260.046900 131420.000000
262.062600 24987104.000000

>ms2peaks
65.014600 121766.600000
65.998600 121651.400000
68.001800 26663.400000
89.014700 37991.300000
90.022500 81397.000000
92.025500 75870.800000
93.009500 31216.000000
95.025200 162100.800000
102.022500 40694.900000
105.033300 61016.900000
106.017400 633221.800000
114.022400 29656.100000
115.030500 37060.300000
116.025600 10548.200000
118.017400 28140.100000
120.009300 58315.200000
129.033400 1239944.100000
130.017500 13284.900000
132.020500 82533.800000
133.028300 1838368.100000
134.012400 54237.100000
136.015700 37243.400000
145.028400 73557.500000
147.020200 113688.600000
149.023200 305993.500000
156.020700 185796.800000
157.028400 5058405.000000
158.036300 64276.900000
160.015500 1052496.900000
161.023500 22691.300000
173.023300 380975.200000
185.023500 11484.000000
188.010300 24624.600000
191.062000 39811.700000
192.045900 45419.100000
194.061300 11871.900000
205.065100 26652.100000
206.048800 29000.600000
216.057400 23003.000000
217.041200 21249.600000
218.072700 11905.400000
219.056700 275167.900000
232.052200 19913.000000
233.059900 121991.600000
234.043900 28899.400000
234.068000 38198.600000
235.051600 123340.100000
244.051800 52565.600000
245.060500 10301.000000
260.046700 262476.400000
261.054400 42972.400000
262.062700 9621300.000000

>ms2peaks
50.003500 8643.000000
64.006700 10917.000000
65.014600 130364.300000
65.998700 143660.500000
68.001700 29562.700000
68.014200 6389.700000
78.022500 5311.900000
87.011400 43978.000000
89.014600 49321.800000
90.022500 111263.000000
91.006500 40267.500000
92.025500 113298.200000
93.009500 37592.500000
95.025200 204890.800000
101.014600 7171.400000
102.022400 88817.200000
103.006600 6625.300000
103.017800 6615.200000
105.033200 65390.000000
106.017400 759405.400000
108.020600 5694.000000
113.014900 7905.800000
114.022600 77643.000000
115.030400 257235.600000
116.025700 7321.700000
117.009600 8694.900000
118.017400 26920.300000
120.009300 52255.800000
129.033500 1728029.500000
130.017400 43368.200000
132.020500 94885.600000
133.028400 2082007.600000
134.012400 54052.300000
136.015400 75387.600000
144.020700 11455.100000
145.028400 81000.300000
147.020300 104139.100000
149.023300 316911.400000
156.020700 207584.200000
157.028400 5198183.500000
158.036200 64867.300000
160.015500 1149611.100000
161.023300 8759.400000
173.023300 432911.700000
186.031400 8346.900000
188.010300 26870.400000
191.061700 29359.000000
192.045500 26237.600000
194.061700 6316.100000
205.064900 25286.500000
206.048800 51653.600000
216.056800 7889.000000
217.041500 19012.500000
219.056700 110700.000000
232.051700 29353.700000
233.059800 62994.400000
234.043200 7762.400000
235.051500 32214.000000
244.051800 5298.800000
245.060100 8106.600000
260.046900 179226.600000
261.054400 6334.900000
262.062600 1510535.000000

>ms2peaks
50.003600 24181.600000
63.011500 7343.000000
64.006800 8666.000000
64.019300 65284.700000
65.014600 60539.700000
65.998700 60619.000000
68.001800 8077.200000
74.003800 28956.600000
87.011500 109081.400000
88.006800 25237.400000
88.019400 52605.400000
89.014600 28573.400000
90.022500 53887.400000
91.006600 8575.900000
92.025500 20255.100000
93.009500 21390.100000
95.025200 68311.400000
101.014600 19913.600000
102.022500 165299.200000
103.006200 5588.000000
103.017600 33990.700000
105.033200 20227.700000
106.017400 209059.600000
108.020600 5177.000000
113.014700 73295.000000
114.022500 54410.500000
115.030400 1081769.200000
117.009000 4087.800000
120.009200 5969.800000
129.033500 1935338.800000
130.017300 31702.900000
132.020500 32091.400000
133.028300 715556.100000
134.012300 8122.700000
136.015500 41448.700000
144.020400 5711.600000
145.028400 39115.900000
147.020200 26011.200000
149.023200 118587.700000
156.020600 235891.200000
157.028400 1529493.900000
158.036000 21648.800000
160.015500 309949.800000
173.023300 146277.600000
186.031100 5043.600000
188.010400 8187.300000
192.046100 6294.700000
206.048900 6227.100000
232.052000 9264.300000
260.047300 10535.600000
262.062600 7350.500000

>ms2peaks
50.003600 32626.800000
63.011400 5999.900000
64.019400 217054.000000
65.014600 22361.000000
65.998600 9033.400000
74.003800 54309.900000
86.003800 22276.800000
87.011500 54330.200000
88.006800 35154.000000
88.019400 125244.100000
89.014800 8401.400000
95.025200 4022.900000
101.014600 5806.800000
102.022500 70303.800000
103.017800 8656.500000
106.017300 27479.600000
113.014600 53596.200000
114.022500 4708.100000
115.030400 783356.600000
129.033500 546560.000000
130.017400 4182.700000
133.028300 64750.600000
149.022800 7549.900000
156.020700 215836.300000
157.028500 136996.600000
160.015400 29997.200000
173.023200 18674.300000

>ms2peaks
50.003700 49593.800000
63.011500 4192.900000
64.019400 263722.800000
65.014500 18077.100000
65.998600 6145.900000
74.003800 52104.500000
86.003700 28364.700000
87.011500 17279.600000
88.006700 19408.400000
88.019400 109426.500000
89.014200 5076.800000
101.014600 5406.100000
113.014700 35996.400000
115.030400 224667.700000
129.033400 77886.100000
156.020600 79713.200000
157.028300 5003.400000

