>compound EQ86453505
>parentmass 246.044
>ionization [M-H]-
>formula C12H10ClN3O
>rt 528.000000
>profile orbitrap
#smiles_iso C1=CC=C(C=C1)NC(=O)NC2=CC(=NC=C2)Cl
#smiles_can C1=CC=C(C=C1)NC(=O)NC2=CC(=NC=C2)Cl
#inchikey GPXLRLUVLMHHIK-UHFFFAOYSA-N
#pubchem_id 93379
#mb_accession EQ360151,EQ360152,EQ360153,EQ360154,EQ360155,EQ360156,EQ360157,EQ360158,EQ360159

>ms2peaks
91.030000 423578.000000
127.006800 137426112.000000
246.043800 1239663.600000

>ms2peaks
91.030100 1688595.100000
92.050500 260961.000000
127.006800 128625848.000000

>ms2peaks
91.030100 10726319.000000
92.050500 1110142.500000
127.006800 102723944.000000

>ms2peaks
50.003500 421986.800000
64.019200 288100.400000
91.030100 20406640.000000
92.050600 2678856.000000
127.006800 53801256.000000

>ms2peaks
50.003500 1266442.600000
64.019300 641813.000000
91.030100 20834240.000000
92.050500 4755952.000000
127.006800 20194582.000000

>ms2peaks
50.003500 2023042.100000
64.019300 828379.200000
65.014500 23663.700000
65.039700 18335.200000
91.030100 11856065.000000
92.050600 5542336.000000
127.006800 5237767.500000

>ms2peaks
50.003600 1588355.800000
64.019300 577314.200000
65.014500 72273.900000
65.039700 202099.400000
65.998500 20453.700000
90.034900 15552.300000
91.030100 2280849.800000
92.050600 5172054.000000
127.006800 291406.500000

>ms2peaks
50.003500 1331950.000000
64.019300 222841.600000
65.014500 101584.600000
65.039700 467165.800000
65.998500 13349.800000
66.034900 25622.200000
75.024000 19218.100000
90.034700 40421.900000
91.030200 301158.200000
92.050600 2272167.500000

>ms2peaks
50.003600 864882.400000
64.019200 86471.900000
65.014500 84670.300000
65.039700 575028.400000
65.998500 11559.900000
66.035000 20810.000000
75.024200 13995.400000
90.034800 53549.900000
92.050600 840190.200000

