>compound EQ87775682
>parentmass 360.0256
>ionization [M-H]-
>formula C15H11ClF3NO4
>rt 816.000000
>profile orbitrap
#smiles_iso CC(C(=O)O)OC1=CC=C(C=C1)OC2=C(C=C(C=N2)C(F)(F)F)Cl
#smiles_can CC(C(=O)O)OC1=CC=C(C=C1)OC2=C(C=C(C=N2)C(F)(F)F)Cl
#inchikey GOCUAJYOYBLQRH-UHFFFAOYSA-N
#pubchem_id 50895
#mb_accession EQ356251,EQ356252,EQ356253,EQ356254,EQ356255,EQ356256,EQ356257,EQ356258,EQ356259

>ms2
71.014000 70909.400000
195.977400 6610.300000
288.005100 969251.000000
360.026300 391880.900000

>ms2
71.014000 51335.500000
179.983600 2836.100000
195.977600 3632.000000
197.994700 655.400000
252.028200 38626.100000
280.060000 706.900000
288.005100 624382.100000
360.026500 1408.900000

>ms2
61.988400 444.700000
71.014000 34310.800000
108.021900 9048.300000
162.017500 3743.600000
170.022000 501.900000
179.983700 19591.300000
184.020900 411.700000
195.978500 16278.900000
196.038300 1672.100000
197.994300 3874.200000
204.026500 576.700000
208.037900 1469.900000
223.973400 2547.200000
224.033400 3773.700000
242.043800 576.100000
252.028200 53139.500000
253.036100 2339.800000
288.005000 33986.600000

>ms2
61.988500 300.500000
69.034700 1330.300000
71.014000 20083.300000
97.029600 558.600000
108.021900 20398.100000
162.017800 1783.700000
170.022500 5093.300000
176.031700 614.100000
179.983700 10158.100000
184.020500 2210.300000
195.978500 55988.000000
196.038600 3300.800000
197.022400 3188.100000
204.026800 3201.100000
208.038100 577.600000
212.015300 346.100000
223.973600 1834.400000
224.033500 5389.300000
232.021800 3444.200000
242.044300 467.300000
252.028200 20055.700000
253.035900 651.200000

>ms2
61.988400 423.700000
69.034700 2120.500000
71.014000 12139.500000
97.029400 409.200000
108.021900 26802.700000
136.019000 376.300000
156.025800 2582.200000
162.017700 651.400000
170.022600 11285.400000
175.972200 2045.000000
176.031400 1457.600000
179.983600 683.100000
184.020800 4172.300000
195.978500 59890.500000
197.022300 1476.600000
204.026800 4369.500000
212.015700 723.700000
224.033300 752.400000
232.021600 2101.500000
252.028300 2913.500000

>ms2
71.014000 6138.100000
74.003700 401.400000
97.029700 679.400000
108.021900 24094.300000
123.005000 300.100000
127.019200 1851.000000
136.019200 1257.900000
156.025700 2986.500000
162.017200 443.400000
170.022600 10925.500000
175.972400 2058.800000
184.020500 2598.600000
195.978500 26884.700000
204.026800 1415.000000
232.021800 431.700000

>ms2
66.998900 550.300000
71.014000 599.500000
73.008600 1576.400000
74.003800 682.800000
108.021800 6944.700000
109.008500 716.200000
110.003700 712.200000
123.005400 1243.600000
127.019000 3460.200000
136.019400 3034.900000
156.025800 1320.600000
170.022400 2984.100000
175.972000 411.200000
195.978600 1643.700000

>ms2
66.999000 1594.100000
71.014000 413.300000
73.008600 2760.300000
74.003800 2086.200000
108.021800 705.700000
109.008400 693.700000
110.003700 1428.400000
123.005200 335.000000
127.019100 1488.500000
136.019400 501.100000

>ms2
66.999000 1938.700000
73.008500 3961.300000
74.003800 2571.500000

