>compound EQ87740041
>parentmass 185.08189999999996
>ionization [M-H]-
>formula C9H14O4
>rt 414.000000
>profile orbitrap
#smiles_iso C1CCC(CC1)(CC(=O)O)C(=O)O
#smiles_can C1CCC(CC1)(CC(=O)O)C(=O)O
#inchikey SDAXMMUAZRUWNL-UHFFFAOYSA-N
#pubchem_id 260003
#mb_accession EQ331251,EQ331252,EQ331253,EQ331254,EQ331255,EQ331256,EQ331257

>ms2
141.092200 118568008.000000
167.071400 3030690.800000
185.081900 339921184.000000

>ms2
141.092200 158032368.000000
167.071400 3786910.500000
185.081900 289637056.000000

>ms2
141.092200 265214528.000000
167.071400 5787638.500000
185.082100 84351096.000000

>ms2
123.081600 679356.700000
141.092200 154402080.000000
167.071400 3140457.000000
185.082000 10467385.000000

>ms2
123.081700 583906.400000
141.092300 43466204.000000
167.071500 642498.500000
185.081900 701403.600000

>ms2
83.050300 77455.500000
123.081700 284597.800000
141.092200 9391482.000000
167.071500 81112.900000

>ms2
141.092300 181137.400000

