>compound EQ87255695
>parentmass 384.9746
>ionization [M-H]-
>formula C11H10Cl2F2N4O3S
>rt 450.000000
>profile orbitrap
#smiles_iso CC1=NN(C(=O)N1C(F)F)C2=C(C=C(C(=C2)NS(=O)(=O)C)Cl)Cl
#smiles_can CC1=NN(C(=O)N1C(F)F)C2=C(C=C(C(=C2)NS(=O)(=O)C)Cl)Cl
#inchikey OORLZFUTLGXMEF-UHFFFAOYSA-N
#pubchem_id 86369
#mb_accession EQ320951,EQ320952,EQ320953,EQ320954,EQ320955,EQ320956,EQ320957,EQ320958,EQ320959

>ms2peaks
305.988200 486748.700000
306.997000 995022.100000
384.974700 296294944.000000

>ms2peaks
63.962500 1794556.600000
76.970400 2262770.200000
171.960100 202820.800000
198.947000 823553.000000
199.954900 276258.400000
225.958100 406749.700000
299.001400 891533.800000
301.031600 494743.600000
305.989400 19365100.000000
306.997300 84441200.000000
334.978100 6777736.500000
364.968400 1538291.400000
384.974800 165735072.000000

>ms2peaks
63.962500 2176107.000000
65.008300 137313.000000
71.005200 223314.200000
76.970400 4007313.800000
78.985900 133616.400000
91.011300 599540.200000
100.006700 195933.300000
106.034900 148753.200000
128.026600 174284.200000
136.991100 152605.600000
140.025300 282849.700000
146.016000 157328.400000
148.032900 1330535.800000
157.957000 127420.300000
162.994200 230720.900000
164.986100 270457.500000
166.981700 1199838.100000
171.960200 3000970.000000
177.009700 365006.700000
178.017900 177185.600000
178.989200 303829.600000
179.997200 210274.600000
182.952200 134523.100000
182.976900 121396.900000
184.039300 230775.800000
189.981500 1335101.000000
195.030900 158952.500000
196.955400 512583.700000
198.947200 19258126.000000
199.955000 6623778.500000
200.962800 1005825.200000
201.950700 803008.600000
202.981400 176479.900000
203.997000 591838.400000
207.000400 155481.800000
208.979800 1123393.400000
209.987700 662462.700000
211.967500 316023.500000
212.963000 515588.700000
213.994600 1054383.900000
215.973800 162066.800000
218.953300 211031.500000
219.961300 1048981.600000
221.023700 1799278.200000
224.950500 335364.800000
225.958200 9222448.000000
228.992500 116925.400000
230.999600 1995604.875000
238.965800 129179.700000
239.973800 13602559.000000
240.982000 229947.000000
244.956400 3024954.000000
255.995000 1708779.400000
257.000300 951321.500000
266.984600 1421939.400000
270.012700 1376914.000000
271.020400 723866.800000
278.978300 1571304.800000
286.990900 597864.000000
299.001300 5633704.500000
301.031500 130547.600000
304.981800 345865.700000
305.989400 21373428.000000
306.997300 81059096.000000
334.978100 5300408.500000
364.968800 585064.600000
384.974800 9924309.000000

>ms2peaks
50.003600 67156.200000
63.962500 1348428.800000
65.008400 118940.400000
65.014600 92126.100000
65.998600 34006.300000
70.946200 232008.600000
71.005200 872981.200000
74.003900 125146.900000
76.970400 2859059.800000
78.986000 299427.000000
80.014400 48146.500000
82.041100 437176.000000
87.000100 279981.000000
88.006800 65573.900000
89.998700 41392.400000
91.011400 919643.500000
100.006700 1171673.100000
101.014500 564781.800000
105.026900 129651.300000
106.034900 38848.800000
112.007000 40560.600000
114.009900 49723.000000
114.022500 61997.800000
115.017800 41605.300000
120.009200 35498.000000
121.980400 43216.000000
123.996200 31072.100000
126.009800 737414.000000
128.026600 1262821.000000
136.991400 154126.700000
139.017800 151757.700000
140.025600 634679.000000
142.041200 58481.000000
146.016200 610530.800000
146.975700 50337.400000
148.032900 1960818.400000
148.991200 227220.400000
153.022600 741739.100000
156.044700 116384.500000
157.957200 215272.900000
161.986600 307663.800000
162.994300 152182.400000
163.978600 335340.750000
164.986100 737637.900000
165.020600 196859.800000
166.981800 1664688.000000
168.020600 181390.100000
168.997700 31124.900000
171.024000 176340.700000
171.960200 3475354.800000
173.986800 30541.000000
174.011000 361105.200000
174.030700 133664.800000
175.018800 171491.100000
176.002100 307184.000000
176.986300 139106.900000
177.010200 376696.900000
177.981600 151514.400000
178.017900 702222.800000
178.989300 214852.000000
179.942700 224986.100000
179.997200 626021.200000
180.985000 279450.400000
181.993000 56917.600000
182.952100 443413.300000
184.039300 436787.900000
185.027500 35847.300000
185.951700 51571.900000
189.981500 3667666.500000
190.989700 66233.100000
192.981300 34658.300000
195.031500 43878.600000
195.960200 57484.700000
196.955400 572264.000000
198.947300 29381462.000000
199.955000 6023369.500000
200.962900 1855269.600000
201.950700 185059.200000
202.981600 345038.000000
202.989800 48546.900000
203.997100 1005964.900000
207.000700 116258.200000
208.979800 623137.400000
209.987800 436595.900000
211.967700 262510.500000
212.962900 1354176.900000
213.994700 662344.800000
215.974800 145437.600000
218.953400 268862.800000
219.961200 61429.200000
220.016100 150998.000000
221.023700 2053674.000000
224.950300 232231.700000
225.958200 8526011.000000
228.992400 68195.900000
231.000000 4235462.000000
239.973800 7849577.000000
240.981900 66537.500000
244.956400 441281.200000
251.013600 37278.500000
255.995100 712263.400000
257.000400 245435.800000
266.984600 343214.100000
270.012400 432191.600000
271.020300 313435.000000
278.978400 336673.000000
286.990800 170786.900000
299.001100 986543.100000
304.981900 349616.300000
305.989200 756907.400000
306.997200 5317647.000000
334.978200 152334.100000
384.975600 30704.800000

>ms2peaks
50.003600 200579.400000
63.962500 1277160.600000
65.014600 58254.100000
65.998600 107619.600000
70.946200 886893.500000
71.005200 1467701.500000
74.003700 280879.800000
76.970400 2051093.800000
78.986000 370014.300000
79.957500 38254.700000
80.014200 208273.200000
82.041100 780817.300000
87.000000 547921.200000
87.011400 32170.000000
88.006800 196012.000000
88.019300 130253.800000
89.014800 105254.300000
89.998600 171494.500000
90.010000 40309.900000
91.011200 358162.800000
98.003700 37338.100000
100.006700 1636612.100000
101.014500 959157.900000
108.020300 109862.600000
112.006900 161908.600000
113.014700 52373.000000
114.009900 108064.300000
114.022400 29787.900000
115.017800 127802.800000
116.025500 38527.600000
117.046000 57237.800000
119.005200 112236.700000
121.980500 62034.000000
123.995900 231997.800000
124.006600 37099.000000
126.009900 1796880.800000
127.991100 153541.200000
128.026600 1927269.900000
134.975600 559988.400000
136.991200 128510.900000
139.017600 123935.300000
140.025500 851393.000000
142.041100 151132.900000
145.008100 99668.100000
146.016200 224902.400000
146.975700 103772.200000
148.032900 707719.400000
148.991300 249691.100000
151.006800 148459.800000
152.014700 671509.900000
153.022700 1964577.000000
155.036300 31554.900000
156.044400 45567.600000
157.957000 134415.500000
160.978700 102498.300000
161.986600 487498.600000
162.970400 61841.100000
163.978400 396645.900000
164.986100 884801.100000
165.020900 246507.600000
166.981900 1322409.100000
168.020600 233079.900000
168.997600 27182.900000
171.024000 138477.800000
171.960200 1378082.400000
173.986100 63094.400000
174.011000 152395.000000
174.031000 106685.200000
176.002200 446364.900000
177.010100 199080.500000
177.981500 229546.200000
178.017900 494525.300000
178.989400 38915.100000
179.942600 111410.600000
179.997200 515707.900000
180.985200 147583.200000
182.952200 377106.600000
182.976900 145669.900000
184.039400 61717.400000
185.026600 41543.200000
188.973900 39512.000000
189.981500 3213418.200000
196.955300 350111.000000
198.947300 19117994.000000
199.955100 1076619.000000
200.963000 1141696.400000
202.981300 351754.700000
203.996900 608980.500000
208.979800 135676.700000
209.987700 49895.400000
212.962900 748290.400000
215.975900 119527.600000
221.023900 334833.700000
225.958200 2499810.200000
228.991200 25455.000000
231.000000 1387708.600000
238.965600 33401.200000
239.973700 1706297.400000
255.995100 49412.400000
306.997100 64765.000000

>ms2peaks
50.003600 268460.600000
63.962500 1208670.000000
65.014600 147953.700000
65.998600 94731.500000
70.946200 886153.200000
71.005200 997183.000000
74.003700 508952.600000
76.970400 1183007.500000
78.986000 407496.100000
80.014300 395661.100000
82.041100 782492.600000
87.000000 545678.100000
88.006700 287376.800000
88.019300 383187.800000
89.014600 206126.900000
89.998600 159412.000000
90.035000 49760.000000
91.011300 98764.500000
98.003700 56876.700000
100.006700 1435592.100000
101.014500 960587.100000
108.020300 58174.200000
112.006800 303836.100000
113.014600 122744.900000
114.009900 128041.800000
114.022300 26940.300000
115.017700 42984.500000
115.030200 34554.500000
116.025500 48173.200000
117.046000 314802.900000
119.005200 99488.700000
121.980400 26930.200000
123.996100 201564.500000
124.006800 25264.400000
126.009800 1561885.900000
127.991100 56635.800000
128.026600 1017425.900000
131.005200 133392.300000
134.975600 600199.900000
139.017500 31919.200000
140.025500 594545.200000
142.041000 153526.800000
145.008100 36638.500000
146.015900 58366.100000
146.975500 100063.800000
147.995800 43168.800000
148.032800 91705.400000
148.991400 175148.600000
151.006900 517456.200000
152.014700 500157.700000
153.022600 1207825.800000
155.036400 39173.600000
157.957100 109493.700000
160.978700 44521.400000
161.986600 389043.400000
162.970400 28094.500000
163.978200 148728.700000
164.986100 500301.300000
165.020700 117158.000000
166.981800 742136.200000
168.020400 138318.000000
171.960300 229201.000000
173.986300 41141.500000
175.018600 34842.200000
176.002200 314785.500000
176.986100 57802.800000
177.981400 137225.100000
178.017600 100474.500000
179.942700 36655.500000
179.997200 208815.600000
182.952100 252789.900000
185.026100 26191.100000
185.951300 29746.000000
189.981500 1100932.200000
196.955500 121251.300000
198.947200 6223030.000000
199.954600 45622.700000
200.963000 331796.300000
202.981400 53085.300000
203.997400 202676.093800
212.962500 170731.390600
225.958300 388304.600000
231.000100 107784.000000
239.973900 205346.800000

>ms2peaks
50.003600 329742.300000
63.962500 1276777.200000
65.014500 183876.500000
65.998500 129280.800000
66.009600 26284.900000
70.946200 136918.100000
71.005200 313828.200000
74.003700 847284.300000
76.970400 235353.100000
78.986000 165297.600000
80.014200 139755.400000
82.041100 450309.000000
86.003600 129485.200000
86.999900 215462.200000
87.011500 26826.600000
88.006700 197814.200000
88.019300 293453.100000
89.014600 321372.800000
89.998600 148753.300000
90.035000 36357.800000
98.003500 210283.900000
100.006700 430215.300000
101.014500 311423.300000
112.006800 514938.100000
113.014700 214542.300000
114.009800 203288.900000
115.030300 53445.700000
116.025500 32781.200000
117.045900 138379.800000
119.005400 24644.100000
126.009700 269789.400000
131.005100 170220.400000
134.975600 141091.100000
140.025500 238930.200000
146.975400 97348.200000
147.995800 37751.200000
148.991100 47879.300000
151.006900 266216.400000
165.020700 38361.700000
166.981900 138374.900000
182.951900 49002.400000
198.947200 148166.400000

>ms2peaks
50.003600 276658.900000
62.003700 33233.100000
63.962500 1265260.000000
65.014500 122376.700000
65.998500 83772.900000
71.005300 94886.500000
74.003800 1363290.000000
82.041100 332862.200000
86.003700 198090.000000
88.006700 137802.800000
88.019300 119997.100000
89.014500 172473.400000
89.998500 100894.500000
90.009900 34811.900000
98.003700 143363.900000
100.006700 35073.400000
101.014400 102687.200000
112.006700 352183.300000
113.014600 121038.600000
114.010000 88151.800000
115.030400 32897.800000

>ms2peaks
50.003600 392482.800000
62.003700 108133.700000
63.962500 1154883.200000
65.014500 108143.100000
65.998600 100742.200000
66.009800 89228.700000
74.003800 2115166.500000
82.041100 130131.700000
86.003700 172181.900000
88.006700 110900.800000
89.014700 86170.700000
90.009400 27786.500000
98.003600 142505.900000
112.006900 132374.700000
113.014700 27873.900000
114.009900 31143.300000

