>compound EQ88011267
>parentmass 170.0281
>ionization [M-H]-
>formula C7H9NO2S
>rt 276.000000
>profile orbitrap
#smiles_iso CC1=CC=CC=C1S(=O)(=O)N
#smiles_can CC1=CC=CC=C1S(=O)(=O)N
#inchikey YCMLQMDWSXFTIF-UHFFFAOYSA-N
#pubchem_id 6924
#mb_accession EQ360551,EQ360552,EQ360553,EQ360554,EQ360555,EQ360556,EQ360557,EQ360558,EQ360559

>ms2
61.970500 1414.800000
63.962400 1501.300000
77.965200 1411.600000
78.973000 10391.100000
79.981100 11071.900000
93.960400 3172.100000
106.066200 76484.000000
107.050200 1906.400000
170.028100 1117195.600000
171.012200 8457.000000

>ms2
63.962400 1757.800000
77.965400 1648.300000
78.973000 10553.100000
79.981200 10944.500000
93.960400 4349.700000
106.066200 73923.500000
170.028100 1058412.000000
171.012200 8053.700000

>ms2
61.970600 7738.000000
63.962400 5764.700000
77.965500 10489.300000
78.973300 61789.800000
79.981200 67649.700000
80.965100 4658.700000
93.960400 34992.300000
106.066200 156934.700000
107.050200 8846.600000
170.028200 568924.800000
171.012300 8068.300000

>ms2
61.970600 26618.200000
63.962400 15554.900000
77.965500 20884.800000
78.973400 141559.700000
79.981200 117909.700000
80.965100 13572.600000
93.960400 90989.200000
106.066200 90270.500000
107.050200 13767.500000
137.006600 1486.300000
170.028200 157969.400000
171.012300 2711.900000

>ms2
61.970600 62530.000000
63.962400 32786.500000
77.965500 31481.900000
78.973300 196073.500000
79.981200 109893.400000
80.965100 16047.200000
93.960400 119204.200000
106.066200 29876.200000
107.050200 14067.900000
137.006600 1671.400000
170.028100 30246.500000
171.012200 1302.400000

>ms2
61.970600 99965.400000
63.962400 68899.900000
77.965500 31799.000000
78.973300 188597.500000
79.957400 5578.700000
79.981200 73284.600000
80.965100 15821.200000
93.960400 116738.200000
106.066100 6854.900000
107.050200 9113.100000
109.011600 394.800000
137.006800 436.400000
170.028200 3403.500000

>ms2
61.970600 137666.400000
63.962400 173219.400000
77.965500 28414.200000
78.973300 105953.800000
79.957400 5042.900000
79.981200 21685.000000
80.965100 9084.700000
93.960400 65624.900000
107.050300 2232.100000
109.011800 1483.700000

>ms2
61.970600 128358.300000
63.962400 235897.800000
77.965500 19983.100000
78.973300 39078.300000
79.957400 4701.600000
79.981200 3878.900000
80.965200 3537.000000
93.960400 25085.400000

>ms2
61.970600 109988.700000
63.962400 236604.300000
77.965500 9795.800000
78.973300 14514.500000
79.957400 2156.500000
79.981100 553.700000
80.965100 660.100000
93.960400 8745.900000

