>compound EQ89372262
>parentmass 226.02759999999995
>ionization [M-H]-
>formula C10H10ClNO3
>rt 366.000000
>profile orbitrap
#smiles_iso C1=CC(=CC=C1C(=O)NCCC(=O)O)Cl
#smiles_can C1=CC(=CC=C1C(=O)NCCC(=O)O)Cl
#inchikey ZCGLNFAUVVHTQO-UHFFFAOYSA-N
#pubchem_id 1235725
#mb_accession EQ338451,EQ338452,EQ338453,EQ338454,EQ338455,EQ338456,EQ338457

>ms2peaks
59.013800 195410.900000
71.013900 4272764.500000
111.000200 276916.100000
154.006600 108958184.000000
182.037900 419409.400000
226.027700 149391472.000000

>ms2peaks
59.013800 274930.700000
71.013900 4256437.000000
111.000500 244695.800000
154.006600 166293008.000000
155.009800 278532.300000
182.038200 480074.100000
226.027800 56872276.000000

>ms2peaks
59.013900 497311.200000
71.013900 2261935.000000
111.000800 294235.800000
154.006600 93487128.000000
155.010000 151299.400000
182.037900 170468.900000
226.027700 2940831.500000

>ms2peaks
59.013900 505047.600000
71.013900 1013637.400000
111.000700 518967.200000
154.006700 19024992.000000
226.027400 39044.500000

>ms2peaks
59.013900 416882.200000
71.013900 395346.400000
111.000800 605868.300000
154.006700 2470197.800000

>ms2peaks
59.013900 202200.400000
71.014000 227505.000000
111.000700 326033.100000
154.006800 254408.400000

>ms2peaks
59.013900 33831.300000
111.000900 43839.100000

