>compound EQ89670351
>parentmass 384.15990000000005
>ionization [M-H]-
>formula C17H27N3O5S
>rt 252.000000
>profile orbitrap
#smiles_iso CC[N+]1(CCCC1CNC(=O)C2=CC(=C(C=C2OC)N)S(=O)(=O)CC)[O-]
#smiles_can CC[N+]1(CCCC1CNC(=O)C2=CC(=C(C=C2OC)N)S(=O)(=O)CC)[O-]
#inchikey LLIKIPAUZJTRGB-UHFFFAOYSA-N
#pubchem_id 71313372
#mb_accession EQ339951,EQ339952,EQ339953,EQ339954,EQ339955,EQ339956,EQ339957,EQ339958,EQ339959

>ms2
93.001300 5162.500000
156.012400 4768.500000
184.043400 56501.700000
186.022900 18939.900000
214.054400 160262.100000
243.044600 6041.800000
255.044700 13663.900000
257.060100 18643.600000
282.068500 5693.300000
295.076100 11162.800000
296.082700 4214.700000
334.122700 4883.000000
338.118300 15511.900000
352.133700 139161.200000
355.120000 13680.200000
356.128900 1066517.500000
366.149200 71770.600000
369.135900 23412.700000
384.159800 4015106.000000

>ms2
63.962400 42349.200000
70.066300 4591.900000
72.009200 18642.600000
79.957400 18000.800000
80.965100 6254.900000
81.022000 3398.900000
91.042400 2156.800000
92.050500 2606.800000
93.001500 71506.800000
94.029800 3085.600000
107.037300 6109.100000
120.045500 3950.200000
122.061100 26446.900000
123.056500 3540.000000
141.001600 3625.700000
143.061400 1075.600000
150.092500 2391.700000
151.051400 1045.500000
151.087900 5414.500000
152.035300 1884.100000
155.004700 3096.200000
156.012600 171485.300000
158.028000 2995.000000
165.067000 12863.200000
170.999700 2182.200000
184.043800 1043436.900000
185.015100 3253.800000
186.023100 818722.200000
191.082600 12237.200000
199.030800 2006.700000
200.038700 4585.600000
203.082600 9799.000000
204.090300 3181.100000
210.010600 4710.900000
212.002500 5049.100000
212.038700 31552.200000
214.054500 923725.200000
226.017600 1139.200000
228.033600 12682.200000
229.028800 6613.400000
230.093000 1266.600000
236.026700 2187.900000
237.034200 1779.900000
239.049600 10637.400000
240.033600 11685.500000
240.069600 1054.800000
241.029400 1216.300000
242.129900 3718.000000
243.044700 10975.800000
244.028200 4149.400000
246.124600 3988.300000
248.104400 4887.700000
249.034300 2603.400000
251.049600 22732.000000
254.085900 2164.600000
255.044600 71287.900000
257.060200 29483.900000
259.132500 5382.500000
260.140600 3380.800000
263.049500 3539.800000
264.057300 9235.400000
264.135000 2040.900000
265.065000 3488.400000
267.044600 5675.100000
269.060400 11547.700000
274.119900 7168.800000
274.156200 31924.400000
277.065200 7067.500000
277.143000 29802.000000
278.060600 2533.500000
279.080500 3123.000000
281.059700 1060.600000
282.068000 32170.700000
283.075400 8144.800000
287.083500 2533.800000
288.042200 15561.200000
291.081600 2175.800000
291.159200 2841.300000
292.130600 6682.400000
292.166800 21389.300000
295.075800 48704.600000
296.083700 41984.300000
302.057900 6150.700000
306.092000 11364.200000
309.091600 17853.400000
310.086200 17931.200000
322.085600 4110.500000
323.093500 7911.100000
324.102400 21453.300000
326.081500 1958.100000
327.089300 2180.400000
328.097200 59315.800000
334.123400 7127.600000
338.118200 48313.700000
340.097600 15744.200000
341.105000 14971.500000
352.133800 67799.800000
354.112300 2736.100000
354.149000 4860.300000
355.120900 18399.300000
356.128900 622340.100000
366.149400 35650.400000
369.136500 55925.200000
384.160100 437089.600000

>ms2
63.962500 199955.900000
64.970300 4961.300000
66.035000 2577.900000
70.066300 10563.900000
72.009200 28972.000000
79.957400 22489.000000
80.965200 4146.800000
81.022000 4447.500000
82.029800 1959.500000
90.034900 2116.700000
90.986000 1966.200000
92.050600 33715.300000
93.001600 156752.400000
94.029900 6895.800000
107.037600 58102.900000
108.045500 4341.200000
110.024800 5562.000000
120.045500 14950.300000
122.024800 22770.500000
122.061200 210467.900000
123.032700 1116.500000
123.056400 2323.600000
134.024800 8207.400000
134.061300 3052.000000
135.032400 3904.500000
136.040600 1960.100000
137.048200 4201.000000
138.019700 3280.000000
139.009500 2121.600000
141.001800 2080.700000
143.061500 9414.600000
145.041000 1195.500000
147.056500 2203.800000
148.040400 14584.700000
148.077000 4940.200000
150.043400 4776.100000
151.051300 20907.700000
151.087700 1162.300000
152.035400 18427.200000
155.004800 26299.200000
156.012700 378102.700000
158.028000 1930.400000
159.056500 2772.600000
161.035700 1933.400000
162.056000 2264.700000
163.051200 2840.700000
164.035300 5243.600000
164.059100 5747.200000
165.067000 20842.400000
166.050800 5634.700000
170.999600 14233.200000
171.056600 3991.200000
172.064300 3303.400000
173.071900 1127.700000
175.051400 2774.900000
177.067200 7316.200000
179.046200 3831.100000
180.066600 4647.700000
184.043800 1059793.900000
185.015300 4326.100000
185.072000 4330.000000
186.023100 939135.800000
189.066800 7562.900000
190.074800 39020.000000
191.082600 19686.800000
193.062100 3487.500000
197.986600 3173.700000
198.023100 8758.100000
199.087400 1115.100000
200.002200 3477.600000
200.038700 3585.000000
202.075000 1936.800000
203.082700 30726.100000
204.090400 16904.900000
205.098300 2070.700000
210.010600 4185.900000
211.018100 2540.000000
212.002400 10095.400000
212.038800 35839.100000
214.054400 113637.000000
216.090500 1851.600000
217.062200 3106.700000
217.098200 12050.100000
218.106500 3904.600000
219.077700 2367.200000
224.026200 2118.200000
226.018000 3087.700000
226.054400 16167.100000
227.062200 6563.000000
228.033500 10435.000000
229.029000 4651.700000
229.040500 1445.800000
230.093700 8322.100000
231.077300 2474.200000
231.101300 7228.700000
231.114000 8444.100000
232.109500 1171.500000
233.093400 4892.100000
235.018400 4866.300000
236.026400 2165.000000
236.080400 3423.000000
237.034000 2217.600000
239.049500 7587.400000
240.033600 35201.300000
240.070000 16652.300000
241.029100 6676.500000
241.041600 8685.100000
242.130000 3033.500000
243.044700 2844.700000
244.028500 5204.800000
246.088400 3237.600000
246.124800 11561.200000
248.104100 18789.000000
249.033600 3994.700000
251.049700 13941.300000
253.028400 3461.200000
253.065300 2756.600000
254.085700 3743.200000
255.044500 16961.500000
257.060400 1107.000000
259.052000 3643.200000
259.132500 8135.900000
260.140300 7112.000000
262.119600 6344.300000
264.057600 3046.200000
264.099200 2023.100000
264.135800 4689.100000
265.065300 5096.300000
267.044300 5241.900000
268.052000 4787.000000
269.060300 20142.700000
274.119800 2185.100000
274.156100 13548.500000
276.135000 2813.400000
277.065300 5379.200000
277.143300 19174.700000
278.060500 2871.500000
281.060200 11222.400000
281.095400 1480.100000
282.068000 29971.300000
283.076000 2070.900000
287.083200 2418.900000
288.041900 4810.000000
291.159000 2018.000000
292.130600 1914.200000
292.165900 4134.600000
293.137900 2269.600000
295.075900 22943.700000
296.083500 11081.600000
309.091500 29365.400000
310.086700 5439.000000
322.087200 3803.200000
323.093100 1116.500000
324.102400 5617.700000
327.090100 1990.200000
328.097400 44686.100000
338.118300 9387.300000
340.097600 6617.900000
352.134100 8166.300000
355.120400 1189.600000
356.128600 32861.800000
384.159900 2463.800000

>ms2
56.980500 463.300000
63.962500 397305.700000
64.970300 8640.300000
65.998600 11552.100000
66.035000 6561.300000
67.019100 984.800000
68.014300 460.000000
68.050700 2959.300000
70.066300 3898.600000
72.009200 11740.000000
78.035000 596.400000
79.957400 22591.800000
80.965200 910.700000
81.022100 2903.700000
82.029700 453.600000
90.034900 8000.800000
90.986000 2142.500000
91.042700 18947.900000
92.050600 128940.900000
93.001600 359920.100000
94.029800 14339.800000
95.014300 523.800000
96.999300 462.700000
104.050800 472.800000
105.022000 909.100000
106.029900 1065.200000
106.066300 1844.700000
107.037700 283571.700000
108.045500 8888.500000
110.024800 9542.400000
118.030100 958.500000
120.045500 40324.600000
121.029700 2224.400000
121.053200 742.400000
122.024800 56215.900000
122.061200 354782.200000
123.032500 7968.600000
130.066300 460.400000
132.033000 3388.700000
133.017000 1082.800000
133.040600 4922.300000
133.053600 893.100000
134.024800 35747.500000
134.061300 7549.800000
135.032700 21384.100000
136.040500 5716.700000
137.048200 7771.300000
138.019600 4087.000000
139.009800 1979.900000
141.001700 2006.300000
143.061500 8131.800000
145.040800 4380.600000
146.024600 879.600000
146.048700 1124.000000
146.061000 2298.800000
147.032600 2622.100000
147.056600 5281.500000
148.040500 71127.200000
148.076900 15960.500000
150.019900 514.100000
150.043400 7339.800000
151.051300 20842.400000
152.035400 45880.600000
152.071800 4044.600000
155.004800 49409.400000
156.012600 298367.100000
157.991900 1781.100000
158.048800 1930.500000
159.056400 7385.500000
160.028000 601.000000
161.035800 6459.600000
162.043800 3170.500000
162.056200 2968.400000
162.092400 7576.200000
163.051400 4482.000000
164.035400 20893.700000
164.059100 16653.700000
165.067100 4681.100000
166.051100 11116.100000
167.004300 837.800000
169.991400 824.300000
170.999600 26328.500000
171.036200 2210.100000
172.064100 4428.700000
173.035700 1980.600000
173.072100 4394.000000
173.986300 927.500000
174.043400 2457.500000
175.051400 5670.000000
176.059200 2867.800000
176.071500 536.300000
177.030500 2818.200000
177.067100 16613.800000
179.046200 3057.400000
180.066700 1922.300000
182.027900 675.600000
183.056500 3097.700000
184.007400 32790.900000
184.043800 342197.300000
185.015200 732.700000
185.072200 4900.300000
186.023100 319907.800000
187.051500 801.100000
187.087500 2671.800000
189.066900 9665.400000
189.103700 1886.600000
190.074800 32321.000000
191.082500 3641.300000
193.062000 2580.900000
197.986600 4505.800000
198.023100 17574.000000
199.030800 890.200000
199.088200 2288.600000
200.002200 689.500000
200.038800 1032.600000
201.067200 2401.600000
202.074900 8485.600000
203.082700 30836.100000
204.090400 16797.000000
205.062200 2431.300000
205.098100 3896.000000
209.002500 1916.500000
210.010500 2149.300000
210.994500 523.300000
211.018400 7674.000000
212.002500 18586.200000
212.038800 39241.100000
214.054300 4040.100000
214.076100 633.300000
216.090400 6185.800000
217.062000 7353.200000
217.098300 18056.200000
218.106200 5374.400000
219.077700 2761.500000
221.038200 618.600000
224.026000 965.000000
226.054500 18347.400000
227.062500 2095.000000
229.028700 555.900000
229.097100 1151.600000
230.093400 3598.800000
231.077500 744.600000
231.101500 5525.900000
231.114100 3070.300000
232.108900 657.900000
233.093300 3427.500000
235.018600 730.800000
236.026300 551.000000
236.080000 3294.200000
237.033900 3657.200000
239.049700 2659.100000
240.033700 53886.600000
240.069800 10749.500000
241.029300 13888.100000
241.041400 2671.500000
244.029500 1078.900000
244.108800 807.800000
245.117000 2381.200000
246.124800 2118.300000
248.103800 3307.600000
249.034700 649.100000
253.028800 5315.500000
253.065800 2747.500000
255.044900 1999.200000
259.052400 1958.600000
259.132700 1940.500000
260.104200 2045.100000
260.140400 4739.500000
262.119800 815.500000
264.099200 883.400000
265.066000 1129.100000
266.037100 564.700000
267.044600 2720.200000
268.052300 653.200000
269.060300 11929.200000
274.155500 854.500000
275.128400 683.300000
276.136100 826.100000
277.066000 1740.700000
281.060200 5906.900000
281.097800 575.300000
282.067900 11169.500000
295.075700 8606.500000
309.091100 6076.400000
324.102600 660.700000
328.097800 2170.000000
338.120200 534.600000

>ms2
63.962500 429571.000000
64.970300 16547.300000
65.998600 33920.600000
66.035000 8001.300000
67.019000 900.100000
68.014200 628.400000
68.050600 6731.100000
68.998400 735.200000
70.066300 745.400000
72.009100 4409.000000
78.034900 3801.400000
79.957400 12035.300000
80.026800 6314.800000
81.022000 935.500000
82.030100 539.000000
90.034900 30997.500000
91.042700 51503.200000
92.050600 221638.100000
93.001600 322765.800000
94.029800 17517.500000
95.013800 702.300000
96.045600 554.800000
98.061200 708.200000
102.035000 2534.000000
104.014400 719.800000
104.050800 935.800000
105.022100 3995.100000
106.029900 4030.300000
107.037700 497874.900000
108.021500 753.000000
108.045600 12178.900000
110.024700 7756.700000
117.046000 916.400000
118.029900 3259.500000
119.037800 525.400000
120.045500 76559.700000
121.029600 4330.200000
121.053300 1635.600000
122.024800 46252.000000
122.061200 198554.800000
123.032600 8813.100000
124.040300 775.100000
130.066200 1976.400000
132.009400 555.200000
132.032800 5390.200000
133.017000 2848.900000
133.040900 5292.300000
133.053400 3156.700000
134.024800 48203.900000
134.061200 7911.500000
135.032600 36802.200000
136.040400 11548.900000
137.048300 4239.200000
138.019600 4450.400000
138.056200 562.000000
139.009900 1582.300000
143.061400 2936.800000
144.045500 1938.100000
145.040800 6084.600000
146.024600 3542.000000
146.048400 2063.100000
146.061100 3206.900000
147.032700 2796.300000
147.056500 10649.400000
148.040500 131515.900000
148.076900 21379.600000
148.994700 707.200000
150.019800 3302.900000
150.043600 4606.500000
151.051400 5819.400000
152.035400 46851.500000
152.071800 8051.600000
155.004700 26185.100000
156.012600 129186.800000
157.991900 554.600000
158.048600 2154.200000
159.056300 7884.400000
160.027400 3341.100000
160.077300 523.500000
161.035700 13460.400000
161.072200 958.600000
162.043600 10660.000000
162.056200 2238.200000
162.092500 6630.700000
163.027600 1118.500000
163.051300 4767.900000
164.035500 21761.300000
164.059100 9598.500000
165.067300 592.100000
166.051000 6341.200000
169.991800 1889.800000
170.999700 14044.100000
171.036000 4003.600000
171.056500 5381.700000
172.064200 1728.900000
173.035500 947.000000
173.072100 5639.300000
173.986900 913.200000
174.043500 4193.300000
175.051400 5390.100000
176.059200 4062.100000
176.071600 3807.600000
177.066900 21900.800000
183.056400 2632.400000
184.007400 30001.200000
184.043800 47092.900000
185.072000 5135.300000
186.023100 51850.600000
187.087700 3382.400000
188.059000 2279.500000
189.066800 5536.800000
190.074800 8784.800000
197.986800 2734.400000
198.023200 6784.400000
199.050900 535.100000
201.066800 4386.500000
202.074800 7238.800000
203.082600 11402.800000
204.090500 3886.100000
205.061700 842.800000
205.098100 813.500000
211.018200 3223.500000
212.002500 29890.900000
212.038800 21513.800000
215.082900 2395.500000
216.090800 1883.700000
217.062100 3814.200000
217.098300 5900.900000
218.105300 799.300000
226.054500 3171.200000
229.098600 2483.500000
236.080700 509.400000
237.034100 994.400000
239.049700 541.200000
240.033600 19913.700000
241.029000 5736.500000
241.039800 742.700000
245.117700 572.200000
253.028500 713.000000
295.075800 542.100000

>ms2
50.003600 1037.300000
63.962500 442115.600000
64.970300 14845.200000
65.998600 53849.000000
66.035000 9770.200000
67.018900 1910.500000
68.014300 747.900000
68.050600 7582.500000
68.998200 579.600000
72.009200 1740.400000
76.019300 741.600000
78.034900 3286.000000
79.957400 5371.800000
80.026800 15996.200000
81.022000 1019.900000
81.034600 571.600000
88.019500 657.600000
90.034900 50637.200000
91.042800 53828.300000
92.014200 16776.700000
92.050600 240019.700000
93.001600 190939.300000
94.029800 14522.000000
95.013900 886.100000
96.045600 678.500000
98.061000 681.700000
102.034900 2796.100000
103.042800 625.700000
104.014400 3495.200000
104.038300 734.200000
105.022000 8429.900000
106.029900 4656.400000
107.037700 512682.800000
108.045400 10487.100000
110.024700 2370.200000
115.030300 992.800000
117.045900 1655.100000
118.030000 7674.100000
119.037600 547.200000
120.045500 127706.200000
121.029400 2795.900000
121.053500 943.400000
122.024800 28927.800000
122.061200 62932.400000
123.032600 7502.900000
130.066000 1808.500000
131.037600 1742.200000
132.009000 3174.300000
132.033000 7461.200000
132.045600 807.600000
133.016900 3287.100000
133.040700 6149.400000
133.053400 7098.600000
134.024800 42094.500000
134.061200 7410.900000
135.032600 31037.500000
136.040400 13630.600000
137.048200 2192.300000
138.019700 2334.100000
143.061600 1072.100000
144.045800 3016.300000
145.040800 5861.600000
146.024900 6452.700000
146.048600 1883.100000
146.061000 2579.000000
147.032800 3665.100000
147.056500 13009.900000
148.040500 130751.300000
148.076800 14851.700000
150.019600 5561.000000
150.043600 689.400000
151.051100 1790.000000
152.035300 29642.700000
152.071700 4695.000000
155.004700 9434.500000
156.012600 40583.000000
158.048400 2949.700000
159.020100 524.500000
159.056400 6851.600000
160.028100 3044.000000
160.076500 647.700000
161.035700 19656.400000
162.043500 17946.100000
162.092200 1068.700000
163.027500 2334.300000
163.051400 2136.300000
164.035400 7176.200000
164.059000 2460.900000
166.050800 2008.400000
169.992100 650.200000
170.999700 4673.200000
171.035900 4104.200000
171.056400 3313.600000
172.064200 1725.800000
173.072000 2689.500000
174.043300 2568.300000
175.051200 4352.500000
176.059100 1762.900000
176.071600 1967.400000
177.030700 697.500000
177.066900 9388.600000
182.027800 619.100000
183.056700 3252.300000
184.007300 15426.300000
184.043700 3907.500000
185.072300 2414.700000
186.023100 5106.100000
187.051300 828.600000
187.087400 861.200000
188.059200 2179.200000
189.066600 840.200000
190.074800 636.400000
198.023100 899.800000
201.067000 2570.500000
202.074700 2115.200000
203.082500 3801.100000
212.002400 12028.700000
212.038700 3985.200000
215.082700 2214.800000
217.061500 667.400000
217.098200 578.000000
229.097600 568.100000
240.034000 3153.600000

>ms2
50.003600 11331.100000
63.962500 484104.300000
64.970300 9064.600000
65.003300 1780.300000
65.039800 3641.800000
65.998600 43934.800000
66.035000 9950.500000
67.018900 2263.500000
68.014400 836.000000
68.050600 2341.300000
68.998200 501.000000
76.019400 3008.400000
78.035000 1900.500000
80.026800 26135.300000
88.019300 6315.500000
89.026900 650.500000
90.034900 50116.200000
91.019100 1852.600000
91.042700 12328.600000
92.014200 24316.100000
92.050600 136380.600000
93.001600 27557.800000
93.034700 3803.100000
94.029800 9828.200000
95.014000 2604.100000
96.045500 536.700000
102.034900 1771.200000
103.042800 701.100000
104.014200 8479.800000
104.038100 2821.600000
104.050700 744.100000
105.022000 12509.400000
106.029900 3959.900000
107.037700 180956.200000
108.021900 715.800000
108.045600 4008.300000
115.030200 2587.000000
117.046000 1771.200000
118.029900 18858.600000
119.037700 559.500000
120.045500 131807.700000
121.029600 633.700000
122.024700 10186.600000
122.061100 6653.700000
123.032700 1609.400000
131.037800 1432.500000
132.009200 3686.700000
132.032900 4559.400000
132.045400 679.400000
133.017000 3832.600000
133.040800 6477.000000
133.053300 802.000000
134.024700 10350.900000
134.061400 2158.400000
135.032700 9130.700000
136.040500 6297.100000
143.025100 819.800000
144.045500 3425.700000
145.040800 7367.400000
146.024800 12298.300000
146.048600 828.200000
146.061300 641.100000
147.032500 2965.400000
147.056600 5686.800000
148.040500 34846.100000
150.019600 5154.700000
152.035300 4382.000000
156.012800 1611.900000
158.048800 1555.800000
159.020000 776.300000
159.056400 828.000000
160.028100 1475.400000
161.035800 17072.200000
162.043700 5407.200000
163.027500 618.300000
171.056600 784.400000
175.051200 724.800000
183.056400 708.300000

>ms2
50.003600 26934.000000
63.962500 422159.900000
64.970300 6595.000000
65.003300 4050.200000
65.039700 4838.700000
65.998600 31240.100000
66.034900 6472.500000
67.019000 856.600000
68.014200 1833.600000
74.003700 455.700000
76.019400 6766.600000
78.034900 3532.200000
80.026800 10027.300000
88.019300 12083.900000
89.027200 781.900000
90.034900 28041.300000
91.019000 1639.900000
91.042800 1959.000000
92.014200 12808.000000
92.050600 42698.600000
93.001600 1943.400000
93.034700 2993.400000
94.029800 6871.700000
95.013900 626.200000
102.034900 689.200000
104.014200 8434.600000
104.038000 1609.000000
105.022000 8317.500000
106.029700 2699.900000
107.037700 28542.700000
108.045600 650.900000
115.030300 2782.400000
117.045900 643.500000
118.029900 21604.500000
120.045500 43152.200000
122.024900 3508.600000
122.061200 1418.700000
132.009200 633.800000
133.016800 466.400000
133.041000 2093.000000
134.024800 684.700000
135.032700 1978.600000
136.040500 639.000000
143.025000 452.900000
144.045400 1870.100000
145.040900 3433.200000
146.024900 6166.400000
148.040700 2992.800000
150.019900 565.500000
160.028400 507.700000
161.035700 4532.400000

>ms2
50.003600 34776.100000
56.980400 417.100000
63.962500 288908.600000
64.970300 3126.400000
65.003300 3212.900000
65.039700 4652.600000
65.998600 19932.200000
66.034900 3652.500000
67.019000 380.600000
68.014300 790.800000
74.003900 446.600000
76.019400 3728.000000
78.035100 1337.600000
80.027000 1406.000000
88.019300 11000.400000
89.027200 761.200000
90.034900 14845.600000
91.019000 699.500000
92.014200 5682.700000
92.050600 8748.900000
93.034600 1604.600000
94.030000 696.400000
104.014300 2086.900000
105.022100 4103.200000
106.029900 589.000000
107.037800 2623.100000
115.030200 673.300000
117.046000 490.500000
118.029900 9647.000000
120.045500 5117.400000
122.024900 450.000000
133.040900 608.400000
144.045200 308.300000
146.024700 718.300000

