>compound EQ90932399
>parentmass 362.0816
>ionization [M-H]-
>formula C16H17N3O5S
>rt 138.000000
>profile orbitrap
#smiles_iso CC1=C(N2C(C(C2=O)NC(=O)C(C3=CC=C(C=C3)O)N)SC1)C(=O)O
#smiles_can CC1=C(N2C(C(C2=O)NC(=O)C(C3=CC=C(C=C3)O)N)SC1)C(=O)O
#inchikey BOEGTKLJZSQCCD-UHFFFAOYSA-N
#pubchem_id 2610
#mb_accession EQ366251,EQ366252,EQ366253,EQ366254,EQ366255,EQ366256,EQ366257,EQ366258,EQ366259

>ms2peaks
57.975700 13249.100000
67.030300 2105.200000
72.009300 5389.500000
84.009100 72197.200000
87.986400 6131.600000
93.034700 20947.500000
96.999300 11267.100000
100.022700 14497.200000
100.040600 2157.500000
107.061600 22359.800000
109.077300 3649.900000
111.020200 55202.200000
112.022900 359775.700000
117.046000 2025.400000
118.030000 36402.200000
119.050400 19699.800000
119.061500 54298.900000
120.045700 389179.100000
124.022700 6206.700000
124.040200 1727.900000
126.019900 15172.900000
129.013000 42427.200000
131.037400 2647.900000
132.045600 7390.000000
132.056800 3648.600000
133.029600 6637.700000
134.072600 1850.300000
135.056600 397649.500000
136.040500 2607.900000
137.006800 2674.400000
138.031100 12267.100000
139.027400 1882.600000
140.035400 19696.100000
142.033300 7085.500000
144.045200 1704.600000
147.056600 1698.700000
148.040700 21848.000000
150.056600 1714.200000
150.067500 14185.700000
151.051400 18104.000000
152.017700 13806.700000
154.992400 36886.400000
156.012800 375529.500000
158.048800 2592.500000
162.067900 3318.300000
163.051600 125761.500000
164.083000 2710.300000
165.067200 20807.300000
169.044400 29470.300000
170.028400 2890.800000
171.056500 5429.900000
173.072100 1691.500000
175.051500 30739.700000
178.062400 5534.000000
181.044600 10429.500000
182.028400 40854.800000
185.059700 15535.700000
187.051600 2801.400000
188.035500 41913.500000
189.067200 102838.000000
190.062400 46064.500000
191.046400 3119.200000
191.069800 2595.100000
196.007600 37908.300000
196.054900 2656.900000
197.039300 36811.800000
197.059300 3211.200000
198.092400 1869.700000
203.046600 16298.100000
205.062200 1670543.200000
206.028300 68386.600000
213.103800 24144.200000
215.046600 43637.500000
216.054300 2572.900000
217.062000 16169.400000
221.039700 10951.600000
223.055100 370845.300000
224.050300 189938.900000
227.082900 26066.800000
229.098100 3042.100000
232.007700 43753.400000
232.073100 105911.900000
239.082900 6590.200000
240.114600 250178.400000
241.098800 58970.100000
242.082900 2847.000000
249.034300 396012.600000
255.078000 3114.900000
256.109300 19187.300000
257.093000 3392.700000
258.059800 60244.200000
267.078000 33332.200000
268.085600 58998.000000
272.104600 43433.900000
274.054800 35414.300000
275.086300 28879.500000
284.104600 1585670.800000
291.081300 203524.400000
301.065600 171544.000000
318.092200 254752.800000

>ms2peaks
57.975800 23634.800000
60.975500 14616.300000
66.035000 1693.300000
67.030300 17359.500000
72.009300 21424.600000
73.011900 5834.100000
83.025000 12201.800000
84.009200 283359.900000
86.007100 2027.900000
87.986200 2904.300000
92.050700 8867.900000
93.034700 158124.400000
95.025200 17172.100000
96.045700 5696.300000
96.999300 27195.200000
99.986300 18567.900000
100.022800 8326.100000
100.040500 2441.000000
102.001900 6613.300000
105.046000 9299.400000
107.061600 100937.500000
108.045700 1971.400000
109.041000 2486.300000
109.077200 30388.600000
111.002400 8635.800000
111.020200 95510.100000
112.022800 180817.900000
112.040600 10732.500000
117.034700 12752.900000
117.046000 61496.100000
118.030100 98109.600000
119.050400 88649.300000
119.061600 207474.400000
120.045700 510300.300000
121.029900 1988.000000
123.045300 6874.400000
123.056400 2269.200000
124.022800 21477.000000
124.040400 2648.600000
126.019700 9885.800000
126.038400 13404.900000
126.997000 3510.800000
127.981300 7886.300000
128.004400 2041.100000
129.013000 176412.200000
131.037700 19091.300000
132.021900 2802.500000
132.045600 40549.900000
132.056900 19358.300000
133.029700 38819.300000
134.061300 9722.400000
134.072600 16615.300000
135.056600 332506.400000
136.040100 1857.600000
137.006800 23155.900000
137.072100 9748.500000
138.031100 41423.800000
139.027700 6166.100000
140.017700 2838.900000
140.035400 9723.400000
142.033300 31980.600000
144.045700 36263.600000
145.041100 2800.300000
146.025000 2445.100000
146.061400 25721.900000
146.072700 6418.200000
147.045800 3240.700000
147.056600 15794.100000
148.040700 43631.100000
150.056200 12885.400000
150.067500 24058.300000
151.022600 2894.100000
151.051500 30532.400000
152.017800 17719.300000
154.992400 102349.400000
156.012800 49519.000000
158.048700 10997.800000
159.056700 6064.200000
160.040400 2006.200000
160.076600 1591.800000
162.014700 16075.000000
162.043900 11938.500000
162.056600 2160.900000
162.067700 15869.800000
163.051600 140058.600000
164.083200 6862.200000
165.067100 17840.300000
167.028800 7978.400000
168.036500 5973.000000
169.044300 56140.600000
170.028300 2617.600000
171.056700 34258.400000
172.040600 19958.100000
172.064400 2282.600000
174.043600 1623.800000
175.051600 23126.200000
178.062500 16899.000000
181.044600 11990.600000
182.028200 26939.400000
185.059700 33053.800000
187.051500 9704.900000
188.018000 21706.600000
188.035600 105195.800000
189.043600 47961.900000
189.067200 244878.000000
190.062500 32479.500000
191.046800 1604.700000
191.070500 3389.000000
196.007700 7356.400000
196.031900 2313.100000
196.055100 2893.800000
197.039300 57555.900000
197.059500 23651.000000
198.092700 13283.700000
203.046400 8589.700000
204.012700 6619.000000
205.062100 772687.200000
206.028400 195173.900000
211.087900 3143.700000
213.103700 42175.900000
214.087900 8270.900000
215.046500 92755.400000
216.054000 14986.800000
217.062400 14457.800000
221.040000 5450.800000
223.055000 70127.900000
223.088000 60132.700000
224.050300 59356.500000
224.095900 23298.400000
227.082700 20050.200000
229.098300 6279.300000
232.007700 60679.100000
232.073100 58739.000000
239.083000 29676.800000
240.114600 123302.700000
241.098700 41355.800000
242.082600 9825.200000
249.034300 161431.100000
255.077600 14506.400000
256.109700 15372.100000
257.093700 7318.800000
258.059800 38101.700000
266.094800 2275.100000
267.077800 17797.300000
268.085700 137623.800000
272.104100 7892.200000
274.054600 48695.400000
275.086400 1925.100000
284.104500 88478.700000
291.081300 38445.500000
301.065600 16542.300000
318.091600 2071.000000

>ms2peaks
50.003600 1923.100000
56.980500 14437.400000
57.975800 43179.100000
59.991400 2395.200000
60.975500 46834.600000
63.962500 2737.800000
65.998500 5389.600000
66.035100 1942.000000
67.030300 21983.200000
70.983600 8423.800000
71.025200 9694.400000
71.991400 6160.900000
72.009300 48846.700000
72.975500 1851.000000
72.999400 10214.500000
73.011900 5587.400000
74.007200 15497.700000
80.050600 1524.700000
82.017200 1393.500000
83.025200 36126.800000
83.991400 15828.700000
84.009200 203458.900000
85.029600 2966.800000
86.007100 14864.800000
87.002500 1527.300000
87.986400 6528.200000
92.050700 18927.000000
93.034700 311501.800000
94.030000 1610.500000
95.025200 44275.900000
96.045600 2629.500000
96.999200 44412.900000
99.986400 45843.800000
100.022800 7120.500000
102.002100 5628.000000
102.038500 2441.300000
104.038000 2246.700000
105.034600 2127.400000
105.045900 13198.000000
107.061600 161745.400000
108.045700 10133.000000
109.040700 3141.200000
109.077200 35604.700000
111.002400 27825.400000
111.020100 93739.400000
111.986400 8299.200000
112.022900 64401.400000
112.040500 10288.000000
115.022500 1300.800000
117.034900 70903.800000
117.046000 103574.100000
118.030100 136024.800000
119.050400 172589.000000
119.061600 80751.700000
120.045700 597784.600000
121.029500 2022.700000
121.077400 5168.900000
122.048900 6516.500000
122.061300 2481.900000
123.045400 43141.300000
123.056700 6033.700000
123.999000 2213.300000
124.022700 23363.900000
124.040700 2648.700000
126.019800 2934.800000
126.038300 12207.600000
126.997300 15309.100000
127.981400 14373.000000
128.005000 1929.600000
129.013000 121094.400000
131.037800 50355.800000
132.021800 11989.900000
132.045600 46312.500000
132.056700 10388.100000
133.029700 69303.000000
134.061400 52191.000000
134.072400 5626.800000
135.056600 295423.400000
136.040500 6322.900000
137.006700 29840.200000
137.072000 7431.300000
138.031100 26048.800000
139.027900 2434.000000
140.017600 6624.700000
142.033400 57803.400000
144.045700 135408.000000
145.041100 2772.900000
146.025000 8066.800000
146.037500 1942.200000
146.061400 31153.000000
146.072600 5021.100000
147.045400 19660.700000
147.056600 11377.600000
148.040700 41629.200000
149.024200 1319.100000
150.056200 10798.600000
150.067500 5587.000000
151.022600 13152.700000
151.051500 8028.800000
152.017900 17098.400000
154.020400 1891.800000
154.029800 1802.500000
154.992400 45255.200000
155.038000 3286.000000
158.048600 12761.500000
158.061400 2193.800000
159.056400 2157.600000
160.040800 11120.900000
160.076800 2167.000000
161.006900 13873.100000
162.002100 2065.600000
162.014800 26047.800000
162.044100 12031.400000
162.056400 5200.700000
163.022600 9551.900000
164.083000 1970.400000
165.066800 1414.800000
167.028800 7801.600000
168.036400 7729.900000
169.044500 41991.200000
171.056600 36011.700000
173.072300 8953.200000
174.043700 1799.000000
175.051600 7859.500000
178.062300 5671.300000
181.044300 2195.400000
182.028100 6661.800000
184.051600 11529.700000
185.059700 13708.200000
187.051400 15671.300000
188.017900 40787.500000
188.035600 112323.600000
189.043500 141194.200000
189.067100 80696.400000
196.030400 1465.900000
197.039300 19988.600000
197.059600 15567.800000
197.072100 3187.500000
198.080300 6044.500000
198.092500 8272.300000
203.046300 2864.500000
204.012500 1847.200000
205.062100 130157.800000
206.028300 36734.600000
209.072500 5653.700000
211.088000 29389.800000
213.103600 21468.200000
214.087800 6756.100000
215.046600 41545.900000
216.054200 12275.200000
221.039100 1503.400000
222.080000 2744.400000
223.088000 75339.300000
224.050500 1858.000000
224.083300 8385.400000
224.095900 25030.900000
227.082700 2322.600000
229.098600 2214.100000
232.007600 12908.300000
232.072900 6572.300000
239.083200 18523.300000
240.114700 2026.300000
241.098700 6736.100000
249.034500 18969.500000
253.062300 7685.600000
255.077800 3442.600000
258.058800 2081.300000
267.077900 7165.300000
268.085900 21355.500000
274.054000 4093.800000

>ms2peaks
50.003600 6469.000000
55.019000 2855.700000
56.980500 27401.100000
57.975800 48326.900000
58.996200 1674.000000
59.991500 5532.100000
60.975400 67755.800000
63.962600 1939.200000
65.014600 2792.000000
65.998600 11610.800000
66.035000 2125.200000
67.030300 21083.100000
70.983700 14424.900000
70.996300 1283.700000
71.025200 6867.000000
71.991500 12342.400000
72.009300 29518.200000
72.975400 2263.200000
72.999400 23009.300000
73.011900 5919.000000
74.007200 26361.500000
74.991200 1283.800000
81.975700 2379.400000
83.025200 61875.300000
83.991400 19201.000000
84.009200 70765.700000
85.029400 1928.400000
86.007200 10784.300000
87.002300 2010.000000
87.986300 5568.700000
90.035000 1632.700000
92.050700 14461.200000
93.034700 275878.200000
94.030000 1948.300000
95.025200 30743.100000
95.050300 8623.600000
96.045700 1563.500000
96.999300 45095.700000
99.986400 49655.900000
100.022700 2909.800000
102.002000 8017.200000
102.038400 1685.400000
105.034700 1479.700000
105.045900 8774.700000
106.042500 2752.600000
107.061600 151005.600000
108.045700 15211.100000
109.077200 21096.700000
111.002500 22178.800000
111.020200 47889.100000
111.986500 1569.700000
112.022800 9682.400000
112.040800 2075.600000
115.022800 1625.900000
117.034800 138304.800000
117.046000 55763.800000
118.030100 117819.800000
119.050400 180163.600000
119.061500 12047.000000
120.045700 531716.500000
121.029800 5603.000000
121.040800 1714.400000
121.077200 2835.500000
122.048900 5986.600000
122.061300 1914.100000
123.045300 87734.500000
123.056400 10085.200000
123.998900 2706.600000
124.022800 15398.400000
125.006900 1991.600000
126.038500 10351.600000
126.997500 7457.600000
127.981400 7069.400000
129.013000 32332.800000
129.034700 5253.700000
131.037800 82211.100000
132.021900 16686.300000
132.045600 24706.700000
132.056900 11082.200000
133.029700 64433.500000
133.040700 4796.900000
134.061300 46152.400000
135.056600 231286.200000
137.006800 25056.200000
138.030900 7058.100000
142.033500 22791.200000
144.045700 113407.700000
145.040900 2312.800000
146.025000 3001.500000
146.037600 2297.300000
146.061400 13808.400000
147.045500 16210.800000
147.999100 5542.700000
148.040600 17463.900000
149.007200 1587.300000
150.056000 2804.500000
151.022600 9357.500000
151.051600 2341.600000
152.017800 6678.200000
154.030200 8532.700000
154.992300 15838.600000
155.038000 7876.800000
158.048700 9902.800000
158.061200 1851.300000
159.056400 2559.800000
160.040700 5570.400000
160.077000 1970.500000
161.006900 25211.500000
162.002200 1275.300000
162.014400 11886.500000
162.043800 5016.300000
162.056300 1241.400000
163.022300 2228.500000
163.051500 5318.400000
167.028700 2567.500000
168.036000 1284.400000
169.043800 6989.600000
171.056600 22196.800000
172.040600 22473.200000
172.064500 3021.500000
176.017900 1377.900000
181.053300 1540.400000
184.051800 8898.500000
188.017600 9346.800000
188.035700 40954.300000
189.043400 83054.800000
189.066800 9540.100000
194.085100 1192.200000
197.059400 2346.800000
197.072300 4809.500000
198.080400 2673.000000
204.012800 1776.500000
205.061900 9625.600000
206.028300 1789.600000
209.072400 2109.500000
211.088100 35828.600000
213.103900 2959.000000
215.046700 3058.200000
216.054100 3155.400000
223.088100 40638.700000
253.061800 2101.300000

>ms2peaks
50.003600 17189.200000
55.018900 7993.400000
56.980500 51411.500000
57.975800 73893.000000
58.996000 1642.600000
59.991400 5165.900000
60.975400 75147.100000
63.962500 1908.700000
64.019300 1563.800000
65.014600 11299.100000
65.039800 2308.900000
65.998600 11368.000000
66.035000 2554.200000
67.030200 19335.500000
70.983700 31010.500000
70.996200 2527.000000
71.025200 2105.900000
71.991500 20709.400000
72.009300 11205.000000
72.975500 2768.100000
72.999400 33537.200000
73.011900 2804.300000
74.007200 31824.100000
74.991200 7326.100000
77.039700 2543.300000
78.035100 2383.400000
80.050700 7395.800000
81.975800 5317.000000
82.017300 1626.900000
83.025200 45672.400000
83.991400 13684.100000
84.009200 21745.500000
86.007100 6447.900000
87.002500 1949.200000
87.986400 2300.600000
90.035100 5588.600000
92.050700 12973.400000
93.034700 297258.800000
94.029800 1714.900000
95.025200 21521.300000
95.050400 32796.200000
96.999300 40931.300000
98.007100 2429.700000
99.986400 41212.200000
104.038200 1839.300000
105.034800 2105.600000
105.045800 9676.600000
106.042600 1828.900000
107.061600 128428.400000
108.045700 12401.300000
109.077200 15006.100000
111.002500 7027.300000
111.020100 22005.900000
111.986500 1568.700000
112.022700 2163.800000
116.051000 2989.500000
117.034800 176578.200000
117.046000 16423.700000
118.030100 136039.700000
119.050400 174898.100000
120.045700 548470.100000
121.029600 7153.000000
121.040900 1586.700000
121.077400 1426.000000
122.048900 2949.600000
123.045300 123122.300000
123.998800 1915.300000
124.022700 11291.300000
125.006600 2012.900000
126.038500 5079.100000
126.997300 4771.800000
129.013200 7214.400000
129.034800 7153.700000
131.037800 83749.700000
132.021900 23611.700000
132.045800 16857.000000
132.056900 5902.900000
133.029700 26346.300000
133.041000 4549.500000
134.061300 36080.400000
135.056600 161001.200000
137.006800 24452.300000
140.017800 2944.400000
142.033400 7118.600000
144.045700 85114.300000
146.037800 2536.400000
146.061500 5279.400000
147.045500 8609.300000
147.999100 7929.100000
148.040700 5856.600000
149.007000 2434.600000
149.024700 2817.500000
151.022600 2635.100000
154.020900 1555.600000
154.992500 1822.000000
155.037900 9116.900000
159.056600 1620.900000
160.041200 1876.700000
161.006800 18426.400000
162.002400 2962.400000
167.028800 2017.700000
171.056700 14950.200000
172.040600 7323.000000
176.017400 1914.400000
181.053600 2294.100000
184.051900 5307.800000
188.035500 10912.500000
189.043500 16715.500000
195.056500 1953.500000
197.072300 10137.500000
211.088100 23322.000000
222.080000 14662.100000
223.087700 12620.100000
224.082800 2147.200000

>ms2peaks
50.003600 16290.200000
55.018900 8738.600000
56.980500 45419.900000
57.975800 66507.100000
58.996100 2518.500000
59.991300 2871.900000
60.975400 60558.000000
63.962500 1263.800000
64.019500 1501.500000
65.014600 14083.900000
65.039700 7738.700000
65.998600 8202.400000
66.035100 1440.000000
67.030300 11549.500000
70.983700 41156.200000
71.991500 19426.800000
72.009200 6795.900000
72.975500 4562.600000
72.999400 27148.100000
73.012000 4905.300000
74.007200 24460.100000
74.991100 6220.900000
77.039700 5707.100000
78.035000 1414.600000
80.050700 4971.600000
81.975800 4859.000000
82.017400 1511.800000
83.025200 19594.200000
83.991400 7872.900000
84.009200 9988.400000
84.999400 1624.500000
86.007100 2033.500000
87.986400 2325.400000
90.034900 9533.900000
91.030300 2050.000000
92.050700 6067.500000
93.034700 321102.700000
95.025200 11404.000000
95.050300 43068.300000
96.999300 25027.200000
98.007100 1859.800000
99.986300 20788.400000
102.038500 1217.300000
105.034800 2445.700000
105.045900 6444.300000
107.061600 63377.500000
108.045700 2200.600000
109.077300 4727.700000
111.002200 1628.600000
111.020100 7867.500000
111.986600 1387.900000
116.026900 2367.600000
116.050800 5731.400000
117.034800 135084.800000
118.030100 147002.700000
119.050400 96339.700000
120.045700 365479.100000
121.029700 5113.200000
121.040900 2496.300000
122.048900 2254.500000
123.045400 80107.800000
123.056600 7731.100000
124.022700 5979.500000
126.997100 1939.100000
129.034600 5466.300000
131.037800 52621.700000
132.021900 10581.100000
132.045700 5099.200000
132.056900 2468.800000
133.011700 2527.700000
133.029500 5633.700000
133.040800 2238.500000
134.061200 19506.900000
135.056600 70892.100000
137.006800 13153.700000
142.030000 2907.100000
144.045700 47978.900000
147.045100 2114.400000
147.999100 4480.000000
149.006700 1522.300000
155.037900 4874.600000
158.048800 1883.700000
161.006900 12959.700000
171.056700 9009.500000
181.053400 1806.900000
188.035800 1715.800000
194.085200 6535.300000
195.056700 2996.900000
197.072200 1190.900000
211.088100 4879.900000
222.080200 7795.800000
223.088000 4527.700000

>ms2peaks
50.003600 24741.700000
55.018900 7036.500000
56.980500 41947.200000
57.975800 65179.800000
58.996200 2233.800000
60.975500 37984.100000
63.962500 1746.100000
64.019300 2848.400000
65.014600 15776.400000
65.039800 28368.500000
65.998600 12819.000000
67.030300 5636.300000
70.983700 52079.700000
71.991500 9756.800000
72.999400 15398.800000
74.007100 7033.300000
74.991200 2361.600000
75.024200 1967.900000
77.039800 5736.000000
81.975900 8889.800000
83.025200 2471.300000
83.991400 2754.100000
84.999100 1245.200000
86.007200 1062.500000
89.039800 7886.800000
90.035000 23793.100000
91.019000 1369.900000
91.030300 7762.800000
92.014200 1552.700000
93.034700 315957.500000
95.025300 2834.500000
95.050400 22216.700000
96.999400 12566.500000
99.986400 2402.700000
105.045900 1786.700000
107.061600 13921.500000
116.026800 7864.000000
116.050800 2389.000000
117.034800 61594.100000
118.030100 162252.200000
119.050400 32737.400000
120.045700 95143.600000
121.029600 1719.500000
121.040900 1713.200000
122.048800 2030.000000
123.045400 9266.600000
124.022500 1160.100000
131.037600 8447.700000
132.021900 2353.300000
133.012000 1308.500000
134.061500 2581.700000
135.056600 8429.100000
137.006900 5112.000000
142.030000 5001.100000
144.045600 11211.200000
145.040900 1164.700000
147.998800 1743.600000
155.038500 1767.100000
161.007000 5341.500000

>ms2peaks
50.003700 20527.200000
55.018900 1596.700000
56.980500 38560.100000
57.975800 47059.200000
58.996100 2026.400000
60.975500 23107.800000
64.006700 2018.300000
64.019400 1468.200000
65.014600 15198.600000
65.039700 26458.100000
65.998600 7974.200000
67.030300 1887.500000
70.983700 32482.900000
71.991500 2321.300000
72.999300 4480.300000
75.024100 4337.400000
81.975800 1604.300000
89.039800 4398.000000
90.035000 26527.700000
91.019000 1399.900000
91.030200 6663.300000
93.034700 161097.200000
95.050300 5645.100000
96.999200 1386.100000
107.061700 1616.600000
116.026900 6767.700000
117.034800 15589.400000
118.030100 131628.000000
119.050400 4304.200000
120.045700 14014.800000

>ms2peaks
50.003700 23609.100000
56.980500 33416.500000
57.975700 44577.300000
60.975400 11503.500000
63.962400 2064.700000
64.006600 1161.800000
65.014600 12410.600000
65.039800 21724.600000
65.998600 9710.100000
67.030100 1299.400000
70.983700 20412.900000
75.024100 1862.100000
81.975700 4247.000000
89.039700 2344.500000
90.035000 26203.500000
91.030200 7282.700000
92.014200 1425.700000
93.034700 53594.700000
95.050200 1586.200000
117.034700 1390.500000
118.030100 57089.800000

