>compound EQ91839673
>parentmass 265.0731
>ionization [M-H]-
>formula C14H10N4O2
>rt 402.000000
>profile orbitrap
#smiles_iso C1=CC=C(C(=C1)C2=CC=C(C=C2)C(=O)O)C3=NNN=N3
#smiles_can C1=CC=C(C(=C1)C2=CC=C(C=C2)C(=O)O)C3=NNN=N3
#inchikey USAWIVMZUYOXCF-UHFFFAOYSA-N
#pubchem_id 19388302
#mb_accession EQ279551,EQ279552,EQ279553,EQ279554,EQ279555,EQ279556,EQ279557,EQ279558,EQ279559

>ms2
164.062900 927507.200000
165.070900 129395864.000000
167.050300 196063.300000
193.077100 14949372.000000
208.053000 3925495.800000
209.060800 1078741.600000
221.083200 1290666.200000
222.056200 1027972.200000
237.067000 22848340.000000
265.073100 126390496.000000

>ms2
164.063100 2934860.000000
165.070900 212530336.000000
167.050100 565742.500000
178.066500 818080.100000
193.077100 18998314.000000
195.045500 464578.500000
208.053000 3187041.200000
209.060800 335616.400000
221.083300 497515.700000
222.056000 1198647.900000
237.067000 4730716.500000
265.073100 11424637.000000

>ms2
164.063100 3719514.800000
165.070900 226439936.000000
167.050300 801104.100000
178.066300 1166711.000000
193.077100 3446929.200000
195.045400 684964.100000
208.053100 372901.900000
222.055900 227927.400000

>ms2
164.063100 2814309.500000
165.070900 177644304.000000
167.050300 604015.400000
178.066700 294599.300000
193.077000 233005.500000
195.045200 508683.200000

>ms2
115.055300 345779.500000
164.063100 1200395.600000
165.071000 89843392.000000
167.050200 478262.300000
195.045200 241920.100000

>ms2
115.055400 735664.200000
139.055300 158264.000000
164.063000 438601.600000
165.071000 36307708.000000
167.050400 150869.800000
195.045300 71632.700000

>ms2
115.055400 1031455.700000
139.055400 177897.200000
163.055100 62456.000000
165.071000 3007661.200000

>ms2
115.055400 599192.500000
163.056000 29230.300000
165.071000 114753.200000

>ms2
115.055300 214271.000000

