>compound EQ91865794
>parentmass 150.0019
>ionization [M-H]-
>formula C7H5NOS
>rt 384.000000
>profile orbitrap
#smiles_iso C1=CC=C2C(=C1)NC(=O)S2
#smiles_can C1=CC=C2C(=C1)NC(=O)S2
#inchikey YEDUAINPPJYDJZ-UHFFFAOYSA-N
#pubchem_id 13625
#mb_accession EQ337551,EQ337552,EQ337553,EQ337554,EQ337555,EQ337556,EQ337557,EQ337558,EQ337559

>ms2
150.001900 73057792.000000

>ms2
150.001900 70485392.000000

>ms2
122.007100 441462.800000
150.001900 67100896.000000

>ms2
106.996200 89259.300000
122.007100 1049630.600000
150.001900 45020864.000000

>ms2
90.035000 79317.000000
106.996200 317029.600000
118.030000 74689.400000
120.999300 63975.900000
122.007100 1284700.600000
150.001900 29835964.000000

>ms2
56.980500 66366.200000
90.034900 178049.000000
106.996200 476289.500000
118.030000 94473.200000
120.999300 130375.100000
122.007100 753177.900000
150.002000 12289991.000000

>ms2
50.003600 7543.300000
56.980500 341552.300000
57.975700 15114.800000
80.980500 62432.100000
90.035000 264080.300000
104.980200 6606.300000
106.996200 354562.300000
118.030200 46113.300000
120.999300 184577.700000
122.007000 95154.600000
150.002000 1268970.800000

>ms2
50.003600 11859.800000
56.980500 491945.300000
80.980500 101649.200000
81.975700 8505.900000
90.034900 224099.900000
106.996200 107664.700000
120.999300 98491.900000
150.002100 74982.300000

>ms2
50.003600 44076.100000
56.980500 533758.800000
80.980400 99486.700000
81.975800 27076.000000
90.035000 105491.500000
104.980400 7431.800000
106.996100 15205.300000
120.999300 33570.300000

