>compound EQ92119550
>parentmass 338.0915
>ionization [M-H]-
>formula C12H21NO8S
>rt 366.000000
>profile orbitrap
#smiles_iso CC1(OC2COC3(C(C2O1)OC(O3)(C)C)COS(=O)(=O)N)C
#smiles_can CC1(OC2COC3(C(C2O1)OC(O3)(C)C)COS(=O)(=O)N)C
#inchikey KJADKKWYZYXHBB-UHFFFAOYSA-N
#pubchem_id 5514
#mb_accession EQ363551,EQ363552,EQ363553,EQ363554,EQ363555,EQ363556,EQ363557,EQ363558,EQ363559

>ms2peaks
77.965500 660921.100000
95.976000 222840.300000
280.050000 107938.000000
338.091900 50101600.000000

>ms2peaks
63.962400 64460.100000
77.965600 19108344.000000
79.957400 281716.700000
79.981300 124775.300000
80.965200 430828.200000
83.013700 48751.300000
89.965600 181052.300000
95.976200 4647258.500000
96.960200 72869.200000
98.024800 93360.700000
110.024900 77495.300000
112.040600 81677.000000
113.024600 25708.800000
119.976300 70525.500000
122.024800 175246.800000
124.040400 188376.300000
125.024500 32628.800000
128.035300 51521.400000
140.035400 140446.000000
161.986900 219148.100000
176.002300 56208.500000
203.997400 199858.400000
222.007800 54557.900000
280.049800 461765.400000
338.092000 24455406.000000

>ms2peaks
61.970700 64970.100000
63.962500 271355.000000
77.965600 36367956.000000
79.957400 352080.700000
79.981200 252343.900000
80.965200 388827.500000
83.013800 52760.700000
85.029600 45470.000000
89.965600 81025.400000
94.029900 36663.500000
95.976200 4784158.000000
96.960100 108473.100000
97.029600 56979.500000
98.024800 99732.700000
110.024900 120526.600000
112.040500 135523.400000
122.024900 128879.800000
124.040500 165952.800000
125.024500 58833.000000
128.035400 47140.500000
140.035500 72803.900000
161.986900 113407.400000
203.997500 40389.100000
280.050500 61017.000000
338.092000 1632885.900000

>ms2peaks
61.970700 116779.100000
63.962500 594681.000000
69.034700 40314.700000
77.965600 36712116.000000
79.957400 388071.000000
79.981200 228494.000000
80.965200 218303.200000
83.013800 57631.200000
85.029600 53226.600000
94.029900 39879.400000
94.968400 49786.700000
95.976200 3332764.500000
96.960100 89469.300000
97.029600 99056.700000
112.040600 62382.500000
122.024900 40036.100000
124.040500 59210.400000
125.024600 44490.600000

>ms2peaks
57.034600 43513.200000
61.970600 171685.400000
63.962500 986868.300000
69.034700 38649.900000
77.965600 34214080.000000
79.957400 561781.500000
79.981200 134726.000000
80.965200 139674.300000
82.029800 37079.900000
83.013700 44580.800000
94.029900 34857.000000
94.968500 43015.400000
95.976200 2440841.800000
96.960100 76728.300000
97.029600 110790.900000

>ms2peaks
57.034600 39735.000000
61.970600 245125.500000
63.962500 1910854.500000
69.034700 47043.100000
77.965600 33509104.000000
79.957400 937884.800000
79.981200 80496.800000
80.965300 85935.400000
94.968400 43460.700000
95.976200 1940096.900000
96.960100 57895.800000
97.029700 69264.400000

>ms2peaks
61.970600 232973.400000
63.962500 4353547.500000
77.965600 24466222.000000
79.957400 1506079.500000
80.965100 49782.600000
94.968400 27601.800000
95.976200 863200.000000
96.960000 42522.000000

>ms2peaks
61.970700 367759.900000
63.962500 7157954.000000
77.965600 14527476.000000
79.957400 1861472.000000
95.976200 271842.200000

>ms2peaks
61.970700 613909.300000
63.962500 9006889.000000
77.965600 7480085.500000
79.957500 1613580.900000
95.976200 82776.900000

