>compound EQ95938103
>parentmass 784.3451
>ionization [M-H]-
>formula C43H51N3O11
>rt 654.000000
>profile orbitrap
#smiles_iso CC1C=CC=C(C(=O)NC2=C(C3=C(C4=C(C(=C3O)C)OC(C4=O)(OC=CC(C(C(C(C(C(C1O)C)O)C)OC(=O)C)C)OC)C)C5=C2N6C=CC(=CC6=N5)C)O)C
#smiles_can CC1C=CC=C(C(=O)NC2=C(C3=C(C4=C(C(=C3O)C)OC(C4=O)(OC=CC(C(C(C(C(C(C1O)C)O)C)OC(=O)C)C)OC)C)C5=C2N6C=CC(=CC6=N5)C)O)C
#inchikey NZCRJKRKKOLAOJ-UHFFFAOYSA-N
#pubchem_id 53395233
#mb_accession EQ369351,EQ369352,EQ369353,EQ369354,EQ369355,EQ369356,EQ369357,EQ369358,EQ369359

>ms2
482.172600 36024.100000
784.345400 10327522.000000

>ms2
59.013800 203634.900000
83.050300 17072.000000
85.029500 13114.100000
111.045300 3684.900000
121.065800 9377.200000
123.081600 145606.400000
125.060700 60396.300000
136.076600 34416.600000
151.076400 55488.400000
164.071700 64512.500000
293.094400 3489.900000
306.088500 21374.900000
307.095900 3217.900000
308.104100 53497.400000
320.103500 3240.100000
332.103600 3247.700000
333.075400 19036.400000
333.112500 2836.800000
334.083000 12233.400000
345.087600 9627.500000
346.096400 55577.400000
347.103700 840387.200000
348.099600 8115.500000
358.083300 4047.500000
359.090300 54174.200000
360.099000 1776976.100000
361.106700 332577.500000
362.114600 162118.100000
370.120600 3668.600000
373.105200 17181.800000
374.113900 8450.400000
386.077800 105117.100000
387.085700 253633.500000
388.093700 107536.200000
389.101600 4682.300000
393.096700 23680.200000
402.109000 31820.800000
403.116400 16219.300000
404.124900 16116.500000
410.149700 5064.900000
419.075100 2857.000000
429.097200 11489.800000
438.181100 2280.900000
439.166500 11467.700000
440.197500 20460.100000
441.133000 22818.900000
442.141800 3136.500000
452.125300 3281.500000
454.140900 246657.900000
458.172700 4293.700000
464.160400 8672.200000
468.192200 25785.000000
482.172000 1353821.600000
483.179000 30391.300000
484.188400 44189.500000
510.166800 68394.500000
512.182300 92344.600000
515.170400 21079.400000
692.297600 385634.800000
724.323700 556489.200000
784.344800 995510.800000

>ms2
57.034600 16909.300000
59.013800 362148.800000
83.050200 42017.200000
85.029400 11900.100000
97.065900 11122.000000
105.071000 16562.700000
107.050300 13486.400000
108.045400 11158.500000
111.045200 4341.800000
121.053400 5297.500000
121.065900 63726.600000
123.081600 290178.000000
125.060700 52523.100000
136.076700 109407.700000
151.076400 45753.100000
164.071700 35410.900000
277.085500 45409.500000
277.098700 4140.600000
279.078700 4108.600000
290.093600 15471.000000
291.101300 73531.700000
292.085400 5002.900000
292.110200 18217.500000
293.079300 16663.000000
293.093300 9686.000000
294.089000 18193.000000
304.109100 34998.900000
305.079800 63274.100000
306.088400 166293.600000
307.096300 53897.300000
308.104100 165666.800000
309.076000 13750.500000
317.093900 8255.800000
318.086400 21356.600000
319.109100 14323.700000
320.067500 18542.700000
320.104000 21331.100000
330.088300 19403.300000
331.096600 12354.200000
332.104000 170160.600000
333.075300 74034.400000
333.089700 50905.400000
333.112200 147860.400000
334.083500 89418.800000
334.119300 31271.500000
342.087400 5555.500000
343.073200 3844.600000
343.096600 15322.900000
344.082000 53965.300000
344.104300 11801.600000
345.088800 64749.600000
345.109500 6752.200000
346.096000 22860.200000
346.119700 20969.000000
347.103800 2079974.200000
348.098400 9135.000000
356.102700 5611.000000
358.082800 47426.000000
358.118700 28635.200000
359.091200 752868.200000
360.099100 3795855.800000
361.106800 996245.800000
362.114600 557142.400000
370.118900 29232.500000
371.103700 48372.800000
372.098600 22209.800000
373.105700 83420.800000
374.114500 61781.300000
376.071000 5323.400000
382.155400 5192.700000
384.134500 5020.400000
386.078100 177367.500000
386.113500 24458.900000
387.085700 141371.200000
388.093700 228470.100000
393.097100 64100.600000
396.135900 18285.100000
398.150800 9002.300000
400.092800 11753.300000
402.109300 82905.300000
403.117300 26725.400000
404.125200 19199.200000
410.150000 23950.500000
412.131800 4657.500000
424.128600 4036.400000
426.110700 5286.700000
426.146000 21704.600000
438.110000 12999.600000
439.165200 17754.400000
440.125000 11227.200000
440.197900 31016.900000
441.133200 46231.900000
442.143400 3877.700000
452.125200 21281.200000
454.140700 340958.400000
458.170800 9553.900000
464.160900 26229.300000
466.140800 10821.600000
468.192500 24420.600000
482.172000 140781.100000
483.180000 9458.300000
484.187800 24534.500000
510.166800 12931.900000
512.182700 42133.200000
692.293500 5274.400000

>ms2
55.018800 8007.200000
57.034500 17331.300000
59.013800 279477.400000
65.039700 2266.700000
65.998600 2552.100000
71.013800 8673.100000
81.034600 3487.800000
83.050200 42615.700000
85.029500 4371.800000
93.070900 2666.200000
95.050400 2485.000000
97.065700 10557.800000
105.071000 15238.600000
106.042500 4176.200000
107.037600 8318.400000
107.050300 16866.700000
108.045600 20226.100000
111.045200 5137.100000
121.053200 10285.900000
121.065900 80825.200000
123.081500 96258.400000
125.060700 26123.700000
134.061500 2724.700000
136.076700 72323.400000
151.076600 3392.600000
156.056500 3339.900000
164.071500 2586.000000
224.035700 2956.300000
235.075900 3669.200000
235.087600 2294.600000
241.061700 4514.300000
247.086700 2733.500000
249.091000 38555.500000
250.098300 9278.000000
259.087700 3686.700000
260.095100 2929.800000
261.102800 3017.300000
262.074800 11606.500000
262.098300 17610.100000
263.070000 27129.300000
263.082800 15954.500000
265.062000 7930.300000
273.090700 2664.700000
274.098500 4004.300000
275.082800 12322.600000
276.077400 16360.100000
276.090400 46570.100000
276.114100 4990.100000
277.085400 212871.600000
277.098600 42359.200000
278.070400 6394.000000
278.093400 24870.400000
279.077300 63268.900000
280.049100 8515.100000
286.098600 15639.100000
287.082300 10140.500000
288.078100 17796.100000
288.091500 3835.100000
288.114300 26525.800000
289.062200 2981.900000
289.084500 30752.100000
289.098500 14468.200000
290.068800 3933.900000
290.093500 47495.600000
291.077300 14065.200000
291.100900 46728.500000
292.071500 2926.100000
292.086300 18567.200000
292.109600 32455.300000
293.056100 3373.100000
293.080300 14216.400000
293.093300 11217.700000
294.088300 32304.900000
298.098000 3075.000000
299.082900 3427.000000
300.091700 3362.000000
302.093100 2666.300000
303.077000 11629.400000
303.100300 4848.700000
304.071200 31370.200000
304.086700 11112.600000
304.109100 165602.800000
305.080300 58689.600000
305.093600 38719.700000
306.088400 253329.800000
307.096200 27538.300000
308.104000 101609.200000
309.074800 11862.400000
313.085700 8587.800000
314.093200 47469.100000
315.077500 28898.100000
316.069100 21113.000000
316.085900 15512.600000
316.109300 27494.400000
317.055300 2805.400000
317.077800 27746.500000
317.093900 15423.500000
318.064500 8136.000000
318.085600 20773.500000
318.103200 4712.000000
319.071500 10933.600000
319.110000 68298.200000
320.067000 18313.400000
320.102800 15696.600000
328.108600 3117.900000
329.093300 56298.900000
330.088300 264447.600000
331.072200 39029.300000
331.095900 38346.500000
332.080900 35760.700000
332.104000 406662.400000
333.088200 159687.400000
333.111700 121275.700000
334.083500 106890.700000
334.119300 58595.600000
340.109000 3595.400000
342.087300 28740.300000
343.072100 21788.700000
343.095900 35812.600000
344.104300 22195.000000
345.089500 110003.800000
345.109700 6543.500000
346.079700 26530.100000
346.120200 22463.400000
347.103800 856896.400000
348.099600 3515.900000
356.103000 19159.900000
357.090600 3686.400000
358.083200 80911.600000
358.117800 21144.300000
359.091100 620205.100000
360.099000 1807412.000000
361.106700 165056.400000
362.114600 235686.100000
369.089300 3146.400000
370.084000 3444.800000
370.119000 18433.800000
371.105100 48630.700000
372.098100 37503.800000
373.105400 41457.700000
374.114300 44447.700000
376.069500 3692.300000
382.119900 5275.400000
382.156300 4349.300000
383.103500 7540.000000
384.134700 3985.500000
386.078000 97225.000000
386.114700 12015.500000
387.085400 12019.200000
388.093700 82053.300000
396.134900 13985.100000
398.113000 5122.000000
398.150700 2801.900000
400.094700 4618.800000
400.129400 3540.600000
402.109000 12464.800000
410.150000 23098.800000
411.134300 4320.600000
412.129500 2511.800000
423.134500 4798.400000
424.130800 4810.700000
426.110800 4986.400000
426.145400 17084.100000
436.129600 11284.600000
438.109700 16580.500000
439.165800 3290.600000
440.125400 10432.600000
452.124100 12926.500000
454.141000 92651.100000
466.138700 3567.000000
482.172100 4044.900000

>ms2
55.018900 9046.400000
57.034500 16470.700000
59.013800 257498.900000
65.014400 1973.900000
65.039600 3187.900000
65.998500 12327.400000
66.035000 2764.900000
68.998300 2921.900000
71.013900 29396.400000
79.055300 4538.500000
81.034500 7868.000000
83.050200 22946.800000
85.029500 3971.200000
95.050300 2112.900000
97.065800 2485.400000
104.050600 1969.100000
105.071000 10228.300000
107.037800 3752.800000
107.050200 15183.300000
108.045500 39081.300000
121.053400 14578.600000
121.065900 49058.400000
123.081500 21410.400000
125.060700 3882.900000
131.061300 2128.500000
134.061200 2627.200000
136.076800 32483.000000
155.037600 4366.400000
156.056600 23962.300000
183.033200 1871.800000
200.035000 3485.300000
221.072200 2465.000000
222.066800 2263.300000
223.051400 2544.200000
224.035600 4043.600000
226.050600 3417.400000
231.093000 3481.500000
232.087700 2077.600000
233.072000 3175.900000
234.079800 2493.000000
235.075100 19056.900000
235.087500 14156.700000
239.046400 2734.500000
241.061800 17897.500000
244.089100 3103.800000
246.079200 8111.900000
247.087600 16185.900000
248.058700 2509.900000
248.083200 20033.000000
249.067000 10874.500000
249.090900 47213.600000
249.102900 6991.300000
250.098500 27028.700000
251.046400 9239.800000
258.103100 4407.000000
259.075500 2939.100000
259.087400 13750.000000
260.082400 10666.100000
260.095800 9915.100000
261.066500 9184.700000
261.090500 13692.400000
261.103000 6258.300000
262.062200 3396.800000
262.075200 36992.000000
262.098400 58221.800000
263.069700 45872.900000
263.082500 31025.600000
265.062000 16941.800000
267.041600 4244.200000
271.087900 3093.100000
272.083300 10185.300000
273.068200 2696.900000
273.089900 7894.800000
274.074800 7193.900000
274.098200 4325.400000
275.082900 28384.500000
276.077400 46607.100000
276.090500 48198.700000
276.113400 19350.100000
277.085400 192428.900000
277.098600 31013.600000
278.070300 5528.900000
278.093500 47817.700000
279.077500 74661.500000
280.047700 2226.800000
285.090200 8110.400000
286.074500 7521.800000
286.098600 49262.100000
287.070900 4100.300000
287.083400 26462.600000
288.077500 30879.500000
288.091200 5556.600000
288.113700 21515.700000
289.061600 9207.100000
289.085400 53396.600000
289.098800 14385.800000
290.093700 69399.800000
291.077700 17021.300000
291.101500 6624.400000
292.072200 10197.600000
292.085800 8387.400000
292.109000 18073.200000
293.056800 7829.300000
293.093900 4247.100000
294.088900 14957.800000
298.098200 4622.500000
299.083900 3486.900000
300.076900 9386.000000
300.090800 7487.500000
301.084900 11808.000000
301.098600 11187.500000
302.093400 22325.400000
303.078000 20100.600000
303.100800 12041.800000
304.071100 30253.600000
304.086500 11448.400000
304.109100 130083.700000
305.079600 9301.100000
305.094000 54668.300000
306.088500 177389.100000
308.104300 17401.300000
309.074700 2069.800000
313.085400 9857.600000
314.093500 53368.200000
315.078000 46927.400000
316.070600 37194.400000
316.086300 14875.100000
316.109300 12329.000000
317.057000 2995.500000
317.093600 15049.200000
318.063900 8833.700000
318.087000 8676.100000
318.103000 5623.600000
319.073800 14785.000000
320.067400 2631.800000
320.103800 3653.100000
328.107800 3149.700000
329.094100 40956.200000
330.088400 359766.400000
331.072200 62957.400000
331.096000 16014.000000
332.080700 17575.600000
332.104000 146857.200000
333.088700 63687.200000
333.111700 11281.000000
334.083600 46675.700000
334.118900 21695.400000
340.109100 3699.700000
342.088400 17675.100000
343.072500 20203.700000
343.096000 32711.100000
344.066000 9573.700000
344.082100 7790.100000
344.104100 10741.600000
345.089500 80265.500000
346.081600 18942.900000
347.104200 75133.400000
356.104500 3850.200000
358.083200 60086.800000
358.118800 3522.000000
359.090900 112784.900000
360.098900 236882.500000
361.106900 9377.000000
362.114700 30731.100000
369.088200 2612.300000
370.083900 11808.400000
370.118600 2734.700000
371.104700 16639.900000
372.098900 18159.400000
373.105700 3108.900000
374.113100 8648.300000
382.119900 2200.400000
386.077800 16378.700000
386.114500 3612.000000
388.092400 4232.900000
412.129900 2847.600000
423.137000 2778.200000
424.129500 2940.700000

>ms2
55.018900 7932.600000
57.034500 3908.400000
59.013800 176575.300000
64.006700 4405.100000
65.014400 1967.100000
65.039700 3232.600000
65.998600 29665.300000
68.998200 3266.800000
71.013900 32609.900000
81.034500 2995.800000
83.050300 14501.600000
85.029500 3268.100000
104.050500 4433.500000
105.070700 2952.500000
106.042300 2507.500000
107.050200 13306.300000
107.061400 2999.000000
108.045500 31295.300000
121.053300 9200.100000
121.065800 22733.900000
123.081300 2376.200000
131.061700 3297.100000
136.076600 3910.900000
155.037800 9233.100000
156.056600 34965.400000
157.040600 2598.600000
168.045700 2476.900000
169.040800 3786.000000
184.040200 2654.900000
196.040600 7569.400000
197.035500 1882.400000
200.035400 2650.500000
205.076900 4139.100000
217.077400 2603.900000
218.072000 1896.100000
220.064700 1888.400000
220.088400 3409.300000
221.071700 2479.000000
222.044500 2387.400000
222.067600 1948.600000
223.052100 2644.500000
224.035100 4013.200000
226.050900 3253.000000
231.092700 3418.400000
232.087700 10970.200000
233.072400 14159.600000
234.080000 10618.100000
235.050700 2882.600000
235.074900 12084.600000
235.087600 22456.400000
237.030800 2072.600000
239.046300 3994.900000
241.061500 17041.700000
244.087800 3751.900000
245.060300 2245.000000
245.072000 7189.000000
246.067300 3749.700000
246.079900 12343.000000
247.075500 3839.600000
247.087700 21245.800000
248.058800 3904.100000
248.083100 15994.400000
249.067500 12738.900000
249.090800 18098.700000
249.102700 3102.500000
250.098900 21049.400000
251.046500 6827.700000
256.088400 2080.900000
258.067100 2542.400000
258.103200 16057.800000
259.074700 13146.400000
259.087600 21938.700000
260.082900 25857.700000
260.095000 4123.800000
261.066900 13048.700000
261.090600 12124.200000
261.103100 4002.700000
262.062000 3311.900000
262.074700 25550.000000
262.098500 35799.000000
263.070700 20926.600000
263.081100 19208.447270
265.061500 7061.500000
267.040700 2309.700000
271.074600 2806.600000
271.087600 3861.700000
272.083000 15321.500000
273.067400 7548.700000
273.090800 9640.400000
274.074700 3054.600000
274.099100 9674.400000
275.082700 30595.300000
276.077500 28476.100000
276.090600 12662.800000
276.113400 3636.400000
277.085300 36122.700000
277.098500 13776.500000
278.069400 2766.800000
278.093400 26392.200000
279.077400 23724.500000
285.090500 11253.000000
286.075400 4307.700000
286.098600 43973.100000
287.069100 12058.600000
287.082800 18538.600000
288.077800 28213.500000
288.091600 3960.400000
288.114500 7315.600000
289.061700 8271.700000
289.085400 22636.400000
289.098700 3579.800000
290.069800 2472.400000
290.093300 25940.800000
291.077200 8938.000000
292.107800 2080.800000
293.056600 2870.500000
294.088400 3282.600000
298.099000 3748.900000
299.082600 7602.300000
300.076700 14477.000000
301.084300 3110.900000
301.099400 4238.000000
302.093600 27508.000000
303.077900 18093.900000
303.101700 3398.400000
304.071900 17950.100000
304.109100 27029.800000
305.094200 14091.800000
306.088200 54161.700000
313.085000 9270.700000
314.093600 21562.700000
315.079000 21808.000000
316.071800 26222.562500
317.079100 3562.600000
318.064800 2796.600000
319.073100 4413.300000
330.088400 157002.800000
331.071900 25542.100000
332.103900 12383.300000
333.088400 3526.300000
334.083700 8360.800000
342.088900 4369.400000
343.073000 8490.100000
343.096000 11098.400000
344.066800 2804.300000
344.103000 6464.500000
345.089100 27727.100000
358.083200 19368.000000
359.092000 15018.500000
360.099400 21032.800000
382.120000 2770.700000

>ms2
55.018800 11168.300000
59.013800 64040.700000
64.006700 25218.700000
65.003200 1740.300000
65.014500 10245.900000
65.039600 2715.800000
65.998500 38944.000000
66.035000 3002.400000
68.998200 2616.700000
71.013900 10732.300000
74.003600 2457.900000
79.018800 2190.200000
79.055400 2191.400000
89.014600 3362.900000
90.034800 3202.300000
104.050500 8039.200000
105.045700 2749.400000
108.045500 9515.000000
114.034900 9515.900000
115.030100 3562.800000
118.029900 2324.600000
121.066100 3116.000000
128.050500 2824.900000
129.045900 3368.100000
139.030200 2485.100000
140.050600 3075.900000
141.045800 8862.600000
142.030100 1940.000000
144.045300 6392.700000
155.061400 3801.500000
156.045200 2474.400000
156.056600 17250.800000
157.040600 3612.200000
168.045500 3018.100000
169.040900 10589.300000
180.032300 2125.200000
180.057000 3269.100000
184.040200 2698.900000
193.040800 4219.800000
196.040200 3935.900000
197.035600 1617.800000
200.034700 3625.700000
205.076800 6726.900000
206.048500 2341.100000
209.035300 3371.600000
216.055800 2073.200000
217.076400 2346.500000
219.056400 7970.600000
221.071900 2440.900000
222.043800 1695.200000
229.065400 2145.400000
230.071900 3634.400000
231.057500 1604.500000
231.080400 3732.900000
231.092400 2139.100000
232.064400 2852.600000
232.088200 3759.600000
233.072000 8852.800000
235.051300 2651.000000
235.087700 1989.300000
245.060200 1724.600000
245.072500 3083.500000
246.067600 4134.400000
246.080100 6479.100000
247.075600 1805.100000
247.087600 9368.000000
248.058800 1712.200000
248.083300 3024.500000
249.067400 2370.200000
256.087400 2155.400000
257.071900 3066.700000
258.066500 2894.300000
259.074700 7177.900000
259.087400 2902.100000
260.082600 3650.500000
261.066400 2231.300000
272.083300 6561.000000
273.067400 2034.300000
276.078100 2763.800000
287.069500 6000.500000
288.078100 3335.300000
300.076800 3464.400000
330.088000 4015.200000

>ms2
55.018900 3664.800000
59.013800 53952.400000
63.023900 1519.600000
64.006700 24382.700000
65.003200 1580.200000
65.014500 8835.700000
65.039700 2184.200000
65.998500 49822.000000
71.013800 7391.400000
74.003700 3943.300000
89.014400 2275.700000
90.034800 3675.400000
93.034500 2139.700000
104.050600 7236.300000
105.045500 1649.400000
108.045300 10842.300000
114.034900 7799.500000
115.029900 1920.800000
128.050400 3277.800000
129.045800 3155.100000
139.030200 3736.300000
140.050700 2414.900000
141.045600 9018.400000
144.045700 3425.000000
155.037900 2324.800000
155.061500 7143.100000
156.045700 2897.500000
156.056600 9334.400000
168.045600 3180.500000
169.040400 7257.100000
170.024400 2077.800000
180.056500 7171.400000
183.032200 3726.300000
191.061700 1898.200000
193.040500 3170.200000
196.039900 3762.600000
200.035500 2631.500000
205.076600 7568.900000
207.056300 2909.800000
209.034900 3500.800000
216.057300 2999.400000
218.072300 3531.400000
219.055900 2527.700000
219.080200 2400.400000
220.064100 2666.700000
220.087600 2522.500000
229.064400 2217.200000
230.071900 2449.100000
231.055300 2263.200000
231.079900 2095.900000
232.063600 2710.600000
232.088000 3038.800000
233.071200 6292.800000
237.029400 1667.800000
246.066900 3144.700000
246.079300 3142.100000
247.087300 7120.300000
249.066900 1901.700000
251.045800 2425.500000
257.072000 6206.500000
258.067000 3784.400000
259.074900 2783.400000
261.090700 1939.200000
272.084000 2611.000000
275.082800 2116.400000
287.069800 2067.300000

>ms2
55.018800 11029.800000
59.013800 47666.200000
63.024000 1742.300000
64.006700 20241.900000
65.014500 14080.100000
65.039500 2575.700000
65.998500 46866.200000
68.998300 1775.100000
71.013900 8838.000000
74.003800 2790.000000
79.018900 1938.100000
89.014500 2621.200000
90.034800 2086.900000
104.050400 8625.400000
105.045500 2801.200000
107.061600 2349.200000
108.045500 4008.700000
114.034900 10082.000000
115.030100 9080.600000
118.030000 2198.900000
121.065800 2536.700000
128.050500 1990.000000
129.046200 2875.900000
139.030200 8677.900000
141.046000 10010.000000
142.029800 3043.800000
144.045400 2392.800000
155.037700 3119.700000
155.061400 7178.800000
156.045400 2236.100000
156.056700 14724.600000
157.040300 2376.800000
168.045300 2117.900000
169.040600 9976.900000
170.024400 2284.100000
180.032900 2383.600000
180.056500 8006.500000
184.040300 3332.400000
191.061300 2704.500000
193.040500 3486.700000
196.040400 2882.800000
200.035200 3312.100000
205.077200 6827.600000
206.047600 2096.000000
207.056100 1730.300000
209.035600 3379.500000
216.056100 1951.900000
218.072200 1832.800000
219.056300 3208.500000
219.080500 1829.400000
230.072400 2865.200000
231.080500 2482.400000
232.063900 2687.600000
232.087700 3373.300000
233.071800 4011.200000
237.030200 2284.300000
244.088000 2775.600000
246.066700 3806.500000
246.079500 2534.500000
247.087400 3863.100000
249.066700 3483.900000
258.067300 3372.400000
259.075300 3405.600000
259.088000 1778.700000
260.082300 3053.700000
271.075100 2345.300000
272.082700 2615.800000
275.083100 2150.800000
285.091500 2105.100000
287.069900 3934.000000

