>compound EQ95869952
>parentmass 348.1024
>ionization [M-H]-
>formula C16H19N3O4S
>rt 282.000000
>profile orbitrap
#smiles_iso CC1(C(N2C(S1)C(C2=O)NC(=O)C(C3=CC=CC=C3)N)C(=O)O)C
#smiles_can CC1(C(N2C(S1)C(C2=O)NC(=O)C(C3=CC=CC=C3)N)C(=O)O)C
#inchikey AVKUERGKIZMTKX-UHFFFAOYSA-N
#pubchem_id 2174
#mb_accession EQ366151,EQ366152,EQ366153,EQ366154,EQ366155,EQ366156,EQ366157,EQ366158,EQ366159

>ms2peaks
72.999000 21665.400000
74.007000 70115.400000
171.060100 61383.800000
173.072300 53762.400000
207.060000 11260913.000000
270.125600 12860.300000
304.113000 1069367.900000

>ms2peaks
71.991500 49451.300000
72.999200 12378.100000
74.007200 1844051.900000
83.991400 64971.100000
99.986300 13585.800000
134.061300 31740.700000
164.053900 9899.700000
171.060100 84823.600000
173.072200 487024.300000
180.049200 7597.700000
181.044500 8944.100000
189.049500 28858.500000
207.060000 6435367.000000
304.113300 17315.900000

>ms2peaks
50.003600 10824.100000
63.962500 3094.700000
71.991500 168313.000000
72.999300 37052.100000
74.007200 3072538.200000
83.991400 83287.800000
99.986400 42262.600000
134.061400 49510.200000
146.061100 3755.200000
159.056900 12837.300000
164.054200 8133.700000
171.059900 13569.200000
173.072300 149033.000000
180.049300 3436.600000
189.049400 16156.900000
207.060100 657324.600000

>ms2peaks
50.003600 21717.100000
56.980500 3753.800000
58.996200 6689.900000
63.962600 4154.800000
71.991500 393197.200000
72.999400 87323.700000
74.007200 3046326.500000
83.991400 65917.100000
99.986400 95537.000000
102.034900 3094.900000
116.050900 15724.300000
134.061300 35017.900000
159.056300 10097.700000
165.066400 6754.700000
173.072000 16081.200000
207.060100 30949.200000

>ms2peaks
50.003600 26585.100000
56.980600 2999.800000
58.996200 8865.800000
63.962500 2264.800000
71.991500 516031.700000
72.999400 144010.800000
74.007200 1977299.900000
83.991500 28267.300000
99.986400 104520.600000
116.050800 31105.800000
134.060700 2769.600000
159.056300 2535.500000

>ms2peaks
50.003600 26659.700000
56.980500 14396.400000
57.975700 3207.400000
58.996200 11807.200000
60.975400 1628.500000
63.962600 6270.200000
70.983500 5791.300000
71.991600 513807.400000
72.999400 172276.400000
74.007200 1190321.800000
83.991300 14382.600000
99.986400 80487.600000
116.050700 23511.100000

>ms2peaks
50.003600 21884.100000
56.980500 26088.500000
57.975600 1525.100000
58.996100 10236.200000
63.962600 2347.800000
70.983600 6190.600000
71.991500 220707.300000
72.999400 95244.900000
74.007200 260613.300000
99.986400 22382.000000
116.050700 3661.200000

>ms2peaks
50.003600 15093.200000
56.980500 30233.900000
58.996200 6647.200000
60.975400 2825.700000
63.962600 1925.100000
70.983700 11576.900000
71.991500 63262.800000
72.999400 48869.100000
74.007200 50211.200000
99.986400 2092.000000

>ms2peaks
50.003600 10253.800000
56.980500 30591.700000
58.996100 2809.100000
60.975400 6872.500000
63.962500 1800.000000
70.983700 11984.500000
71.991500 11647.100000
72.999300 10202.600000
74.007100 6717.700000

