>compound EQ97341643
>parentmass 451.26020000000005
>ionization [M-H]-
>formula C27H36N2O4
>rt 594.000000
>profile orbitrap
#smiles_iso CCOC1=C(C=CC(=C1)CC(=O)NC(CC(C)C)C2=CC=CC=C2N3CCCCC3)C(=O)O
#smiles_can CCOC1=C(C=CC(=C1)CC(=O)NC(CC(C)C)C2=CC=CC=C2N3CCCCC3)C(=O)O
#inchikey FAEKWTJYAYMJKF-UHFFFAOYSA-N
#pubchem_id 4547
#mb_accession EQ334951,EQ334952,EQ334953,EQ334954,EQ334955,EQ334956,EQ334957,EQ334958,EQ334959

>ms2
107.050100 772938.400000
135.081600 9305061.000000
179.071400 456226.400000
363.244600 111923.300000
379.239300 13560630.000000
407.270500 30749972.000000
423.228500 201109.500000
451.260600 26869506.000000

>ms2
91.055300 332130.200000
92.026700 211934.100000
93.034600 95745.300000
105.034600 36314.400000
106.042300 1155647.000000
107.050200 5704773.000000
108.021500 60496.900000
117.070900 36798.300000
121.029500 888515.500000
134.037100 62712.200000
135.081600 35705208.000000
137.024200 41415.900000
137.060400 65060.800000
179.071400 1773363.400000
363.245100 46117.800000
379.239300 22162314.000000
407.270400 1222934.500000
423.229100 127381.800000

>ms2
65.039700 95332.700000
79.055400 75338.600000
82.005900 57943.600000
83.050400 32591.300000
91.055400 395600.900000
92.026800 913301.100000
93.034600 308735.800000
95.013900 100861.100000
106.042500 4858741.000000
107.050300 19842634.000000
108.021600 296728.000000
109.029400 132398.800000
111.045400 24339.900000
117.070900 91928.500000
119.050300 32938.500000
120.021400 57836.400000
121.029600 4207570.500000
133.066000 45762.300000
134.037300 27129.000000
135.081600 12964771.000000
136.016300 67603.500000
137.024300 228335.700000
137.060700 26450.900000
150.032400 29008.000000
161.060900 25147.800000
179.071400 640561.100000
379.239300 3987241.800000

>ms2
65.039700 452274.100000
67.019000 52900.300000
79.055400 356740.400000
82.006100 96565.500000
91.055400 454886.300000
92.026800 1605447.000000
93.034500 85011.300000
95.013900 174920.300000
106.042500 7767979.500000
107.050200 20285526.000000
108.021600 526955.400000
109.029500 161640.600000
117.071000 87758.900000
119.050300 32690.200000
120.021700 103585.700000
120.058200 41069.800000
121.029600 7586931.500000
123.008700 31109.300000
133.065800 57336.400000
135.081600 2558189.800000
136.016500 132614.600000
137.024300 427439.900000
179.071400 123575.100000
379.238600 34427.300000

>ms2
65.039700 974689.600000
67.019000 77582.800000
79.055400 799400.600000
82.006100 123194.600000
91.055400 181862.100000
92.026800 1569074.100000
93.034500 72623.100000
95.013900 210221.500000
95.050200 31217.200000
106.042400 7293663.500000
107.050300 12235201.000000
108.021600 520256.200000
109.029400 134653.600000
117.070800 42365.900000
120.021600 134215.600000
120.058000 28517.900000
121.029500 7332712.500000
123.008900 36740.100000
132.021700 27862.500000
133.065800 12628.500000
135.081600 321177.200000
136.016500 142880.600000
137.024300 452302.100000

>ms2
65.039700 1621606.100000
67.019000 175204.200000
68.998200 6481.100000
79.055400 1062927.400000
80.026800 8152.600000
82.006100 81995.400000
91.019000 9598.800000
91.055300 56439.000000
92.026800 1239747.000000
93.034500 54224.600000
95.013900 161291.300000
95.050100 55790.400000
106.042400 5498029.500000
107.050300 6311306.500000
108.021700 476075.100000
109.029400 108951.400000
120.021700 95356.000000
121.029600 5845241.000000
123.008800 26616.900000
132.021600 10019.700000
135.081800 37533.100000
136.016500 130670.900000
137.024400 364600.400000

>ms2
65.039700 1477175.900000
67.019000 302078.800000
77.039700 4441.400000
79.055400 646731.100000
82.006100 35625.100000
91.019000 8359.000000
92.026800 344100.900000
93.034500 17455.700000
95.013900 68843.700000
95.050200 87614.500000
104.026800 5416.900000
106.042400 1375731.600000
107.050300 1060770.000000
108.021700 164684.000000
109.029500 34552.100000
120.021600 18300.600000
121.029600 1750603.200000
136.016500 30774.400000
137.024400 85758.800000

>ms2
65.039700 552998.900000
67.019000 234209.800000
79.055400 167004.500000
82.006000 4865.600000
91.019200 5039.500000
92.026800 58359.600000
93.034600 6453.100000
95.013800 18710.200000
95.050300 54724.300000
106.042400 198245.400000
107.050300 130725.400000
108.021700 36834.000000
121.029500 313612.400000
136.016300 5877.000000
137.024400 23770.600000

>ms2
65.003300 27874.332030
65.039700 170599.800000
67.019000 143712.800000
79.055300 38384.000000
80.027100 4913.100000
92.026800 5507.100000
95.050300 9076.800000
106.042300 22237.500000
107.050400 6304.300000
108.021500 5236.000000
121.029600 33547.500000

