>compound EQ98793806
>parentmass 310.0043
>ionization [M-H]-
>formula C14H11Cl2NO3
>rt 606.000000
>profile orbitrap
#smiles_iso C1=CC=C(C(=C1)CC(=O)O)NC2=C(C=C(C=C2Cl)O)Cl
#smiles_can C1=CC=C(C(=C1)CC(=O)O)NC2=C(C=C(C=C2Cl)O)Cl
#inchikey KGVXVPRLBMWZLG-UHFFFAOYSA-N
#pubchem_id 116545
#mb_accession EQ339751,EQ339752,EQ339753,EQ339754,EQ339755,EQ339756,EQ339757,EQ339758,EQ339759

>ms2peaks
194.061200 1832844.400000
230.037900 7114181.000000
266.014500 98885512.000000
310.004600 13246706.000000

>ms2peaks
166.066200 1269939.200000
184.077000 126951.400000
194.061100 3972196.000000
215.014700 380230.100000
228.023000 105511.600000
229.030000 854222.100000
230.037900 8198284.500000
238.050900 66890.300000
266.014600 43086720.000000
310.004600 76207.100000

>ms2peaks
152.051100 52292.600000
160.956700 78270.500000
166.066300 5778415.000000
167.050400 15220.900000
168.045500 96732.700000
170.061200 76610.500000
176.050200 20710.600000
179.037600 57283.200000
184.076800 663237.800000
186.056200 24513.300000
193.053500 228818.400000
194.061200 3983284.000000
215.014500 851211.200000
228.022500 150057.900000
229.030100 2931407.800000
230.037900 4620586.500000
238.051200 15954.300000
266.014600 2317307.000000

>ms2peaks
115.055400 68535.300000
124.979900 14487.600000
140.050700 196713.500000
152.050700 60511.800000
160.956700 122864.800000
164.050700 105928.200000
166.066300 5650585.000000
167.050500 18486.000000
168.045500 76268.700000
170.061300 17636.900000
176.050900 15541.400000
179.037800 127682.800000
184.076900 201448.000000
186.056100 21821.300000
192.045500 27728.900000
193.053300 344444.600000
194.061200 1383996.500000
215.014500 308504.900000
228.022100 129766.600000
229.030000 1417138.500000
230.037800 576496.100000
266.014600 48236.400000

>ms2peaks
50.003500 24612.600000
115.055400 146691.300000
124.979900 22968.500000
140.050700 240823.400000
160.956900 75492.700000
164.050600 161808.400000
165.058500 20463.300000
166.066200 2568909.200000
168.045700 55984.400000
179.038100 118799.500000
184.076900 44603.900000
192.045800 24711.600000
193.053500 226026.000000
194.061200 317998.100000
215.014400 18765.500000
228.022400 60369.400000
229.030000 221373.400000
230.038400 20179.300000

>ms2peaks
50.003500 11270.100000
74.003600 15398.900000
89.003400 23136.700000
115.055300 127819.700000
124.980000 47439.500000
140.050700 194238.100000
160.956900 12273.800000
164.050700 285082.700000
165.058000 17223.600000
166.066300 686396.600000
179.037600 27386.200000
192.045500 47187.200000
193.053100 69279.500000
194.060600 81469.900000
228.022700 12273.100000

>ms2peaks
50.003600 18783.100000
74.003700 54091.900000
89.003500 35429.200000
115.055300 67247.300000
124.979800 10741.300000
140.050700 89790.600000
164.050900 165722.600000

>ms2peaks
50.003500 20939.600000
74.003700 25722.700000
140.050400 15414.800000
164.051000 12958.800000

>ms2peaks
50.003600 62900.200000
74.003900 17752.700000

