>compound EQ98226423
>parentmass 505.96370000000013
>ionization [M-H]-
>formula C14H14IN5O6S
>rt 552.000000
>profile orbitrap
#smiles_iso CC1=NC(=NC(=N1)OC)NC(=O)NS(=O)(=O)C2=C(C=CC(=C2)I)C(=O)OC
#smiles_can CC1=NC(=NC(=N1)OC)NC(=O)NS(=O)(=O)C2=C(C=CC(=C2)I)C(=O)OC
#inchikey VWGAYSCWLXQJBQ-UHFFFAOYSA-N
#pubchem_id 11027582
#mb_accession EQ348751,EQ348752,EQ348753,EQ348754,EQ348755,EQ348756,EQ348757,EQ348758,EQ348759

>ms2
126.905100 255433.700000
139.062700 138736592.000000
307.888900 27706092.000000
339.915000 19565388.000000
365.894100 4345342.500000

>ms2
55.030200 328101.600000
66.009700 313086.500000
82.041100 855172.600000
107.036400 1086507.500000
109.052100 377960.600000
124.039200 203450.200000
126.905200 321436.200000
139.062700 187053232.000000
307.888900 26802122.000000
339.914800 224921.000000
365.894300 1860415.600000

>ms2
55.030200 2348473.200000
65.014600 902873.000000
66.009900 1662243.100000
81.033300 226910.400000
82.041200 5026995.000000
98.036100 369790.700000
105.960300 215188.200000
107.036400 6712217.500000
109.052100 2000492.900000
124.039200 1406768.800000
125.047000 230601.400000
126.905200 741299.400000
139.062700 158155280.000000
180.984100 1101871.800000
307.888800 14620288.000000

>ms2
55.030200 4898996.000000
61.970700 254010.500000
65.014600 2809434.200000
66.009900 5539306.000000
81.033300 520993.000000
82.041200 8164531.500000
96.056800 392809.900000
97.040800 151110.400000
98.036100 535826.400000
105.960500 134617.100000
107.036500 17956564.000000
109.052100 3323258.800000
120.009300 272919.700000
124.039200 2929983.500000
125.047000 1049217.400000
126.905200 848827.600000
139.062700 85349608.000000
180.984200 2734241.800000
307.888900 3754466.000000

>ms2
55.030200 5375542.000000
61.970700 353230.600000
64.006700 53367.300000
65.014600 7431321.500000
66.009900 11686268.000000
81.033300 1018394.600000
82.041200 7471066.500000
96.056900 331731.900000
97.040800 189224.200000
98.036000 531726.800000
105.960700 48065.300000
106.006200 41632.400000
107.036500 25076214.000000
109.052100 2304310.500000
120.009400 216285.800000
124.039200 3075849.200000
125.047000 1976816.600000
126.905200 971788.900000
139.062700 33627888.000000
156.029000 132895.000000
180.984200 2128265.000000
196.978700 41820.100000
307.888800 531992.600000

>ms2
55.030200 3544867.000000
61.970700 246943.700000
64.006700 115423.400000
65.014600 11368099.000000
66.009900 13880114.000000
81.033300 508291.500000
82.041200 4072804.000000
92.013000 20196.900000
96.056800 123384.300000
97.041000 40815.100000
98.036100 239418.500000
106.006300 39445.100000
107.036500 19548718.000000
109.052100 870246.200000
120.009300 118100.700000
124.039200 1367528.200000
125.047000 1694848.600000
126.905200 922171.900000
137.046900 22074.500000
139.062700 8390355.000000
156.029200 92149.300000
180.984200 760245.100000
183.971000 27489.700000
307.889400 40843.700000

>ms2
55.030200 1330253.100000
61.970600 204384.900000
64.006700 411496.500000
65.014600 15973228.000000
66.009900 16873030.000000
81.033300 100268.800000
82.041100 1452040.600000
92.013200 39825.600000
98.035900 26514.300000
107.036400 6694790.000000
109.052000 139560.300000
124.039200 167292.600000
125.047000 485299.200000
126.905100 1078381.600000
139.062600 386468.000000
180.984100 84218.200000

>ms2
55.030200 298428.800000
61.970700 154685.900000
64.006800 533072.600000
65.014600 8641968.000000
66.009900 14015777.000000
82.041200 290974.000000
92.012600 35036.600000
107.036400 838411.400000
126.904300 960146.812500

>ms2
55.030200 147998.800000
61.970700 113588.800000
64.006800 470637.700000
65.014600 3575229.000000
66.009900 11387463.000000
107.036500 127721.100000
126.905200 810873.400000

