>compound EQ99923343
>parentmass 477.1070000000001
>ionization [M-H]-
>formula C22H23ClN2O8
>rt 324.000000
>profile orbitrap
#smiles_iso CC1(C2CC3C(C(=O)C(=C(C3(C(=O)C2=C(C4=C(C=CC(=C41)Cl)O)O)O)O)C(=O)N)N(C)C)O
#smiles_can CC1(C2CC3C(C(=O)C(=C(C3(C(=O)C2=C(C4=C(C=CC(=C41)Cl)O)O)O)O)C(=O)N)N(C)C)O
#inchikey DHPRQBPJLMKORJ-UHFFFAOYSA-N
#pubchem_id 54677440
#mb_accession EQ368051,EQ368052,EQ368053,EQ368054,EQ368055,EQ368056,EQ368057,EQ368058,EQ368059

>ms2
142.014500 48533.700000
169.061800 10759.400000
180.030100 70872.300000
197.000900 38411.200000
209.093100 48613.000000
221.037500 59864.600000
236.092500 5462.200000
263.047300 5306.200000
279.098500 15977.700000
289.027100 6622.800000
307.037700 113008.600000
329.022000 11538.600000
345.052800 6678.300000
360.065000 21454.300000
371.032000 17180.800000
372.101000 6077.800000
374.079700 5577.900000
387.027900 8511.500000
388.096100 21041.500000
389.043000 66345.900000
390.110500 18380.700000
392.090500 730375.400000
398.080000 15600.100000
404.053100 8745.800000
405.122000 64393.600000
414.036700 4714.100000
415.022700 81338.100000
415.106100 18259.700000
416.090600 45534.800000
432.049300 116877.100000
434.101100 543741.200000
442.070700 4428.400000
459.096100 111684.500000
460.080600 2229367.000000
477.107100 3245026.800000
478.090900 33112.000000

>ms2
67.006800 4667.400000
84.009100 6676.300000
99.008700 7663.900000
100.076700 5953.300000
109.029400 7942.800000
124.004000 7076.200000
125.072000 26492.600000
126.019700 7503.000000
126.055900 10775.600000
126.995200 8076.400000
135.008700 8826.600000
136.040500 17200.400000
142.014500 68419.100000
142.998400 11436.400000
152.035400 11857.600000
154.038400 5739.600000
161.024500 6599.000000
162.019600 7094.000000
163.003700 15965.400000
166.087300 4378.700000
169.006000 52213.800000
169.061800 63294.600000
170.985400 7572.900000
175.040100 22097.400000
180.030200 203044.000000
181.038300 5298.300000
191.035100 6327.800000
192.066700 6660.800000
193.006100 5280.500000
193.050600 6316.800000
194.985300 111742.700000
195.021700 20664.600000
197.001000 255931.900000
206.013000 8812.400000
207.021800 24875.600000
207.993000 4997.400000
209.093200 105146.700000
221.037500 250134.600000
223.016700 47026.200000
235.016700 14345.200000
235.053100 50774.100000
236.092900 44860.300000
245.037200 29538.200000
247.016800 6729.300000
248.024500 25187.600000
251.011900 6088.200000
253.050600 5469.800000
257.037200 8595.400000
259.015500 7926.000000
259.053400 5320.500000
261.032500 4533.400000
263.048000 145460.000000
265.027100 4909.800000
271.016900 7696.900000
271.053200 7701.400000
273.032400 5005.400000
275.048600 9850.200000
279.006500 19053.000000
279.098800 7349.900000
285.031900 22598.000000
287.012200 6573.200000
287.048600 4965.500000
288.079700 5009.200000
289.027200 68156.000000
290.035500 5609.600000
291.043300 7432.600000
299.048200 19220.200000
301.027800 7983.500000
303.043000 32999.000000
305.022400 48885.900000
306.090000 5000.600000
307.037900 329673.200000
309.032900 5152.000000
312.020000 7204.500000
315.043700 6801.200000
319.038200 37892.700000
325.027600 18730.200000
327.007400 10268.400000
327.043200 48860.500000
329.022200 39178.600000
331.037300 8067.900000
332.069500 4928.800000
342.054400 23255.000000
343.038000 38852.400000
345.018200 11032.100000
345.053700 26424.700000
347.032500 87005.000000
348.100900 23809.800000
353.022100 23124.300000
354.089200 12864.600000
356.008800 14873.400000
356.069400 4484.500000
356.113700 6447.000000
359.033600 8089.100000
360.064900 24815.700000
369.017100 18954.300000
370.032800 5237.300000
370.085500 21629.700000
371.032700 126329.000000
372.101200 41052.900000
373.012200 10631.300000
374.079600 30706.900000
387.027600 73675.400000
388.095900 79115.500000
389.043400 148758.000000
390.110800 27826.600000
392.090800 3871747.200000
397.012000 17300.500000
398.080700 16910.800000
399.999200 23708.100000
404.053800 5547.000000
405.121200 5919.300000
414.037800 11227.300000
415.022600 164583.900000
415.107000 10392.800000
416.090600 80559.400000
432.051200 11124.900000
434.101100 163658.500000
442.069900 12540.800000
459.096500 20372.000000
460.080400 220617.100000
477.107200 18307.000000
478.091400 17686.300000

>ms2
57.034500 1202.700000
59.013800 19845.900000
63.023900 1249.500000
65.039500 1587.200000
65.998500 8892.000000
67.007000 10039.200000
68.998100 7968.700000
79.055200 1179.400000
81.021800 1346.700000
81.034500 1453.000000
83.013800 1871.100000
84.009000 29450.000000
86.024700 6827.000000
87.008700 13226.800000
91.019000 1048.700000
91.055400 1394.100000
93.034500 4652.300000
95.013700 2102.500000
95.050400 1447.700000
96.009100 1712.000000
96.993100 6490.500000
97.029400 1297.200000
99.008800 13235.700000
100.076700 10634.000000
102.056100 8116.500000
105.034500 2044.100000
107.050100 8846.300000
108.021600 5602.900000
109.029400 28223.500000
111.008900 7944.800000
111.045300 9787.100000
117.034900 4575.900000
119.013800 4954.800000
119.050100 2494.600000
120.045400 1325.800000
121.029400 2228.100000
121.065800 11935.400000
122.000800 1255.000000
123.008800 4141.900000
123.045200 10432.600000
124.004000 6835.300000
124.016500 6336.000000
124.076900 4877.100000
124.987800 2721.400000
125.072000 48388.800000
125.987700 1926.100000
126.019600 7679.900000
126.056000 34153.400000
126.995600 105038.800000
131.050200 2632.300000
133.029500 26436.700000
134.024500 1880.000000
135.008800 41711.700000
135.045200 23280.500000
136.016500 2754.000000
136.040300 19428.200000
137.024200 13044.300000
139.015200 11709.300000
139.040100 1378.900000
140.003600 1911.500000
141.982800 10376.300000
142.014600 21726.700000
142.998600 20939.900000
145.029500 7424.800000
146.037500 7233.800000
147.045200 36802.400000
148.076800 1543.000000
149.024400 24234.800000
149.060700 45331.600000
149.995800 1709.600000
150.019600 2150.600000
151.040000 2341.400000
152.035400 17120.400000
152.071900 2502.400000
153.011200 11173.800000
153.055700 1654.200000
154.038400 10274.000000
154.990700 5443.900000
160.016600 13468.700000
161.024300 38946.900000
162.019600 53525.100000
163.003800 76787.600000
163.040100 14965.600000
164.011500 7460.500000
164.035300 6746.000000
164.071500 5809.900000
165.042900 5624.300000
165.055500 1871.700000
165.067000 2251.000000
166.087200 9315.200000
166.990500 5665.200000
167.022200 8059.100000
169.006200 407412.300000
169.061800 24178.100000
170.985400 49163.100000
173.024100 8528.400000
174.032300 5002.700000
175.003600 5398.800000
175.040000 46063.400000
177.042600 1450.000000
178.087000 1545.700000
178.990600 21614.500000
179.998900 8300.600000
180.030200 110806.700000
181.006200 4274.800000
181.014300 5457.500000
181.038100 5926.200000
181.050600 1609.100000
182.014200 2305.800000
185.060800 2749.300000
187.039500 1327.200000
189.019300 5350.500000
189.055700 1912.900000
191.026700 1809.500000
191.034900 18939.500000
192.066700 5854.700000
192.103100 2167.700000
193.006400 18597.800000
193.050500 40645.000000
194.014000 5788.200000
194.985400 584178.600000
195.992600 9717.400000
197.001000 246197.600000
199.039800 2161.000000
199.076400 23560.700000
203.027100 2160.400000
205.005900 5628.000000
206.013900 50268.800000
207.021800 85819.700000
207.993100 25101.200000
209.060800 7996.100000
209.093100 44402.800000
211.075900 2073.800000
212.047800 2054.400000
215.035800 1972.300000
217.005300 1457.200000
217.042400 28035.000000
219.021700 20968.500000
220.029600 36267.800000
221.001200 17273.600000
221.037500 143520.900000
222.008900 7739.800000
223.016600 19123.500000
223.076400 5466.400000
224.024800 1144.000000
224.047400 2255.700000
225.056100 2675.500000
227.071300 16281.200000
229.005600 2558.400000
229.042700 4370.800000
230.014000 2065.300000
231.021700 31281.200000
233.000900 1362.900000
233.037300 9418.300000
235.016800 32685.200000
235.053100 206215.100000
236.047900 1398.100000
236.092900 5971.600000
237.032300 4703.200000
237.055500 5907.700000
238.003900 14026.300000
239.071500 7317.000000
243.021500 16214.900000
244.029800 2601.000000
245.037400 117499.200000
246.008700 5166.400000
247.016800 34042.200000
247.052500 9802.200000
248.024500 161888.000000
248.996100 2138.300000
249.032500 12470.300000
250.003600 4601.700000
251.011800 8482.400000
251.035100 2123.200000
252.042800 8146.600000
253.050800 11951.400000
254.021900 7359.200000
255.020700 1863.800000
257.037400 42833.300000
258.016900 7192.100000
259.016300 11217.700000
259.053300 16107.600000
260.024900 11166.200000
261.032200 32136.100000
263.048000 364420.800000
263.982800 5345.500000
264.019700 6363.900000
264.042800 1940.600000
265.027200 18658.400000
265.050500 1516.900000
267.021500 2378.400000
267.066500 6723.100000
270.010000 1778.100000
271.016700 75284.500000
271.052700 4797.900000
273.032400 34150.600000
273.055800 4722.000000
274.003800 17660.900000
275.011800 4389.300000
275.048000 40460.800000
276.042800 4385.100000
276.991000 6061.200000
277.050300 2112.000000
277.998800 2230.800000
278.022200 7757.600000
279.006600 22727.300000
279.042400 8139.200000
281.037400 10760.900000
283.016600 15887.100000
283.052900 1403.000000
284.023100 4617.600000
285.032300 76071.600000
286.004300 7546.500000
286.041200 1837.900000
287.011700 42473.200000
287.047800 6746.500000
288.019900 11370.000000
288.079600 30905.200000
289.027300 122884.000000
290.035600 2610.800000
291.042700 14205.300000
292.014300 2542.900000
292.038100 8702.400000
292.111200 9989.100000
293.046200 1982.700000
296.032900 16508.200000
297.032500 9122.400000
299.010800 2108.800000
299.048100 18904.300000
300.027300 9473.700000
300.043500 5898.500000
301.027200 50232.200000
302.035200 7560.400000
303.042800 41461.000000
304.110600 6359.900000
305.022300 37532.500000
306.090600 16764.100000
307.037800 200990.800000
309.032400 7640.400000
310.004400 2305.900000
311.011200 10073.300000
312.019500 19762.800000
312.079200 4492.400000
313.027300 7337.700000
313.999200 5381.900000
314.059000 5327.300000
315.006400 6138.800000
315.042800 2313.300000
318.053600 8770.100000
319.037700 66176.500000
320.032300 11796.300000
322.012000 1967.900000
324.027400 4193.500000
325.027100 26393.400000
327.006700 13392.400000
327.043500 13122.400000
328.074500 27086.400000
329.022100 45256.200000
329.993500 4353.500000
330.090300 25755.500000
331.037900 6553.300000
332.070300 2296.100000
334.085200 1738.000000
338.000100 2773.700000
338.043000 22221.000000
341.025600 2856.200000
341.994000 11082.500000
342.054400 6342.600000
343.038200 23053.100000
344.046100 2585.300000
345.016200 1244.900000
346.084800 6672.900000
347.032800 41475.100000
348.100800 7533.000000
351.006900 4233.100000
352.021800 14032.900000
353.021500 10206.700000
354.053600 4252.100000
354.090900 2400.800000
356.009100 9892.500000
356.070400 10314.800000
356.113900 2543.500000
357.989000 9028.100000
359.033800 1843.400000
364.095300 19256.900000
368.016200 2605.100000
369.017400 9458.900000
370.033100 39287.700000
370.085500 8865.100000
371.032400 18514.800000
373.011500 2166.300000
387.027500 10463.700000
388.095400 10855.100000
389.043200 5242.100000
392.090600 816245.100000
397.011400 2377.700000
398.080200 1552.900000
399.075900 2544.800000
399.998800 26077.700000
415.022800 8210.700000
416.090800 7456.900000
460.081200 2136.600000

>ms2
57.034600 1711.500000
59.013800 26418.600000
63.024100 13501.100000
65.003300 4678.100000
65.039700 11493.400000
65.998500 16517.900000
67.018800 1266.900000
68.998300 16840.600000
71.013700 1801.200000
79.055300 5275.100000
81.034500 5799.800000
83.013800 4236.200000
83.050300 4613.800000
84.009000 47725.700000
86.024800 5710.000000
87.008700 8775.600000
90.034700 1230.600000
91.019000 6352.700000
93.034500 18415.200000
95.013700 13698.900000
95.050300 2240.500000
96.009000 5914.200000
96.993100 15358.300000
97.029400 4577.300000
99.008700 7089.500000
100.076700 4958.500000
102.056100 2600.500000
103.055300 2379.500000
104.026900 1464.900000
105.034600 13882.500000
107.013900 6276.400000
107.050200 24566.900000
108.021600 15694.100000
109.029500 39886.300000
111.008800 8713.600000
111.045200 31727.400000
117.034600 29635.300000
118.029800 4240.600000
119.013900 16688.200000
119.050300 9450.700000
120.021700 5063.000000
120.045400 1147.900000
121.029700 13058.500000
121.065800 24440.600000
122.001000 1855.400000
122.037600 1806.900000
123.008800 4477.700000
123.045100 23564.600000
124.004000 5993.500000
124.016600 2541.400000
124.076700 5427.500000
124.979800 1886.300000
124.988000 2115.100000
125.024200 2214.900000
125.072000 20942.800000
125.987800 8967.400000
126.019600 4210.600000
126.056000 39510.600000
126.995600 226013.000000
131.013900 8286.200000
131.050200 8689.800000
132.021500 6689.000000
133.029500 37639.800000
134.024700 19828.900000
134.037300 1672.400000
135.008800 87989.500000
135.045100 41376.600000
136.016400 10240.700000
136.040300 19344.800000
137.024300 14008.700000
137.060600 5851.100000
137.995700 1784.700000
138.032100 2006.600000
139.014900 32255.600000
139.040100 1698.400000
140.003400 2625.500000
141.982700 14276.700000
142.014700 4986.500000
142.998500 17252.100000
143.050300 1395.400000
145.029500 18574.800000
146.037200 8354.900000
147.045200 40741.100000
148.016700 4351.200000
148.076900 1365.600000
149.024400 26493.100000
149.060800 56074.300000
149.996000 2031.500000
150.019400 9069.200000
150.995500 22216.800000
151.040100 5838.100000
152.035400 13523.900000
152.071500 1329.600000
153.011300 26300.000000
153.017600 1807.000000
153.055700 4250.100000
154.038500 4473.600000
154.990700 6400.400000
157.029400 1987.400000
158.037300 2083.200000
159.045000 2287.000000
160.016600 27739.700000
161.024400 45098.200000
162.019700 61274.100000
163.003800 86591.800000
163.040100 16401.800000
164.011600 7569.700000
164.035300 9119.200000
164.071500 1633.800000
165.011200 2109.800000
165.043000 8790.900000
165.056000 1403.000000
165.067000 5360.800000
166.087300 7842.800000
166.990500 6761.100000
167.022300 1047.300000
168.066900 1326.600000
169.006200 736567.800000
170.037400 1202.900000
170.985500 28613.900000
171.045200 6993.100000
172.016400 1105.400000
172.052800 5834.900000
173.024400 8594.000000
174.032200 4302.600000
175.003800 4038.500000
175.032600 2005.100000
175.040000 25273.300000
177.011200 5523.800000
177.030800 2351.200000
178.990500 40890.000000
179.998300 13474.700000
180.030100 21094.700000
181.006200 7350.100000
181.014200 1830.400000
181.050300 1880.400000
182.014200 7510.700000
182.036900 1017.900000
183.045300 1950.100000
185.060700 6081.500000
186.032500 1311.100000
187.040000 8585.300000
188.048000 2444.200000
189.019300 5806.800000
189.055600 2450.100000
190.027200 2324.100000
191.026700 6323.200000
191.035100 7394.500000
191.998300 4571.200000
192.102600 1602.300000
193.006200 21330.000000
193.050500 8147.400000
193.065700 1417.200000
194.013900 2292.200000
194.985400 664376.800000
195.993200 10318.400000
196.053200 5202.300000
197.001000 73179.400000
197.060800 6447.500000
198.032500 9112.700000
199.039500 3398.900000
199.076400 24990.800000
201.019700 4809.800000
203.027000 14004.200000
205.006400 11376.500000
206.013900 82834.300000
207.021700 127026.800000
207.993200 30236.000000
208.052600 1968.600000
209.060900 21118.200000
209.093200 6907.000000
211.040000 8898.300000
211.076600 4306.800000
212.048000 18717.600000
213.055700 1364.800000
214.026900 4566.300000
215.026000 2749.900000
215.035600 3873.900000
217.005900 4315.000000
217.042400 35057.500000
219.021800 31987.800000
220.029600 69507.700000
221.001000 31454.100000
221.037500 47812.200000
221.060800 6258.900000
222.008600 5112.500000
222.032200 2340.600000
223.016800 7241.400000
223.040600 1766.700000
223.076400 2665.200000
224.047800 8812.200000
225.055600 6246.100000
226.027500 8789.400000
227.071400 7422.500000
229.005600 14413.400000
229.041900 2481.800000
230.013400 9224.800000
231.021600 29205.700000
231.993000 2104.000000
233.001500 4881.300000
233.037600 10370.400000
233.060200 2076.000000
235.016900 25530.500000
235.040100 12564.800000
235.052800 82028.300000
235.988000 5488.300000
236.047900 6382.900000
237.032300 5080.200000
237.055700 9676.900000
238.003800 25392.900000
238.027100 8411.300000
239.071600 1887.300000
240.042900 15862.800000
243.021500 34559.300000
244.029400 2688.900000
245.001200 5556.000000
245.037400 101441.600000
246.008400 2286.300000
247.016700 49677.800000
247.039500 5159.600000
247.053100 4467.400000
248.024500 139203.900000
248.047800 9107.600000
248.996700 2170.300000
249.032300 6558.300000
249.055900 6133.600000
250.004100 4317.900000
250.027100 5272.200000
251.011600 4213.000000
251.034800 6159.300000
252.042600 9071.400000
253.004900 2271.900000
253.016000 1460.600000
254.022100 13001.300000
255.020600 5040.200000
257.037400 39269.900000
258.018300 17601.300000
259.016800 14166.200000
259.052700 4669.000000
259.988400 2354.700000
260.024600 11079.800000
260.995700 1872.000000
261.032200 31502.000000
263.047900 76856.000000
263.983000 6743.100000
264.019900 2011.700000
264.042500 9050.800000
265.027300 16215.800000
265.050700 4389.200000
266.021900 6555.300000
267.021800 5023.700000
267.065900 1785.900000
268.037600 6499.500000
270.009000 2202.800000
271.016700 114410.800000
273.032300 33942.900000
273.055900 1952.600000
274.003500 13001.700000
275.011500 2375.200000
275.035100 1509.800000
275.048300 6649.100000
276.043000 8492.600000
276.990900 1816.700000
277.050600 1665.900000
277.998200 1708.500000
278.022000 11485.400000
279.043300 2029.300000
281.037100 4848.100000
283.016600 20673.500000
284.033000 2081.100000
284.996400 4312.900000
285.032400 47900.300000
286.003800 7105.700000
286.041100 1492.600000
287.011300 23529.600000
288.019200 6096.800000
289.027300 59142.900000
291.042600 1774.900000
292.014200 2380.800000
292.038100 4479.400000
292.111400 1531.700000
293.046000 5953.600000
296.032900 16868.700000
297.032100 4970.500000
299.011700 5027.800000
299.047800 6462.600000
300.027000 15492.000000
300.043600 7502.300000
301.027100 26154.500000
301.998400 7139.000000
302.035500 3682.400000
307.037800 12538.500000
308.995100 1763.000000
309.032000 1830.300000
310.003500 1580.200000
311.011000 9861.800000
312.020200 6619.200000
313.026900 1594.600000
313.998700 2631.300000
319.038300 2700.200000
320.031900 5778.400000
322.011300 5380.700000
324.027100 2232.800000
325.027400 5311.400000
327.006400 4448.900000
327.042600 1181.200000
328.023000 24630.700000
328.074600 9680.900000
329.021800 12629.000000
329.993000 1460.200000
330.090900 1504.700000
331.036300 1225.700000
338.001000 1243.400000
338.043200 5122.000000
341.992900 1766.200000
347.032700 1914.900000
351.006200 1304.400000
352.021300 7604.300000
354.053800 2459.800000
356.069700 1703.000000
357.989000 1698.900000
368.016700 1905.300000
370.033500 9502.400000

>ms2
50.003500 1524.400000
57.034600 1745.400000
59.013800 16647.600000
63.024000 40936.100000
65.003300 14367.500000
65.039700 26916.000000
65.998500 25011.100000
67.019000 4918.200000
68.014200 1294.800000
68.998200 28476.400000
69.034700 1550.700000
71.013800 1978.500000
75.024100 4364.700000
77.039600 1724.400000
78.034900 1031.700000
79.018900 4300.000000
79.055300 13105.900000
81.021900 1346.400000
81.034500 10947.500000
83.013900 2270.400000
83.050200 14224.600000
84.009100 57301.700000
86.024700 5224.000000
87.008700 1669.600000
89.039600 7564.200000
90.035000 1823.400000
91.018900 15495.300000
91.055300 5213.700000
93.034600 36022.100000
95.013900 14321.000000
95.050300 11944.000000
96.009100 12591.300000
96.993100 13073.900000
97.029500 4380.900000
99.008700 4359.300000
100.077000 1710.300000
103.055300 5388.500000
104.026800 1464.600000
105.034500 22262.700000
107.013800 11953.000000
107.050200 36537.700000
108.021600 16567.000000
109.029500 49791.000000
111.008700 2231.500000
111.045200 32988.700000
115.018900 1531.300000
117.034600 48806.800000
118.030000 5265.300000
119.013900 30614.900000
119.050300 10777.100000
120.009000 1696.300000
120.021800 1933.200000
120.045700 1241.700000
121.029500 21961.300000
121.065900 18528.000000
122.000800 1317.600000
122.024900 2277.700000
122.037200 4216.500000
123.008800 6255.700000
123.045200 43011.000000
124.004000 5309.900000
124.016500 4889.200000
124.076800 1700.100000
124.980000 17856.000000
124.987900 2013.200000
125.024300 2107.100000
125.072000 3699.000000
125.987700 5618.600000
126.019700 2007.500000
126.056100 23505.600000
126.995600 261359.400000
129.034700 4009.300000
130.042200 2571.400000
131.013800 11429.800000
131.050400 8184.400000
132.021700 10252.900000
133.029500 59180.200000
134.024800 32889.600000
134.037100 4023.600000
135.008800 90405.100000
135.045200 48089.300000
136.016500 6628.300000
136.040300 6955.100000
137.024200 11541.300000
137.060700 1978.800000
137.996000 1669.800000
138.032300 2295.500000
139.014900 45346.700000
140.003700 1397.500000
141.982800 13316.100000
142.998700 4882.000000
143.013500 1648.500000
143.050200 4977.700000
145.029400 22044.300000
146.037300 4263.300000
147.045200 22303.900000
148.016500 1876.400000
149.024300 20426.100000
149.060800 22506.600000
149.995800 5549.300000
150.019800 6287.100000
150.995700 63432.800000
152.035300 5180.900000
153.011300 19605.000000
153.055600 1247.900000
154.990800 4277.000000
157.029200 1677.900000
158.037400 5403.900000
159.008800 5464.900000
159.045100 7027.800000
160.016600 26445.900000
161.024500 33665.800000
162.019700 30709.400000
163.003800 37297.600000
163.027200 2387.100000
163.040100 7170.000000
164.011500 6757.400000
164.035400 4986.700000
165.011400 1054.600000
165.042900 1790.100000
166.990400 2006.300000
167.050200 6865.700000
169.006200 581088.000000
170.037400 2089.000000
170.985500 4751.200000
171.045100 17045.300000
172.016500 1249.100000
172.053100 2054.600000
173.024200 6409.800000
174.032100 5480.900000
175.032500 1912.500000
175.040100 10778.700000
176.011500 1989.900000
177.011200 6182.300000
177.030600 4281.900000
178.990500 33381.200000
179.998300 10551.600000
180.030100 1543.700000
180.057900 6239.200000
181.006000 4984.900000
181.066000 8918.200000
182.037500 6118.800000
183.045400 7373.800000
184.052700 2275.800000
185.024500 2475.000000
185.060700 2366.100000
186.032200 1555.700000
187.040100 10541.100000
188.047900 2044.000000
189.019400 2156.500000
190.027400 3823.800000
191.026600 10014.600000
191.034100 1137.200000
191.050000 2135.400000
191.998500 7284.900000
193.006000 13558.400000
193.065600 5302.100000
194.037000 5344.600000
194.985400 421906.300000
195.993400 1794.500000
196.052800 7841.400000
197.001200 7285.100000
197.024500 2515.600000
197.060800 7704.200000
198.032100 29469.500000
199.040100 5040.500000
199.076600 7949.500000
201.011100 2324.300000
201.019800 2423.000000
203.027000 14668.400000
205.006100 8700.600000
206.014000 62844.800000
207.021800 55777.600000
207.045100 5720.200000
207.993500 11185.100000
208.053200 7247.700000
209.024000 1323.900000
209.060900 18443.800000
210.032000 9004.800000
211.040200 22708.800000
211.076400 1645.200000
212.047900 16149.500000
213.055600 1264.200000
214.027200 1349.800000
215.026700 4364.000000
215.036000 2023.500000
217.005600 4604.100000
217.042600 15167.900000
219.021800 23570.000000
219.045100 6316.600000
220.029700 24605.500000
220.053100 5337.900000
221.001100 24643.500000
221.037300 7437.900000
221.060800 6489.200000
222.032300 17856.400000
223.076300 1272.000000
224.048200 8045.300000
225.055600 4428.500000
226.027100 7058.600000
227.035200 5262.900000
229.006100 20725.500000
229.041700 1333.600000
230.013400 8274.200000
231.021500 9811.200000
231.993600 1267.700000
233.001400 1258.000000
233.037300 2052.600000
233.060700 3829.500000
235.017000 14490.700000
235.040000 16612.300000
235.052900 7393.100000
235.987700 4306.200000
236.047600 4852.400000
238.004000 21728.500000
238.026900 8423.400000
240.043000 32216.600000
243.021500 28694.900000
245.001300 9819.500000
245.037300 22672.700000
246.008700 1771.600000
247.016700 25149.300000
247.040200 5096.300000
248.024400 22782.900000
248.047800 6260.300000
248.996400 1506.800000
249.055200 5564.300000
250.026600 4242.800000
251.034900 7488.700000
253.004900 1530.100000
253.016100 1545.700000
253.050600 6840.500000
255.020600 3975.900000
257.037500 16995.700000
258.007200 5129.600000
258.017200 7554.000000
259.016200 12583.300000
259.987500 2183.100000
260.025100 2364.300000
260.049300 1352.700000
260.996000 1258.600000
261.032200 7521.600000
263.035100 3706.400000
263.048100 2279.400000
264.043000 2521.400000
265.027300 1202.700000
265.050000 2383.900000
266.021500 6447.800000
268.037700 6271.200000
269.000700 4732.700000
271.016800 62918.600000
272.996100 2530.800000
273.032500 9051.700000
274.003800 5551.800000
275.012000 2132.900000
275.034900 1386.200000
276.043400 1099.800000
278.021800 6133.100000
283.016100 10632.400000
284.033000 1253.000000
284.995900 5507.600000
285.032200 14613.900000
286.003600 5412.400000
287.010900 5983.400000
289.026800 7250.400000
296.033100 3822.300000
300.027400 4443.700000
301.027200 8502.900000
301.998700 1489.700000
308.996000 1384.800000
311.011300 1892.700000
328.023000 7171.300000
329.022100 1509.900000

>ms2
50.003600 3963.100000
55.018800 1666.200000
57.034600 2113.800000
59.013800 15895.100000
63.024000 60001.700000
65.003300 26038.600000
65.039700 31425.600000
65.998500 28819.100000
67.006200 11002.200000
67.018900 4997.600000
68.014200 4913.300000
68.998200 35665.000000
69.034600 4690.500000
71.013900 1624.100000
75.024000 6996.300000
77.039700 5694.100000
78.034900 1324.200000
79.019000 5962.100000
79.055300 11879.900000
81.034600 12742.900000
83.013800 4259.800000
83.050200 15185.500000
84.009000 29216.800000
86.024700 1056.300000
89.039700 20056.200000
90.034900 1532.600000
91.019000 22370.600000
91.055300 2289.400000
93.034600 45491.500000
95.013800 13199.400000
95.050300 15156.300000
96.009100 19204.300000
96.993100 6280.700000
97.029300 3399.600000
103.019000 1378.200000
103.055500 1756.100000
105.034500 24631.100000
107.013900 10192.500000
107.050200 28259.900000
108.021700 16605.700000
109.029500 45190.900000
111.009100 1499.700000
111.045200 23850.900000
115.018900 9282.500000
115.055500 1088.600000
117.034600 49638.400000
118.030000 4504.100000
119.013900 20440.500000
119.050100 7556.200000
120.009000 1163.800000
121.029500 21267.000000
121.065900 6567.400000
122.024800 1849.200000
122.037200 5682.400000
123.045200 46893.100000
124.004000 1600.600000
124.980000 41182.700000
125.987600 1801.800000
126.056000 10967.000000
126.995600 187219.400000
129.034800 1382.100000
130.042500 1400.900000
131.013800 5883.000000
131.050200 5995.000000
132.021700 10169.500000
133.029500 57956.800000
134.024800 30093.600000
135.008800 40459.200000
135.045200 34626.200000
136.016100 2060.900000
136.040200 4987.400000
137.024400 8940.700000
138.032400 1603.000000
139.014900 28674.900000
141.034500 1953.700000
141.982600 7233.400000
143.013900 1427.300000
143.050100 7927.900000
145.029400 16073.000000
146.037200 1950.600000
147.045100 10379.100000
149.024200 8989.700000
149.060900 6048.900000
149.995900 1065.100000
150.019700 4870.900000
150.995600 69133.200000
153.011400 12793.800000
153.017600 1130.100000
154.990500 1931.600000
157.029400 1655.800000
158.037100 6264.400000
159.008900 6411.900000
159.045000 4976.900000
160.016500 13735.000000
161.024500 15950.600000
162.019800 14887.900000
163.003700 7214.000000
163.027500 1142.200000
163.039700 1848.100000
166.990300 1065.500000
167.050300 10562.700000
169.006200 227737.000000
170.037300 4243.000000
171.045200 15280.200000
173.024400 4909.600000
174.032200 1211.500000
175.040000 4417.300000
176.011600 1911.100000
177.011400 4753.000000
177.030600 4114.600000
178.042500 999.800000
178.990500 18141.300000
179.050100 1916.100000
179.998300 1990.000000
180.058100 7646.700000
181.065900 5934.500000
182.037300 12810.400000
183.045100 13624.100000
184.052500 2024.100000
185.024500 4247.600000
187.040100 5464.400000
190.027300 1356.500000
191.027000 3718.800000
191.049900 5439.900000
191.998400 8271.400000
193.006100 6313.500000
193.029500 1846.400000
194.985400 169133.600000
195.045100 17119.400000
196.053000 8279.500000
197.000900 1357.400000
197.024500 8102.800000
197.060800 6597.000000
198.032300 22289.300000
199.039900 1585.300000
199.076200 1392.000000
201.011300 4663.400000
203.026900 3930.600000
205.006300 10349.600000
206.014000 24356.700000
207.021700 14158.100000
207.045000 7760.200000
207.993300 3404.500000
209.024600 1817.900000
209.061000 6977.300000
211.040300 17199.500000
212.048000 9009.000000
215.027200 2072.300000
217.005900 1758.400000
217.042900 2261.800000
219.022300 6814.500000
219.045000 8829.400000
220.029500 1790.600000
220.052800 1899.200000
221.001400 8821.400000
221.060800 2189.300000
222.032200 14199.100000
223.040300 8805.100000
224.048300 7092.800000
225.056100 3479.000000
226.027500 3980.500000
227.035100 2164.800000
229.006300 11167.500000
230.013500 1913.800000
231.021400 2280.900000
231.993500 1114.600000
235.016900 7627.000000
235.040200 13256.400000
236.046900 1212.600000
237.055700 7859.500000
238.003900 9223.400000
240.042900 13582.200000
243.021500 11369.700000
245.001000 6446.400000
245.037600 4386.700000
247.016900 4854.600000
247.039900 4154.000000
248.047600 3549.600000
249.055000 1512.500000
250.026700 1837.500000
253.050300 1207.300000
257.036900 4728.200000
258.008400 1251.400000
259.016700 3856.600000
260.047400 1233.200000
260.995200 1155.500000
261.032500 1391.400000
263.034400 4839.500000
269.000200 1536.700000
271.016600 14133.900000
272.995500 1752.200000
273.032600 1007.100000
283.016400 1463.100000

>ms2
50.003600 10715.100000
53.003100 3266.300000
55.018900 3458.000000
57.034500 863.400000
59.013800 8411.800000
62.016100 850.600000
63.024000 46589.300000
64.019200 1425.600000
65.003300 40973.700000
65.039700 32249.900000
65.998500 51720.200000
67.007100 4845.100000
67.018900 6322.800000
68.014200 5372.700000
68.998200 31468.800000
69.034500 1626.200000
71.013900 1123.900000
73.008400 1122.300000
75.024000 7797.200000
77.003200 964.400000
77.039700 7165.400000
78.034800 858.000000
79.018900 6242.100000
79.055300 7381.600000
81.034500 10898.800000
83.013900 865.300000
83.050300 6399.900000
84.009100 8891.800000
86.024700 993.300000
89.003400 9338.200000
89.039700 22088.000000
90.034900 3361.400000
91.018900 27066.400000
91.055300 1439.300000
93.034500 44103.800000
95.013900 5495.100000
95.050100 10621.300000
96.009100 19483.600000
97.029400 1280.500000
101.039500 1409.100000
103.019000 1287.000000
104.026700 997.900000
105.034600 8047.200000
107.013800 1033.500000
107.050300 6615.900000
108.021700 10525.600000
109.029500 19517.300000
111.045200 2954.600000
113.039600 4738.000000
115.019000 7067.500000
115.055500 1794.900000
117.034600 25060.400000
118.030100 3170.800000
119.013800 3977.200000
119.050200 5227.300000
121.029500 10565.500000
122.024800 1064.900000
122.037100 1744.400000
123.008900 1111.200000
123.045200 8085.200000
124.979900 39680.700000
126.995600 35995.600000
129.034600 1004.800000
131.013800 989.400000
132.021600 5431.700000
133.029500 11267.100000
134.024800 9935.800000
135.008700 4220.300000
135.045100 11108.000000
137.039700 1433.800000
139.014900 7594.000000
139.055100 1156.200000
141.034700 9995.300000
143.050100 4665.100000
145.029500 8105.000000
147.045200 1931.000000
149.024000 1459.900000
150.995700 10168.800000
158.037200 1324.900000
159.045100 1522.600000
161.024300 3449.000000
162.019800 1754.000000
167.050200 9015.300000
169.006200 10728.600000
169.029600 11885.300000
170.037500 1118.500000
171.045100 3410.200000
178.041900 1310.800000
178.990200 3257.100000
179.050000 1034.100000
180.057600 1356.800000
182.037300 7602.600000
183.045100 5111.600000
185.024100 1312.100000
191.050400 3752.100000
193.029300 3608.800000
194.036900 1436.900000
194.985400 7348.500000
195.045000 10880.700000
196.052600 1462.300000
197.024400 3985.000000
197.060300 1472.000000
198.031900 1428.100000
199.040300 906.000000
205.005500 1044.200000
209.060800 1198.600000
210.032100 1930.700000
211.039800 5388.900000
219.044900 1281.600000
223.040700 831.500000
226.026900 1140.000000
229.006600 1013.100000
235.040200 1418.000000
245.000400 1427.600000

>ms2
50.003500 10226.400000
51.024000 870.900000
53.003100 1720.600000
55.018900 1929.800000
59.013900 926.500000
63.024000 19515.900000
64.019200 1091.000000
65.003300 33654.200000
65.039700 16937.700000
65.998500 64173.500000
67.018900 5411.300000
68.014200 3564.900000
68.998200 18608.400000
73.008500 4303.400000
75.024200 1791.700000
79.018900 3079.400000
79.055300 1551.600000
81.034600 5000.300000
83.050300 1219.100000
84.009100 3152.200000
89.003200 8621.300000
89.039700 12860.600000
90.034900 1961.700000
91.018900 9020.900000
93.034500 18185.600000
95.013700 1905.400000
95.050300 1224.600000
96.009100 3181.400000
101.039600 1496.200000
103.018900 1754.700000
108.021700 5223.300000
109.029400 3997.100000
113.039600 4972.700000
117.034700 8913.700000
121.029500 1830.800000
124.980000 5793.000000
126.995500 3494.500000
134.024500 3111.900000
137.039700 4178.800000
139.055400 1543.200000
141.034600 5063.900000
167.049800 1163.100000
169.029500 1572.200000
182.036800 866.900000
183.045200 828.000000

>ms2
50.003600 8975.000000
51.023800 1393.700000
53.003100 1355.600000
55.018900 3344.100000
59.013700 734.800000
62.016100 993.900000
63.024000 8346.000000
65.003300 24536.300000
65.039700 12616.700000
65.998500 59455.000000
67.019000 1259.000000
68.014100 1161.300000
68.998300 11285.000000
73.008400 3067.200000
75.024200 956.000000
77.003300 1263.600000
81.034600 1058.100000
89.003300 1538.100000
89.039700 6153.800000
91.018900 1879.800000
93.034600 6923.500000
101.039800 890.900000
103.018700 1163.600000
108.021700 1862.100000
113.039800 983.800000
117.034500 3193.400000

