>compound EQ99935288
>parentmass 280.0728
>ionization [M-H]-
>formula C15H11N3O3
>rt 462.000000
>profile orbitrap
#smiles_iso C1C(=O)NC2=C(C=C(C=C2)[N+](=O)[O-])C(=N1)C3=CC=CC=C3
#smiles_can C1C(=O)NC2=C(C=C(C=C2)[N+](=O)[O-])C(=N1)C3=CC=CC=C3
#inchikey KJONHKAYOJNZEC-UHFFFAOYSA-N
#pubchem_id 4506
#mb_accession EQ368351,EQ368352,EQ368353,EQ368354,EQ368355,EQ368356,EQ368357,EQ368358,EQ368359

>ms2peaks
252.054200 58811616.000000
253.061800 9289677.000000
279.064900 317056.800000
280.072700 189785872.000000

>ms2peaks
222.057000 279622.200000
223.064400 252050.900000
237.066400 321558.400000
252.054000 202970640.000000
253.061900 23539278.000000
262.061600 348223.400000
279.064100 566861.900000
280.072800 38275776.000000

>ms2peaks
194.061000 1661031.400000
195.055800 266202.400000
206.061700 280281.300000
222.056100 18633278.000000
223.064000 2142953.500000
232.063300 225812.600000
236.058600 501913.400000
237.066000 233283.800000
251.047000 285717.700000
252.054000 211646096.000000
253.061800 15594940.000000
262.061600 214804.700000
278.057100 824771.700000
279.063600 252556.300000
280.072700 692633.200000

>ms2peaks
65.998600 132831.600000
68.014300 209801.000000
140.050600 145306.800000
146.024600 122931.100000
155.025100 121334.600000
166.066200 2892751.200000
181.053600 266219.900000
182.061200 186566.200000
194.061100 28260352.000000
195.056300 2057963.100000
196.064400 144579.100000
205.052500 271689.200000
206.061200 2062181.400000
207.056500 538354.000000
207.069000 534277.100000
208.064200 155916.200000
209.048200 511681.600000
210.055900 635246.100000
221.048000 122384.400000
222.056100 84227552.000000
223.051800 313401.900000
223.063800 2536557.500000
224.071800 1416744.100000
232.063800 251043.900000
235.050900 659766.800000
236.058800 640660.900000
251.046300 1619147.200000
252.054100 92585584.000000
253.061800 4043955.200000
278.057000 837099.800000

>ms2peaks
50.003600 69736.500000
64.019300 185071.700000
65.014600 154514.700000
65.998600 269960.400000
68.014300 150940.300000
101.039600 482047.800000
115.055500 204926.900000
117.034700 217867.200000
140.050800 166361.400000
141.034600 352049.800000
146.024700 134012.600000
152.050900 172968.600000
155.025300 413060.900000
164.050800 145706.000000
165.058300 226170.300000
166.066300 22086364.000000
167.050000 254228.000000
177.058800 123324.700000
178.066100 180694.300000
181.053500 380334.100000
182.061100 295154.700000
192.045700 156068.400000
193.053000 135347.100000
194.061200 58796632.000000
195.056300 2106131.200000
205.053200 1183024.100000
206.061200 3183001.800000
207.056400 229125.300000
207.068800 300502.700000
209.048000 457642.800000
210.055900 707059.300000
221.048200 426311.100000
222.056200 56769472.000000
223.051600 188057.300000
223.064000 788049.500000
224.071700 2249374.500000
232.064200 118979.900000
235.050800 301694.900000
236.059200 174599.600000
248.059700 127892.500000
251.046300 1827477.600000
252.054100 14214616.000000
253.061400 342373.100000
278.056800 372267.000000

>ms2peaks
50.003600 238813.700000
64.019300 360988.900000
65.014500 182245.000000
65.998500 414863.800000
68.014300 155813.400000
76.019300 183224.800000
90.034900 798339.200000
92.014300 183278.100000
101.039600 1812090.200000
113.039800 48370.900000
115.055300 1334138.000000
117.034600 359601.400000
118.030000 136331.100000
125.039700 153048.400000
139.055500 50650.900000
140.050500 246433.700000
141.034600 1228895.900000
146.024900 151363.200000
152.050700 177284.600000
155.025400 276684.200000
164.050700 330131.700000
165.058600 362094.600000
166.066200 44091704.000000
167.050100 200615.900000
177.058400 155820.400000
178.066200 150203.600000
181.053400 324510.800000
182.061000 153068.500000
191.061400 52479.000000
192.045600 209270.500000
193.053100 158782.900000
194.061200 39484080.000000
195.056200 1031557.100000
205.053300 1467576.000000
206.061100 1519280.000000
207.069200 61742.400000
209.048400 146702.800000
210.056000 412334.100000
219.056400 46169.000000
221.048200 404878.200000
222.056100 13892860.000000
223.063800 57738.200000
224.071800 1033793.000000
232.064100 49695.800000
235.051400 44336.800000
251.046000 551804.200000
252.054000 973821.500000

>ms2peaks
50.003600 750668.300000
52.019100 33183.700000
64.019300 555419.200000
65.003300 45106.900000
65.014500 213414.000000
65.998500 408432.600000
74.003700 24162.800000
76.019300 264923.600000
90.034900 2655406.800000
92.014200 33151.700000
101.039600 4761599.500000
113.039700 487177.500000
115.055400 4450308.500000
117.034500 243367.100000
118.029900 103172.000000
125.039600 536602.700000
129.034700 144491.700000
138.034600 31435.100000
139.055300 42235.800000
140.050600 328607.100000
141.034600 1721917.900000
164.050700 819747.800000
165.058600 125184.700000
166.066300 16586067.000000
167.050100 33489.000000
177.058500 46377.500000
191.061500 32376.700000
192.045600 138843.800000
194.061100 1828736.000000
195.057100 26011.600000
205.053300 213242.100000
222.056100 197597.200000

>ms2peaks
50.003600 663037.600000
52.019200 27370.700000
64.019300 399249.700000
65.003300 81968.800000
65.014500 79890.800000
65.998500 297383.000000
74.003700 37049.700000
76.019300 109549.900000
90.034900 1542211.500000
101.039600 3015723.200000
113.039700 746984.900000
115.055400 2152651.000000
117.034700 104440.900000
125.039600 377467.200000
129.034600 179004.000000
140.050700 123934.600000
141.034700 526865.900000
164.050600 347293.600000
166.066200 1018674.700000
177.058700 25822.400000
192.045900 26288.400000

>ms2peaks
50.003600 387884.400000
64.019300 142534.000000
65.003300 25561.800000
65.014500 35198.300000
65.998600 223796.800000
76.019300 38746.000000
90.034800 363458.600000
101.039600 876388.900000
113.039700 350055.900000
115.055400 380373.400000
125.039800 122410.700000
129.034600 30794.300000
138.035000 23462.700000
141.034800 32070.300000
164.050500 40025.400000
166.066000 32863.300000

