>compound SM00336948
>parentmass 220.0283
>ionization [M-H]-
>formula C10H8ClN3O
>rt 394.020000
>profile orbitrap
#smiles_iso C1=CC=C(C=C1)N2C(=O)C(=C(C=N2)N)Cl
#smiles_can C1=CC=C(C=C1)N2C(=O)C(=C(C=N2)N)Cl
#inchikey WYKYKTKDBLFHCY-UHFFFAOYSA-N
#pubchem_id 15546
#mb_accession SM840252

>ms2peaks
193.987000 2665.500000
220.028400 50098.000000

