>compound SM01089898
>parentmass 223.0401
>ionization [M-H]-
>formula C14H8O3
>rt 644.820000
>profile orbitrap
#smiles_iso C1=CC=C2C(=C1)C(=O)C3=C(C2=O)C(=CC=C3)O
#smiles_can C1=CC=C2C(=C1)C(=O)C3=C(C2=O)C(=CC=C3)O
#inchikey BTLXPCBPYBNQNR-UHFFFAOYSA-N
#pubchem_id 8512
#mb_accession SM828451

>ms2
195.045100 6290848.000000
223.040000 101544648.000000

