>compound SM01412161
>parentmass 429.0538
>ionization [M-H]-
>formula C18H14F4N2O4S
>rt 657.840000
>profile orbitrap
#smiles_iso CC(CS(=O)(=O)C1=CC=C(C=C1)F)(C(=O)NC2=CC(=C(C=C2)C#N)C(F)(F)F)O
#smiles_can CC(CS(=O)(=O)C1=CC=C(C=C1)F)(C(=O)NC2=CC(=C(C=C2)C#N)C(F)(F)F)O
#inchikey LKJPYSCBVHEWIU-UHFFFAOYSA-N
#pubchem_id 2375
#mb_accession SM861551

>ms2
95.028800 177742.400000
111.024200 210132.100000
137.040700 26349.300000
157.984400 37330.900000
158.992300 637067.000000
173.007900 1465212.100000
184.038000 4464376.000000
185.033200 14857963.000000
212.032900 23642.000000
227.043900 180177.700000
243.013200 420778.100000
251.043900 84010.700000
255.038700 22287446.000000
411.043200 303472.500000
429.053800 1237691.800000

