>compound SM01214813
>parentmass 294.0884
>ionization [M-H]-
>formula C16H13N3O3
>rt 584.220000
>profile orbitrap
#smiles_iso COC(=O)NC1=NC2=C(N1)C=C(C=C2)C(=O)C3=CC=CC=C3
#smiles_can COC(=O)NC1=NC2=C(N1)C=C(C=C2)C(=O)C3=CC=CC=C3
#inchikey OPXLLQIJSORQAM-UHFFFAOYSA-N
#pubchem_id 4030
#mb_accession SM853455

>ms2peaks
157.028100 12791.400000
262.062300 784133.400000
294.088600 41202.800000

