>compound SM02189401
>parentmass 217.0426
>ionization [M-H]-
>formula C13H11ClO
>rt 735.420000
>profile orbitrap
#smiles_iso C1=CC=C(C=C1)CC2=C(C=CC(=C2)Cl)O
#smiles_can C1=CC=C(C=C1)CC2=C(C=CC(=C2)Cl)O
#inchikey NCKMMSIFQUPKCK-UHFFFAOYSA-N
#pubchem_id 8425
#mb_accession SM814053,SM863453

>ms2
181.066100 10323.700000
217.042700 796872.900000

>ms2
152.063400 3125.000000
153.070900 16404.600000
180.058000 14839.900000
181.066000 21322.000000
217.042600 2766778.200000

