>compound SM03712802
>parentmass 245.0455
>ionization [M-H]-
>formula C13H10O5
>rt 530.760000
>profile orbitrap
#smiles_iso C1=CC(=C(C=C1O)O)C(=O)C2=C(C=C(C=C2)O)O
#smiles_can C1=CC(=C(C=C1O)O)C(=O)C2=C(C=C(C=C2)O)O
#inchikey WXNRYSGJLQFHBR-UHFFFAOYSA-N
#pubchem_id 8571
#mb_accession SM833151

>ms2
129.070500 19205.100000
131.050000 19720.100000
135.008600 14295693.000000
153.019300 4226572.500000
156.057800 69700.000000
157.065900 129988.100000
158.037300 44555.600000
159.045100 336027.100000
167.034900 398749.900000
177.055700 111726.700000
201.055600 363125.400000
227.034700 175998.600000
245.045500 10558904.000000

