>compound SM03564754
>parentmass 185.0608
>ionization [M-H]-
>formula C12H10O2
>rt 543.600000
>profile orbitrap
#smiles_iso C1=CC(=CC(=C1)O)C2=CC(=CC=C2)O
#smiles_can C1=CC(=CC(=C1)O)C2=CC(=CC=C2)O
#inchikey VZQSBJKDSWXLKX-UHFFFAOYSA-N
#pubchem_id 69165
#mb_accession SM835053

>ms2
129.070600 7048.600000
143.050100 11476.900000
156.058000 17404.200000
157.065900 96353.800000
167.050200 6037.400000
183.045200 7003.400000
184.053000 20463.900000
185.060800 2256143.500000

