>compound SM04463047
>parentmass 210.0053
>ionization [M-H]-
>formula C9H9NOS2
>rt 598.080000
>profile orbitrap
#smiles_iso CCOC1=CC2=C(C=C1)NC(=S)S2
#smiles_can CCOC1=CC2=C(C=C1)NC(=S)S2
#inchikey HOASVNMVYBSLSU-UHFFFAOYSA-N
#pubchem_id 719344
#mb_accession SM821753

>ms2
152.971200 4465.400000
180.966100 613662.200000
210.005200 115155.800000

