>compound SM04245151
>parentmass 469.159
>ionization [M-H]-
>formula C20H22N8O6
>rt 440.880000
>profile orbitrap
#smiles_iso CN(CC1=NC2=C(N=C(N=C2NC1=O)N)N)C3=CC=C(C=C3)C(=O)NC(CCC(=O)O)C(=O)O
#smiles_can CN(CC1=NC2=C(N=C(N=C2NC1=O)N)N)C3=CC=C(C=C3)C(=O)NC(CCC(=O)O)C(=O)O
#inchikey HODZDDDNGRLGSI-UHFFFAOYSA-N
#pubchem_id 5385077
#mb_accession SM850551

>ms2
120.045000 5867.800000
146.047200 14992.500000
147.031400 17819.100000
149.047600 3661.100000
149.072400 5037.200000
150.055900 21065.400000
161.072200 13155.100000
162.042300 7473.200000
189.053200 44026.500000
190.060900 44587.800000
191.068300 3235.600000
191.119000 5552.600000
234.101700 10506.900000
235.109300 16770.600000
237.083900 3342.300000
278.092600 3472.700000
279.098800 21487.600000
340.116500 62113.100000
425.169400 17423.200000
451.148300 5599.500000
456.161700 3915.000000
469.159000 190631.900000

