>compound SM04410542
>parentmass 325.9629
>ionization [M-H]-
>formula C13H7Cl2NO5
>rt 761.340000
>profile orbitrap
#smiles_iso C1=CC(=C(C=C1OC2=C(C=C(C=C2)Cl)Cl)C(=O)O)[N+](=O)[O-]
#smiles_can C1=CC(=C(C=C1OC2=C(C=C(C=C2)Cl)Cl)C(=O)O)[N+](=O)[O-]
#inchikey IUSYSZLVZMUVDO-UHFFFAOYSA-N
#pubchem_id 148653
#mb_accession SM845351

>ms2peaks
79.017200 12217.500000
81.032800 3422.800000
95.012600 24054.000000
97.028000 6155.800000
107.012800 13227.200000
109.028400 5239.500000
122.000400 21631.800000
123.008200 10920.500000
124.979500 5893.400000
125.023900 5449.900000
137.011700 176435.200000
156.021400 4409.500000
160.956600 229089.200000
164.003000 9762.800000
188.003000 31211.300000
250.967000 3711.900000
251.974900 4244.600000
281.973000 746257.800000
325.962100 14593.400000

