>compound SM06100128
>parentmass 314.0201
>ionization [M-H]-
>formula C14H9ClF3NO2
>rt 742.440000
>profile orbitrap
#smiles_iso C1CC1C#C[C@]2(C3=C(C=CC(=C3)Cl)NC(=O)O2)C(F)(F)F
#smiles_can C1CC1C#CC2(C3=C(C=CC(=C3)Cl)NC(=O)O2)C(F)(F)F
#inchikey XPOQHMRABVBWPR-ZDUSSCGKSA-N
#pubchem_id 64139
#mb_accession SM851853

>ms2
111.005500 15398.400000
126.011300 4401.900000
151.990900 19923.800000
161.022100 21676.500000
164.050900 3475.600000
198.011600 11966.700000
200.027300 62699.700000
202.006400 19439.700000
203.985800 6347.100000
206.022600 4655.600000
208.040500 28549.500000
210.011800 16338.200000
214.047400 29825.200000
215.013900 5059.000000
216.022300 54731.100000
218.001200 3849.900000
221.993000 45429.000000
224.972100 2806.400000
226.006500 23262.800000
230.018000 116621.000000
232.986500 3207.300000
241.999100 214054.600000
244.017200 335390.800000
245.994200 3602.300000
246.013100 6904.700000
247.973800 5661.000000
250.024200 107118.200000
254.001400 15952.900000
270.029900 27950.600000
272.012500 4190.600000
274.007400 22269.700000
294.014100 4768.500000
296.009600 20493.900000
314.020300 1089473.000000

