>compound SM07659311
>parentmass 472.1588
>ionization [M-H]-
>formula C28H27NO4S
>rt 518.940000
>profile orbitrap
#smiles_iso C1CCN(CC1)CCOC2=CC=C(C=C2)C(=O)C3=C(SC4=C3C=CC(=C4)O)C5=CC=C(C=C5)O
#smiles_can C1CCN(CC1)CCOC2=CC=C(C=C2)C(=O)C3=C(SC4=C3C=CC(=C4)O)C5=CC=C(C=C5)O
#inchikey GZUITABIAKMVPG-UHFFFAOYSA-N
#pubchem_id 5035
#mb_accession SM853653

>ms2peaks
93.033100 48293.000000
181.065600 5578.700000
211.022100 60171.300000
212.030000 76390.600000
229.032600 7203.200000
238.009400 5487.200000
239.017200 553816.800000
240.025000 388313.400000
241.032900 276063.600000
253.032900 7677.900000
266.004300 21684.800000
266.041300 4482.400000
267.012300 160805.700000
303.048500 12643.500000
305.026900 4077.700000
315.048700 6686.200000
316.055900 17003.100000
331.042700 43646.900000
332.051100 77224.700000
343.043200 56519.200000
350.121800 13139.800000
359.038700 56891.500000
360.046200 1347710.000000
361.054000 801702.600000
374.061500 6620.700000
378.117400 5680.300000
387.069700 15010.400000
472.158800 3798699.000000

