>compound SM07109192
>parentmass 538.7498
>ionization [M-H]-
>formula C15H12Br4O2
>rt 798.210000
>profile orbitrap
#smiles_iso CC(C)(C1=CC(=C(C(=C1)Br)O)Br)C2=CC(=C(C(=C2)Br)O)Br
#smiles_can CC(C)(C1=CC(=C(C(=C1)Br)O)Br)C2=CC(=C(C(=C2)Br)O)Br
#inchikey VEORPZCZECFIRK-UHFFFAOYSA-N
#pubchem_id 6618
#mb_accession SM824253,SM863853

>ms2
288.887400 13012.700000
366.807900 3372.700000
444.807200 4313.000000
538.749800 130085.900000

>ms2
288.887000 25478.000000
443.801900 6383.200000
538.749900 330089.000000

