>compound SM08764625
>parentmass 307.0976
>ionization [M-H]-
>formula C19H16O4
>rt 678.360000
>profile orbitrap
#smiles_iso CC(=O)CC(C1=CC=CC=C1)C2=C(C3=CC=CC=C3OC2=O)O
#smiles_can CC(=O)CC(C1=CC=CC=C1)C2=C(C3=CC=CC=C3OC2=O)O
#inchikey PJVWKTKQMONHTI-UHFFFAOYSA-N
#pubchem_id 54678486
#mb_accession SM834752

>ms2
130.042200 82166.000000
133.065800 119188.700000
157.065900 80660.800000
161.024400 10588462.000000
195.081500 62164.000000
206.073700 213543.500000
219.081500 38138.700000
221.060800 43499.900000
221.097100 47252.300000
222.068400 46627.800000
223.076300 343323.100000
250.063600 6823440.000000
261.092500 63094.500000
263.108300 62767.600000
289.087500 65173.500000
307.097500 18632278.000000

