>compound SM09363289
>parentmass 305.0968
>ionization [M-H]-
>formula C13H12F2N6O
>rt 430.200000
>profile orbitrap
#smiles_iso C1=CC(=C(C=C1F)F)C(CN2C=NC=N2)(CN3C=NC=N3)O
#smiles_can C1=CC(=C(C=C1F)F)C(CN2C=NC=N2)(CN3C=NC=N3)O
#inchikey RFHAOTPXVQNOHP-UHFFFAOYSA-N
#pubchem_id 3365
#mb_accession SM859851

>ms2
92.081900 2932.600000
108.019200 22065.200000
111.042700 2793.200000
122.035400 18325.200000
149.057700 3046.600000
191.068700 488234.300000

