>compound SM10117243
>parentmass 309.0663
>ionization [M-H]-
>formula C12H14N4O4S
>rt 479.760000
>profile orbitrap
#smiles_iso COC1=NC(=NC(=C1)NS(=O)(=O)C2=CC=C(C=C2)N)OC
#smiles_can COC1=NC(=NC(=C1)NS(=O)(=O)C2=CC=C(C=C2)N)OC
#inchikey ZZORFUFYDOWNEF-UHFFFAOYSA-N
#pubchem_id 5323
#mb_accession SM854253

>ms2
67.055400 2738.200000
154.062100 3648.200000
185.013200 3159.500000
202.025500 2674.900000
213.079000 3651.000000
309.066400 103402.100000

