>compound SM11038101
>parentmass 312.9708
>ionization [M-H]-
>formula C13H9Cl3N2O
>rt 788.190000
>profile orbitrap
#smiles_iso C1=CC(=CC=C1NC(=O)NC2=CC(=C(C=C2)Cl)Cl)Cl
#smiles_can C1=CC(=CC=C1NC(=O)NC2=CC(=C(C=C2)Cl)Cl)Cl
#inchikey ICUTUKXCWQYESQ-UHFFFAOYSA-N
#pubchem_id 7547
#mb_accession SM824552,SM880751

>ms2
123.995300 45766.100000
126.011100 318357.500000
159.972500 3200081.800000
312.970600 97942.900000

>ms2
123.995500 89544.000000
126.011200 648563.100000
159.972700 6672876.000000
312.970900 230709.700000

