>compound SM12909516
>parentmass 326.7661
>ionization [M-H]-
>formula C6H3Br3O
>rt 716.220000
>profile orbitrap
#smiles_iso C1=C(C=C(C(=C1Br)O)Br)Br
#smiles_can C1=C(C=C(C(=C1Br)O)Br)Br
#inchikey BSWWXRFVMJHFBN-UHFFFAOYSA-N
#pubchem_id 1483
#mb_accession SM816753

>ms2
266.753400 2904.200000
326.766200 659108.700000

