>compound SM12312566
>parentmass 307.0282
>ionization [M-H]-
>formula C14H12O6S
>rt 615.000000
>profile orbitrap
#smiles_iso COC1=C(C=C(C(=C1)O)C(=O)C2=CC=CC=C2)S(=O)(=O)O
#smiles_can COC1=C(C=C(C(=C1)O)C(=O)C2=CC=CC=C2)S(=O)(=O)O
#inchikey CXVGEDCSTKKODG-UHFFFAOYSA-N
#pubchem_id 19988
#mb_accession SM822051,SM880251

>ms2peaks
122.000400 65173.200000
123.008200 44256.200000
145.029500 196644.200000
149.996000 104269.200000
154.042400 86803.300000
155.050400 47149.700000
158.037300 90765.200000
182.037300 921361.100000
183.045000 131738.300000
184.053100 187480.400000
185.962600 122941.300000
197.024400 58091.100000
198.032200 142884.200000
199.040100 151979.600000
200.047900 488549.200000
200.986100 105030.100000
210.032200 731890.600000
211.040100 1802065.500000
212.048000 461950.400000
213.957800 456615.000000
226.027000 70733.400000
227.071400 2739210.800000
228.042800 1524941.100000
228.981200 903379.100000
263.002000 384579.800000
264.009800 444648.100000
290.996900 1365327.900000
292.004600 283183.100000
307.028100 28875856.000000

>ms2peaks
122.000400 94520.800000
145.029500 199094.500000
149.024500 29066.400000
149.996000 101746.700000
154.042300 56365.000000
155.050400 40405.200000
157.968000 35999.900000
158.037500 104375.100000
169.029700 33467.800000
182.037400 1055429.800000
183.045100 139370.100000
184.052900 173109.200000
185.962900 148959.600000
186.032300 36303.000000
197.024800 50250.000000
198.032400 131388.000000
199.040000 158525.500000
200.047900 434588.500000
200.986300 78946.900000
201.994400 37012.000000
210.032300 663943.700000
211.040200 2043986.800000
212.048100 433143.400000
213.957800 498722.000000
226.027500 56098.200000
227.071400 2336224.500000
228.042900 1459798.600000
228.981300 850039.300000
263.002000 384800.400000
264.009900 462057.000000
275.002100 31609.000000
290.997000 1352378.100000
292.004800 241342.800000
307.028200 25332260.000000

