>compound SM13105364
>parentmass 189.9468
>ionization [M-H]-
>formula C6H3Cl2NO2
>rt 142.740000
>profile orbitrap
#smiles_iso C1=CC(=NC(=C1Cl)C(=O)O)Cl
#smiles_can C1=CC(=NC(=C1Cl)C(=O)O)Cl
#inchikey HUBANNPOLNYSAD-UHFFFAOYSA-N
#pubchem_id 15553
#mb_accession SM845151

>ms2peaks
145.957000 502430.900000
189.946700 35911.900000

