>compound SM13498552
>parentmass 557.2457
>ionization [M-H]-
>formula C33H35FN2O5
>rt 743.880000
>profile orbitrap
#smiles_iso CC(C)C1=C(C(=C(N1CC[C@H](C[C@H](CC(=O)O)O)O)C2=CC=C(C=C2)F)C3=CC=CC=C3)C(=O)NC4=CC=CC=C4
#smiles_can CC(C)C1=C(C(=C(N1CCC(CC(CC(=O)O)O)O)C2=CC=C(C=C2)F)C3=CC=CC=C3)C(=O)NC4=CC=CC=C4
#inchikey XUKUURHRXDUEBC-KAYWLYCHSA-N
#pubchem_id 60823
#mb_accession SM859351

>ms2peaks
85.027900 847263.200000
92.049100 99713.300000
262.103700 78150.500000
276.119600 32582.400000
278.135000 4727995.500000
295.102000 6011.500000
342.166300 6083.700000
360.177200 8449.300000
395.155700 5746.300000
397.172100 3136081.000000
451.219800 6129.100000
453.198500 697615.500000
477.234300 17479.900000
479.213700 129238.100000
495.244300 10194.100000
521.224400 69734.700000
539.235600 36207.400000
557.245700 5229042.000000

