>compound SM13797556
>parentmass 450.9263
>ionization [M-H]-
>formula C12H4Cl2F6N4O2S
>rt 761.280000
>profile orbitrap
#smiles_iso C1=C(C=C(C(=C1Cl)N2C(=C(C(=N2)C#N)S(=O)(=O)C(F)(F)F)N)Cl)C(F)(F)F
#smiles_can C1=C(C=C(C(=C1Cl)N2C(=C(C(=N2)C#N)S(=O)(=O)C(F)(F)F)N)Cl)C(F)(F)F
#inchikey LGHZJDKSVUTELU-UHFFFAOYSA-N
#pubchem_id 3078139
#mb_accession SM884652

>ms2
132.957500 1238146.600000
148.007000 36604.400000
148.991100 38922.400000
150.003400 229791.100000
170.009700 1034547.600000
182.009700 605009.800000
183.017600 4697267.000000
194.009600 29730.800000
198.003100 164015.500000
201.998500 45757.400000
207.010600 153635.300000
211.006200 27200.200000
216.979400 132673.100000
216.992200 100792.400000
217.986500 2140823.000000
218.009700 2269510.500000
226.009900 164217.900000
227.017500 365371.600000
233.981300 2401564.200000
235.024100 96511.300000
241.980000 256978.200000
243.989500 8996227.000000
246.015900 3936656.000000
246.989600 26793.000000
251.018600 158952.300000
253.987400 28136.600000
257.980800 74728.000000
257.992800 141717.300000
259.984500 364768.600000
261.986400 2012510.400000
271.984300 316951.600000
281.992500 16298901.000000
283.000400 2984749.000000
283.984100 135301.400000
284.979500 110311.100000
297.987400 1651802.000000
300.990700 234437.400000
313.983700 32532.400000
345.954500 558684.100000
414.949900 25084566.000000
450.926600 7847395.000000

