>compound SM14133838
>parentmass 174.9723
>ionization [M-H]-
>formula C7H6Cl2O
>rt 669.960000
>profile orbitrap
#smiles_iso CC1=CC(=CC(=C1O)Cl)Cl
#smiles_can CC1=CC(=CC(=C1O)Cl)Cl
#inchikey WJQZZLQMLJPKQH-UHFFFAOYSA-N
#pubchem_id 15292
#mb_accession SM806853

>ms2
118.965600 78452.100000
132.981700 20810.500000
174.972300 328700.700000

