>compound SM16680498
>parentmass 194.9177
>ionization [M-H]-
>formula C6H3Cl3O
>rt 700.740000
>profile orbitrap
#smiles_iso C1=C(C=C(C(=C1O)Cl)Cl)Cl
#smiles_can C1=C(C=C(C(=C1O)Cl)Cl)Cl
#inchikey WWGQHTJIFOQAOC-UHFFFAOYSA-N
#pubchem_id 13619
#mb_accession SM806451

>ms2
158.941000 669642.800000
194.917600 3426373.800000

