>compound SM17589904
>parentmass 427.2252
>ionization [M-H]-
>formula C25H28N6O
>rt 653.040000
>profile orbitrap
#smiles_iso CCCCC1=NC2(CCCC2)C(=O)N1CC3=CC=C(C=C3)C4=CC=CC=C4C5=NNN=N5
#smiles_can CCCCC1=NC2(CCCC2)C(=O)N1CC3=CC=C(C=C3)C4=CC=CC=C4C5=NNN=N5
#inchikey YOSHYTLCDANDAN-UHFFFAOYSA-N
#pubchem_id 3749
#mb_accession SM818756

>ms2peaks
95.023800 29694.000000
110.060200 29300.000000
138.079800 153854.700000
139.087600 39326.200000
151.087700 60530.700000
164.095500 308971.100000
175.124100 56434.300000
177.071000 46565.900000
193.134600 8037379.500000
195.081500 108189.100000
287.155200 47148.500000
353.201900 33591.800000
371.213400 24780.600000
399.219000 354246.400000
427.225000 4586245.000000

