>compound SM17663726
>parentmass 421.1549
>ionization [M-H]-
>formula C22H23ClN6O
>rt 651.390000
>profile orbitrap
#smiles_iso CCCCC1=NC(=C(N1CC2=CC=C(C=C2)C3=CC=CC=C3C4=NNN=N4)CO)Cl
#smiles_can CCCCC1=NC(=C(N1CC2=CC=C(C=C2)C3=CC=CC=C3C4=NNN=N4)CO)Cl
#inchikey PSIFNNKUMBGKDQ-UHFFFAOYSA-N
#pubchem_id 3961
#mb_accession SM818951,SM860752

>ms2peaks
113.998100 91743.600000
127.006500 1511128.100000
140.014500 14864.000000
141.993800 4345.800000
155.038100 208401.900000
156.045900 29798.700000
157.053800 821844.600000
165.070900 29134.000000
169.053700 3448.100000
174.019600 3806.500000
177.070800 5250.500000
178.078800 4188.800000
179.086600 824121.400000
180.057900 7678.800000
185.048700 33919.300000
187.064300 471816.700000
188.035700 36806.300000
193.065900 65403.400000
195.081500 155068.600000
207.092200 5084.100000
216.081000 6704.100000
223.076700 7320.100000
241.077700 4269.300000
259.136500 4340.900000
270.116900 3957.800000
272.144600 59887.700000
277.053300 13860.700000
291.069300 43232.000000
292.077900 13754.200000
297.138000 4045.900000
299.155600 24663.000000
320.108200 32689.000000
333.117300 5317.500000
335.132100 157783.700000
363.138900 50158.700000
393.149200 48454.700000
421.155100 3381857.500000

>ms2peaks
113.998200 186715.700000
127.006600 3007561.200000
140.014400 8149.100000
155.001800 24633.300000
155.038200 439645.800000
156.046100 68879.900000
157.053900 1554404.900000
165.071000 31138.900000
177.071200 6392.000000
179.086700 1592211.500000
180.057900 16611.300000
185.048900 43712.100000
187.064400 924270.600000
188.035800 65418.600000
193.066000 127187.200000
195.081600 288879.400000
207.093100 8142.000000
216.082400 10794.800000
223.076400 9628.800000
229.078200 6428.800000
230.097700 7400.200000
241.077400 9447.500000
272.144600 111553.600000
277.053700 25186.000000
291.069400 97362.200000
292.078100 10435.800000
299.155600 60928.100000
320.107900 52888.600000
333.117400 7079.700000
335.132200 305860.800000
363.138700 88350.300000
393.149200 82339.800000
421.155200 6373141.500000

