>compound SM18197050
>parentmass 357.1707
>ionization [M-H]-
>formula C21H26O5
>rt 574.620000
>profile orbitrap
#smiles_iso CC12CC(=O)C3C(C1CCC2(C(=O)CO)O)CCC4=CC(=O)C=CC34C
#smiles_can CC12CC(=O)C3C(C1CCC2(C(=O)CO)O)CCC4=CC(=O)C=CC34C
#inchikey XOFYZVNMUHMLCC-UHFFFAOYSA-N
#pubchem_id 4900
#mb_accession SM874454

>ms2
96.977500 3133.500000
123.044600 15639.100000
125.060700 3217.000000
145.065600 3653.300000
149.060800 6818.500000
201.092400 3256.300000
285.150400 6506.700000
299.165600 18354.300000
324.136900 4320.700000
327.160200 92497.600000

