>compound SM18712891
>parentmass 237.1245
>ionization [M-H]-
>formula C12H18N2O3
>rt 602.880000
>profile orbitrap
#smiles_iso CCCC(C)C1(C(=O)NC(=O)NC1=O)CC=C
#smiles_can CCCC(C)C1(C(=O)NC(=O)NC1=O)CC=C
#inchikey KQPKPCNLIDLUMF-UHFFFAOYSA-N
#pubchem_id 5193
#mb_accession SM834653

>ms2peaks
194.118900 17658.600000
237.124500 82079.600000

