>compound SM21419917
>parentmass 412.9664
>ionization [M-H]-
>formula C8HF15O2
>rt 888.420000
>profile orbitrap
#smiles_iso C(=O)(C(C(C(C(C(C(C(F)(F)F)(F)F)(F)F)(F)F)(F)F)(F)F)(F)F)O
#smiles_can C(=O)(C(C(C(C(C(C(C(F)(F)F)(F)F)(F)F)(F)F)(F)F)(F)F)(F)F)O
#inchikey SNGREZUHAYWORS-UHFFFAOYSA-N
#pubchem_id 9554
#mb_accession SM877354

>ms2
168.989300 16968.200000
368.976100 23591.000000

