>compound SM21825858
>parentmass 492.1365
>ionization [M-H]-
>formula C23H28ClN3O5S
>rt 734.160000
>profile orbitrap
#smiles_iso COC1=C(C=C(C=C1)Cl)C(=O)NCCC2=CC=C(C=C2)S(=O)(=O)NC(=O)NC3CCCCC3
#smiles_can COC1=C(C=C(C=C1)Cl)C(=O)NCCC2=CC=C(C=C2)S(=O)(=O)NC(=O)NC3CCCCC3
#inchikey ZNNLBTZKUZBEKO-UHFFFAOYSA-N
#pubchem_id 3488
#mb_accession SM851151

>ms2
116.013400 82553.100000
126.995300 1402737.600000
132.081600 21460.200000
151.990900 356289.500000
154.009400 108646.200000
169.020500 34796.900000
170.001400 6349830.000000
182.001400 32426.900000
184.043800 69679.900000
194.015700 8331.200000
196.007500 19522.300000
196.043900 48415.800000
207.023500 19297.200000
224.049800 170826.800000
225.033900 53362.000000
250.029400 16994.100000
273.057200 7002.600000
367.052300 1327783.000000
378.032100 300405.500000
460.110400 314371.300000
492.136500 3468285.800000

