>compound SM22767846
>parentmass 193.087
>ionization [M-H]-
>formula C11H14O3
>rt 667.680000
>profile orbitrap
#smiles_iso CCCCOC(=O)C1=CC=C(C=C1)O
#smiles_can CCCCOC(=O)C1=CC=C(C=C1)O
#inchikey QFOHBWFCKVYLES-UHFFFAOYSA-N
#pubchem_id 7184
#mb_accession SM863955

>ms2
136.016400 34185.300000
137.024300 32982.600000
193.087000 155588.700000

