>compound SM23148781
>parentmass 497.9462
>ionization [M-H]-
>formula C8H2F17NO2S
>rt 806.820000
>profile orbitrap
#smiles_iso C(C(C(C(C(F)(F)S(=O)(=O)N)(F)F)(F)F)(F)F)(C(C(C(F)(F)F)(F)F)(F)F)(F)F
#smiles_can C(C(C(C(C(F)(F)S(=O)(=O)N)(F)F)(F)F)(F)F)(C(C(C(F)(F)F)(F)F)(F)F)(F)F
#inchikey RRRXPPIDPYTNJG-UHFFFAOYSA-N
#pubchem_id 69785
#mb_accession SM883551

>ms2peaks
118.992000 77940.700000
168.989200 164324.100000
218.986300 58082.100000
477.939900 74322.000000
497.946600 11976163.000000

