>compound SM23020885
>parentmass 356.0695
>ionization [M-H]-
>formula C19H16ClNO4
>rt 738.060000
>profile orbitrap
#smiles_iso CC1=C(C2=C(N1C(=O)C3=CC=C(C=C3)Cl)C=CC(=C2)OC)CC(=O)O
#smiles_can CC1=C(C2=C(N1C(=O)C3=CC=C(C=C3)Cl)C=CC(=C2)OC)CC(=O)O
#inchikey CGIGDMFJXJATDK-UHFFFAOYSA-N
#pubchem_id 3715
#mb_accession SM861152

>ms2peaks
153.011500 26800.900000
154.990400 12822.000000
157.053300 50186.400000
158.061200 455451.000000
172.076500 6883.100000
243.028500 2999.800000
243.105200 3132.700000
253.030100 35026.700000
254.037800 99961.700000
255.045700 320712.100000
257.025300 5719.900000
268.053800 42385.400000
269.025000 41358.400000
269.061400 201525.300000
270.069200 180522.700000
271.040400 5043.500000
272.048000 38285.700000
281.024700 19233.200000
282.032700 781583.400000
284.047900 12849.500000
284.085500 14590.700000
296.048100 19580.800000
297.056100 719985.900000
301.051100 24117.400000
312.079700 1487549.200000
329.046000 12067.700000
351.975900 3169.700000

