>compound SM24229666
>parentmass 347.9158
>ionization [M-H]-
>formula C13H7Cl4NO2
>rt 861.300000
>profile orbitrap
#smiles_iso C1=CC(=C(C=C1NC(=O)C2=C(C(=CC(=C2)Cl)Cl)O)Cl)Cl
#smiles_can C1=CC(=C(C=C1NC(=O)C2=C(C(=CC(=C2)Cl)Cl)O)Cl)Cl
#inchikey SJQBHPJLLIJASD-UHFFFAOYSA-N
#pubchem_id 14385
#mb_accession SM864051

>ms2peaks
123.995500 36048.100000
124.979500 2999389.500000
158.941000 120726.700000
159.972700 1298241.600000
160.956700 7100778.000000
185.951900 182465.500000
329.905400 25709.100000
347.915700 23943716.000000

