>compound SM25850657
>parentmass 513.2296
>ionization [M-H]-
>formula C33H30N4O2
>rt 619.620000
>profile orbitrap
#smiles_iso CCCC1=NC2=C(N1CC3=CC=C(C=C3)C4=CC=CC=C4C(=O)O)C=C(C=C2C)C5=NC6=CC=CC=C6N5C
#smiles_can CCCC1=NC2=C(N1CC3=CC=C(C=C3)C4=CC=CC=C4C(=O)O)C=C(C=C2C)C5=NC6=CC=CC=C6N5C
#inchikey RMMXLENWKUUMAY-UHFFFAOYSA-N
#pubchem_id 65999
#mb_accession SM819151

>ms2
260.107400 6671.100000
272.106700 35601.800000
274.122500 19977.000000
285.113900 3281.800000
287.130300 1289079.600000
288.138700 6422.200000
299.129400 3673.200000
301.146100 46798.600000
302.153400 28376.800000
303.161500 293926.200000
306.111600 3690.900000
315.161700 34401.000000
334.143500 58390.300000
425.178500 6020.200000
426.186200 11329.000000
439.192900 20436.500000
440.201800 43931.000000
469.239700 540354.100000
513.229500 816634.500000

