>compound SM25443692
>parentmass 179.0714
>ionization [M-H]-
>formula C10H12O3
>rt 608.160000
>profile orbitrap
#smiles_iso CCCOC(=O)C1=CC=C(C=C1)O
#smiles_can CCCOC(=O)C1=CC=C(C=C1)O
#inchikey QELSKZZBTMNZEB-UHFFFAOYSA-N
#pubchem_id 7175
#mb_accession SM864653

>ms2peaks
136.016600 334080.800000
137.024400 315630.100000
179.071400 1389416.500000

