>compound SM26691094
>parentmass 231.0097
>ionization [M-H]-
>formula C9H10Cl2N2O
>rt 607.560000
>profile orbitrap
#smiles_iso CN(C)C(=O)NC1=CC(=C(C=C1)Cl)Cl
#smiles_can CN(C)C(=O)NC1=CC(=C(C=C1)Cl)Cl
#inchikey XMTQQYYKAHVGBJ-UHFFFAOYSA-N
#pubchem_id 3120
#mb_accession SM877753

>ms2
111.984900 3076.400000
149.975300 124938.200000
159.972700 158209.500000
185.952000 551788.900000
217.977600 5670.400000
231.009800 1468783.200000

