>compound SM27679637
>parentmass 248.8556
>ionization [M-H]-
>formula C6H4Br2O
>rt 639.900000
>profile orbitrap
#smiles_iso C1=CC(=C(C=C1Br)Br)O
#smiles_can C1=CC(=C(C=C1Br)Br)O
#inchikey FAXWFCTVSHEODL-UHFFFAOYSA-N
#pubchem_id 12005
#mb_accession SM800653

>ms2
168.929500 4415.200000
248.855700 306733.600000

