>compound SM27623217
>parentmass 360.1008
>ionization [M-H]-
>formula C19H20ClNO4
>rt 686.160000
>profile orbitrap
#smiles_iso CC(C)(C(=O)O)OC1=CC=C(C=C1)CCNC(=O)C2=CC=C(C=C2)Cl
#smiles_can CC(C)(C(=O)O)OC1=CC=C(C=C1)CCNC(=O)C2=CC=C(C=C2)Cl
#inchikey IIBYAHWJQTYFKB-UHFFFAOYSA-N
#pubchem_id 39042
#mb_accession SM854852

>ms2
85.027800 2427748.500000
93.033100 14745.000000
119.049500 91193.100000
154.006500 4123578.000000
162.056000 90539.200000
274.064000 10045448.000000
360.100800 2546059.500000

