>compound SM28721439
>parentmass 248.0014
>ionization [M-H]-
>formula C6H8ClN5O2S
>rt 358.200000
>profile orbitrap
#smiles_iso CN=C(NCC1=CN=C(S1)Cl)N[N+](=O)[O-]
#smiles_can CN=C(NCC1=CN=C(S1)Cl)N[N+](=O)[O-]
#inchikey PGOOBECODWQEAB-UHFFFAOYSA-N
#pubchem_id 213027
#mb_accession SM845551

>ms2
95.023600 7886.600000
117.951800 8995.000000
122.035600 16776.200000
139.026500 18606.100000
150.000400 42889.500000
151.008500 7602.600000
165.023900 103446.600000
166.031800 40277.700000
168.023800 6378.300000
195.022000 4888.100000
208.018300 3693.200000
212.025600 22999.100000
248.001400 74303.500000

