>compound SM29722683
>parentmass 239.035
>ionization [M-H]-
>formula C14H8O4
>rt 598.260000
>profile orbitrap
#smiles_iso C1=CC2=C(C=C1O)C(=O)C3=C(C2=O)C=C(C=C3)O
#smiles_can C1=CC2=C(C=C1O)C(=O)C3=C(C2=O)C=C(C=C3)O
#inchikey APAJFZPFBHMFQR-UHFFFAOYSA-N
#pubchem_id 6776
#mb_accession SM817153

>ms2peaks
139.055200 18348.500000
153.034500 33397.200000
167.050300 224618.500000
183.045200 45794.800000
195.045100 996969.200000
210.032300 127429.600000
211.040100 1003638.500000
238.027300 232603.800000
239.035000 16159809.000000

