>compound SM30356122
>parentmass 375.1925
>ionization [M-H]-
>formula C20H28N2O5
>rt 491.340000
>profile orbitrap
#smiles_iso CCOC(=O)[C@H](CCC1=CC=CC=C1)N[C@@H](C)C(=O)N2CCC[C@H]2C(=O)O
#smiles_can CCOC(=O)C(CCC1=CC=CC=C1)NC(C)C(=O)N2CCCC2C(=O)O
#inchikey GBXSMTUPTTWBMN-XIRDDKMYSA-N
#pubchem_id 5388962
#mb_accession SM861651

>ms2peaks
105.112700 2806.400000
114.055200 134616.400000
126.092100 50548.900000
158.097000 3278.300000
168.067100 2960.700000
170.082200 12603.500000
186.092100 3793.100000
375.192500 229825.400000

