>compound SM30352836
>parentmass 487.029
>ionization [M-H]-
>formula C21H11ClF6N2O3
>rt 850.320000
>profile orbitrap
#smiles_iso C1=CC(=C(C(=C1)F)C(=O)NC(=O)NC2=C(C=C(C=C2)OC3=C(C=C(C=C3)C(F)(F)F)Cl)F)F
#smiles_can C1=CC(=C(C(=C1)F)C(=O)NC(=O)NC2=C(C=C(C=C2)OC3=C(C=C(C=C3)C(F)(F)F)Cl)F)F
#inchikey RYLHNOVXKPXDIP-UHFFFAOYSA-N
#pubchem_id 91766
#mb_accession SM848751

>ms2
95.012400 17977.400000
104.013100 118643.400000
124.020000 32454.800000
136.040200 5230.200000
150.023600 66351.900000
156.026700 467900.100000
178.988100 122095.500000
194.983100 189910.500000
222.977800 6838.900000
238.048500 18470.400000
241.999800 5705.700000
248.033200 21693.900000
249.018400 6545.600000
256.015000 11032.900000
268.039200 4438.500000
269.036800 64060.000000
283.001900 24902.600000
284.009500 65443.800000
289.043000 95275.200000
304.015800 357748.200000
327.016100 6487.600000
329.011000 318778.200000
367.050200 8317.800000
396.042000 4492.200000
411.040000 199075.500000
444.021700 8501.600000
447.016600 138758.500000
467.022700 202395.500000
487.029100 392028.800000

