>compound SM32858816
>parentmass 160.9566
>ionization [M-H]-
>formula C6H4Cl2O
>rt 596.580000
>profile orbitrap
#smiles_iso C1=CC(=C(C=C1Cl)Cl)O
#smiles_can C1=CC(=C(C=C1Cl)Cl)O
#inchikey HFZWRUODUSTPEG-UHFFFAOYSA-N
#pubchem_id 8449
#mb_accession SM864251

>ms2peaks
124.979500 180969.900000
132.981500 6526.700000
160.956700 1027263.200000

