>compound SM33694269
>parentmass 402.8426
>ionization [M-H]-
>formula C13H6Cl6O2
>rt 856.440000
>profile orbitrap
#smiles_iso C1=C(C(=C(C(=C1Cl)Cl)CC2=C(C(=CC(=C2Cl)Cl)Cl)O)O)Cl
#smiles_can C1=C(C(=C(C(=C1Cl)Cl)CC2=C(C(=CC(=C2Cl)Cl)Cl)O)O)Cl
#inchikey ACGUYXCXAPNIKK-UHFFFAOYSA-N
#pubchem_id 3598
#mb_accession SM835553

>ms2peaks
132.961500 7263.000000
158.941000 388689.500000
194.917600 3099587.000000
252.934400 3419.000000
266.917900 11851.700000
302.894300 212510.300000
330.889100 21304.400000
366.865700 858021.400000
402.842500 3110767.200000

