>compound SM34830434
>parentmass 345.0874
>ionization [M-H]-
>formula C12H18N4O6S
>rt 714.660000
>profile orbitrap
#smiles_iso CCCN(CCC)C1=C(C=C(C=C1[N+](=O)[O-])S(=O)(=O)N)[N+](=O)[O-]
#smiles_can CCCN(CCC)C1=C(C=C(C=C1[N+](=O)[O-])S(=O)(=O)N)[N+](=O)[O-]
#inchikey UNAHYJYOSSSJHH-UHFFFAOYSA-N
#pubchem_id 29393
#mb_accession SM846552

>ms2peaks
92.012700 77912.100000
95.023700 44766.000000
96.007800 89358.300000
106.016100 194899.100000
107.024000 239151.400000
108.031800 118117.000000
109.039500 62846.300000
120.019400 45176.400000
122.024000 68530.000000
122.047800 50622.000000
123.019100 42651.200000
124.027400 37240.500000
129.033000 173466.700000
130.040800 57285.800000
131.048700 147048.600000
132.032800 113931.800000
132.056600 54984.700000
133.028000 108078.800000
133.040500 94621.800000
134.035800 279801.200000
134.060900 49438.300000
135.020000 129160.200000
135.043700 125109.600000
136.051600 192028.400000
137.035500 75070.000000
144.056600 63838.900000
144.069300 79488.400000
145.028100 104519.600000
146.036000 196355.800000
146.048600 52216.200000
146.072200 58052.900000
147.020000 47191.300000
147.043800 894375.100000
147.056300 149958.000000
148.028000 128975.200000
148.051700 44293.600000
149.035600 151219.000000
150.030800 233437.200000
151.038600 45791.400000
152.022600 130277.300000
153.017900 46067.100000
156.056600 75176.500000
157.064700 125397.000000
158.035900 63417.200000
158.072200 71787.600000
159.056400 60398.500000
160.051500 201845.800000
160.064200 72949.800000
161.072000 306548.200000
162.030900 117505.100000
163.014700 38965.400000
163.026100 141565.200000
164.010000 44294.000000
171.067900 79880.200000
172.051400 70080.300000
173.059600 104849.500000
174.067300 679909.800000
175.051400 125315.000000
175.075100 89465.600000
176.033900 66262.400000
176.046500 47959.500000
176.082800 114987.900000
177.041500 55811.200000
180.028800 275821.000000
182.020700 382622.100000
186.010400 73728.400000
190.062100 71528.700000
191.021000 210200.000000
191.070000 148802.500000
192.028800 209829.800000
192.995100 46499.400000
194.002900 46751.200000
197.003100 46391.200000
199.018300 42417.900000
203.057500 330967.400000
204.065300 83657.400000
211.005200 94190.900000
212.013500 131197.800000
221.067900 161000.600000
222.034400 157569.300000
223.042100 98216.800000
224.050000 64089.000000
226.987900 175314.900000
227.000400 83296.600000
228.008300 181148.200000
234.124800 448118.900000
238.029000 67034.900000
238.070600 47990.000000
240.044900 166430.000000
241.003800 463548.600000
244.002900 142795.200000
256.039800 129238.000000
258.055500 95817.300000
267.019300 65187.900000
268.027100 100228.200000
269.034800 49289.300000
272.034900 44742.900000
272.993600 96355.000000
281.125500 2967867.200000
283.050700 75841.100000
299.045600 279312.700000
309.066400 59686.400000
345.087300 30644836.000000

