>compound SM36793326
>parentmass 285.0436
>ionization [M-H]-
>formula C15H11ClN2O2
>rt 615.060000
>profile orbitrap
#smiles_iso C1=CC=C(C=C1)C2=NC(C(=O)NC3=C2C=C(C=C3)Cl)O
#smiles_can C1=CC=C(C=C1)C2=NC(C(=O)NC3=C2C=C(C=C3)Cl)O
#inchikey ADIMAYPTOBDMTL-UHFFFAOYSA-N
#pubchem_id 4616
#mb_accession SM860452

>ms2peaks
179.001300 3320.900000
257.048900 38620.200000
285.043700 203736.200000

