>compound SM36418319
>parentmass 359.1249
>ionization [M-H]-
>formula C18H20N2O6
>rt 699.060000
>profile orbitrap
#smiles_iso CCOC(=O)C1=C(NC(=C(C1C2=CC(=CC=C2)[N+](=O)[O-])C(=O)OC)C)C
#smiles_can CCOC(=O)C1=C(NC(=C(C1C2=CC(=CC=C2)[N+](=O)[O-])C(=O)OC)C)C
#inchikey PVHUJELLJLJGLN-UHFFFAOYSA-N
#pubchem_id 4507
#mb_accession SM849851

>ms2peaks
82.004400 266574.600000
92.025300 2211451.200000
93.033100 14976.200000
95.012500 553058.200000
108.020600 1068780.000000
122.024200 6017933.000000
123.008200 38432.200000
134.060900 14733.600000
136.040200 13052.500000
140.035200 89048.100000
146.060900 12853.800000
149.048300 106599.300000
150.056100 173594.400000
160.076600 62354.300000
162.056300 31649.700000
163.063800 46558.100000
164.071800 156791.000000
166.014600 503051.200000
166.087400 62015.300000
177.079500 12859.500000
178.087300 117086.600000
192.103100 48198.400000
207.053900 81809.000000
208.061600 79673.800000
208.097700 60400.100000
209.047700 36047.500000
209.072100 19741.600000
221.036100 17520.900000
221.069700 54058.800000
222.077600 21804.500000
223.064000 37711.000000
224.071800 1009708.600000
236.092900 2174019.200000
237.067200 58279.900000
239.046600 86192.100000
242.082500 16990.500000
251.058800 58971.100000
253.061700 52180.200000
254.070000 21729.500000
264.054000 12739.900000
265.074700 64920.900000
268.061500 415995.000000
279.090100 49027.600000
281.056600 14558.500000
282.077300 138512.600000
283.036400 16445.000000
283.084200 14360.800000
295.072500 179952.800000
296.092500 42369.900000
298.059400 183275.800000
299.067200 12016.400000
309.087900 177632.200000
312.075200 162348.800000
313.083100 463234.900000
327.098600 521794.300000
359.125000 11976630.000000

