>compound SM39734271
>parentmass 423.2388
>ionization [M-H]-
>formula C23H36O7
>rt 649.740000
>profile orbitrap
#smiles_iso CC[C@H](C)C(=O)O[C@H]1C[C@@H](C=C2[C@H]1[C@H]([C@H](C=C2)C)CC[C@H](C[C@H](CC(=O)O)O)O)O
#smiles_can CCC(C)C(=O)OC1CC(C=C2C1C(C(C=C2)C)CCC(CC(CC(=O)O)O)O)O
#inchikey TUZYXOIXSAXUGO-PZAWKZKUSA-N
#pubchem_id 54687
#mb_accession SM855853

>ms2peaks
127.006500 83693.600000
129.003700 1103338.200000
141.071000 191674.700000
142.011700 5451.400000
143.086700 28921.200000
146.152100 4604.600000
155.038000 8380.200000
157.035200 145847.900000
157.053900 22546.300000
158.043100 25407.900000
159.050800 562938.000000
161.096800 7457.300000
165.071000 11011.900000
171.118200 8677.300000
177.071000 6756.200000
179.086600 545118.400000
180.057900 6861.400000
180.090500 32057.600000
187.045900 17112.900000
187.064700 18069.000000
193.065700 40915.400000
195.081500 109311.800000
197.097300 6885.600000
199.112800 80919.500000
216.081600 4876.500000
223.077400 5100.400000
252.007400 4313.300000
267.138900 10852.300000
270.116100 6981.500000
272.144700 45091.600000
276.154500 4476.900000
284.130000 6188.000000
285.149900 38087.900000
293.066300 37894.100000
299.155200 23294.500000
303.160200 1122698.800000
321.170700 2132549.000000
322.106100 25153.800000
337.128900 110214.000000
365.135700 23785.500000
387.219300 4921.200000
395.144400 31272.400000
405.226900 11024.400000
423.239000 4073733.800000

