>compound SM41317423
>parentmass 232.9778
>ionization [M-H]-
>formula C9H8Cl2O3
>rt 672.420000
>profile orbitrap
#smiles_iso CC(C(=O)O)OC1=C(C=C(C=C1)Cl)Cl
#smiles_can CC(C(=O)O)OC1=C(C=C(C=C1)Cl)Cl
#inchikey MZHCENGPTKEIGP-UHFFFAOYSA-N
#pubchem_id 8427
#mb_accession SM839351

>ms2peaks
124.979500 1120047.500000
160.956600 33452656.000000
232.977600 216274.600000

