>compound SM41099641
>parentmass 213.0557
>ionization [M-H]-
>formula C13H10O3
>rt 633.960000
>profile orbitrap
#smiles_iso C1=CC=C(C=C1)C(=O)C2=C(C=C(C=C2)O)O
#smiles_can C1=CC=C(C=C1)C(=O)C2=C(C=C(C=C2)O)O
#inchikey ZXDDPOHVAMWLBH-UHFFFAOYSA-N
#pubchem_id 8572
#mb_accession SM833251

>ms2peaks
135.008600 6566439.000000
141.071100 149193.100000
143.050200 144428.400000
153.019300 1107023.200000
154.042500 52134.200000
167.035100 152967.500000
167.050100 33901.800000
169.065900 2958129.000000
171.045100 187368.200000
213.055600 24947316.000000

