>compound SM43144648
>parentmass 179.0574
>ionization [M-H]-
>formula C7H8N4O2
>rt 130.140000
>profile orbitrap
#smiles_iso CN1C2=C(C(=O)N(C1=O)C)NC=N2
#smiles_can CN1C2=C(C(=O)N(C1=O)C)NC=N2
#inchikey ZFXYFBGIUFBOJW-UHFFFAOYSA-N
#pubchem_id 2153
#mb_accession SM815654

>ms2peaks
164.034000 32294.500000
179.057500 129907.100000

