>compound SM43459150
>parentmass 550.1766
>ionization [M-H]-
>formula C27H29N5O6S
>rt 726.000000
>profile orbitrap
#smiles_iso CC(C)(C)C1=CC=C(C=C1)S(=O)(=O)NC2=C(C(=NC(=N2)C3=NC=CC=N3)OCCO)OC4=CC=CC=C4OC
#smiles_can CC(C)(C)C1=CC=C(C=C1)S(=O)(=O)NC2=C(C(=NC(=N2)C3=NC=CC=N3)OCCO)OC4=CC=CC=C4OC
#inchikey GJPICJJJRGTNOD-UHFFFAOYSA-N
#pubchem_id 104865
#mb_accession SM851552

>ms2
108.020700 32355.300000
118.029100 111113.700000
119.035600 14574.700000
132.032700 32080.300000
134.024600 76771.900000
147.056300 30334.300000
149.097200 294879.300000
158.036100 48918.800000
173.034300 93216.100000
173.046700 7840.700000
173.108400 47908.200000
175.026200 15563.100000
177.092500 12847.900000
181.033200 24767.700000
185.034000 15744.300000
197.064100 6138053.500000
200.057700 52312.200000
201.041800 155227.700000
202.037100 57327.300000
203.045900 13720.100000
212.074800 14861.600000
246.076000 61843.900000
248.057400 33073.700000
249.065800 61747.700000
250.073600 21891.100000
262.073500 12608.500000
265.060800 45235.500000
276.052800 20540.400000
277.060400 222619.600000
278.068200 245913.500000
280.084000 52633.200000
293.055600 44028.700000
294.063700 18667.600000
306.135900 14593.400000
308.078900 300460.800000
318.135400 14081.800000
322.094800 59495.100000
334.131000 25500.000000
338.090000 38024.300000
370.098700 16714.400000
396.113900 14122.300000
398.092600 13341.600000
413.186200 16692.900000
440.172800 18764.500000
458.094500 23584.500000
474.124700 83926.800000
506.150900 53955.100000
550.176600 7760621.500000

