>compound SM44125060
>parentmass 482.5871
>ionization [M-H]-
>formula C6HBr5O
>rt 809.700000
>profile orbitrap
#smiles_iso C1(=C(C(=C(C(=C1Br)Br)Br)Br)Br)O
#smiles_can C1(=C(C(=C(C(=C1Br)Br)Br)Br)Br)O
#inchikey SVHOVVJFOWGYJO-UHFFFAOYSA-N
#pubchem_id 11852
#mb_accession SM809453

>ms2
180.917100 3146.700000
482.587100 480856.200000

