>compound SM45368897
>parentmass 439.1524
>ionization [M-H]-
>formula C24H20N6O3
>rt 675.720000
>profile orbitrap
#smiles_iso CCOC1=NC2=CC=CC(=C2N1CC3=CC=C(C=C3)C4=CC=CC=C4C5=NNN=N5)C(=O)O
#smiles_can CCOC1=NC2=CC=CC(=C2N1CC3=CC=C(C=C3)C4=CC=CC=C4C5=NNN=N5)C(=O)O
#inchikey HTQMVQVXFRQIKW-UHFFFAOYSA-N
#pubchem_id 2541
#mb_accession SM818251

>ms2peaks
132.032700 1191445.600000
133.040600 1018505.300000
145.040600 42312.600000
147.019900 242100.100000
161.072000 195426.500000
165.071000 37881.300000
176.022700 146596.300000
177.030500 69446.000000
178.066100 18515.600000
190.066100 90542.100000
193.077100 5038.600000
195.081700 15085.400000
205.061800 106290.600000
206.084900 50755.100000
266.097600 13338.000000
281.108400 139440.400000
291.093000 4607.400000
292.100700 108325.300000
293.108400 393508.200000
295.087300 6170.900000
297.103300 4372.100000
305.095500 6631.300000
306.103700 161726.800000
307.087600 22943.100000
308.096000 15473.700000
309.103200 2211738.200000
310.111200 113661.900000
311.119200 88215.500000
321.115400 5397.100000
322.098400 5407.200000
323.106300 23362.100000
324.114100 158402.200000
337.112300 3589.400000
339.124700 23813.800000
339.147100 4745.800000
352.145600 25968.700000
354.101000 182064.400000
367.156400 40014.200000
368.104000 20934.900000
395.163300 22235.700000
396.135100 74493.600000
411.122000 9184.900000
411.146000 133912.000000
439.152400 2888365.500000

