>compound SM46349842
>parentmass 328.1224
>ionization [M-H]-
>formula C15H23NO5S
>rt 713.640000
>profile orbitrap
#smiles_iso CCC1=CC=CC(=C1N(C(C)COC)C(=O)CS(=O)(=O)O)C
#smiles_can CCC1=CC=CC(=C1N(C(C)COC)C(=O)CS(=O)(=O)O)C
#inchikey CIGKZVUEZXGYSV-UHFFFAOYSA-N
#pubchem_id 6426849
#mb_accession SM868651

>ms2
120.959500 6013144.000000
134.097400 35806.100000
135.081500 1087610.900000
158.097600 83146.300000
174.129000 133638.600000
177.010300 64549.400000
192.033600 668675.100000
206.155300 78124.100000
238.054200 40819.400000
256.065200 193942.400000
296.096300 175322.500000
328.122500 24371446.000000

