>compound SM48466451
>parentmass 213.9638
>ionization [M-H]-
>formula C7H5NO3S2
>rt 418.200000
>profile orbitrap
#smiles_iso C1=CC=C2C(=C1)N=C(S2)S(=O)(=O)O
#smiles_can C1=CC=C2C(=C1)N=C(S2)S(=O)(=O)O
#inchikey ZCXGMSGCBDSEOY-UHFFFAOYSA-N
#pubchem_id 30647
#mb_accession SM820151,SM882651

>ms2
134.006900 15548845.000000
150.001900 2828684.200000
213.963800 18174082.000000

>ms2
134.006900 14585956.000000
150.001900 2653351.800000
213.963800 16551098.000000

