>compound SM48285946
>parentmass 194.9177
>ionization [M-H]-
>formula C6H3Cl3O
>rt 675.060000
>profile orbitrap
#smiles_iso C1=C(C=C(C(=C1Cl)O)Cl)Cl
#smiles_can C1=C(C=C(C(=C1Cl)O)Cl)Cl
#inchikey LINPIYWFGCPVIE-UHFFFAOYSA-N
#pubchem_id 6914
#mb_accession SM813751

>ms2
158.941200 16339.000000
194.917800 1611304.400000

