>compound SM50928648
>parentmass 193.0506
>ionization [M-H]-
>formula C10H10O4
>rt 491.160000
>profile orbitrap
#smiles_iso CCOC(=O)C1=CC=CC=C1C(=O)O
#smiles_can CCOC(=O)C1=CC=CC=C1C(=O)O
#inchikey YWWHKOHZGJFMIE-UHFFFAOYSA-N
#pubchem_id 75318
#mb_accession SM823251

>ms2peaks
134.037000 16750.900000
147.008800 31771.200000
147.045000 4840.500000
149.060700 55159.700000
165.019500 5535.600000
179.034800 6872.400000
193.050600 152886.500000

