>compound SM51956551
>parentmass 244.9082
>ionization [M-H]-
>formula C8HCl3N2O
>rt 775.080000
>profile orbitrap
#smiles_iso C(#N)C1=C(C(=C(C(=C1Cl)C#N)Cl)Cl)O
#smiles_can C(#N)C1=C(C(=C(C(=C1Cl)C#N)Cl)Cl)O
#inchikey MDQKYGOECVSPIW-UHFFFAOYSA-N
#pubchem_id 34217
#mb_accession SM842251

>ms2peaks
146.975600 74375.400000
150.970500 51499.700000
174.970400 450871.400000
178.965400 59267.700000
181.944400 162503.600000
209.939400 288620.500000
244.908100 26491878.000000

