>compound SM51648808
>parentmass 165.9791
>ionization [M-H]-
>formula C7H5NS2
>rt 498.330000
>profile orbitrap
#smiles_iso C1=CC=C2C(=C1)NC(=S)S2
#smiles_can C1=CC=C2C(=C1)NC(=S)S2
#inchikey YXIWHUQXZSMYRE-UHFFFAOYSA-N
#pubchem_id 697993
#mb_accession SM820653,SM878551

>ms2peaks
134.006900 249300.400000
165.979000 1658454.800000
180.954100 2705.100000

>ms2peaks
134.006900 1477339.800000
164.971200 14153.300000
165.979100 10395167.000000

