>compound SM51053287
>parentmass 251.0826
>ionization [M-H]-
>formula C15H12N2O2
>rt 509.220000
>profile orbitrap
#smiles_iso C1C2=CC=CC=C2N(C3=CC=CC=C3C1=O)C(=O)N
#smiles_can C1C2=CC=CC=C2N(C3=CC=CC=C3C1=O)C(=O)N
#inchikey CTRLABGOLIVAIY-UHFFFAOYSA-N
#pubchem_id 34312
#mb_accession SM858353

>ms2
166.066300 90385.300000
180.082000 24489.600000
182.061300 2956.600000
207.069000 92818.800000
208.076800 544212.400000
251.082700 468184.200000

