>compound SM51656775
>parentmass 294.0554
>ionization [M-H]-
>formula C12H13N3O4S
>rt 463.320000
>profile orbitrap
#smiles_iso CC1=CC(=NO1)NS(=O)(=O)C2=CC=C(C=C2)NC(=O)C
#smiles_can CC1=CC(=NO1)NS(=O)(=O)C2=CC=C(C=C2)NC(=O)C
#inchikey GXPIUNZCALHVBA-UHFFFAOYSA-N
#pubchem_id 65280
#mb_accession SM858951

>ms2peaks
134.061000 5009006.000000
150.056100 454003.300000
178.050900 110618.500000
198.023100 9133736.000000
294.055500 3260593.800000

