>compound SM52958721
>parentmass 286.9439
>ionization [M-H]-
>formula C12H7Cl3O2
>rt 785.490000
>profile orbitrap
#smiles_iso C1=CC(=C(C=C1Cl)O)OC2=C(C=C(C=C2)Cl)Cl
#smiles_can C1=CC(=C(C=C1Cl)O)OC2=C(C=C(C=C2)Cl)Cl
#inchikey XEFQLINVKFYRCS-UHFFFAOYSA-N
#pubchem_id 5564
#mb_accession SM824651,SM863253

>ms2peaks
66.983100 2623.200000
286.943800 25825.200000

>ms2peaks
141.983100 5451.700000
286.943900 41973.600000

