>compound SM53972457
>parentmass 327.1714
>ionization [M-H]-
>formula C19H24N2O3
>rt 434.820000
>profile orbitrap
#smiles_iso CC(CCC1=CC=CC=C1)NCC(C2=CC(=C(C=C2)O)C(=O)N)O
#smiles_can CC(CCC1=CC=CC=C1)NCC(C2=CC(=C(C=C2)O)C(=O)N)O
#inchikey SGUAFYQXFOLMHL-UHFFFAOYSA-N
#pubchem_id 3869
#mb_accession SM818851

>ms2
106.041300 22998.700000
118.029000 11839.700000
131.037600 50587.900000
132.045300 52431.400000
133.053100 15572.600000
146.024700 5693.700000
149.048200 62203.100000
157.040800 42047.600000
158.048800 3108.800000
159.056200 6591.400000
175.051300 91802.700000
176.059100 153983.200000
177.066900 7077.300000
185.071900 4520.000000
187.087700 13394.000000
199.087800 3317.700000
266.155400 63463.800000
291.150300 124443.900000
309.160800 474030.700000
327.171400 1028868.400000

