>compound SM53842534
>parentmass 216.07
>ionization [M-H]-
>formula C9H15NO3S
>rt 350.280000
>profile orbitrap
#smiles_iso C[C@H](CS)C(=O)N1CCC[C@H]1C(=O)O
#smiles_can CC(CS)C(=O)N1CCCC1C(=O)O
#inchikey FAKRSMQSSFJEIM-RQJHMYQMSA-N
#pubchem_id 44093
#mb_accession SM861951

>ms2peaks
126.092000 2925.600000
130.033000 4014.700000
138.092600 7091.300000
170.082300 5363.000000
182.082300 118530.500000
216.070400 19528.000000

