>compound SM55101933
>parentmass 282.0094
>ionization [M-H]-
>formula C13H11Cl2NO2
>rt 696.300000
>profile orbitrap
#smiles_iso CC12CC1(C(=O)N(C2=O)C3=CC(=CC(=C3)Cl)Cl)C
#smiles_can CC12CC1(C(=O)N(C2=O)C3=CC(=CC(=C3)Cl)Cl)C
#inchikey QXJKBPAVAHBARF-UHFFFAOYSA-N
#pubchem_id 36242
#mb_accession SM848553

>ms2
95.048600 3412.700000
159.972500 19806.700000
160.956400 4319.800000
212.975200 11449.100000
239.004200 4343.800000
254.014800 24490.700000
266.985600 3239.800000
282.009300 198866.700000

