>compound SM55389398
>parentmass 387.1481
>ionization [M-H]-
>formula C21H25ClN2O3
>rt 602.280000
>profile orbitrap
#smiles_iso C1CN(CCN1CCOCC(=O)O)C(C2=CC=CC=C2)C3=CC=C(C=C3)Cl
#smiles_can C1CN(CCN1CCOCC(=O)O)C(C2=CC=CC=C2)C3=CC=C(C=C3)Cl
#inchikey ZKLPARSLTMPFCP-UHFFFAOYSA-N
#pubchem_id 2678
#mb_accession SM858253

>ms2
101.023200 26934.800000
185.093300 14336.300000
220.032800 2967.500000
327.034100 3270.900000
387.148300 1786317.000000

