>compound SM56870441
>parentmass 434.2198
>ionization [M-H]-
>formula C24H29N5O3
>rt 715.680000
>profile orbitrap
#smiles_iso CCCCC(=O)N(CC1=CC=C(C=C1)C2=CC=CC=C2C3=NNN=N3)[C@@H](C(C)C)C(=O)O
#smiles_can CCCCC(=O)N(CC1=CC=C(C=C1)C2=CC=CC=C2C3=NNN=N3)C(C(C)C)C(=O)O
#inchikey ACWBQPMHZXGDFX-QFIPXVFZSA-N
#pubchem_id 60846
#mb_accession SM860851

>ms2peaks
83.048500 11297.900000
99.080200 32777.100000
100.075500 115001.900000
101.059600 153047.100000
114.091500 33633.700000
116.070900 1040622.200000
125.096700 73628.800000
141.128400 187292.000000
154.123700 5898.400000
156.139400 362262.000000
164.063200 96365.900000
165.071200 45781.500000
167.050300 35773.000000
178.078700 393425.000000
179.086600 2932162.000000
180.057900 36287.800000
181.065900 25712.100000
190.066400 9311.700000
192.058300 81462.800000
192.081900 579008.000000
193.065900 135341.700000
194.097700 23057.500000
195.045000 36065.800000
195.081300 10549.600000
200.129200 28390.600000
204.082300 53175.100000
205.102200 33936.300000
206.084700 71804.200000
207.092700 126776.100000
209.061300 9785.900000
210.068900 11553.800000
221.134000 7856.000000
222.103900 13367.200000
223.076300 25987.900000
234.091400 34069.700000
234.128300 8313.300000
235.098900 288665.600000
248.144300 64188.000000
250.109800 27885.500000
276.150700 315623.600000
278.154800 25924.900000
294.150700 42960.200000
304.156800 298822.200000
307.145100 217057.300000
316.206000 9865.300000
332.201900 97462.100000
334.167900 6633.600000
334.217900 10923.900000
350.162100 956615.200000
362.223700 28273.300000
390.229800 25498.600000
391.203100 192828.400000
406.213700 25904.300000
416.209200 13748.900000
434.219700 4848616.500000

