>compound SM59012029
>parentmass 165.0557
>ionization [M-H]-
>formula C9H10O3
>rt 535.800000
>profile orbitrap
#smiles_iso CCOC(=O)C1=CC=C(C=C1)O
#smiles_can CCOC(=O)C1=CC=C(C=C1)O
#inchikey NUVBSKCKDOMJSU-UHFFFAOYSA-N
#pubchem_id 8434
#mb_accession SM863551

>ms2peaks
121.029000 10850.100000
136.016500 176964.700000
137.024400 379848.300000
165.055700 744293.100000

