>compound SM60102497
>parentmass 213.0324
>ionization [M-H]-
>formula C10H11ClO3
>rt 674.700000
>profile orbitrap
#smiles_iso CC1=C(C=CC(=C1)Cl)OC(C)C(=O)O
#smiles_can CC1=C(C=CC(=C1)Cl)OC(C)C(=O)O
#inchikey WNTGYJSOUMFZEP-UHFFFAOYSA-N
#pubchem_id 7153
#mb_accession SM842051

>ms2
141.011200 50576524.000000
169.042500 126306.000000
213.032400 872037.600000

