>compound SM60605453
>parentmass 211.9716
>ionization [M-H]-
>formula C8H8BrNO
>rt 523.200000
>profile orbitrap
#smiles_iso CC(=O)NC1=CC=C(C=C1)Br
#smiles_can CC(=O)NC1=CC=C(C=C1)Br
#inchikey MSLICLMCQYQNPK-UHFFFAOYSA-N
#pubchem_id 7683
#mb_accession SM825651

>ms2peaks
169.961100 120451.900000
211.971700 337274.300000

