>compound SM61847546
>parentmass 249.0322
>ionization [M-H]-
>formula C12H11O4P
>rt 664.920000
>profile orbitrap
#smiles_iso C1=CC=C(C=C1)OP(=O)(O)OC2=CC=CC=C2
#smiles_can C1=CC=C(C=C1)OP(=O)(O)OC2=CC=CC=C2
#inchikey ASMQGLCHMVWBQR-UHFFFAOYSA-N
#pubchem_id 13282
#mb_accession SM822551,SM881554

>ms2
154.990400 653221.100000
173.000800 71976.000000
249.032300 11771870.000000

>ms2
154.990400 4409939.500000
173.000900 332221.300000
249.032200 89943640.000000

