>compound SM62421087
>parentmass 255.0663
>ionization [M-H]-
>formula C15H12O4
>rt 633.720000
>profile orbitrap
#smiles_iso C1=CC=C(C=C1)COC(=O)C2=CC=CC=C2C(=O)O
#smiles_can C1=CC=C(C=C1)COC(=O)C2=CC=CC=C2C(=O)O
#inchikey XIKIUQUXDNHBFR-UHFFFAOYSA-N
#pubchem_id 31736
#mb_accession SM823154

>ms2peaks
123.044600 72716.900000
133.029300 13640.400000
137.060800 12884.200000
147.008700 229745.800000
149.024400 129351.000000
151.040000 98435.600000
165.019200 36924.700000
179.034900 72406.400000
180.057900 3600.200000
181.066100 29509.500000
183.081500 1148045.800000
190.998400 22027.600000
197.060900 27306.300000
211.076400 277068.800000
227.071800 5298.500000
237.055600 24927.800000
255.066300 1199197.500000

