>compound SM62986413
>parentmass 221.0608
>ionization [M-H]-
>formula C15H10O2
>rt 660.420000
>profile orbitrap
#smiles_iso C1=CC=C2C(=C1)C=C3C=CC=CC3=C2C(=O)O
#smiles_can C1=CC=C2C(=C1)C=C3C=CC=CC3=C2C(=O)O
#inchikey XGWFJBFNAQHLEF-UHFFFAOYSA-N
#pubchem_id 2201
#mb_accession SM802652

>ms2
177.071000 4994870.000000
193.065600 12217.200000
221.060800 1156631.100000

