>compound SM62369459
>parentmass 424.1546
>ionization [M-H]-
>formula C22H24ClN5O2
>rt 465.000000
>profile orbitrap
#smiles_iso C1CN(CCC1N2C3=C(C=C(C=C3)Cl)NC2=O)CCCN4C5=CC=CC=C5NC4=O
#smiles_can C1CN(CCC1N2C3=C(C=C(C=C3)Cl)NC2=O)CCCN4C5=CC=CC=C5NC4=O
#inchikey FGXWKSZFVQUSTL-UHFFFAOYSA-N
#pubchem_id 3151
#mb_accession SM851751

>ms2
131.025000 4334.600000
133.040500 18253.800000
165.994000 16740.600000
167.001700 141702.300000
190.098700 4100.200000
250.075200 7355.500000
424.154900 230293.900000

