>compound SM63389214
>parentmass 212.9792
>ionization [M-H]-
>formula C4HF7O2
>rt 443.640000
>profile orbitrap
#smiles_iso C(=O)(C(C(C(F)(F)F)(F)F)(F)F)O
#smiles_can C(=O)(C(C(C(F)(F)F)(F)F)(F)F)O
#inchikey YPJUNDFVDDCYIH-UHFFFAOYSA-N
#pubchem_id 9777
#mb_accession SM823751

>ms2
168.989400 8945612.000000
212.979000 157219.800000

