>compound SM63400420
>parentmass 218.9621
>ionization [M-H]-
>formula C8H6Cl2O3
>rt 615.720000
>profile orbitrap
#smiles_iso C1=CC(=C(C=C1Cl)Cl)OCC(=O)O
#smiles_can C1=CC(=C(C=C1Cl)Cl)OCC(=O)O
#inchikey OVSKIKFHRZPJSS-UHFFFAOYSA-N
#pubchem_id 1486
#mb_accession SM837851

>ms2peaks
124.979500 1172732.000000
160.956600 35765548.000000
218.962100 381280.700000

