>compound SM64603354
>parentmass 358.142
>ionization [M-H]-
>formula C15H22FN3O6
>rt 578.040000
>profile orbitrap
#smiles_iso CCCCCOC(=O)NC1=NC(=O)N(C=C1F)[C@H]2[C@@H]([C@@H]([C@H](O2)C)O)O
#smiles_can CCCCCOC(=O)NC1=NC(=O)N(C=C1F)C2C(C(C(O2)C)O)O
#inchikey GAGWJHPBXLXJQN-UORFTKCHSA-N
#pubchem_id 60953
#mb_accession SM834351

>ms2peaks
85.064300 12492.200000
106.016100 25207.700000
107.024000 57717.900000
113.014600 11110.100000
125.015200 131961.900000
127.030800 5908.000000
129.010300 48314.700000
133.004400 6316.500000
135.020000 7288.500000
136.015100 10565.900000
148.015100 9093.300000
150.006900 20674.200000
153.010500 394639.300000
154.005800 2796591.200000
155.082600 81696.400000
164.009500 5394.200000
168.021600 5876.900000
176.010100 19189.400000
196.016300 30116.300000
199.088700 102723.500000
221.093200 58297.800000
242.094600 105555.200000
284.105000 76571.600000
358.142000 5317065.000000

