>compound SM65361559
>parentmass 380.0686
>ionization [M-H]-
>formula C17H14F3N3O2S
>rt 724.860000
>profile orbitrap
#smiles_iso CC1=CC=C(C=C1)C2=CC(=NN2C3=CC=C(C=C3)S(=O)(=O)N)C(F)(F)F
#smiles_can CC1=CC=C(C=C1)C2=CC(=NN2C3=CC=C(C=C3)S(=O)(=O)N)C(F)(F)F
#inchikey RZEKVGVHFLEQIL-UHFFFAOYSA-N
#pubchem_id 2662
#mb_accession SM851653

>ms2
87.998900 145636.200000
108.005500 61176.100000
115.029400 13622.900000
129.045500 23707.700000
130.053400 135000.200000
139.030100 198961.000000
159.036400 496509.700000
179.042700 562471.200000
198.041000 60897.900000
199.049100 24073.900000
220.100600 28500.300000
221.096100 170139.800000
221.108400 52996.100000
224.057000 37398.100000
225.052300 88962.500000
225.064800 332681.900000
225.083600 22734.000000
229.077200 59452.000000
245.096400 39741.600000
246.103800 221456.500000
247.111600 619319.900000
248.086800 52238.800000
249.083400 226392.000000
251.099400 34500.700000
255.080800 49429.500000
256.088200 238321.200000
268.094400 154076.100000
269.089900 98632.600000
275.087300 95378.000000
276.094300 1350579.100000
277.078500 47721.700000
295.092500 66530.900000
296.100500 958371.400000
315.098100 55059.500000
316.106700 2978484.800000
317.090600 88583.200000
380.068700 13105456.000000

