>compound SM66768828
>parentmass 327.0445
>ionization [M-H]-
>formula C16H12N2O4S
>rt 793.920000
>profile orbitrap
#smiles_iso C1=CC=C2C(=C1)C=CC(=C2N=NC3=CC=C(C=C3)S(=O)(=O)O)O
#smiles_can C1=CC=C2C(=C1)C=CC(=C2N=NC3=CC=C(C=C3)S(=O)(=O)O)O
#inchikey RDUJRVXKAIVTDH-UHFFFAOYSA-N
#pubchem_id 11315
#mb_accession SM821851

>ms2
93.033100 2128153.800000
95.012400 501288.700000
106.028600 55387.100000
107.036500 1428839.900000
155.988600 3177124.500000
156.996500 140380.400000
157.053200 81630.700000
158.975700 326825.700000
169.991600 323612.100000
170.999500 13125972.000000
171.983500 146053.400000
219.081500 171738.600000
235.076100 45646.800000
247.087600 286487.600000
263.082800 80101.100000
327.044400 18916394.000000

