>compound SM70762157
>parentmass 426.9679
>ionization [M-H]-
>formula C8H5F13O3S
>rt 885.660000
>profile orbitrap
#smiles_iso C(CS(=O)(=O)O)C(C(C(C(C(C(F)(F)F)(F)F)(F)F)(F)F)(F)F)(F)F
#smiles_can C(CS(=O)(=O)O)C(C(C(C(C(C(F)(F)F)(F)F)(F)F)(F)F)(F)F)(F)F
#inchikey VIONGDJUYAYOPU-UHFFFAOYSA-N
#pubchem_id 119688
#mb_accession SM883655

>ms2peaks
406.961800 470088.600000
426.968000 1630643.600000

