>compound SM70916646
>parentmass 273.8509
>ionization [M-H]-
>formula C7H3Br2NO
>rt 567.300000
>profile orbitrap
#smiles_iso C1=C(C=C(C(=C1Br)O)Br)C#N
#smiles_can C1=C(C=C(C(=C1Br)O)Br)C#N
#inchikey UPMXNNIRAGDFEH-UHFFFAOYSA-N
#pubchem_id 15531
#mb_accession SM844052

>ms2peaks
166.937700 48829.200000
193.924600 130230.400000
273.850800 18635734.000000

