>compound SM72012905
>parentmass 264.0812
>ionization [M-H]-
>formula C12H15N3O2S
>rt 555.960000
>profile orbitrap
#smiles_iso CCCSC1=CC2=C(C=C1)N=C(N2)NC(=O)OC
#smiles_can CCCSC1=CC2=C(C=C1)N=C(N2)NC(=O)OC
#inchikey HXHWSAZORRCQMX-UHFFFAOYSA-N
#pubchem_id 2082
#mb_accession SM853555

>ms2peaks
188.999900 24676.200000
232.055100 31187.700000

