>compound SM73255832
>parentmass 207.0121
>ionization [M-H]-
>formula C10H8O3S
>rt 510.120000
>profile orbitrap
#smiles_iso C1=CC=C2C=C(C=CC2=C1)S(=O)(=O)O
#smiles_can C1=CC=C2C=C(C=CC2=C1)S(=O)(=O)O
#inchikey KVBGVZZKJNLNJU-UHFFFAOYSA-N
#pubchem_id 8420
#mb_accession SM881155

>ms2peaks
118.992400 94458.700000
143.050200 10664501.000000
207.012200 43466204.000000

