>compound SM73964528
>parentmass 276.0309
>ionization [M-H]-
>formula C9H7N7O2S
>rt 222.300000
>profile orbitrap
#smiles_iso CN1C=NC(=C1SC2=NC=NC3=C2NC=N3)[N+](=O)[O-]
#smiles_can CN1C=NC(=C1SC2=NC=NC3=C2NC=N3)[N+](=O)[O-]
#inchikey LMEKQMALGUDUQG-UHFFFAOYSA-N
#pubchem_id 2265
#mb_accession SM832851

>ms2
134.023200 15878.200000
138.984300 2793.500000
144.031500 4246.400000
158.003000 188997.500000
229.029900 6388.400000
230.037400 5179.000000
276.030900 577916.100000

