>compound SM74282442
>parentmass 213.0324
>ionization [M-H]-
>formula C10H11ClO3
>rt 640.560000
>profile orbitrap
#smiles_iso CC(C)(C(=O)O)OC1=CC=C(C=C1)Cl
#smiles_can CC(C)(C(=O)O)OC1=CC=C(C=C1)Cl
#inchikey TXCGAZHTZHNUAI-UHFFFAOYSA-N
#pubchem_id 2797
#mb_accession SM854751

>ms2peaks
126.995300 30965654.000000
213.032500 413768.200000

