>compound SM75681772
>parentmass 418.9365
>ionization [M-H]-
>formula C12H4Cl2F6N4S
>rt 749.700000
>profile orbitrap
#smiles_iso C1=C(C=C(C(=C1Cl)N2C(=C(C(=N2)C#N)SC(F)(F)F)N)Cl)C(F)(F)F
#smiles_can C1=C(C=C(C(=C1Cl)N2C(=C(C(=N2)C#N)SC(F)(F)F)N)Cl)C(F)(F)F
#inchikey FQXWEKADCSXYOC-UHFFFAOYSA-N
#pubchem_id 9953940
#mb_accession SM884552

>ms2peaks
89.997300 26878.200000
150.003500 1077348.600000
170.009700 7498218.500000
182.009400 29141.200000
183.017800 132955.300000
192.963600 196307.100000
213.981800 46350.300000
214.989600 150392.200000
217.986400 10879538.000000
226.989600 436745.300000
229.952400 41365.900000
233.981300 1968852.400000
234.947500 126558.500000
245.981400 844856.900000
249.958600 850178.100000
261.958600 17796986.000000
280.958200 24004.800000
287.961700 28099.700000
313.964800 6785119.500000
330.953600 330197.600000
349.941300 28516.500000
382.959900 21652378.000000
418.936600 1438009.100000

