>compound SM76112263
>parentmass 195.0463
>ionization [M-H]-
>formula C10H9FO3
>rt 458.640000
>profile orbitrap
#smiles_iso C1=CC(=CC=C1C(=O)CCC(=O)O)F
#smiles_can C1=CC(=CC=C1C(=O)CCC(=O)O)F
#inchikey WUYWHIAAQYQKPP-UHFFFAOYSA-N
#pubchem_id 101359
#mb_accession SM854355

>ms2peaks
149.040700 54730.700000
151.056500 530509.800000
195.046500 4818.200000

