>compound SM79337945
>parentmass 253.087
>ionization [M-H]-
>formula C16H14O3
>rt 649.740000
>profile orbitrap
#smiles_iso CC(C1=CC(=CC=C1)C(=O)C2=CC=CC=C2)C(=O)O
#smiles_can CC(C1=CC(=CC=C1)C(=O)C2=CC=CC=C2)C(=O)O
#inchikey DKYWVDODHFEZIM-UHFFFAOYSA-N
#pubchem_id 3825
#mb_accession SM856255

>ms2
161.012600 2780.300000
185.061200 5439.600000
197.060800 348562.400000
209.097400 13307.200000
223.076900 3860.400000
241.087300 6929.400000
253.087200 12481.400000

