>compound SM80397811
>parentmass 221.0819
>ionization [M-H]-
>formula C12H14O4
>rt 621.180000
>profile orbitrap
#smiles_iso CC(C)COC(=O)C1=CC=CC=C1C(=O)O
#smiles_can CC(C)COC(=O)C1=CC=CC=C1C(=O)O
#inchikey RZJSUWQGFCHNFS-UHFFFAOYSA-N
#pubchem_id 92272
#mb_accession SM823351

>ms2peaks
134.037200 1835865.600000
135.045100 96734.300000
147.008700 268008.200000
147.081500 43247.600000
149.097200 324853.700000
151.040100 9738.900000
159.081800 4815.600000
165.019200 52495.800000
175.076200 8018.100000
177.092000 385515.000000
179.035000 94244.400000
190.998800 24738.900000
193.086900 8082.600000
221.081900 1143039.400000

