>compound SM80415547
>parentmass 312.9728
>ionization [M-H]-
>formula C6HF11O2
>rt 769.560000
>profile orbitrap
#smiles_iso C(=O)(C(C(C(C(C(F)(F)F)(F)F)(F)F)(F)F)(F)F)O
#smiles_can C(=O)(C(C(C(C(C(F)(F)F)(F)F)(F)F)(F)F)(F)F)O
#inchikey PXUULQAPEKKVAH-UHFFFAOYSA-N
#pubchem_id 67542
#mb_accession SM877154

>ms2peaks
225.990400 39967.900000
268.983100 4558457.500000
312.972700 80660.200000

