>compound SM82114422
>parentmass 327.0099
>ionization [M-H]-
>formula C14H13ClO5S
>rt 567.180000
>profile orbitrap
#smiles_iso CS(=O)(=O)C1=CC(=C(C=C1)C(=O)C2C(=O)CCCC2=O)Cl
#smiles_can CS(=O)(=O)C1=CC(=C(C=C1)C(=O)C2C(=O)CCCC2=O)Cl
#inchikey PQTBTIFWAXVEPB-UHFFFAOYSA-N
#pubchem_id 91760
#mb_accession SM837451,SM865851

>ms2peaks
212.048200 17519.800000
215.035400 11640.300000
241.966800 3035.900000
249.022800 16315.100000
291.033300 265519.200000
327.010600 13474.400000

>ms2peaks
122.070000 3062.100000
168.058200 3307.300000
170.037100 4191.200000
172.053400 3719.300000
212.047900 108262.300000
215.035100 51783.200000
216.042900 18288.500000
221.027800 3379.800000
227.034700 4325.700000
237.022400 6895.200000
247.043200 12635.200000
249.022900 48494.600000
263.039100 3050.500000
291.033400 824014.200000
327.010200 45841.600000

