>compound SM83660779
>parentmass 349.1115
>ionization [M-H]-
>formula C18H22O5S
>rt 732.120000
>profile orbitrap
#smiles_iso CC12CCC3C(C1CCC2=O)CCC4=C3C=CC(=C4)OS(=O)(=O)O
#smiles_can CC12CCC3C(C1CCC2=O)CCC4=C3C=CC(=C4)OS(=O)(=O)O
#inchikey JKKFKPJIXZFSSB-UHFFFAOYSA-N
#pubchem_id 699
#mb_accession SM832651

>ms2peaks
145.065700 68229.900000
269.154600 8160714.000000
285.150000 25903.900000
349.111300 13705815.000000

