>compound SM83901202
>parentmass 218.9312
>ionization [M-H]-
>formula C6H5IO
>rt 558.720000
>profile orbitrap
#smiles_iso C1=CC(=CC=C1O)I
#smiles_can C1=CC(=CC=C1O)I
#inchikey VSMDINRNYYEDRN-UHFFFAOYSA-N
#pubchem_id 10894
#mb_accession SM805752

>ms2peaks
126.904700 1652754.500000
218.931300 680913.300000

