>compound SM88012244
>parentmass 351.0722
>ionization [M-H]-
>formula C16H16O9
>rt 356.760000
>profile orbitrap
#smiles_iso CC1=CC(=O)OC2=C1C=CC(=C2)O[C@H]3[C@@H]([C@H]([C@H]([C@H](O3)C(=O)O)O)O)O
#smiles_can CC1=CC(=O)OC2=C1C=CC(=C2)OC3C(C(C(C(O3)C(=O)O)O)O)O
#inchikey ARQXEQLMMNGFDU-SQCNAZHOSA-N
#pubchem_id 2733792
#mb_accession SM832751

>ms2
98.009100 3012.300000
129.018900 28955.300000
130.042400 3622.800000
131.050100 26157.200000
133.029300 21287.000000
147.045200 12631.900000
157.014400 18925.900000
175.024900 279877.200000
175.040100 1559947.200000
351.072100 268055.800000

