>compound SM88393200
>parentmass 319.1187
>ionization [M-H]-
>formula C17H20O6
>rt 649.740000
>profile orbitrap
#smiles_iso CC1=C2COC(=O)C2=C(C(=C1OC)C/C=C(\C)/CCC(=O)O)O
#smiles_can CC1=C2COC(=O)C2=C(C(=C1OC)CC=C(C)CCC(=O)O)O
#inchikey HPNSFSBZBAHARI-RUDMXATFSA-N
#pubchem_id 446541
#mb_accession SM857754

>ms2peaks
133.065800 16736.600000
135.045000 37740.600000
137.024600 4391.400000
137.060700 15412.400000
147.045100 25730.000000
148.053000 25786.600000
149.060900 23394.500000
160.052900 14275.700000
161.060800 48927.300000
161.097300 23954.100000
163.040100 21118.900000
163.076600 3566.000000
164.048000 21694.000000
171.081500 5035.300000
171.118300 4212.600000
173.060900 48840.400000
173.097200 11661.300000
174.068600 6759.900000
177.019400 16334.100000
177.055500 4783.400000
178.027200 16227.000000
179.035000 295558.100000
183.081700 13666.400000
186.068200 3210.200000
187.076400 33967.800000
188.084700 6599.200000
189.091900 13926.100000
191.035000 976344.800000
192.042800 272762.800000
193.050800 6297.000000
199.112900 49674.800000
200.084500 5482.100000
201.092300 41052.100000
203.035100 82625.500000
204.042700 12145.600000
205.050700 403065.200000
206.058700 3188.400000
207.066300 109090.200000
210.069500 3289.900000
215.071400 4830.500000
215.108000 61196.100000
217.050400 3662.200000
217.087100 5322.700000
224.032800 52997.400000
225.092100 13241.500000
227.071200 5217.600000
228.080000 4645.700000
230.058700 3094.300000
231.066400 52189.000000
231.103200 3509.500000
232.074500 13077.600000
233.082300 40332.800000
241.087200 11490.200000
243.066600 25103.700000
243.102800 103257.200000
245.082000 104999.800000
258.126600 3248.900000
259.098000 14522.400000
269.081900 58813.800000
275.129100 534425.300000
285.077100 17014.500000
287.092500 230221.800000
301.108700 14493.800000
319.118700 3063610.000000

