>compound SM90045133
>parentmass 185.0608
>ionization [M-H]-
>formula C12H10O2
>rt 583.140000
>profile orbitrap
#smiles_iso C1=CC=C(C=C1)C2=C(C(=CC=C2)O)O
#smiles_can C1=CC=C(C=C1)C2=C(C(=CC=C2)O)O
#inchikey YKOQAAJBYBTSBS-UHFFFAOYSA-N
#pubchem_id 254
#mb_accession SM800553

>ms2peaks
129.070700 12269.300000
141.071100 4368.500000
156.058100 5163.400000
157.065900 4193.300000
167.050000 2968.600000
184.053000 96419.300000
185.060800 2868582.500000

