>compound SM91379666
>parentmass 269.0455
>ionization [M-H]-
>formula C15H10O5
>rt 597.300000
>profile orbitrap
#smiles_iso C1=CC(=CC=C1C2=COC3=CC(=CC(=C3C2=O)O)O)O
#smiles_can C1=CC(=CC=C1C2=COC3=CC(=CC(=C3C2=O)O)O)O
#inchikey TZBJGXHYKVUXJN-UHFFFAOYSA-N
#pubchem_id 5280961
#mb_accession SM882751

>ms2
132.021500 82133.700000
133.029400 953899.100000
135.008700 114793.600000
135.045100 178868.800000
151.003700 76325.800000
155.050200 87789.900000
157.029600 143770.700000
157.065900 53434.000000
159.045200 393112.500000
161.024700 52266.400000
167.050200 26769.700000
169.066000 149617.600000
171.045000 44951.300000
173.060700 48546.500000
176.011800 26020.700000
180.058100 232644.900000
181.065900 385163.400000
182.037300 35244.300000
183.045200 273936.300000
195.045100 47435.600000
196.053100 179146.900000
197.060900 176902.600000
199.040100 138410.700000
201.055800 310162.700000
213.055600 113779.300000
223.040300 44651.000000
224.048100 308944.100000
225.055900 240167.300000
227.035100 97043.200000
240.042400 85416.000000
241.050800 116528.200000
268.037400 42487.800000
269.045600 21289814.000000

