>compound SM93094374
>parentmass 217.0329
>ionization [M-H]-
>formula C12H10O2S
>rt 599.340000
>profile orbitrap
#smiles_iso C1=CC(=CC=C1O)SC2=CC=C(C=C2)O
#smiles_can C1=CC(=CC=C1O)SC2=CC=C(C=C2)O
#inchikey VWGKEVWFBOUAND-UHFFFAOYSA-N
#pubchem_id 17570
#mb_accession SM804853

>ms2peaks
123.998300 530641.900000
217.032900 428128.800000

