>compound SM94816209
>parentmass 386.9644
>ionization [M-H]-
>formula C12H4Cl2F6N4
>rt 727.740000
>profile orbitrap
#smiles_iso C1=C(C=C(C(=C1Cl)N2C(=C(C(=N2)C#N)C(F)(F)F)N)Cl)C(F)(F)F
#smiles_can C1=C(C=C(C(=C1Cl)N2C(=C(C(=N2)C#N)C(F)(F)F)N)Cl)C(F)(F)F
#inchikey JWKXVHLIRTVXLD-UHFFFAOYSA-N
#pubchem_id 22673275
#mb_accession SM884952

>ms2
135.011200 476445.000000
193.001900 98602.800000
203.983300 1704225.400000
227.017500 107711.000000
228.978600 550114.200000
236.984900 771373.600000
243.989700 113155.000000
246.015700 95230.400000
261.980900 373502.600000
274.988100 153163.000000
276.006200 165514.200000
278.975300 102822.900000
281.992600 7952717.500000
295.004700 704547.700000
296.012500 320609.200000
298.981600 133857.700000
305.986300 1530971.100000
310.975200 539757.100000
316.019000 480242.000000
324.984800 1955194.600000
330.981700 2692479.800000
349.979900 144079.700000
350.987800 54894236.000000
386.964500 801226.600000

