>compound SM95498650
>parentmass 319.0047
>ionization [M-H]-
>formula C15H10Cl2N2O2
>rt 623.220000
>profile orbitrap
#smiles_iso C1=CC=C(C(=C1)C2=NC(C(=O)NC3=C2C=C(C=C3)Cl)O)Cl
#smiles_can C1=CC=C(C(=C1)C2=NC(C(=O)NC3=C2C=C(C=C3)Cl)O)Cl
#inchikey DIWRORZWFLOCLC-UHFFFAOYSA-N
#pubchem_id 3958
#mb_accession SM860053

>ms2
116.013100 4186.600000
151.990700 5220.800000
179.985900 2733.200000
255.033700 6259.500000
283.028100 170288.000000
319.004800 31944.800000

