>compound SM96186904
>parentmass 309.0248
>ionization [M-H]-
>formula C14H9ClF2N2O2
>rt 723.840000
>profile orbitrap
#smiles_iso C1=CC(=C(C(=C1)F)C(=O)NC(=O)NC2=CC=C(C=C2)Cl)F
#smiles_can C1=CC(=C(C(=C1)F)C(=O)NC(=O)NC2=CC=C(C=C2)Cl)F
#inchikey QQQYTWIFVNKMRW-UHFFFAOYSA-N
#pubchem_id 37123
#mb_accession SM845852

>ms2
126.011200 247995.900000
151.006800 485746.100000
156.026600 994426.100000
246.012800 10387.000000
289.018600 1294085.100000
309.024900 571947.600000

