>compound SM96927061
>parentmass 239.035
>ionization [M-H]-
>formula C14H8O4
>rt 695.460000
>profile orbitrap
#smiles_iso C1=CC=C2C(=C1)C(=O)C3=C(C2=O)C(=CC(=C3)O)O
#smiles_can C1=CC=C2C(=C1)C(=O)C3=C(C2=O)C(=CC(=C3)O)O
#inchikey WPWWKBNOXTZDQJ-UHFFFAOYSA-N
#pubchem_id 196978
#mb_accession SM827751

>ms2peaks
155.050200 77742.400000
167.050200 662504.500000
183.045500 154287.800000
195.045100 8475233.000000
197.024300 404276.200000
210.032300 347473.300000
211.040100 10074281.000000
239.034900 70010720.000000

