>compound SM96030661
>parentmass 196.1204
>ionization [M-H]-
>formula C8H15N5O
>rt 125.580000
>profile orbitrap
#smiles_iso CCNC1=NC(=O)NC(=N1)NC(C)C
#smiles_can CCNC1=NC(=O)NC(=N1)NC(C)C
#inchikey NFMIMWNQWAWNDW-UHFFFAOYSA-N
#pubchem_id 135398733
#mb_accession SM844151

>ms2peaks
125.082800 5878.700000
165.097600 2990.200000
196.120300 28260.600000

