>compound SM96794484
>parentmass 487.2133
>ionization [M-H]-
>formula C23H32N6O4S
>rt 509.940000
>profile orbitrap
#smiles_iso CCCC1=NC(=C2N1N=C(NC2=O)C3=C(C=CC(=C3)S(=O)(=O)N4CCN(CC4)CC)OCC)C
#smiles_can CCCC1=NC(=C2N1N=C(NC2=O)C3=C(C=CC(=C3)S(=O)(=O)N4CCN(CC4)CC)OCC)C
#inchikey SECKRCOLJRRGGV-UHFFFAOYSA-N
#pubchem_id 135400189
#mb_accession SM852853

>ms2peaks
132.032600 4499.900000
133.040400 3224.200000
135.019500 3481.500000
137.154200 2955.700000
160.198700 3490.800000
163.014800 4059.600000
164.022900 15057.100000
204.024200 3100.200000
229.073400 6416.600000
282.112300 144251.900000
285.099400 146918.400000
286.107200 15113.500000
288.086000 5183.300000
310.143200 4304.200000
459.182200 251811.300000
487.213200 366893.400000

