>compound SM97030960
>parentmass 294.0094
>ionization [M-H]-
>formula C14H11Cl2NO2
>rt 733.500000
>profile orbitrap
#smiles_iso C1=CC=C(C(=C1)CC(=O)O)NC2=C(C=CC=C2Cl)Cl
#smiles_can C1=CC=C(C(=C1)CC(=O)O)NC2=C(C=CC=C2Cl)Cl
#inchikey DCOPUUMXTXDBNB-UHFFFAOYSA-N
#pubchem_id 3033
#mb_accession SM856951

>ms2peaks
178.066200 109320.600000
214.042900 497035.200000
250.019600 7675003.000000
294.009500 230966.700000

