>compound SM99110056
>parentmass 170.9451
>ionization [M-H]-
>formula C6H5BrO
>rt 505.680000
>profile orbitrap
#smiles_iso C1=CC(=CC=C1O)Br
#smiles_can C1=CC(=CC=C1O)Br
#inchikey GZFGOTFRPZRKDS-UHFFFAOYSA-N
#pubchem_id 7808
#mb_accession SM865051

>ms2peaks
142.946600 16576.600000
170.945100 246863.900000

