>compound BML0535210
>parentmass 253.0506
>ionization [M-H]-
>formula C15H10O4
>rt 508.740000
>profile qtof
#smiles_iso C1=CC(=CC(=C1)O)C2=CC(=O)C3=C(C=CC=C3O2)O
#smiles_can C1=CC(=CC(=C1)O)C2=CC(=O)C3=C(C=CC=C3O2)O
#inchikey SZMQXDYEGKRZDG-UHFFFAOYSA-N
#pubchem_id 676030
#mb_accession BML01240,BML01246,BML01252

>ms2
103.968200 31.000000
106.994500 29.000000
107.014200 49.000000
117.033600 35.000000
121.874300 26.000000
135.008200 2509.000000
135.040100 88.000000
135.063100 87.000000
135.117200 36.000000
135.472400 21.000000
177.798400 21.000000
209.057900 61.000000
209.149600 83.000000
225.056500 83.000000
226.962100 21.000000
235.053100 29.000000
251.229100 39.000000
252.248300 23.000000
252.790600 22.000000
252.841200 22.000000
252.856000 26.000000
252.891400 86.000000
253.050400 76055.000000

>ms2
100.799700 22.000000
107.007700 23.000000
117.034200 410.000000
119.416000 22.000000
123.030300 27.000000
133.030000 108.000000
135.008200 28095.000000
135.043500 734.000000
135.062000 570.000000
135.087300 260.000000
135.116000 392.000000
135.158200 54.000000
135.177200 56.000000
135.202300 53.000000
135.229700 71.000000
135.250800 49.000000
135.260600 49.000000
135.287500 51.000000
135.298400 41.000000
135.323200 48.000000
135.345900 37.000000
135.354700 43.000000
135.380800 33.000000
135.390300 37.000000
135.413700 33.000000
135.433700 33.000000
135.458500 29.000000
135.469900 27.000000
135.506000 39.000000
135.514600 26.000000
135.542400 43.000000
135.558400 30.000000
135.589300 35.000000
135.612400 69.000000
135.691400 53.000000
135.732500 21.000000
135.775300 39.000000
135.803100 23.000000
135.936800 30.000000
135.987100 34.000000
136.017500 22.000000
136.035700 26.000000
136.126200 39.000000
136.195100 38.000000
136.276100 24.000000
136.588800 34.000000
136.664800 29.000000
140.362800 23.000000
144.411300 39.000000
145.624500 45.000000
156.018900 32.000000
157.028800 83.000000
159.041000 48.000000
171.381000 22.000000
181.074500 43.000000
183.046700 65.000000
185.022900 40.000000
206.646300 50.000000
206.846300 21.000000
207.049400 31.000000
208.051500 71.000000
209.060200 97.000000
211.041900 57.000000
224.039300 36.000000
225.054500 529.000000
225.372200 24.000000
233.104300 21.000000
235.039700 433.000000
235.074000 35.000000
236.042000 31.000000
242.257100 42.000000
245.408200 21.000000
250.335500 46.000000
251.085200 26.000000
251.231100 25.000000
251.337700 28.000000
251.816100 20.000000
252.057300 24.000000
252.427900 24.000000
252.564300 24.000000
252.762300 22.000000
252.932800 35.000000
252.973300 89.000000
253.050600 75057.000000

>ms2
101.038400 56.000000
105.657700 34.000000
107.015600 382.000000
108.020300 25.000000
117.034400 4222.000000
117.061500 72.000000
117.067700 82.000000
117.084200 103.000000
117.136600 47.000000
117.210400 26.000000
117.420200 22.000000
123.116600 21.000000
129.034100 67.000000
133.027600 304.000000
135.008400 11301.000000
135.044600 364.000000
135.066500 88.000000
135.088900 45.000000
135.115400 164.000000
135.140300 34.000000
135.150500 65.000000
135.159300 20.000000
135.225900 63.000000
135.251000 45.000000
135.270700 22.000000
135.303300 34.000000
135.323600 21.000000
135.351700 56.000000
135.367800 37.000000
135.393800 37.000000
135.467900 23.000000
135.543600 28.000000
135.625300 37.000000
135.649700 20.000000
135.693200 30.000000
135.882200 26.000000
152.053000 24.000000
153.039100 23.000000
153.074100 83.000000
154.043900 38.000000
157.031200 126.000000
157.057400 24.000000
159.040500 57.000000
163.516800 112.000000
167.050300 30.000000
169.056200 30.000000
171.050900 20.000000
179.050800 63.000000
180.053300 66.000000
181.065800 29.000000
182.034600 79.000000
183.043300 124.000000
185.020300 56.000000
196.055600 74.000000
197.064900 66.000000
208.044900 33.000000
210.039200 27.000000
211.040500 58.000000
214.048300 21.000000
225.057300 150.000000
234.026000 40.000000
235.035000 41.000000
253.048000 311.000000

