>compound BML0058912
>parentmass 256.0939
>ionization [M-H]-
>formula C10H15N3O5
>rt 23.040000
>profile qtof
#smiles_iso COC1C(C(OC1N2C=CC(=NC2=O)N)CO)O
#smiles_can COC1C(C(OC1N2C=CC(=NC2=O)N)CO)O
#inchikey RFCQJGFZUQFYRF-UHFFFAOYSA-N
#pubchem_id 301382
#mb_accession BML01442,BML01449

>ms2peaks
108.034000 215.000000
123.037300 21.000000
123.056200 479.000000
131.883300 43.000000
140.534000 25.000000
204.523100 31.000000
213.082300 40.000000
255.236400 197.000000
256.092500 147.000000

>ms2peaks
108.033000 429.000000
108.064300 25.000000
116.931500 21.000000
123.055200 168.000000
144.977400 24.000000
219.848200 21.000000
237.215300 25.000000
255.231700 69.000000

