>compound BML0555409
>parentmass 306.0496
>ionization [M-H]-
>formula C9H14N3O7P
>rt 23.700000
>profile qtof
#smiles_iso C1C(C(OC1N2C=CC(=NC2=O)N)COP(=O)(O)O)O
#smiles_can C1C(C(OC1N2C=CC(=NC2=O)N)COP(=O)(O)O)O
#inchikey NCMVOABPESMRCP-UHFFFAOYSA-N
#pubchem_id 624
#mb_accession BML01202,BML01207

>ms2
110.035000 114.000000
114.714700 30.000000
176.996300 125.000000
195.006500 413.000000
245.035300 22.000000
263.037600 71.000000
263.060100 40.000000
306.048300 2609.000000

>ms2
110.035600 445.000000
176.993800 259.000000
195.005200 453.000000
195.046100 39.000000
223.769700 53.000000
227.516000 22.000000
285.774400 35.000000
306.050700 233.000000

