>compound BML0167468
>parentmass 301.2173
>ionization [M-H]-
>formula C20H30O2
>rt 691.020000
>profile qtof
#smiles_iso CC1(CCC2C(=C1)CCC3C2(CCCC3(C)C(=O)O)C)C=C
#smiles_can CC1(CCC2C(=C1)CCC3C2(CCCC3(C)C(=O)O)C)C=C
#inchikey MHVJRKBZMUDEEV-UHFFFAOYSA-N
#pubchem_id 10116
#mb_accession BML00263,BML00270

>ms2
131.125100 28.000000
163.548800 34.000000
217.002200 38.000000
219.006800 71.000000
252.482800 28.000000
276.277200 25.000000
301.000300 87.000000
301.217000 4840.000000

>ms2
119.038100 134.000000
143.561400 32.000000
200.303100 20.000000
202.902400 20.000000
278.693900 87.000000
300.990700 43.000000
301.219200 1186.000000

