>compound BML0513387
>parentmass 269.1547
>ionization [M-H]-
>formula C18H22O2
>rt 519.060000
>profile qtof
#smiles_iso CC12CCC3C(C1CCC2=O)CCC4=C3C=CC(=C4)O
#smiles_can CC12CCC3C(C1CCC2=O)CCC4=C3C=CC(=C4)O
#inchikey DNXHEGUUPJUMQT-UHFFFAOYSA-N
#pubchem_id 698
#mb_accession BML00988,BML00996,BML01004

>ms2
145.065000 21.000000
159.088800 23.000000
269.154100 2718.000000

>ms2
145.065000 45.000000
169.027500 32.000000
184.095500 25.000000
252.880500 36.000000
267.144100 37.000000
269.153800 2608.000000

>ms2
122.805100 28.000000
141.030700 36.000000
143.046900 74.000000
145.065700 831.000000
145.106500 27.000000
145.179000 21.000000
158.077800 23.000000
159.080500 145.000000
169.039800 29.000000
183.077300 104.000000
197.093200 34.000000
198.103900 31.000000
235.078700 24.000000
251.105200 29.000000
254.147900 35.000000
269.156200 261.000000

