>compound BML0618226
>parentmass 487.34289999999993
>ionization [M-H]-
>formula C30H48O5
>rt 609.420000
>profile qtof
#smiles_iso C[C@@H]1CC[C@@]2(CC[C@@]3(C(=CC[C@H]4[C@]3(CC[C@@H]5[C@@]4(C[C@H]([C@@H]([C@@]5(C)CO)O)O)C)C)[C@@H]2[C@H]1C)C)C(=O)O
#smiles_can CC1CCC2(CCC3(C(=CCC4C3(CCC5C4(CC(C(C5(C)CO)O)O)C)C)C2C1C)C)C(=O)O
#inchikey JXSVIVRDWWRQRT-UYDOISQJSA-N
#pubchem_id 119034
#mb_accession BML00728,BML00735,BML00742

>ms2
167.805500 26.000000
203.083000 29.000000
290.664300 28.000000
319.310200 28.000000
323.217800 26.000000
369.146100 20.000000
407.761300 60.000000
454.748200 24.000000
487.340800 1849.000000

>ms2
131.771000 35.000000
141.008800 25.000000
198.604300 24.000000
296.911700 42.000000
428.298000 25.000000
487.274100 55.000000
487.339900 2247.000000

>ms2
130.650200 32.000000
162.721400 20.000000
241.217000 22.000000
271.017200 26.000000
333.167200 35.000000
347.908400 32.000000
370.287700 24.000000
391.045800 25.000000
409.306000 25.000000
421.308300 29.000000
487.340400 1499.000000

