>compound BML0016486
>parentmass 303.1602
>ionization [M-H]-
>formula C18H24O4
>rt 616.860000
>profile qtof
#smiles_iso CC1(C2CCC1(C(C2)OC(=O)C3=CC(=C(C=C3)O)OC)C)C
#smiles_can CC1(C2CCC1(C(C2)OC(=O)C3=CC(=C(C=C3)O)OC)C)C
#inchikey KTOAGBIQQPGNIR-UHFFFAOYSA-N
#pubchem_id 2946267
#mb_accession BML01370,BML01372,BML01374

>ms2peaks
107.012900 105.000000
123.008100 22.000000
151.000800 164.000000
152.006600 32.000000
186.955400 23.000000
195.522200 24.000000
203.011400 30.000000
219.409300 46.000000
220.901500 27.000000
220.997100 23.000000
288.137100 959.000000
288.184700 60.000000
288.212500 26.000000
302.997500 24.000000
303.091000 25.000000
303.158900 12954.000000

>ms2peaks
107.014500 485.000000
119.035300 40.000000
122.038900 56.000000
135.720300 39.000000
151.003100 657.000000
151.042100 31.000000
153.126900 42.000000
166.027500 67.000000
167.035500 49.000000
186.724300 31.000000
219.507300 28.000000
261.137900 23.000000
261.154000 23.000000
287.921200 25.000000
288.135800 6768.000000
288.181400 219.000000
288.218600 69.000000
288.253200 62.000000
288.291000 85.000000
288.329200 40.000000
288.356200 22.000000
288.413600 37.000000
288.499000 36.000000
288.533900 23.000000
288.568200 21.000000
288.647700 48.000000
288.703400 41.000000
288.769200 48.000000
288.810200 21.000000
288.861600 24.000000
288.902800 22.000000
289.068300 35.000000
289.125400 29.000000
291.283900 20.000000
293.641400 22.000000
293.839300 31.000000
297.066900 36.000000
303.115200 23.000000
303.159100 8942.000000

>ms2peaks
100.082200 25.000000
107.013900 5144.000000
107.048900 110.000000
107.056400 43.000000
107.081700 31.000000
107.110500 82.000000
107.213300 33.000000
108.021000 33.000000
108.544400 35.000000
109.031000 24.000000
122.036600 222.000000
123.001000 61.000000
135.941700 34.000000
151.002200 2071.000000
151.041500 102.000000
151.111900 94.000000
152.010700 88.000000
171.858700 26.000000
246.594600 25.000000
260.289000 23.000000
278.801500 21.000000
288.137200 894.000000
288.171800 57.000000
288.193100 51.000000

