>compound BML0487320
>parentmass 301.0354
>ionization [M-H]-
>formula C15H10O7
>rt 397.500000
>profile qtof
#smiles_iso C1=CC(=C(C=C1C2=C(C(=O)C3=C(C=C(C=C3O2)O)O)O)O)O
#smiles_can C1=CC(=C(C=C1C2=C(C(=O)C3=C(C=C(C=C3O2)O)O)O)O)O
#inchikey REFJWTPEDVJJIY-UHFFFAOYSA-N
#pubchem_id 5280343
#mb_accession BML00143,BML01862

>ms2
104.297200 22.000000
107.012800 167.000000
108.989900 22.000000
121.028800 274.000000
125.022900 42.000000
125.138400 22.000000
149.020700 30.000000
151.002800 1310.000000
151.039500 23.000000
151.048900 24.000000
159.365300 34.000000
163.006800 32.000000
163.038000 26.000000
178.997500 638.000000
179.013900 22.000000
193.013100 45.000000
214.022500 34.000000
229.042200 23.000000
229.058700 22.000000
231.925100 25.000000
240.045700 33.000000
245.045500 33.000000
257.044500 26.000000
272.020100 29.000000
273.040200 223.000000
273.060300 22.000000
300.022200 25.000000
301.033100 858.000000

>ms2
117.855200 38.000000
121.026700 31.000000
125.027500 24.000000
151.002700 272.000000
151.035400 22.000000
178.997600 239.000000
223.169200 21.000000
226.916100 22.000000
272.030400 37.000000
273.027100 21.000000
273.046200 46.000000
300.025200 107.000000
301.034600 3624.000000

