>compound BML0453005
>parentmass 269.0455
>ionization [M-H]-
>formula C15H10O5
>rt 421.800000
>profile qtof
#smiles_iso C1=CC(=CC=C1C2=C(C(=O)C3=C(O2)C=C(C=C3)O)O)O
#smiles_can C1=CC(=CC=C1C2=C(C(=O)C3=C(O2)C=C(C=C3)O)O)O
#inchikey OBWHQJYOOCRPST-UHFFFAOYSA-N
#pubchem_id 5281611
#mb_accession BML00332,BML00337,BML00342

>ms2
269.045200 17050.000000

>ms2
120.019600 151.000000
135.007900 223.000000
147.009000 167.000000
149.025700 110.000000
168.058500 87.000000
169.061600 254.000000
195.040200 143.000000
196.052400 296.000000
197.060300 410.000000
211.040700 215.000000
213.054600 284.000000
223.038600 124.000000
224.047500 457.000000
225.050200 143.000000
239.035700 124.000000
240.042600 122.000000
241.048800 131.000000
252.042000 119.000000
269.045300 16141.000000

>ms2
105.034000 276.000000
115.054800 34.000000
117.035000 107.000000
119.012400 105.000000
120.019500 128.000000
121.027800 253.000000
123.009100 32.000000
130.041300 37.000000
132.022200 203.000000
133.028700 45.000000
135.008600 193.000000
139.055300 23.000000
141.064700 42.000000
141.074000 61.000000
142.042000 35.000000
143.051000 99.000000
147.010200 107.000000
148.016200 44.000000
149.025100 100.000000
156.020600 21.000000
156.061700 37.000000
158.036100 25.000000
159.044500 31.000000
161.031700 22.000000
167.049100 392.000000
168.062000 92.000000
169.027800 32.000000
169.060400 154.000000
169.070000 86.000000
170.034400 27.000000
171.042700 118.000000
174.997400 46.000000
182.038200 149.000000
183.034200 29.000000
183.046900 49.000000
184.052300 71.000000
185.019000 20.000000
185.058200 88.000000
186.028200 43.000000
195.044700 667.000000
196.053300 177.000000
197.030000 23.000000
197.060100 96.000000
198.030900 25.000000
199.037000 86.000000
208.054000 21.000000
210.028900 108.000000
211.039700 639.000000
213.055400 74.000000
223.038600 554.000000
223.084700 34.000000
223.114100 21.000000
224.048000 269.000000
226.025600 26.000000
239.034300 462.000000
239.070700 27.000000
240.046500 25.000000
241.043900 22.000000
241.068400 20.000000
251.037000 277.000000
252.043000 86.000000
268.037100 42.000000
269.044200 223.000000

