>compound BML0597920
>parentmass 375.131
>ionization [M-H]-
>formula C17H20N4O6
>rt 256.500000
>profile qtof
#smiles_iso CC1=CC2=C(C=C1C)N(C3=NC(=O)NC(=O)C3=N2)CC(C(C(CO)O)O)O
#smiles_can CC1=CC2=C(C=C1C)N(C3=NC(=O)NC(=O)C3=N2)CC(C(C(CO)O)O)O
#inchikey AUNGANRZJHBGPY-UHFFFAOYSA-N
#pubchem_id 1072
#mb_accession BML00087,BML00091

>ms2peaks
105.741000 29.000000
116.045600 31.000000
116.751000 20.000000
210.064800 28.000000
210.931700 33.000000
212.082400 236.000000
217.002000 40.000000
241.070900 145.000000
248.900000 21.000000
255.088900 2104.000000
255.121700 35.000000
255.139600 31.000000
255.194900 30.000000
255.240300 30.000000
255.538700 22.000000
255.561400 23.000000
294.587200 24.000000

>ms2peaks
109.627300 26.000000
162.401000 22.000000
202.058500 40.000000
212.082700 39.000000
217.003500 109.000000
241.073700 29.000000
243.110700 37.000000
252.535800 33.000000
255.087800 1754.000000
255.128900 166.000000
255.157300 26.000000
255.168600 27.000000
255.234200 26.000000
255.689800 21.000000
257.117300 39.000000
268.568500 33.000000
284.075200 34.000000
292.984000 30.000000
316.861000 27.000000
375.128300 422.000000

