>compound BML0415305
>parentmass 323.1289
>ionization [M-H]-
>formula C20H20O4
>rt 607.440000
>profile qtof
#smiles_iso CC(=CCC1=C2C(=C(C=C1O)O)C(=O)CC(O2)C3=CC=CC=C3)C
#smiles_can CC(=CCC1=C2C(=C(C=C1O)O)C(=O)CC(O2)C3=CC=CC=C3)C
#inchikey DAWSYIQAGQMLFS-UHFFFAOYSA-N
#pubchem_id 3144815
#mb_accession BML00140,BML00147,BML00154

>ms2peaks
323.128900 76535.000000

>ms2peaks
109.066400 390.000000
133.066100 834.000000
136.015800 890.000000
145.065100 301.000000
151.075700 972.000000
161.023400 324.000000
164.010600 2424.000000
169.065900 285.000000
171.043900 955.000000
175.074300 440.000000
176.011500 355.000000
219.065100 2191.000000
232.077300 250.000000
237.127500 445.000000
245.081100 352.000000
267.065300 421.000000
268.074300 876.000000
279.140400 1076.000000
280.071900 366.000000
281.116600 2326.000000
295.132500 449.000000
323.128600 49818.000000

>ms2peaks
101.038900 245.000000
103.055600 290.000000
104.024700 145.000000
105.031400 37.000000
105.037600 24.000000
105.070200 447.000000
105.098600 21.000000
106.043800 76.000000
107.010900 54.000000
107.051300 495.000000
107.086500 286.000000
107.099400 21.000000
108.022100 970.000000
109.029300 197.000000
109.065200 1808.000000
109.096600 47.000000
109.105500 26.000000
115.053700 113.000000
117.034200 225.000000
117.070700 116.000000
118.041800 110.000000
119.013200 36.000000
119.052200 21.000000
119.082900 101.000000
120.021700 872.000000
120.052200 44.000000
121.028000 217.000000
121.036000 24.000000
121.066000 43.000000
122.000400 84.000000
122.006700 45.000000
122.036400 51.000000
123.076400 26.000000
124.015500 25.000000
125.035600 23.000000
127.056900 112.000000
129.037300 24.000000
129.070800 347.000000
130.043100 162.000000
131.014400 48.000000
131.049900 259.000000
131.086500 447.000000
132.020900 162.000000
132.056600 39.000000
133.030200 477.000000
133.065400 2749.000000
133.094200 31.000000
133.103000 129.000000
133.171800 44.000000
134.038500 33.000000
135.009200 108.000000
135.037600 35.000000
135.046800 30.000000
136.016200 3106.000000
136.048800 98.000000
136.125000 42.000000
136.991100 37.000000
137.024300 203.000000
139.057800 96.000000
141.069600 192.000000
143.046000 77.000000
143.053200 54.000000
144.056300 56.000000
145.027500 105.000000
145.063400 718.000000
145.096900 26.000000
146.036800 22.000000
146.076800 35.000000
147.006900 38.000000
147.046600 74.000000
147.081300 216.000000
148.015900 846.000000
148.049500 36.000000
148.061200 39.000000
149.025200 322.000000
149.059700 307.000000
149.072600 44.000000
149.095600 56.000000
149.147600 24.000000
150.033300 32.000000
151.075000 1113.000000
151.113100 35.000000
153.073200 42.000000
153.675000 20.000000
155.048400 79.000000
155.086200 43.000000
156.054300 66.000000
156.059900 99.000000
157.062100 111.000000
159.047100 71.000000
159.079900 37.000000
160.052000 57.000000
161.024500 958.000000
161.062100 137.000000
161.103700 27.000000
163.002700 329.000000
163.039700 38.000000
163.069400 59.000000
163.077000 55.000000
164.009800 859.000000
165.062400 33.000000
165.072400 58.000000
167.044600 63.000000
168.060800 55.000000
169.066300 285.000000
169.099700 20.000000
171.044000 1898.000000
171.076800 64.000000
171.087200 41.000000
171.100200 38.000000
171.121200 32.000000
172.053100 202.000000
173.019200 23.000000
173.060700 248.000000
174.030800 50.000000
175.003400 146.000000
175.039300 152.000000
175.076000 499.000000
176.011200 1543.000000
176.047100 343.000000
176.081200 95.000000
176.134800 28.000000
177.018000 222.000000
177.034800 35.000000
177.058700 30.000000
178.076900 27.000000
179.084300 90.000000
180.055000 32.000000
181.063800 67.000000
182.067100 21.000000
183.046800 31.000000
183.057200 26.000000
183.079000 68.000000
184.055200 96.000000
185.051700 33.000000
186.062900 55.000000
187.077300 41.000000
188.012100 54.000000
189.017400 449.000000
189.053000 164.000000
191.034000 62.000000
191.071200 249.000000
193.062700 44.000000
193.081400 59.000000
193.105000 45.000000
195.081300 33.000000
195.109100 32.000000
195.121700 64.000000
196.054400 20.000000
197.059900 97.000000
197.095300 74.000000
198.065200 183.000000
201.015600 70.000000
201.095400 70.000000
202.086100 24.000000
203.032800 97.000000
203.073400 116.000000
204.085600 45.000000
206.073700 22.000000
207.073000 44.000000
207.097700 28.000000
208.087500 25.000000
209.061100 182.000000
209.100700 26.000000
209.130700 38.000000
210.067800 319.000000
211.073600 67.000000
212.090400 29.000000
213.051500 26.000000
213.138600 28.000000
217.052600 87.000000
219.064600 479.000000
220.090500 32.000000
221.056800 46.000000
221.100000 49.000000
222.070700 36.000000
223.073400 99.000000
223.092500 78.000000
224.082500 97.000000
225.057800 158.000000
226.060600 176.000000
231.060100 27.000000
232.082200 31.000000
234.065100 35.000000
235.073800 121.000000
235.104400 71.000000
235.151800 26.000000
236.076500 41.000000
237.051400 93.000000
237.089500 24.000000
237.129000 255.000000
238.065300 94.000000
238.090500 34.000000
239.070400 88.000000
239.107600 73.000000
240.076200 36.000000
245.079200 89.000000
245.102700 29.000000
246.107300 40.000000
251.065500 75.000000
251.100700 25.000000
251.154200 30.000000
252.075900 69.000000
252.116700 39.000000
253.045900 134.000000
253.123900 310.000000
254.051200 33.000000
255.140000 20.000000
263.109300 71.000000
264.114600 31.000000
265.054700 86.000000
265.087800 48.000000
267.038600 21.000000
267.067700 164.000000
268.072600 21.000000
275.101600 27.000000
277.122500 56.000000
279.065500 450.000000
279.124700 59.000000
279.141400 31.000000
281.122900 202.000000
293.283400 25.000000
295.132300 124.000000
307.099500 51.000000
323.129200 200.000000

