>compound BML0308422
>parentmass 241.083
>ionization [M-H]-
>formula C10H14N2O5
>rt 93.240000
>profile qtof
#smiles_iso CC1=CN(C(=O)NC1=O)C2CC(C(O2)CO)O
#smiles_can CC1=CN(C(=O)NC1=O)C2CC(C(O2)CO)O
#inchikey IQFYYKKMVGJFEH-UHFFFAOYSA-N
#pubchem_id 1134
#mb_accession BML01032

>ms2
104.479300 26.000000
108.047000 28.000000
125.035300 107.000000
150.054200 34.000000
151.050400 317.000000
168.065700 26.000000
240.869700 25.000000
241.082200 1319.000000

