>compound BML0209735
>parentmass 285.0404
>ionization [M-H]-
>formula C15H10O6
>rt 374.400000
>profile qtof
#smiles_iso C1=CC(=C(C=C1C2=C(C(=O)C3=C(O2)C=C(C=C3)O)O)O)O
#smiles_can C1=CC(=C(C=C1C2=C(C(=O)C3=C(O2)C=C(C=C3)O)O)O)O
#inchikey XHEFDIBZLJXQHF-UHFFFAOYSA-N
#pubchem_id 5281614
#mb_accession BML00306,BML00310

>ms2
107.231900 26.000000
111.829500 50.000000
121.028700 160.000000
135.009300 420.000000
149.023200 44.000000
163.002900 516.000000
164.920600 24.000000
195.053300 20.000000
241.044800 25.000000
256.033700 39.000000
257.045400 99.000000
265.180600 22.000000
284.022700 23.000000
284.265900 126.000000
284.280200 21.000000
285.040500 3361.000000

>ms2
227.002100 21.000000
229.052600 133.000000
240.049000 22.000000
241.044600 26.000000
241.061500 20.000000
255.024100 25.000000
256.031500 29.000000
256.039600 65.000000
257.047500 163.000000
268.042400 30.000000
284.268700 40.000000
285.039500 677.000000

