>compound BML0035840
>parentmass 407.28030000000007
>ionization [M-H]-
>formula C24H40O5
>rt 603.900000
>profile qtof
#smiles_iso CC(CCC(=O)O)C1CCC2C1(C(CC3C2C(CC4C3(CCC(C4)O)C)O)O)C
#smiles_can CC(CCC(=O)O)C1CCC2C1(C(CC3C2C(CC4C3(CCC(C4)O)C)O)O)C
#inchikey BHQCQFFYRZLCQQ-UHFFFAOYSA-N
#pubchem_id 303
#mb_accession BML00989,BML00997,BML01005

>ms2peaks
164.966900 32.000000
280.459800 20.000000
327.278600 21.000000
343.261100 25.000000
389.270000 34.000000
407.277700 5013.000000

>ms2peaks
102.963600 33.000000
198.156000 24.000000
343.259300 21.000000
343.277500 23.000000
345.282200 60.000000
389.273700 31.000000
407.277900 3634.000000

>ms2peaks
195.179600 26.000000
201.129700 23.000000
205.159300 36.000000
215.587200 22.000000
223.167500 27.000000
231.176700 49.000000
233.195600 31.000000
249.181100 45.000000
251.195900 65.000000
271.207500 27.000000
287.197500 34.000000
289.216300 199.000000
325.248100 103.000000
327.267900 36.000000
335.247000 27.000000
341.244900 53.000000
343.262100 257.000000
345.267200 32.000000
345.286600 99.000000
353.249100 99.000000
369.231500 25.000000
405.273900 51.000000
407.253100 22.000000
407.277200 821.000000

