>compound BML0473355
>parentmass 267.0663
>ionization [M-H]-
>formula C16H12O4
>rt 548.340000
>profile qtof
#smiles_iso COC1=CC=CC(=C1)C2=C(C(=O)C3=CC=CC=C3O2)O
#smiles_can COC1=CC=CC(=C1)C2=C(C(=O)C3=CC=CC=C3O2)O
#inchikey GYLGASXCHFNKHD-UHFFFAOYSA-N
#pubchem_id 676296
#mb_accession BML00335

>ms2peaks
119.035000 25.000000
137.802900 40.000000
165.864800 21.000000
195.043000 48.000000
196.052100 163.000000
196.437800 31.000000
208.052300 22.000000
212.268200 20.000000
223.031100 24.000000
239.071700 104.000000
246.742700 25.000000
252.030800 29.000000
267.064300 993.000000

