>compound BML0032678
>parentmass 801.1878
>ionization [M+CH3COOH-H]-
>formula C35H34O18
>rt 573.240000
>profile qtof
#smiles_iso CC(=O)OCC1C(C(C(C(O1)OC2=CC3=C(C(=C2)OC(=O)C)C(=O)C(=CO3)C4=CC(=C(C=C4)OC(=O)C)OC(=O)C)OC(=O)C)OC(=O)C)OC(=O)C
#smiles_can CC(=O)OCC1C(C(C(C(O1)OC2=CC3=C(C(=C2)OC(=O)C)C(=O)C(=CO3)C4=CC(=C(C=C4)OC(=O)C)OC(=O)C)OC(=O)C)OC(=O)C)OC(=O)C
#inchikey WSMQBJMPWPNLTJ-UHFFFAOYSA-N
#pubchem_id 3349822
#mb_accession BML01622,BML01630,BML01638

>ms2
109.158800 23.000000
123.496600 21.000000
157.630800 25.000000
232.488100 21.000000
278.681900 35.000000
314.742100 22.000000
369.039400 32.000000
369.062200 23.000000
389.995700 24.000000
629.771100 23.000000
642.259800 24.000000
657.141900 262.000000
657.221300 20.000000
699.155000 1214.000000
699.223300 22.000000
699.283500 49.000000
699.400200 30.000000
699.675600 22.000000
700.157200 26.000000
759.157700 54.000000
800.952800 22.000000
801.190100 374.000000

>ms2
158.457600 20.000000
183.551800 65.000000
226.412500 21.000000
242.293800 36.000000
308.008200 24.000000
317.713000 26.000000
337.092600 23.000000
369.056800 161.000000
390.978600 20.000000
411.059900 47.000000
411.088500 29.000000
417.231400 21.000000
444.417000 24.000000
630.003100 49.000000
657.142600 195.000000
699.157600 340.000000
699.213500 40.000000

>ms2
143.985700 23.000000
182.936500 29.000000
216.992400 31.000000
217.005100 52.000000
218.860400 33.000000
273.246600 23.000000
285.050800 22.000000
327.053800 31.000000
369.012100 31.000000
369.057900 366.000000
369.092300 70.000000
382.087200 38.000000
411.065200 31.000000
416.410900 30.000000
435.065500 38.000000
553.600400 22.000000
600.742300 22.000000
657.147900 146.000000
672.504700 23.000000

