>compound BML0758832
>parentmass 239.07129999999998
>ionization [M-H]-
>formula C15H12O3
>rt 428.580000
>profile qtof
#smiles_iso C1C(OC2=CC=CC=C2C1=O)C3=CC=C(C=C3)O
#smiles_can C1C(OC2=CC=CC=C2C1=O)C3=CC=C(C=C3)O
#inchikey ZLHVIYHWWQYJID-UHFFFAOYSA-N
#pubchem_id 165506
#mb_accession BML01733,BML01740,BML01747

>ms2peaks
119.049600 10803.000000
119.081400 365.000000
119.096100 149.000000
119.125000 72.000000
119.150500 175.000000
119.186000 31.000000
119.214700 29.000000
119.272500 36.000000
119.302000 25.000000
119.320300 21.000000
119.419700 25.000000
119.449800 31.000000
119.495100 21.000000
119.524000 28.000000
119.567300 32.000000
145.026600 24.000000
157.006000 20.000000
195.080900 1130.000000
195.110100 71.000000
239.070600 14978.000000

>ms2peaks
107.672600 24.000000
117.032800 72.000000
119.012000 28.000000
119.049400 37596.000000
119.081300 983.000000
119.100300 679.000000
119.125500 155.000000
119.150600 645.000000
119.191600 146.000000
119.231400 58.000000
119.239000 37.000000
119.246700 28.000000
119.267000 97.000000
119.285300 20.000000
119.303600 101.000000
119.327900 52.000000
119.334300 32.000000
119.342000 47.000000
119.358500 26.000000
119.382700 63.000000
119.392300 43.000000
119.413300 27.000000
119.441100 60.000000
119.458500 26.000000
119.470700 30.000000
119.495100 25.000000
119.503400 27.000000
119.514600 46.000000
119.588800 49.000000
119.607000 22.000000
119.642200 32.000000
119.663100 25.000000
119.683700 32.000000
119.756600 34.000000
119.764700 27.000000
119.787300 25.000000
119.801500 33.000000
119.822200 37.000000
119.849800 42.000000
119.867300 28.000000
119.917400 25.000000
119.956200 35.000000
120.025500 44.000000
120.050200 69.000000
120.109000 20.000000
145.029300 43.000000
174.493100 24.000000
195.080500 611.000000
195.108800 29.000000
219.057200 21.000000
232.754000 27.000000
239.069300 904.000000

>ms2peaks
103.019700 39.000000
104.027400 134.000000
108.690400 51.000000
117.033800 387.000000
119.049400 33393.000000
119.082600 934.000000
119.100500 420.000000
119.124000 141.000000
119.151200 540.000000
119.187000 99.000000
119.224900 100.000000
119.231900 23.000000
119.255300 45.000000
119.274400 101.000000
119.294600 40.000000
119.316700 91.000000
119.357000 36.000000
119.371600 79.000000
119.417000 80.000000
119.454400 59.000000
119.468700 54.000000
119.490600 23.000000
119.520800 87.000000
119.573900 30.000000
119.581100 23.000000
119.613300 56.000000
119.627100 22.000000
119.648600 26.000000
119.673800 49.000000
119.690700 47.000000
119.714400 32.000000
119.742200 49.000000
119.759700 29.000000
119.782400 28.000000
119.803200 24.000000
119.824300 32.000000
119.835200 39.000000
119.880500 34.000000
119.906600 20.000000
119.943900 42.000000
119.960500 23.000000
119.982800 40.000000
120.014900 23.000000
120.044200 23.000000
120.074400 32.000000
120.097300 23.000000
120.347200 21.000000
120.651000 25.000000
120.945300 21.000000
128.695000 25.000000
166.086200 21.000000
167.082800 25.000000
227.569400 27.000000

