>compound BML0426708
>parentmass 353.187
>ionization [M-H]-
>formula C21H26N2O3
>rt 199.020000
>profile qtof
#smiles_iso COC(=O)[C@@H]1[C@H](CC[C@H]2[C@@H]1C[C@H]3C4=C(CCN3C2)C5=CC=CC=C5N4)O
#smiles_can COC(=O)C1C(CCC2C1CC3C4=C(CCN3C2)C5=CC=CC=C5N4)O
#inchikey BLGXFZZNTVWLAY-DIRVCLHFSA-N
#pubchem_id 643606
#mb_accession BML00496,BML00504

>ms2
126.099900 22.000000
156.079100 39.000000
178.032200 34.000000
179.020000 21.000000
191.055300 308.000000
191.098100 21.000000
197.934600 29.000000
215.046900 27.000000
227.657300 26.000000
277.304600 22.000000
293.168300 62.000000
303.138300 39.000000
321.172300 83.000000
321.211000 22.000000
352.082100 103.000000
353.087500 112.000000
353.186600 2981.000000

>ms2
109.260900 36.000000
133.025400 25.000000
135.037200 55.000000
144.083300 21.000000
146.655100 27.000000
152.054100 32.000000
154.067400 24.000000
168.070400 34.000000
169.075200 99.000000
178.078300 55.000000
181.079600 31.000000
183.100900 29.000000
191.056300 421.000000
191.091000 31.000000
208.575200 36.000000
212.267500 22.000000
221.092000 27.000000
221.106700 27.000000
238.601300 40.000000
275.158800 29.000000
276.565500 40.000000
277.173900 95.000000
292.895400 45.000000
293.166800 604.000000
293.219700 41.000000
293.689300 25.000000
303.147000 333.000000
303.171800 35.000000
303.190500 27.000000
319.144500 27.000000
321.159600 695.000000
321.229700 29.000000
321.330500 24.000000
330.150000 25.000000
353.185200 2380.000000

