>compound BML0438077
>parentmass 291.0874
>ionization [M-H]-
>formula C15H16O6
>rt 252.480000
>profile qtof
#smiles_iso CC(=C)C1C2C3C4(C(C1C(=O)O2)(CC5C4(O5)C(=O)O3)O)C
#smiles_can CC(=C)C1C2C3C4(C(C1C(=O)O2)(CC5C4(O5)C(=O)O3)O)C
#inchikey PIMZUZSSNYHVCU-UHFFFAOYSA-N
#pubchem_id 4816
#mb_accession BML00672,BML00680,BML00688

>ms2
123.044200 34.000000
137.057500 33.000000
143.086500 40.000000
159.117600 462.000000
161.087600 47.000000
175.114600 224.000000
188.082000 216.000000
201.092800 47.000000
203.108200 1154.000000
203.145300 36.000000
203.171000 31.000000
247.094600 41.000000
264.251000 31.000000
291.088100 128.000000

>ms2
105.070000 57.000000
106.040000 25.000000
107.053400 57.000000
108.020900 161.000000
109.028900 4684.000000
109.060600 118.000000
109.076900 57.000000
109.126800 78.000000
109.391600 31.000000
119.082100 30.000000
121.066700 37.000000
122.036100 64.000000
123.045400 187.000000
129.064600 68.000000
131.086300 26.000000
133.063600 25.000000
133.102100 62.000000
135.044500 54.000000
135.076500 25.000000
136.053200 27.000000
143.085000 36.000000
146.071400 34.000000
147.072000 29.000000
148.053000 26.000000
157.097700 32.000000
159.114600 120.000000
161.097700 33.000000
170.072600 26.000000
173.058900 46.000000
173.096200 38.000000
175.114100 185.000000
185.097400 49.000000
188.083300 63.000000
201.090200 39.000000
203.111100 145.000000
214.307500 30.000000
252.803900 25.000000
255.717900 25.000000
280.957800 29.000000
291.097500 25.000000

>ms2
107.048700 26.000000
108.019600 118.000000
109.029200 2017.000000
109.049300 81.000000
109.062300 76.000000
109.086000 39.000000
109.128400 30.000000
109.259600 25.000000
111.046100 64.000000
113.090600 22.000000
117.043100 22.000000
119.090100 75.000000
122.032900 33.000000
123.046500 66.000000
133.030100 27.000000
133.059500 26.000000
144.375400 37.000000
145.066600 35.000000
147.076200 40.000000
157.096300 25.000000
157.819800 31.000000
158.044700 24.000000
158.077200 31.000000
174.456500 35.000000
174.642600 36.000000
180.530500 33.000000
182.890400 28.000000
221.183300 37.000000
236.528400 28.000000
266.893500 20.000000

