>compound BML1168022
>parentmass 227.07129999999998
>ionization [M-H]-
>formula C14H12O3
>rt 323.160000
>profile qtof
#smiles_iso C1=CC(=CC=C1C=CC2=CC(=CC(=C2)O)O)O
#smiles_can C1=CC(=CC=C1C=CC2=CC(=CC(=C2)O)O)O
#inchikey LUKBXSAWLPMMSZ-UHFFFAOYSA-N
#pubchem_id 5056
#mb_accession BML00673,BML00681,BML00689

>ms2
143.049900 702.000000
157.064500 204.000000
159.082800 319.000000
183.081800 342.000000
185.060900 1094.000000
227.070600 29560.000000

>ms2
184.052000 72.000000
185.059800 4882.000000
185.093000 55.000000
185.104600 68.000000
185.125900 84.000000
185.139600 39.000000
185.185900 81.000000
194.770000 42.000000
209.065000 42.000000
212.060200 32.000000
225.054700 180.000000
226.968900 35.000000
227.070500 5691.000000

>ms2
107.052200 21.000000
114.046000 37.000000
115.054300 641.000000
115.089800 26.000000
117.034000 437.000000
119.050000 271.000000
130.966000 21.000000
131.053900 40.000000
135.533200 27.000000
139.050600 23.000000
139.059000 39.000000
141.070900 45.000000
142.041600 46.000000
143.049800 2292.000000
143.087900 98.000000
143.108600 37.000000
143.160600 41.000000
152.063100 34.000000
156.058500 76.000000
157.062200 66.000000
159.081800 30.000000
167.050600 77.000000
170.037000 24.000000
180.056300 104.000000
181.066700 165.000000
182.073200 72.000000
183.045600 40.000000
183.084700 26.000000
184.055800 48.000000
185.050400 71.000000

