>compound BML1767144
>parentmass 297.0768
>ionization [M-H]-
>formula C17H14O5
>rt 537.780000
>profile qtof
#smiles_iso COC1=C(C=C(C=C1)C2=C(C(=O)C3=CC=CC=C3O2)O)OC
#smiles_can COC1=C(C=C(C=C1)C2=C(C(=O)C3=CC=CC=C3O2)O)OC
#inchikey BXLAVJWSFYZDPF-UHFFFAOYSA-N
#pubchem_id 97143
#mb_accession BML01408,BML01414,BML01420

>ms2
101.766900 38.000000
132.075500 32.000000
195.039300 30.000000
211.045900 60.000000
214.887100 29.000000
216.374300 30.000000
254.065200 31.000000
267.027600 384.000000
280.643900 35.000000
282.050300 1469.000000
282.108700 89.000000
282.176700 26.000000
282.825000 21.000000
297.076400 1733.000000

>ms2
134.461900 29.000000
167.048800 133.000000
170.903200 28.000000
183.040100 26.000000
195.050100 22.000000
211.037900 50.000000
225.057600 35.000000
226.898000 26.000000
234.965000 25.000000
239.033900 188.000000
253.043300 33.000000
254.063700 20.000000
267.029500 1320.000000
267.075100 91.000000
267.104400 38.000000
282.053400 837.000000
297.066500 59.000000
297.086000 35.000000

>ms2
101.032900 25.000000
103.017900 28.000000
103.024900 39.000000
109.730900 21.000000
119.014300 90.000000
133.033800 25.000000
147.003600 42.000000
151.053400 49.000000
155.047000 74.000000
167.047000 615.000000
167.079500 75.000000
183.046100 134.000000
195.042500 326.000000
195.055200 21.000000
210.029900 31.000000
211.037900 296.000000
223.037600 120.000000
239.034200 126.000000
267.029700 70.000000
275.546900 20.000000

