>compound BML1569271
>parentmass 285.0404
>ionization [M-H]-
>formula C15H10O6
>rt 447.180000
>profile qtof
#smiles_iso C1=CC(=CC=C1C2=C(C(=O)C3=C(C=C(C=C3O2)O)O)O)O
#smiles_can C1=CC(=CC=C1C2=C(C(=O)C3=C(C=C(C=C3O2)O)O)O)O
#inchikey IYRMWMYZSQPJKC-UHFFFAOYSA-N
#pubchem_id 5280863
#mb_accession BML00260,BML00267,BML00274

>ms2peaks
151.003400 144.000000
159.037800 90.000000
284.263700 132.000000
285.039900 16812.000000

>ms2peaks
107.018700 94.000000
108.019300 48.000000
131.053600 59.000000
135.007700 116.000000
137.024300 101.000000
142.028400 60.000000
147.011100 102.000000
151.005400 230.000000
159.038800 73.000000
163.004400 48.000000
167.055200 99.000000
167.862500 69.000000
169.066600 111.000000
172.664800 103.000000
173.019000 177.000000
185.062300 150.000000
187.043000 162.000000
188.156800 73.000000
197.060700 69.000000
213.052700 96.000000
214.025600 70.000000
215.029700 122.000000
229.054000 188.000000
239.041400 64.000000
240.034000 93.000000
255.036700 90.000000
267.940200 56.000000
268.046000 52.000000
284.922700 82.000000
284.995400 100.000000
285.040000 9642.000000

>ms2peaks
100.487300 24.000000
103.055200 34.000000
105.035400 69.000000
107.017300 97.000000
108.021700 372.000000
108.046700 26.000000
109.029200 139.000000
115.056600 75.000000
117.034100 356.000000
117.063200 40.000000
119.013700 58.000000
119.050100 42.000000
120.022800 128.000000
121.027200 180.000000
123.010800 58.000000
123.744300 28.000000
127.049600 66.000000
129.032700 102.000000
129.064200 47.000000
131.046300 232.000000
132.023700 72.000000
132.035200 30.000000
133.031500 64.000000
135.008300 153.000000
135.041700 72.000000
136.014100 41.000000
137.024800 127.000000
141.034500 36.000000
143.049200 219.000000
145.026200 245.000000
147.039400 24.000000
147.711300 23.000000
148.987100 22.000000
149.025400 22.000000
151.002000 106.000000
151.042800 47.000000
154.040900 68.000000
155.047000 113.000000
155.061000 31.000000
156.057300 141.000000
157.027300 120.000000
157.062300 209.000000
158.037900 240.000000
159.044800 558.000000
159.515900 21.000000
161.025700 229.000000
161.052900 46.000000
163.004300 32.000000
164.006400 53.000000
167.050200 184.000000
168.052500 88.000000
170.035700 74.000000
171.044600 134.000000
173.024700 78.000000
175.041000 21.000000
182.034200 115.000000
183.045400 157.000000
183.065400 23.000000
184.052300 57.000000
185.031300 67.000000
185.062100 133.000000
187.038400 266.000000
189.051000 72.000000
190.995900 48.000000
195.039400 94.000000
196.050000 44.000000
197.020400 48.000000
197.060100 27.000000
198.031100 93.000000
199.037400 45.000000
201.051700 43.000000
201.066900 69.000000
210.032300 77.000000
211.039800 179.000000
211.070900 26.000000
213.052400 105.000000
214.028100 58.000000
226.037800 25.000000
227.026700 132.000000
227.049800 31.000000
227.176200 22.000000
229.049800 154.000000
230.017600 24.000000
238.013600 33.000000
239.023800 37.000000
239.040800 85.000000
240.041900 129.000000
243.017400 26.000000
255.029200 178.000000
267.022400 57.000000
284.026100 39.000000
285.041300 167.000000

