>compound BML1455945
>parentmass 431.09829999999994
>ionization [M-H]-
>formula C21H20O10
>rt 343.920000
>profile qtof
#smiles_iso C1=CC(=CC=C1C2=COC3=CC(=CC(=C3C2=O)O)O)OC4C(C(C(C(O4)CO)O)O)O
#smiles_can C1=CC(=CC=C1C2=COC3=CC(=CC(=C3C2=O)O)O)OC4C(C(C(C(O4)CO)O)O)O
#inchikey ISQRJFLLIDGZEP-UHFFFAOYSA-N
#pubchem_id 6078194
#mb_accession BML01300,BML01305,BML01310

>ms2peaks
100.152900 29.000000
104.029000 35.000000
150.262500 31.000000
153.374000 37.000000
195.027400 23.000000
218.041900 34.000000
224.033700 26.000000
239.024000 22.000000
239.039200 63.000000
267.037800 39.000000
268.034300 782.000000
268.052700 50.000000
268.073200 29.000000
269.044000 165.000000
282.042600 30.000000
291.027600 23.000000
311.054600 21.000000
323.107600 20.000000
430.208800 21.000000
431.097700 22927.000000

>ms2peaks
101.260700 32.000000
132.020100 26.000000
134.404200 28.000000
135.009400 45.000000
142.039900 42.000000
157.332600 33.000000
199.942300 61.000000
208.799500 35.000000
211.037600 92.000000
212.046300 29.000000
223.037000 39.000000
224.048900 35.000000
226.023600 42.000000
239.033100 98.000000
240.044100 25.000000
267.024300 236.000000
268.037500 3336.000000
268.086400 62.000000
268.115800 45.000000
268.129800 25.000000
268.149100 40.000000
268.189200 48.000000
268.295900 24.000000
268.327200 26.000000
268.394000 28.000000
268.475100 21.000000
268.611300 20.000000
268.637400 24.000000
268.786000 44.000000
269.034500 44.000000
269.048100 503.000000
269.106200 28.000000
269.202300 22.000000
270.046700 20.000000
283.052500 40.000000
299.259200 33.000000
311.052800 103.000000
311.074300 21.000000
323.063300 59.000000
341.063400 35.000000
346.231500 30.000000
359.093400 22.000000
381.342500 27.000000
427.957000 23.000000
430.990500 20.000000
431.098200 20428.000000

>ms2peaks
119.047200 64.000000
120.020300 26.000000
132.020800 431.000000
133.033500 33.000000
134.040500 75.000000
135.000100 21.000000
135.008400 328.000000
135.753000 29.000000
141.061500 38.000000
142.040000 26.000000
143.756500 28.000000
147.009700 50.000000
151.006100 29.000000
154.040800 68.000000
167.050900 120.000000
169.059600 27.000000
172.053100 34.000000
176.013500 30.000000
179.046800 29.000000
180.067600 42.000000
182.041700 42.000000
183.040100 53.000000
184.053000 75.000000
187.931500 28.000000
194.030000 23.000000
195.048700 200.000000
196.054700 193.000000
198.029900 39.000000
199.018200 25.000000
199.034500 34.000000
199.044500 25.000000
210.038500 22.000000
211.039000 592.000000
211.087500 40.000000
212.024200 24.000000
212.048100 448.000000
212.064900 27.000000
215.365300 30.000000
222.033800 33.000000
223.041300 455.000000
223.077400 27.000000
224.046900 463.000000
224.078500 21.000000
226.031400 322.000000
226.065900 27.000000
239.034200 1773.000000
239.078700 48.000000
239.144600 24.000000
239.175800 30.000000
240.042800 773.000000
240.086600 28.000000
241.051100 58.000000
247.936600 28.000000
250.026500 26.000000
254.050800 22.000000
262.977600 30.000000
266.985000 24.000000
267.029900 2298.000000
267.077000 109.000000
267.111000 44.000000
267.133900 33.000000
267.181600 29.000000
267.328600 22.000000
267.383000 22.000000
267.424900 25.000000
267.519700 29.000000
267.586700 21.000000
267.616200 32.000000
267.668200 29.000000
268.037200 18386.000000
268.085700 584.000000
268.115700 336.000000
268.141300 129.000000
268.185300 242.000000
268.236700 31.000000
268.249700 76.000000
268.276100 68.000000
268.301500 62.000000
268.330000 91.000000
268.387200 90.000000
268.439200 33.000000
268.463600 76.000000
268.493000 67.000000
268.515500 40.000000
268.550300 55.000000
268.585500 35.000000
268.624500 69.000000
268.679600 64.000000
268.714600 91.000000
268.745700 52.000000
268.777500 36.000000
268.802800 21.000000
268.819900 41.000000
268.881400 44.000000
268.901300 29.000000
268.948700 30.000000
268.967300 47.000000
269.046000 1567.000000
269.103300 101.000000
269.155000 52.000000
269.193200 48.000000
269.222600 22.000000
269.340900 69.000000
269.375400 22.000000
269.404500 37.000000
269.435800 35.000000
269.468300 36.000000
269.510400 49.000000
269.618100 29.000000
269.649200 24.000000
269.787700 23.000000
269.816300 27.000000
269.841200 21.000000
270.049400 30.000000
270.718300 21.000000
281.051900 31.000000
282.047900 112.000000
283.056400 109.000000
283.131800 31.000000
311.058500 102.000000
361.828200 27.000000
431.098400 865.000000

