>compound BML1506390
>parentmass 255.06630000000004
>ionization [M-H]-
>formula C15H12O4
>rt 409.680000
>profile qtof
#smiles_iso C1C(OC2=C(C1=O)C=C(C=C2)O)C3=CC=CC=C3O
#smiles_can C1C(OC2=C(C1=O)C=C(C=C2)O)C3=CC=CC=C3O
#inchikey JMSUEPQZGKBECJ-UHFFFAOYSA-N
#pubchem_id 5106787
#mb_accession BML01512,BML01520,BML01528

>ms2
107.014300 157.000000
108.021300 444.000000
109.029300 9892.000000
109.061300 278.000000
109.077100 35.000000
109.098000 52.000000
109.127100 155.000000
109.193200 24.000000
109.230300 51.000000
109.255000 23.000000
109.263000 24.000000
109.287000 20.000000
109.328300 33.000000
109.339500 22.000000
109.347400 22.000000
109.394700 24.000000
109.413900 26.000000
109.485500 32.000000
109.724100 22.000000
109.841700 20.000000
109.938700 23.000000
110.034400 35.000000
117.036000 102.000000
119.050200 644.000000
119.073100 22.000000
133.032900 28.000000
134.989300 37.000000
135.008600 287.000000
135.030700 22.000000
137.022100 67.000000
145.027500 211.000000
145.037300 57.000000
149.020800 102.000000
160.008500 40.000000
160.019200 22.000000
161.023100 1407.000000
161.056100 32.000000
161.071800 22.000000
161.142800 21.000000
193.065200 25.000000
196.044900 23.000000
196.059800 28.000000
209.060900 52.000000
211.079000 247.000000
237.055400 180.000000
255.064400 3942.000000

>ms2
107.014100 697.000000
107.040200 25.000000
108.021800 1234.000000
108.052100 20.000000
108.119800 21.000000
109.029500 5407.000000
109.064900 101.000000
109.081000 39.000000
109.098000 61.000000
109.127000 64.000000
109.158800 21.000000
109.225700 22.000000
109.267900 21.000000
109.275600 20.000000
109.435700 32.000000
109.546100 30.000000
110.770500 36.000000
117.033900 566.000000
117.058700 36.000000
119.050400 2436.000000
119.082600 77.000000
119.150700 33.000000
121.021900 30.000000
133.027900 31.000000
135.008200 503.000000
135.046500 21.000000
137.024300 58.000000
145.029400 94.000000
149.023600 444.000000
149.059900 28.000000
161.024300 1100.000000
161.044600 29.000000
161.053600 37.000000
193.061400 73.000000
196.056700 53.000000
205.664100 27.000000
209.047900 21.000000
209.061700 115.000000
211.070400 38.000000
211.084200 33.000000
213.057100 36.000000
219.039500 26.000000
219.053500 22.000000
237.054000 272.000000
255.056900 49.000000
255.074400 48.000000
255.232800 199.000000

>ms2
105.040500 26.000000
107.012900 40.000000
108.021800 1253.000000
108.051800 27.000000
108.118600 26.000000
109.028000 521.000000
117.033500 361.000000
117.040800 22.000000
117.064400 28.000000
119.050200 4080.000000
119.082200 137.000000
119.100000 77.000000
119.114600 24.000000
119.131400 25.000000
119.151000 55.000000
119.182300 24.000000
119.574000 26.000000
119.715100 22.000000
119.730500 22.000000
121.030600 51.000000
133.029900 50.000000
149.026000 83.000000
160.012200 108.000000
160.022300 31.000000
161.023100 134.000000
195.040900 24.000000
209.053000 71.000000

