>compound BML1096583
>parentmass 445.114
>ionization [M-H]-
>formula C22H22O10
>rt 401.580000
>profile qtof
#smiles_iso COC1=CC=C(C=C1)C2=COC3=CC(=CC(=C3C2=O)O)OC4C(C(C(C(O4)CO)O)O)O
#smiles_can COC1=CC=C(C=C1)C2=COC3=CC(=CC(=C3C2=O)O)OC4C(C(C(C(O4)CO)O)O)O
#inchikey LFEUICHQZGNOHD-UHFFFAOYSA-N
#pubchem_id 5358913
#mb_accession BML00199,BML00212,BML00225

>ms2peaks
104.705100 25.000000
114.250300 25.000000
163.248100 22.000000
268.035700 46.000000
283.060000 2652.000000
283.112700 70.000000
283.137400 42.000000
283.168800 25.000000
283.218100 38.000000
283.475100 27.000000
283.520300 21.000000
283.748100 27.000000
325.072400 76.000000
355.601100 20.000000

>ms2peaks
268.039100 180.000000
283.059600 2031.000000
283.098600 23.000000
283.117600 60.000000
297.078000 25.000000
325.073200 29.000000
429.483400 24.000000

>ms2peaks
211.042200 20.000000
229.243900 20.000000
239.034100 73.000000
240.040000 58.000000
267.035800 107.000000
267.075300 23.000000
268.036900 1178.000000
268.065200 62.000000
268.084500 58.000000
282.067000 30.000000
283.061400 468.000000
283.107600 30.000000
308.885500 23.000000

