>compound BML1148364
>parentmass 271.1088
>ionization [M-H]-
>formula C15H16N2O3
>rt 417.660000
>profile qtof
#smiles_iso CN(CCC#N)CC1=CC(=O)OC2=C1C=CC(=C2)OC
#smiles_can CN(CCC#N)CC1=CC(=O)OC2=C1C=CC(=C2)OC
#inchikey FMDMLXZPCLVWSQ-UHFFFAOYSA-N
#pubchem_id 4315245
#mb_accession BML01574,BML01581,BML01588

>ms2
118.980300 86.000000
138.022000 26.000000
147.044400 116.000000
158.700500 25.000000
175.041200 162.000000
187.862300 28.000000
188.035200 171.000000
189.048800 27.000000
190.086400 44.000000
203.059500 662.000000
203.110300 22.000000
203.850000 30.000000
210.364100 26.000000
218.081100 1226.000000
218.115900 38.000000
218.136000 29.000000
218.159400 21.000000
271.105000 97.000000

>ms2
118.047200 23.000000
123.038900 35.000000
132.021500 89.000000
133.033700 48.000000
146.036400 337.000000
147.044000 599.000000
147.079600 28.000000
150.007900 32.000000
150.031000 38.000000
159.046100 34.000000
160.044500 68.000000
161.025600 28.000000
174.033000 20.000000
175.035900 216.000000
175.062700 216.000000
188.035200 876.000000
188.070200 44.000000
188.744800 23.000000
189.056000 55.000000
190.078300 36.000000
190.087400 129.000000
198.060700 30.000000
202.053000 24.000000
203.056900 1159.000000
203.098600 50.000000
203.117100 23.000000
203.245200 29.000000
216.065800 44.000000
218.083200 317.000000
218.106200 41.000000
252.357400 42.000000
263.802500 27.000000
268.879000 45.000000

>ms2
104.023500 31.000000
105.032600 26.000000
118.039500 24.000000
129.728800 69.000000
132.019800 586.000000
133.028600 286.000000
133.059500 22.000000
145.031400 64.000000
146.035900 102.000000
147.044000 221.000000
160.038000 288.000000
161.023100 234.000000
161.032600 24.000000
170.485900 27.000000
175.068200 33.000000
186.023700 42.000000
188.033100 449.000000
198.569400 22.000000
201.047700 28.000000
202.046700 93.000000

