>compound BML1933493
>parentmass 277.0273
>ionization [M-H]-
>formula C14H11ClO4
>rt 479.640000
>profile qtof
#smiles_iso C1=CC(=CC=C1CC(=O)C2=C(C=C(C=C2O)O)O)Cl
#smiles_can C1=CC(=CC=C1CC(=O)C2=C(C=C(C=C2O)O)O)Cl
#inchikey POUZLUJYBWGJJO-UHFFFAOYSA-N
#pubchem_id 592738
#mb_accession BML01514,BML01522,BML01530

>ms2
107.014600 222.000000
121.028100 32.000000
123.015100 40.000000
125.023100 556.000000
125.049500 25.000000
125.754900 48.000000
137.030900 22.000000
144.821400 29.000000
149.020800 70.000000
151.004000 1492.000000
151.020000 68.000000
151.043100 46.000000
151.060700 37.000000
151.256600 20.000000
151.482000 30.000000
151.536400 23.000000
152.010600 27.000000
166.239900 53.000000
167.872300 57.000000
173.013700 32.000000
187.033300 51.000000
191.024200 159.000000
193.004200 90.000000
197.074700 22.000000
205.029200 35.000000
205.043700 83.000000
206.836300 29.000000
215.025900 34.000000
217.002700 59.000000
217.024100 30.000000
231.023900 61.000000
233.036400 1865.000000
233.077000 84.000000
233.102700 51.000000
233.129600 27.000000
233.332100 22.000000
234.446300 25.000000
235.384700 34.000000
236.322400 23.000000
258.782900 36.000000
259.015200 115.000000
261.003000 22.000000
274.739400 26.000000
275.608200 24.000000
275.741300 26.000000
276.604800 29.000000
276.897300 60.000000
276.959300 22.000000
277.026300 35415.000000

>ms2
107.014100 1834.000000
107.045200 69.000000
107.110300 24.000000
107.426200 23.000000
108.025400 31.000000
108.992000 85.000000
114.344000 26.000000
119.054300 28.000000
121.001500 21.000000
121.028400 28.000000
124.017000 57.000000
125.023900 1670.000000
125.053000 57.000000
125.071000 74.000000
125.130800 27.000000
135.005400 38.000000
149.013900 183.000000
150.018600 26.000000
151.002900 6817.000000
151.035500 205.000000
151.044200 80.000000
151.056600 114.000000
151.085100 86.000000
151.117300 105.000000
151.159700 27.000000
151.201700 41.000000
151.252400 22.000000
151.282900 24.000000
151.372700 44.000000
151.402700 33.000000
151.462400 39.000000
151.526600 34.000000
151.570300 24.000000
151.605900 47.000000
151.719400 20.000000
152.008300 110.000000
161.020200 66.000000
167.029000 38.000000
173.013700 29.000000
175.032000 100.000000
177.016600 31.000000
177.042000 26.000000
179.026300 26.000000
187.034400 49.000000
189.013600 38.000000
189.047100 35.000000
191.027400 822.000000
191.065100 21.000000
191.093200 26.000000
192.997400 190.000000
193.009200 429.000000
195.034500 26.000000
197.062500 27.000000
197.824300 32.000000
199.118500 37.000000
203.018200 30.000000
205.042100 276.000000
207.018100 25.000000
212.692100 26.000000
215.025100 285.000000
217.008700 86.000000
218.012400 65.000000
230.012400 21.000000
231.017500 61.000000
232.028800 27.000000
232.588900 20.000000
233.036800 5905.000000
233.082300 274.000000
233.110600 136.000000
233.124600 28.000000
233.142200 59.000000
233.179700 59.000000
233.232100 47.000000
233.285000 23.000000
233.331100 67.000000
233.400400 32.000000
233.424700 34.000000
233.453300 26.000000
233.469800 23.000000
233.582100 34.000000
233.713300 35.000000
233.794900 27.000000
234.000900 25.000000
234.280400 67.000000
234.314400 22.000000
241.050500 24.000000
259.016300 1085.000000
259.060700 58.000000
260.979700 24.000000
277.026400 9462.000000

>ms2
107.013600 3101.000000
107.044300 112.000000
107.065500 52.000000
107.111400 55.000000
107.214600 23.000000
116.505100 23.000000
124.018400 145.000000
125.018000 1053.000000
125.046200 64.000000
125.185000 22.000000
134.995700 30.000000
148.009800 40.000000
149.016300 460.000000
151.001000 1545.000000
151.029500 24.000000
151.038500 86.000000
151.119500 23.000000
151.211000 22.000000
151.425200 20.000000
151.502300 39.000000
153.034400 40.000000
161.018800 52.000000
167.032200 32.000000
167.046400 33.000000
173.014900 62.000000
177.015300 21.000000
181.035200 25.000000
185.014200 22.000000
187.022400 23.000000
189.014100 74.000000
190.013900 30.000000
191.028900 288.000000
191.055400 27.000000
193.007400 82.000000
195.048100 79.000000
198.398600 28.000000
206.561300 78.000000
207.025100 41.000000
215.024000 128.000000
217.011400 39.000000
218.015000 56.000000
222.031600 51.000000
231.012600 53.000000
233.041900 37.000000
258.008200 30.000000

