>compound BML1387055
>parentmass 226.0873
>ionization [M-H]-
>formula C14H13NO2
>rt 502.380000
>profile qtof
#smiles_iso CC1(C=CC2=C(O1)C3=CC=CC=C3NC2=O)C
#smiles_can CC1(C=CC2=C(O1)C3=CC=CC=C3NC2=O)C
#inchikey PXNMNABLQWUMCX-UHFFFAOYSA-N
#pubchem_id 68230
#mb_accession BML01239

>ms2peaks
100.981700 22.000000
107.052400 23.000000
115.155500 38.000000
181.157700 28.000000
208.078000 43.000000
210.065600 25.000000
225.143500 76.000000
226.088700 1274.000000

