>compound BML1935503
>parentmass 339.0721
>ionization [M-H]-
>formula C15H16O9
>rt 170.040000
>profile qtof
#smiles_iso C1=CC(=O)OC2=CC(=C(C=C21)OC3C(C(C(C(O3)CO)O)O)O)O
#smiles_can C1=CC(=O)OC2=CC(=C(C=C21)OC3C(C(C(C(O3)CO)O)O)O)O
#inchikey XHCADAYNFIFUHF-UHFFFAOYSA-N
#pubchem_id 5351506
#mb_accession BML00495,BML00503,BML00511

>ms2
133.029200 110.000000
177.018400 17769.000000
177.056100 646.000000
177.081600 322.000000
177.114800 144.000000
177.142800 236.000000
339.071600 21032.000000

>ms2
133.028700 314.000000
176.012100 236.000000
177.018600 28635.000000
177.062000 455.000000
177.108300 256.000000
177.141300 503.000000
339.070300 828.000000

>ms2
104.026300 393.000000
105.034200 2201.000000
107.014800 182.000000
120.018200 118.000000
121.027800 144.000000
133.029300 4464.000000
133.066600 167.000000
148.015300 383.000000
149.023200 551.000000
176.009800 563.000000
177.018600 17187.000000
177.057300 498.000000
177.084500 167.000000
177.109500 101.000000
177.143000 256.000000

