>compound BML1352423
>parentmass 241.0942
>ionization [M-H]-
>formula C9H14N4O4
>rt 18.840000
>profile qtof
#smiles_iso C1=C(NC=N1)CC(C(=O)NC(CO)C(=O)O)N
#smiles_can C1=C(NC=N1)CC(C(=O)NC(CO)C(=O)O)N
#inchikey KRBMQYPTDYSENE-UHFFFAOYSA-N
#pubchem_id 435727
#mb_accession BML01508,BML01516

>ms2
104.035300 249.000000
105.034700 28.000000
108.058500 86.000000
122.395200 29.000000
136.051600 97.000000
136.088100 55.000000
138.066900 38.000000
149.080700 23.000000
149.089800 24.000000
150.064600 32.000000
154.063100 387.000000
160.645300 24.000000
167.092800 221.000000
179.094300 225.000000
193.076500 29.000000
197.109400 113.000000
211.083400 1502.000000
211.100100 24.000000
211.119600 71.000000
211.152900 21.000000
211.217500 25.000000
241.093000 1372.000000

>ms2
104.035300 126.000000
105.031300 139.000000
108.058000 361.000000
109.037100 32.000000
109.046700 24.000000
110.074700 29.000000
115.049500 26.000000
120.055200 27.000000
125.038200 24.000000
134.071900 83.000000
135.329800 28.000000
136.053400 284.000000
136.087600 160.000000
149.085200 58.000000
150.065800 308.000000
153.079100 23.000000
154.062000 222.000000
167.092900 691.000000
167.132900 22.000000
167.150100 33.000000
179.091100 77.000000
180.077000 44.000000
193.074700 50.000000
197.098000 32.000000
211.084300 338.000000
223.086000 24.000000

