>compound BML1363430
>parentmass 360.1200999999999
>ionization [M-H]-
>formula C17H19N3O6
>rt 350.640000
>profile qtof
#smiles_iso COC1=CC=C(C=C1)C(=O)NC2=NC(=O)N(C=C2)C3C[C@H]([C@@H](O3)CO)O
#smiles_can COC1=CC=C(C=C1)C(=O)NC2=NC(=O)N(C=C2)C3CC(C(O3)CO)O
#inchikey ZASFNFUJGOZQBW-NEJHNUGDSA-N
#pubchem_id 3037652
#mb_accession BML01787,BML01793,BML01799

>ms2
151.043500 23.000000
160.249400 20.000000
172.471500 29.000000
183.083400 28.000000
208.228500 27.000000
227.079200 200.000000
244.074100 370.000000
244.097700 26.000000
251.117300 23.000000
271.551000 21.000000
317.113500 6141.000000
317.165900 76.000000
317.201900 127.000000
317.232700 33.000000
317.277400 91.000000
317.329500 35.000000
317.368300 26.000000
317.425700 61.000000
317.462200 26.000000
317.489600 38.000000
317.560300 31.000000
317.600100 56.000000
317.676300 37.000000
317.704700 30.000000
317.773500 20.000000
317.807500 27.000000
317.852100 23.000000
317.869800 23.000000
317.905000 26.000000
317.963700 43.000000
318.027000 24.000000
318.133400 49.000000
318.759500 35.000000
319.237000 33.000000
360.118600 11692.000000

>ms2
107.048800 22.000000
135.059100 21.000000
142.227500 36.000000
150.054500 77.000000
151.036100 24.000000
151.042500 30.000000
177.086300 31.000000
191.244500 24.000000
199.049400 34.000000
201.067200 79.000000
203.074000 28.000000
211.051100 66.000000
212.055000 61.000000
227.082000 1788.000000
227.107700 20.000000
227.128200 60.000000
227.224600 28.000000
244.071800 128.000000
257.090900 28.000000
269.091100 47.000000
269.638700 23.000000
270.090100 25.000000
299.103600 35.000000
317.114100 6039.000000
317.169100 327.000000
317.204700 93.000000
317.240700 43.000000
317.276200 78.000000
317.339400 34.000000
317.388800 29.000000
317.429400 22.000000
317.502700 38.000000
317.530400 21.000000
317.613200 28.000000
317.688100 26.000000
317.822100 36.000000
317.849200 20.000000
317.917900 24.000000
317.991400 26.000000
318.021800 23.000000
318.057100 26.000000
360.121700 369.000000

>ms2
102.031100 27.000000
105.045200 69.000000
106.026700 39.000000
106.050000 30.000000
107.049100 87.000000
117.040900 38.000000
118.029900 40.000000
120.021600 53.000000
131.036900 23.000000
133.038000 69.000000
134.048700 46.000000
146.019600 54.000000
148.555500 32.000000
151.034300 24.000000
156.989400 24.000000
158.579400 64.000000
169.047600 23.000000
175.049400 43.000000
183.053300 55.000000
184.025100 54.000000
184.056200 21.000000
185.049200 94.000000
187.824700 30.000000
197.039900 21.000000
198.052300 39.000000
199.049200 149.000000
200.070900 62.000000
201.060100 27.000000
201.071900 66.000000
203.091200 23.000000
209.075700 29.000000
211.050600 298.000000
212.060800 91.000000
225.063400 33.000000
227.082000 257.000000
241.097000 42.000000
244.063600 24.000000
251.547900 27.000000
262.500800 36.000000
317.110400 21.000000
342.538700 20.000000
346.090100 27.000000

