>compound BML1775188
>parentmass 345.1343
>ionization [M-H]-
>formula C19H22O6
>rt 283.800000
>profile qtof
#smiles_iso CC12C(C=CC3(C1C(C45C3CCC(C4)(C(=C)C5)O)C(=O)O)OC2=O)O
#smiles_can CC12C(C=CC3(C1C(C45C3CCC(C4)(C(=C)C5)O)C(=O)O)OC2=O)O
#inchikey IXORZMNAPKEEDV-UHFFFAOYSA-N
#pubchem_id 522636
#mb_accession BML00497,BML00505,BML00513

>ms2
221.174300 70.000000
227.103900 151.000000
239.143400 4607.000000
239.193500 98.000000
239.317200 61.000000
257.154400 161.000000
271.099700 101.000000
283.136100 222.000000
301.143400 265.000000
327.125100 75.000000
345.133600 9902.000000

>ms2
239.223200 60.000000
239.518900 34.000000
239.666000 44.000000
241.121600 39.000000
242.126900 49.000000
255.137000 150.000000
257.157600 323.000000
271.097500 598.000000
283.136400 388.000000
301.143900 502.000000
301.197100 63.000000
327.124500 79.000000
327.171700 40.000000
345.134500 1729.000000

>ms2
199.121500 40.000000
201.126200 64.000000
205.101800 272.000000
206.108800 61.000000
209.097200 202.000000
211.067400 44.000000
213.129800 70.000000
219.112800 227.000000
221.131400 1115.000000
225.094600 33.000000
227.107500 717.000000
239.107900 53.000000
239.139000 52.000000
243.065900 32.000000
253.127500 34.000000
255.137300 43.000000
262.080700 42.000000
271.102200 31.000000

