>compound BML1271780
>parentmass 381.1721
>ionization [M-H]-
>formula C24H22N4O
>rt 402.540000
>profile qtof
#smiles_iso COC1=CC=CC=C1CC(CC2=NC3=CC=CC=C3N2)C4=NC5=CC=CC=C5N4
#smiles_can COC1=CC=CC=C1CC(CC2=NC3=CC=CC=C3N2)C4=NC5=CC=CC=C5N4
#inchikey FQFJIJMMCVBRBL-UHFFFAOYSA-N
#pubchem_id 2907920
#mb_accession BML00041,BML00049

>ms2
101.111000 27.000000
131.060800 86.000000
135.061100 27.000000
174.113800 39.000000
217.003100 792.000000
217.054400 41.000000
273.673900 22.000000
279.063800 72.000000
299.008500 174.000000
321.530400 23.000000
342.618600 24.000000
357.093400 26.000000
381.027100 24.000000
381.171800 1276.000000

>ms2
131.061500 570.000000
131.093200 38.000000
173.011700 57.000000
202.944000 78.000000
217.003000 971.000000
217.032900 38.000000
217.077200 46.000000
235.079900 54.000000
249.100000 56.000000
259.098400 186.000000
259.125000 50.000000
349.138800 57.000000
349.556600 44.000000
381.170300 1508.000000

