>compound BML1960455
>parentmass 347.048
>ionization [M-H]-
>formula C21H13ClO3
>rt 557.940000
>profile qtof
#smiles_iso C1=CC=C(C=C1)C2=C(C(=O)OC3=C2C=CC(=C3)O)C4=CC=CC=C4Cl
#smiles_can C1=CC=C(C=C1)C2=C(C(=O)OC3=C2C=CC(=C3)O)C4=CC=CC=C4Cl
#inchikey JBSCMIAEEWZQBR-UHFFFAOYSA-N
#pubchem_id 6312947
#mb_accession BML01735,BML01742,BML01749

>ms2peaks
125.530500 23.000000
141.013400 24.000000
150.058300 39.000000
175.379600 28.000000
179.303600 28.000000
185.023700 28.000000
229.035900 34.000000
231.473800 27.000000
241.053500 25.000000
255.525400 29.000000
262.387500 20.000000
273.855900 34.000000
311.065700 60.000000
311.084100 57.000000
345.708900 28.000000
346.480700 33.000000
346.958700 25.000000
346.985900 106.000000
347.047600 61395.000000

>ms2peaks
101.029500 21.000000
104.300300 23.000000
133.967800 20.000000
194.881400 31.000000
206.184300 20.000000
213.937100 54.000000
217.955200 25.000000
217.971600 24.000000
267.081800 102.000000
269.051000 21.000000
303.053900 32.000000
311.071700 211.000000
341.799100 31.000000
343.477800 22.000000
345.977700 20.000000
346.065900 20.000000
346.943100 21.000000
347.047500 31791.000000

>ms2peaks
117.639500 24.000000
130.293800 31.000000
150.999400 116.000000
189.665500 22.000000
193.789200 20.000000
206.222100 20.000000
226.078600 23.000000
239.092300 42.000000
241.062100 54.000000
251.886100 42.000000
254.068600 35.000000
259.537600 34.000000
267.045800 31.000000
267.082200 488.000000
267.103700 26.000000
267.127800 20.000000
267.145100 21.000000
269.051700 44.000000
282.066300 24.000000
283.074700 26.000000
285.049700 30.000000
285.067000 41.000000
311.071700 184.000000
311.096900 24.000000
328.875500 44.000000
347.046700 218.000000

