>compound BML1335826
>parentmass 265.083
>ionization [M-H]-
>formula C12H14N2O5
>rt 210.600000
>profile qtof
#smiles_iso C1=CC=C(C=C1)COC(=O)N[C@H](CC(=O)N)C(=O)O
#smiles_can C1=CC=C(C=C1)COC(=O)NC(CC(=O)N)C(=O)O
#inchikey FUCKRCGERFLLHP-SECBINFHSA-N
#pubchem_id 1712147
#mb_accession BML01833,BML01843

>ms2
112.473600 21.000000
113.036000 1345.000000
113.060800 49.000000
113.081200 34.000000
113.445500 22.000000
114.021500 55.000000
157.024600 529.000000
157.071200 27.000000
232.988000 32.000000
233.979200 35.000000

>ms2
113.035800 757.000000
113.072600 36.000000
114.018100 99.000000
157.025400 37.000000
158.654100 33.000000
170.166600 81.000000
174.280300 27.000000
206.207100 25.000000
214.339100 26.000000

