>compound BML1119106
>parentmass 357.2071
>ionization [M-H]-
>formula C22H30O4
>rt 639.720000
>profile qtof
#smiles_iso CC1=CCC(C(=CC(C(CCC1)(C)C)O)C)OC(=O)C2=CC=C(C=C2)O
#smiles_can CC1=CCC(C(=CC(C(CCC1)(C)C)O)C)OC(=O)C2=CC=C(C=C2)O
#inchikey JDZBITULCWBIMC-UHFFFAOYSA-N
#pubchem_id 3327183
#mb_accession BML00894,BML00899,BML00904

>ms2
137.023700 890.000000
357.205900 25967.000000

>ms2
136.015600 802.000000
137.023400 7120.000000
137.057300 231.000000
149.098100 141.000000
219.173100 360.000000
357.206100 19379.000000

>ms2
121.098300 27.000000
136.016300 818.000000
137.023900 4521.000000
137.061100 126.000000
137.075400 54.000000
137.093400 29.000000
137.132000 50.000000
137.460300 29.000000
149.096200 3563.000000
149.131800 125.000000
149.155000 50.000000
149.180900 23.000000
149.209500 42.000000
201.165700 104.000000
219.174500 1200.000000
219.218200 67.000000
295.200000 27.000000
357.207700 132.000000

