>compound BML1950267
>parentmass 175.04
>ionization [M-H]-
>formula C10H8O3
>rt 291.120000
>profile qtof
#smiles_iso CC1=CC(=O)OC2=C1C=C(C=C2)O
#smiles_can CC1=CC(=O)OC2=C1C=C(C=C2)O
#inchikey IRUHWRSITUYICV-UHFFFAOYSA-N
#pubchem_id 75409
#mb_accession BML01406,BML01412,BML01418

>ms2
101.037500 82.000000
102.049400 43.000000
103.052900 48.000000
104.023600 39.000000
105.032600 63.000000
107.051100 34.000000
108.019500 92.000000
117.035600 30.000000
119.049600 679.000000
125.376100 32.000000
129.034100 125.000000
130.036300 28.000000
131.049700 6134.000000
131.082900 215.000000
131.109300 72.000000
131.132200 53.000000
131.155800 82.000000
131.194500 22.000000
131.341700 20.000000
131.499900 22.000000
131.532000 31.000000
131.734700 22.000000
132.021800 258.000000
133.025400 98.000000
133.035800 61.000000
145.028800 50.000000
146.037400 127.000000
147.044400 2288.000000
147.077100 97.000000
147.100100 36.000000
147.158200 33.000000
147.319900 22.000000
154.937500 32.000000
157.031100 25.000000
159.869200 20.000000
160.015000 1874.000000
160.045600 56.000000
160.054700 25.000000
160.133300 29.000000
165.768000 28.000000
174.029700 348.000000
174.050600 33.000000
174.838800 35.000000
174.950400 26.000000
174.999100 30.000000
175.039300 80334.000000

>ms2
101.039800 79.000000
101.047500 23.000000
102.046800 198.000000
102.054700 21.000000
103.055300 437.000000
103.079600 23.000000
104.026500 54.000000
105.033800 134.000000
107.050800 67.000000
108.025500 136.000000
109.029600 279.000000
119.050300 2927.000000
119.073000 45.000000
119.086400 84.000000
119.106300 28.000000
119.150800 47.000000
119.275700 20.000000
121.028600 94.000000
129.033200 338.000000
130.040100 144.000000
130.052500 38.000000
131.050400 11607.000000
131.078700 198.000000
131.085800 134.000000
131.104300 209.000000
131.125000 49.000000
131.156400 183.000000
131.190000 38.000000
131.238000 32.000000
131.262100 32.000000
131.293200 32.000000
131.319800 22.000000
131.339800 20.000000
131.352400 22.000000
131.382400 27.000000
131.393300 22.000000
131.418300 21.000000
131.447700 36.000000
131.474900 26.000000
131.499000 36.000000
131.541700 25.000000
131.577000 27.000000
131.719600 32.000000
132.022000 560.000000
132.056700 25.000000
132.374600 23.000000
133.028600 570.000000
133.046000 84.000000
145.027900 222.000000
146.035800 565.000000
146.059800 40.000000
147.045000 7136.000000
147.071300 33.000000
147.083600 202.000000
147.100900 104.000000
147.116400 81.000000
147.135400 42.000000
147.158700 123.000000
147.185300 49.000000
147.205500 35.000000
147.285900 24.000000
147.311700 30.000000
147.341100 30.000000
147.369300 45.000000
147.420100 34.000000
147.442700 27.000000
147.489200 27.000000
147.578400 21.000000
147.699400 25.000000
147.872100 43.000000
148.075600 21.000000
157.029500 38.000000
158.036700 102.000000
160.016100 5058.000000
160.054900 178.000000
160.074400 67.000000
160.103400 64.000000
160.133200 63.000000
160.179800 24.000000
160.408500 23.000000
160.426400 22.000000
160.735500 21.000000
173.022600 25.000000
174.031300 1197.000000
174.069400 73.000000
174.154800 21.000000
174.232600 27.000000
174.273400 23.000000
174.926500 25.000000
175.039700 13718.000000

>ms2
101.041800 128.000000
102.049300 73.000000
103.018500 153.000000
103.054800 276.000000
104.027400 350.000000
105.032600 146.000000
106.007200 41.000000
107.894900 20.000000
108.024700 177.000000
109.033200 42.000000
117.033800 379.000000
117.067400 23.000000
118.042100 36.000000
119.049600 1286.000000
119.073900 43.000000
119.100300 27.000000
119.151400 23.000000
121.028600 157.000000
124.547400 53.000000
129.037200 87.000000
130.039200 31.000000
131.050500 135.000000
132.020900 1068.000000
132.048000 50.000000
132.076500 23.000000
133.027600 116.000000
133.997800 23.000000
145.027600 550.000000
145.059800 24.000000
146.037400 215.000000
146.051600 20.000000
147.043600 308.000000
147.056000 35.000000
150.197600 24.000000
158.037600 56.000000
160.016600 429.000000
160.060200 29.000000
173.023900 65.000000
174.031200 180.000000
175.041100 31.000000

