>compound BML1819751
>parentmass 801.1878
>ionization [M+CH3COOH-H]-
>formula C35H34O18
>rt 589.800000
>profile qtof
#smiles_iso CC(=O)OCC1C(C(C(C(O1)OC2=CC3=C(C(=C2)OC(=O)C)C(=O)C=C(O3)C4=CC(=C(C=C4)OC(=O)C)OC(=O)C)OC(=O)C)OC(=O)C)OC(=O)C
#smiles_can CC(=O)OCC1C(C(C(C(O1)OC2=CC3=C(C(=C2)OC(=O)C)C(=O)C=C(O3)C4=CC(=C(C=C4)OC(=O)C)OC(=O)C)OC(=O)C)OC(=O)C)OC(=O)C
#inchikey JDAPIOVVXOAJOM-UHFFFAOYSA-N
#pubchem_id 3710744
#mb_accession BML00139,BML00146,BML00153

>ms2peaks
211.498500 23.000000
381.007200 21.000000
615.137400 82.000000
657.144800 1764.000000
657.209300 133.000000
657.229400 48.000000
657.284600 47.000000
657.365600 45.000000
658.135200 32.000000
658.188300 25.000000
699.058700 23.000000
699.154300 2884.000000
699.281500 62.000000
699.332100 35.000000
699.387100 47.000000
699.479900 30.000000
699.606000 39.000000
699.688700 31.000000
699.804000 46.000000
699.869900 79.000000
699.976500 28.000000
700.024400 32.000000
700.166200 33.000000
700.243200 21.000000
700.435600 29.000000
700.540000 28.000000
700.621700 34.000000
700.696100 23.000000
700.937300 22.000000
700.986700 24.000000
701.236700 23.000000
702.314900 25.000000
712.924000 30.000000
800.980700 24.000000
801.189200 127.000000

>ms2peaks
615.135000 499.000000
615.187100 107.000000
657.145400 3843.000000
657.241800 128.000000
657.279000 24.000000
657.330400 69.000000
657.382700 67.000000
657.479200 34.000000
657.561700 32.000000
657.596000 29.000000
657.669900 45.000000
657.725500 31.000000
657.804200 40.000000
657.873000 44.000000
657.940900 36.000000
657.998400 43.000000
658.048100 36.000000
658.102900 47.000000
658.167700 53.000000
658.282300 22.000000
658.335600 30.000000
658.448000 21.000000
658.507200 21.000000
658.674400 29.000000
658.709600 26.000000
659.171300 26.000000
659.285600 39.000000
659.404400 32.000000
699.150200 498.000000
699.223300 30.000000

>ms2peaks
176.250700 31.000000
179.427400 23.000000
190.985200 27.000000
217.005100 31.000000
243.945800 36.000000
244.075800 30.000000
249.747100 37.000000
284.029000 105.000000
284.057500 20.000000
285.043000 88.000000
285.637700 27.000000
369.066800 64.000000
513.109500 77.000000
555.099700 23.000000
557.212900 31.000000
573.114600 157.000000
615.007600 43.000000
615.133500 3598.000000
615.243000 62.000000
615.279400 44.000000
615.361100 68.000000
615.430800 23.000000
615.492500 24.000000
615.551300 20.000000
615.604000 26.000000
615.705500 45.000000
615.746300 45.000000
615.808700 30.000000
615.886700 46.000000
615.967400 54.000000
616.085400 26.000000
616.125300 41.000000
616.209700 30.000000
616.329300 35.000000
616.392200 33.000000
616.470300 21.000000
616.580500 22.000000
616.735400 35.000000
616.971900 21.000000
617.058600 21.000000
617.240600 20.000000
617.293500 21.000000
617.515400 21.000000
618.534900 25.000000
657.147900 353.000000
657.218500 27.000000
788.904100 21.000000

