>compound BML1646311
>parentmass 179.035
>ionization [M-H]-
>formula C9H8O4
>rt 178.260000
>profile qtof
#smiles_iso C1=CC(=C(C=C1C=CC(=O)O)O)O
#smiles_can C1=CC(=C(C=C1C=CC(=O)O)O)O
#inchikey QAIPRVGONGVQAS-UHFFFAOYSA-N
#pubchem_id 2518
#mb_accession BML00722,BML00729

>ms2
107.050000 76.000000
134.033700 155.000000
134.040800 65.000000
135.044900 5981.000000
135.080400 172.000000
135.121600 51.000000
135.153100 78.000000
135.462700 37.000000
179.034800 2976.000000

>ms2
107.052400 202.000000
108.019000 31.000000
109.029100 38.000000
117.032400 50.000000
120.044400 39.000000
133.035800 45.000000
134.036000 830.000000
135.044600 5881.000000
135.078900 180.000000
135.094100 40.000000
135.118500 40.000000
135.153200 88.000000
135.189000 39.000000
135.219000 31.000000
135.506900 31.000000
135.534700 32.000000

