>compound BML1328921
>parentmass 547.2661
>ionization [M-H]-
>formula C28H40N2O9
>rt 697.860000
>profile qtof
#smiles_iso CCCCCCC1C(C(OC(=O)C(C(OC1=O)C)NC(=O)C2=C(C(=CC=C2)NC=O)O)C)OC(=O)CC(C)C
#smiles_can CCCCCCC1C(C(OC(=O)C(C(OC1=O)C)NC(=O)C2=C(C(=CC=C2)NC=O)O)C)OC(=O)CC(C)C
#inchikey UIFFUZWRFRDZJC-UHFFFAOYSA-N
#pubchem_id 12550
#mb_accession BML00943,BML00949,BML00955

>ms2peaks
101.060300 2507.000000
101.087800 113.000000
101.104900 33.000000
101.153100 33.000000
108.045400 100.000000
117.046900 43.000000
126.622500 21.000000
133.040800 121.000000
145.078400 28.000000
161.034600 414.000000
161.064700 36.000000
173.010300 28.000000
173.071900 125.000000
175.024900 23.000000
190.076600 22.000000
191.080700 961.000000
191.121400 46.000000
199.139900 23.000000
201.061900 48.000000
217.063700 200.000000
219.076700 2671.000000
219.120700 117.000000
219.150200 28.000000
219.177400 26.000000
219.217600 36.000000
244.999900 24.000000
245.055300 12165.000000
245.099700 431.000000
245.127000 239.000000
245.143200 33.000000
245.162500 79.000000
245.201300 151.000000
245.223100 21.000000
245.239100 44.000000
245.257100 32.000000
245.284800 20.000000
245.301900 53.000000
245.347500 27.000000
245.396900 30.000000
245.433500 24.000000
245.451800 30.000000
245.483200 27.000000
245.500100 27.000000
245.528900 55.000000
245.575600 53.000000
245.594000 21.000000
245.690000 30.000000
245.750300 31.000000
245.797900 23.000000
245.848200 33.000000
245.887000 36.000000
245.915900 37.000000
245.975300 23.000000
246.009700 26.000000
246.060700 37.000000
246.224100 21.000000
246.290400 23.000000
262.065500 29.000000
263.065900 5659.000000
263.117500 261.000000
263.176200 56.000000
263.215000 71.000000
263.297100 21.000000
263.341200 32.000000
263.404300 31.000000
263.464800 30.000000
263.583000 22.000000
263.597000 27.000000
263.627600 24.000000
263.668200 29.000000
263.840200 20.000000
263.980200 24.000000
264.236100 23.000000
299.004100 33.000000
301.200500 265.000000
301.226100 29.000000
318.352300 40.000000
321.364900 25.000000
329.224200 34.000000
373.210400 43.000000
373.230700 22.000000
383.011600 66.000000
401.206200 2383.000000
401.265700 89.000000
401.310300 48.000000
401.382400 28.000000
401.442900 21.000000
401.766900 21.000000
402.001000 25.000000
402.217800 29.000000
402.633800 21.000000
445.196800 927.000000
445.253500 79.000000
445.304400 30.000000
445.594900 23.000000
465.016300 49.000000
522.480000 32.000000
543.524300 22.000000
547.264200 19976.000000

>ms2peaks
100.041300 37.000000
101.060500 4868.000000
101.091500 141.000000
101.096000 35.000000
101.105400 36.000000
101.125700 56.000000
101.154800 66.000000
108.045100 179.000000
117.047000 108.000000
127.022500 24.000000
129.092200 69.000000
133.040400 334.000000
136.039600 55.000000
155.066300 24.000000
158.050900 30.000000
161.034400 2132.000000
161.072000 108.000000
161.153700 31.000000
162.042300 20.000000
164.071200 38.000000
173.070400 469.000000
173.105700 21.000000
190.070300 29.000000
190.081400 32.000000
191.081800 3800.000000
191.120100 108.000000
191.135600 83.000000
191.160800 28.000000
191.183800 25.000000
191.209600 41.000000
191.390400 21.000000
191.564200 20.000000
191.623700 29.000000
199.132800 23.000000
201.071500 85.000000
203.052200 22.000000
211.102100 21.000000
217.059400 394.000000
218.003900 24.000000
218.028400 37.000000
218.070600 73.000000
218.991200 22.000000
219.005700 26.000000
219.076600 7373.000000
219.123900 318.000000
219.159800 29.000000
219.181100 34.000000
219.212400 85.000000
219.255400 28.000000
219.292900 37.000000
219.338400 30.000000
219.365000 28.000000
219.410900 25.000000
219.453200 43.000000
219.580900 30.000000
219.612000 26.000000
219.668200 25.000000
219.726400 21.000000
219.800800 23.000000
219.970500 25.000000
220.008400 21.000000
220.081300 33.000000
234.067100 35.000000
234.475100 26.000000
235.071900 20.000000
244.045600 25.000000
244.997100 22.000000
245.055600 10100.000000
245.104600 218.000000
245.129200 144.000000
245.164700 82.000000
245.199600 117.000000
245.243600 49.000000
245.292400 26.000000
245.330500 48.000000
245.356500 45.000000
245.425000 25.000000
245.457000 27.000000
245.526300 30.000000
245.567300 43.000000
245.621400 28.000000
245.654700 33.000000
245.679200 41.000000
245.725500 42.000000
245.755100 35.000000
245.798800 23.000000
245.892100 23.000000
245.921700 28.000000
245.940500 26.000000
246.063900 50.000000
246.129300 22.000000
246.197100 21.000000
246.232300 21.000000
262.057600 162.000000
262.075200 22.000000
262.106500 24.000000
263.066200 6695.000000
263.111700 292.000000
263.144100 85.000000
263.180400 50.000000
263.215100 84.000000
263.274500 31.000000
263.330300 23.000000
263.358000 27.000000
263.389700 24.000000
263.409900 23.000000
263.445300 25.000000
263.516400 30.000000
263.557000 25.000000
263.752400 24.000000
263.813100 20.000000
263.867900 39.000000
264.284200 21.000000
301.008800 22.000000
301.193600 32.000000
329.230700 66.000000
341.900400 25.000000
357.216000 60.000000
373.163400 35.000000
373.206500 199.000000
394.180300 34.000000
401.207200 4467.000000
401.269900 174.000000
401.304200 109.000000
401.338600 35.000000
401.393600 60.000000
401.433200 41.000000
401.466400 21.000000
401.492000 35.000000
401.521400 30.000000
401.545800 21.000000
401.598400 21.000000
401.692100 28.000000
401.777700 42.000000
402.002700 24.000000
402.158800 41.000000
402.208200 25.000000
402.357700 22.000000
445.201000 265.000000
445.262200 33.000000
478.493100 30.000000
547.265700 467.000000

>ms2peaks
100.040300 184.000000
101.060100 5435.000000
101.088200 174.000000
101.104900 79.000000
101.117800 64.000000
101.129300 22.000000
101.153500 87.000000
101.222900 20.000000
104.198900 22.000000
107.034000 35.000000
107.044900 30.000000
108.044400 1709.000000
108.075000 62.000000
108.092300 40.000000
108.142200 26.000000
108.681100 24.000000
112.003800 22.000000
117.045500 926.000000
118.031900 39.000000
118.709400 27.000000
126.018400 27.000000
129.046600 32.000000
129.093200 23.000000
130.065700 60.000000
133.040100 2030.000000
133.073500 69.000000
133.101800 26.000000
133.149200 30.000000
134.022400 21.000000
134.771200 39.000000
135.034600 69.000000
136.038700 426.000000
137.918400 25.000000
145.077100 198.000000
145.102500 24.000000
146.062200 50.000000
151.056500 56.000000
155.058200 80.000000
158.049700 62.000000
158.060400 26.000000
161.034600 4555.000000
161.071700 186.000000
161.092600 34.000000
161.122000 42.000000
161.152500 61.000000
161.211400 35.000000
161.362800 23.000000
161.396100 23.000000
162.036300 20.000000
162.049200 60.000000
163.026600 45.000000
163.061900 127.000000
164.070600 114.000000
171.056200 60.000000
172.058800 25.000000
173.071800 1427.000000
173.113500 68.000000
173.192400 26.000000
175.009700 21.000000
175.029300 74.000000
175.049300 40.000000
180.027400 94.000000
186.597400 20.000000
189.064900 110.000000
190.035400 79.000000
190.072800 602.000000
190.113700 22.000000
191.081600 14606.000000
191.113200 51.000000
191.124400 436.000000
191.146600 165.000000
191.178000 23.000000
191.209600 186.000000
191.247600 39.000000
191.275000 33.000000
191.296100 58.000000
191.350000 77.000000
191.390900 59.000000
191.424100 26.000000
191.450600 30.000000
191.471100 36.000000
191.525500 43.000000
191.565400 66.000000
191.589300 23.000000
191.607800 36.000000
191.649700 26.000000
191.711700 38.000000
191.767100 45.000000
191.795900 31.000000
191.845400 27.000000
191.945800 39.000000
191.976200 21.000000
192.010000 26.000000
192.083000 84.000000
192.150000 27.000000
192.221900 28.000000
192.315000 24.000000
192.430100 29.000000
192.467000 28.000000
201.068500 72.000000
203.048600 56.000000
208.131800 22.000000
216.058500 31.000000
216.999300 33.000000
217.062000 459.000000
218.031000 75.000000
218.067600 209.000000
218.091400 27.000000
219.076400 2352.000000
219.115400 112.000000
219.142100 60.000000
219.214400 23.000000
219.236600 25.000000
234.064900 160.000000
235.070600 30.000000
244.050200 66.000000
245.056300 459.000000
245.096000 32.000000
262.055200 123.000000
262.075700 27.000000
263.066100 126.000000
283.185300 23.000000
311.199900 22.000000
329.223500 126.000000
357.217100 25.000000
373.211800 59.000000
397.238600 22.000000
401.211300 183.000000
401.264300 21.000000
407.549000 21.000000
408.157500 28.000000

