>compound BML2813067
>parentmass 261.1132
>ionization [M-H]-
>formula C15H18O4
>rt 335.700000
>profile qtof
#smiles_iso CC1C2C(CC(=C3C(C2OC1=O)C(=CC3=O)C)C)O
#smiles_can CC1C2C(CC(=C3C(C2OC1=O)C(=CC3=O)C)C)O
#inchikey YMUOZXZDDBRJEP-UHFFFAOYSA-N
#pubchem_id 99114
#mb_accession BML00549,BML00557,BML00564

>ms2peaks
198.316100 23.000000
199.111900 3632.000000
199.151400 154.000000
199.187300 48.000000
199.213000 33.000000
199.244000 47.000000
199.268500 23.000000
199.396900 23.000000
199.440200 20.000000
199.464200 27.000000
199.785200 21.000000
200.951200 20.000000
217.121800 168.000000
243.104200 188.000000
261.113400 644.000000

>ms2peaks
101.004800 27.000000
107.051500 112.000000
107.258500 25.000000
114.049700 26.000000
119.077100 22.000000
120.056500 29.000000
121.063200 33.000000
124.870100 27.000000
126.743200 25.000000
131.079400 51.000000
131.091700 23.000000
135.046600 128.000000
135.081600 127.000000
145.061100 45.000000
145.770400 22.000000
147.080800 77.000000
149.834700 40.000000
157.100100 94.000000
158.069000 40.000000
158.089600 31.000000
160.055800 58.000000
160.085000 48.000000
170.074900 56.000000
173.057300 20.000000
174.985700 21.000000
175.075400 39.000000
175.112700 81.000000
183.081100 588.000000
183.125500 41.000000
184.088800 900.000000
184.129700 26.000000
184.415300 24.000000
187.096100 47.000000
188.088700 27.000000
189.129400 72.000000
194.075900 41.000000
197.096700 665.000000
197.132600 24.000000
199.111900 2364.000000
199.149200 59.000000
199.182700 74.000000
199.243500 25.000000
200.121600 37.000000
217.112700 38.000000
224.682200 21.000000
243.114600 30.000000
261.112500 67.000000

>ms2peaks
170.068100 39.000000
172.052700 21.000000
181.070000 32.000000
182.074600 26.000000
183.081600 1151.000000
183.125400 42.000000
191.449700 23.000000
195.082500 41.000000
197.097400 240.000000
199.111900 46.000000

