>compound BML2061434
>parentmass 609.1461
>ionization [M-H]-
>formula C27H30O16
>rt 320.460000
>profile qtof
#smiles_iso CC1C(C(C(C(O1)OCC2C(C(C(C(O2)OC3=C(OC4=CC(=CC(=C4C3=O)O)O)C5=CC(=C(C=C5)O)O)O)O)O)O)O)O
#smiles_can CC1C(C(C(C(O1)OCC2C(C(C(C(O2)OC3=C(OC4=CC(=CC(=C4C3=O)O)O)C5=CC(=C(C=C5)O)O)O)O)O)O)O)O
#inchikey IKGXIBQEEMLURG-UHFFFAOYSA-N
#pubchem_id 5293655
#mb_accession BML00133,BML00141,BML00148

>ms2
103.099900 95.000000
133.530900 38.000000
142.575500 30.000000
211.861400 60.000000
246.511700 48.000000
283.040700 32.000000
296.299400 40.000000
298.002200 52.000000
299.026900 38.000000
300.012000 40.000000
300.036200 83.000000
301.032300 125.000000
355.265900 28.000000
362.507300 78.000000
362.985500 41.000000
449.119200 27.000000
503.486500 32.000000
549.064700 28.000000
608.117600 96.000000
608.143800 175.000000
609.045400 46.000000
609.144000 5405.000000

>ms2
106.246800 23.000000
179.001900 21.000000
181.085700 30.000000
215.039600 24.000000
235.998100 33.000000
243.025600 21.000000
270.007600 22.000000
271.026100 65.000000
272.028100 65.000000
298.984700 31.000000
299.007700 22.000000
299.032500 35.000000
300.030600 412.000000
301.034400 375.000000
301.052800 23.000000
305.004400 22.000000
343.651200 26.000000
361.917500 21.000000
387.017000 25.000000
428.130600 32.000000
458.275600 35.000000
522.108600 21.000000
580.945600 34.000000
608.130800 170.000000
608.172600 58.000000
609.069000 22.000000
609.145600 4111.000000

>ms2
101.069800 38.000000
108.014100 22.000000
114.272200 35.000000
121.029200 43.000000
141.013400 26.000000
148.015900 21.000000
151.001500 194.000000
178.997700 167.000000
185.012100 23.000000
186.024400 23.000000
198.292900 32.000000
211.044500 23.000000
215.114500 31.000000
226.027600 26.000000
227.048100 25.000000
242.016900 70.000000
243.036000 45.000000
255.030500 209.000000
269.985300 39.000000
270.013100 40.000000
270.027400 23.000000
271.023700 357.000000
271.079500 30.000000
272.038600 45.000000
272.079000 35.000000
283.027200 26.000000
298.044800 29.000000
299.018900 60.000000
300.028300 2728.000000
300.091700 35.000000
300.110800 53.000000
300.133700 25.000000
300.186800 35.000000
300.496100 31.000000
300.529800 22.000000
300.624200 21.000000
300.877800 20.000000
301.034800 1187.000000
301.092100 70.000000
301.190300 30.000000
301.728400 24.000000
320.305300 21.000000
383.452800 21.000000
507.996800 29.000000
527.492600 34.000000
536.287800 38.000000
609.142400 217.000000

