>compound BML2644423
>parentmass 375.29040000000003
>ionization [M-H]-
>formula C24H40O3
>rt 693.360000
>profile qtof
#smiles_iso CC(CCC(=O)O)C1CCC2C1(CCC3C2CCC4C3(CCC(C4)O)C)C
#smiles_can CC(CCC(=O)O)C1CCC2C1(CCC3C2CCC4C3(CCC(C4)O)C)C
#inchikey SMEROWZSTRWXGI-UHFFFAOYSA-N
#pubchem_id 500165
#mb_accession BML01099,BML01105,BML01111

>ms2peaks
216.996500 70.000000
221.288000 23.000000
293.204500 29.000000
374.982800 95.000000
375.010300 27.000000
375.181300 26.000000
375.289000 3920.000000

>ms2peaks
100.359900 20.000000
154.927700 26.000000
189.917000 24.000000
191.128400 22.000000
217.001100 192.000000
227.885900 24.000000
285.058100 26.000000
285.343600 31.000000
293.177800 51.000000
317.326100 20.000000
347.195600 22.000000
353.711500 25.000000
375.289200 4322.000000

>ms2peaks
107.211700 21.000000
130.299000 24.000000
204.924900 46.000000
253.052100 37.000000
256.583800 32.000000
303.501000 26.000000
342.325400 34.000000
375.289800 1007.000000

