>compound BML2843424
>parentmass 289.0717
>ionization [M-H]-
>formula C15H14O6
>rt 152.760000
>profile qtof
#smiles_iso C1C(C(OC2=CC(=CC(=C21)O)O)C3=CC(=C(C=C3)O)O)O
#smiles_can C1C(C(OC2=CC(=CC(=C21)O)O)C3=CC(=C(C=C3)O)O)O
#inchikey PFTAWBLQPZVEMU-UHFFFAOYSA-N
#pubchem_id 1203
#mb_accession BML00626,BML00630,BML00634

>ms2
109.027800 89.000000
123.043700 78.000000
125.024500 252.000000
137.022400 190.000000
149.034000 21.000000
151.039500 70.000000
161.063600 44.000000
165.019100 126.000000
165.043800 20.000000
167.032700 55.000000
175.039800 32.000000
179.035800 203.000000
180.038900 33.000000
187.033700 42.000000
187.045100 26.000000
188.045800 38.000000
203.067800 228.000000
205.050800 255.000000
217.085200 42.000000
221.080600 33.000000
230.054900 29.000000
245.082600 793.000000
245.131100 46.000000
247.062800 93.000000
254.238500 22.000000
271.058400 36.000000
288.074900 36.000000
289.070400 3146.000000

>ms2
105.034400 35.000000
107.051300 21.000000
108.025600 30.000000
109.029200 548.000000
109.050200 25.000000
121.029100 95.000000
123.045500 317.000000
123.075200 23.000000
125.022800 561.000000
135.039200 33.000000
137.024100 281.000000
138.029700 51.000000
139.036800 53.000000
139.048600 21.000000
145.029800 47.000000
149.023000 169.000000
150.034900 40.000000
151.039600 353.000000
159.044500 53.000000
160.047500 63.000000
161.058700 147.000000
161.074100 25.000000
162.031300 33.000000
163.041000 73.000000
164.009700 78.000000
165.019800 116.000000
166.028600 35.000000
167.032000 52.000000
173.057200 33.000000
174.055700 35.000000
175.041300 101.000000
175.068200 21.000000
177.054900 91.000000
179.031300 188.000000
179.065100 46.000000
181.049700 29.000000
181.064000 25.000000
185.062300 39.000000
187.040200 243.000000
188.043100 39.000000
188.053500 61.000000
192.859600 23.000000
202.067400 75.000000
203.071600 536.000000
203.353500 23.000000
204.985700 21.000000
205.047900 255.000000
212.041000 29.000000
217.047800 42.000000
217.086000 32.000000
217.110400 29.000000
221.079400 113.000000
227.074000 92.000000
229.050000 36.000000
231.031400 30.000000
245.081200 501.000000
245.131700 28.000000
247.067600 34.000000
277.975100 60.000000
289.072500 256.000000

>ms2
105.035800 53.000000
108.018500 111.000000
109.030000 381.000000
113.058600 22.000000
121.030200 82.000000
122.037900 84.000000
123.010500 26.000000
123.045300 565.000000
124.014600 32.000000
125.022400 64.000000
135.044800 85.000000
137.021200 78.000000
143.053200 35.000000
145.028000 33.000000
146.036700 29.000000
146.045800 30.000000
149.066500 25.000000
150.030400 32.000000
153.250000 22.000000
159.042000 57.000000
164.008500 33.000000
164.017300 22.000000
175.035100 23.000000
187.041000 51.000000
203.068800 66.000000
213.481800 20.000000
230.861400 30.000000

