>compound BML2598653
>parentmass 254.1146
>ionization [M-H]-
>formula C11H17N3O4
>rt 122.040000
>profile qtof
#smiles_iso CC(C)(C)OC(=O)NC(CC1=CN=CN1)C(=O)O
#smiles_can CC(C)(C)OC(=O)NC(CC1=CN=CN1)C(=O)O
#inchikey AYMLQYFMYHISQO-UHFFFAOYSA-N
#pubchem_id 333506
#mb_accession BML01509,BML01517

>ms2
108.054000 31.000000
109.039700 100.000000
136.054200 98.000000
137.034300 272.000000
158.756400 40.000000
164.421000 28.000000
166.613700 49.000000
180.041700 2496.000000
180.080600 87.000000
180.106000 35.000000
180.131000 28.000000
180.165900 32.000000
180.239900 29.000000
251.096900 28.000000
254.110500 63.000000

>ms2
108.055800 66.000000
109.042100 249.000000
136.049000 109.000000
137.034600 395.000000
137.070900 25.000000
180.041400 627.000000
237.210100 45.000000

