>compound BML2822839
>parentmass 295.0976
>ionization [M-H]-
>formula C18H16O4
>rt 515.520000
>profile qtof
#smiles_iso CCOC1=CC2=C(C=C1)OC(=O)C(=C2C)C3=CC=C(C=C3)O
#smiles_can CCOC1=CC2=C(C=C1)OC(=O)C(=C2C)C3=CC=C(C=C3)O
#inchikey MOBDZHABRVPJCH-UHFFFAOYSA-N
#pubchem_id 688788
#mb_accession BML01734,BML01741,BML01748

>ms2peaks
117.036700 49.000000
119.038300 29.000000
173.025800 52.000000
193.070900 22.000000
208.047600 21.000000
209.055300 38.000000
213.145400 30.000000
222.067400 66.000000
223.038000 37.000000
237.050100 29.000000
238.064500 497.000000
239.078500 21.000000
249.053800 136.000000
251.032800 201.000000
266.057600 1487.000000
266.086700 23.000000
266.106000 82.000000
266.133200 36.000000
266.162800 28.000000
266.207200 22.000000
267.062100 47.000000
267.095600 49.000000
267.113800 31.000000
295.096300 18710.000000

>ms2peaks
108.021600 25.000000
120.026200 29.000000
145.034000 29.000000
160.828100 24.000000
167.886400 30.000000
173.026400 99.000000
181.067100 25.000000
195.052300 44.000000
207.043300 22.000000
209.059900 85.000000
221.060600 63.000000
222.067400 258.000000
222.087200 23.000000
223.032400 49.000000
224.054300 46.000000
237.055200 58.000000
238.061800 1780.000000
238.105300 91.000000
238.141200 22.000000
238.164800 24.000000
238.204400 20.000000
239.064700 28.000000
249.053700 645.000000
251.032700 528.000000
251.082200 22.000000
253.083800 26.000000
265.045700 72.000000
266.058100 4816.000000
266.109000 104.000000
266.142800 41.000000
266.172700 48.000000
266.208900 69.000000
266.249400 38.000000
266.351000 27.000000
266.406600 32.000000
266.636000 20.000000
266.724200 26.000000
266.747800 23.000000
266.793300 24.000000
267.063200 78.000000
267.103800 201.000000
267.139100 20.000000
295.096000 3420.000000

>ms2peaks
108.019700 257.000000
117.028500 27.000000
117.041000 37.000000
130.041800 239.000000
131.053000 28.000000
132.019000 26.000000
132.027300 39.000000
133.028400 23.000000
139.052400 24.000000
141.036000 144.000000
142.037300 39.000000
143.053000 38.000000
145.027000 331.000000
146.032800 35.000000
151.050500 24.000000
153.075500 22.000000
155.049900 69.000000
156.058300 182.000000
160.015500 28.000000
165.073000 75.000000
167.048500 242.000000
171.032100 24.000000
173.025600 138.000000
180.056100 66.000000
181.068200 303.000000
181.102200 28.000000
182.032800 30.000000
182.072600 179.000000
183.042300 61.000000
184.055400 28.000000
192.063400 66.000000
193.065800 413.000000
195.044100 713.000000
195.106300 22.000000
195.353900 24.000000
195.598200 26.000000
196.055200 38.000000
197.057300 41.000000
203.048900 34.000000
207.043600 444.000000
208.048300 312.000000
209.058800 1052.000000
209.104400 53.000000
210.068200 179.000000
211.064100 27.000000
219.048600 23.000000
220.051900 158.000000
220.143000 23.000000
221.033900 30.000000
221.060100 637.000000
222.068200 206.000000
223.041000 1733.000000
223.072600 52.000000
223.087400 30.000000
223.099600 27.000000
223.144100 20.000000
223.491100 21.000000
223.577300 21.000000
224.026000 23.000000
224.045900 50.000000
232.045500 58.000000
232.055200 41.000000
234.038600 29.000000
235.035800 22.000000
236.044800 177.000000
237.054400 1771.000000
237.092300 49.000000
237.114400 61.000000
237.141300 22.000000
238.063300 4206.000000
238.107700 175.000000
238.128700 61.000000
238.142300 38.000000
238.157200 30.000000
238.173700 45.000000
238.207600 40.000000
238.240100 22.000000
238.344600 22.000000
238.482200 24.000000
238.802300 21.000000
238.903600 25.000000
239.013000 23.000000
239.075000 33.000000
245.218000 49.000000
247.042500 71.000000
248.045500 359.000000
248.087100 27.000000
249.054900 1517.000000
249.089500 61.000000
249.107500 25.000000
249.128800 47.000000
249.402800 25.000000
249.607200 21.000000
249.779100 20.000000
251.034600 1369.000000
251.076300 74.000000
251.105100 42.000000
251.222900 21.000000
252.036300 24.000000
264.051000 64.000000
265.050700 254.000000
266.055100 97.000000
287.020200 34.000000

