>compound BML2903073
>parentmass 471.348
>ionization [M-H]-
>formula C30H48O4
>rt 677.460000
>profile qtof
#smiles_iso CC1(CCC2(CCC3(C(=CCC4C3(CC(C5C4(CCC(C5(C)C)O)C)O)C)C2C1)C)C(=O)O)C
#smiles_can CC1(CCC2(CCC3(C(=CCC4C3(CC(C5C4(CCC(C5(C)C)O)C)O)C)C2C1)C)C(=O)O)C
#inchikey KLHSKTMVSOWVLD-UHFFFAOYSA-N
#pubchem_id 4660579
#mb_accession BML00848,BML00855,BML00862

>ms2
141.011200 32.000000
141.019400 30.000000
190.652200 30.000000
231.409800 43.000000
437.435200 22.000000
463.003400 31.000000
471.345500 2556.000000

>ms2
141.013800 80.000000
143.996100 27.000000
181.375900 25.000000
208.577400 21.000000
208.623100 26.000000
225.027200 34.000000
249.131900 20.000000
346.524000 47.000000
471.346600 3191.000000

>ms2
123.566700 26.000000
355.609500 40.000000
370.292800 27.000000
423.325700 34.000000
471.282600 27.000000
471.345900 1588.000000

