>compound BML2553861
>parentmass 239.07129999999998
>ionization [M-H]-
>formula C15H12O3
>rt 501.540000
>profile qtof
#smiles_iso C1=CC=C(C(=C1)C(=O)/C=C/C2=CC=C(C=C2)O)O
#smiles_can C1=CC=C(C(=C1)C(=O)C=CC2=CC=C(C=C2)O)O
#inchikey FGPJTMCJNPRZGF-JXMROGBWSA-N
#pubchem_id 5357218
#mb_accession BML01302,BML01307,BML01312

>ms2peaks
106.009500 27.000000
117.028200 40.000000
118.983400 25.000000
119.045500 44006.000000
119.081700 1121.000000
119.119600 281.000000
119.146500 827.000000
119.186700 130.000000
119.227800 99.000000
119.255700 56.000000
119.280300 130.000000
119.294500 24.000000
119.309600 47.000000
119.318500 61.000000
119.330600 93.000000
119.350100 45.000000
119.357800 53.000000
119.368700 32.000000
119.381100 33.000000
119.393400 46.000000
119.408100 55.000000
119.432000 62.000000
119.450800 85.000000
119.487100 35.000000
119.510600 29.000000
119.527900 42.000000
119.557500 32.000000
119.572600 53.000000
119.591900 46.000000
119.616800 56.000000
119.643200 53.000000
119.654300 23.000000
119.677200 20.000000
119.686700 23.000000
119.702600 32.000000
119.715400 30.000000
119.758800 29.000000
119.772800 23.000000
119.785300 37.000000
119.817800 23.000000
119.831100 45.000000
119.851400 25.000000
119.899000 30.000000
119.914100 26.000000
119.932400 21.000000
119.968200 20.000000
120.048000 23.000000
120.056700 25.000000
120.155500 20.000000
120.213400 21.000000
120.275900 20.000000
120.548400 25.000000
121.016900 21.000000
121.238200 21.000000
145.022500 77.000000
157.117200 40.000000
193.059400 62.000000
195.076100 4170.000000
195.121100 144.000000
195.141000 57.000000
195.164500 21.000000
195.182600 27.000000
195.205000 56.000000
195.354300 24.000000
196.305200 21.000000
211.606800 21.000000
221.050500 35.000000
223.014100 73.000000
223.028300 33.000000
230.049200 21.000000
238.991100 35.000000
239.065900 59907.000000

>ms2peaks
104.019200 70.000000
117.027700 81.000000
118.507200 23.000000
118.629400 29.000000
118.710600 27.000000
118.930700 20.000000
118.945900 26.000000
118.975100 41.000000
119.001900 27.000000
119.008400 40.000000
119.044300 117028.000000
119.076700 1709.000000
119.093400 1878.000000
119.116200 1204.000000
119.145700 2973.000000
119.177300 78.000000
119.185500 311.000000
119.202200 171.000000
119.211200 59.000000
119.233800 38.000000
119.248100 186.000000
119.254500 54.000000
119.266800 28.000000
119.274000 183.000000
119.301300 52.000000
119.314700 127.000000
119.328400 177.000000
119.354000 46.000000
119.367300 117.000000
119.395700 46.000000
119.410900 31.000000
119.419700 121.000000
119.433200 99.000000
119.441200 39.000000
119.455600 82.000000
119.478800 109.000000
119.514900 182.000000
119.552500 147.000000
119.571600 23.000000
119.589600 91.000000
119.599700 56.000000
119.616800 116.000000
119.632200 25.000000
119.654800 119.000000
119.685600 27.000000
119.721300 49.000000
119.736000 65.000000
119.757100 77.000000
119.810500 71.000000
119.850200 90.000000
119.881800 73.000000
119.926700 66.000000
119.937500 61.000000
119.955000 21.000000
119.983200 72.000000
120.005800 24.000000
120.031100 24.000000
120.036700 24.000000
120.044100 25.000000
120.050900 28.000000
120.083000 40.000000
120.090700 27.000000
120.105700 26.000000
120.116800 27.000000
120.143300 25.000000
120.161500 54.000000
120.189100 35.000000
120.218900 32.000000
120.231400 27.000000
120.258100 41.000000
120.273600 23.000000
120.297900 33.000000
120.317700 23.000000
120.358300 37.000000
120.391400 30.000000
120.425900 33.000000
120.458800 49.000000
120.492800 20.000000
120.499300 35.000000
120.593000 24.000000
120.640000 26.000000
120.700100 26.000000
120.717000 21.000000
120.747300 37.000000
120.768300 21.000000
120.787300 22.000000
121.024300 68.000000
121.871300 24.000000
145.024600 155.000000
147.734500 31.000000
151.645500 29.000000
157.116600 54.000000
173.679300 31.000000
193.068500 37.000000
195.074500 1661.000000
195.114600 41.000000
195.155900 24.000000
221.060700 48.000000
223.017300 74.000000
238.147700 37.000000
239.065000 2421.000000

>ms2peaks
104.021400 300.000000
117.029300 719.000000
117.061300 26.000000
118.999400 27.000000
119.044600 71233.000000
119.078200 1449.000000
119.094400 548.000000
119.118700 538.000000
119.146100 1693.000000
119.179000 226.000000
119.186800 55.000000
119.204400 121.000000
119.221300 20.000000
119.238500 61.000000
119.246400 148.000000
119.266800 36.000000
119.278600 111.000000
119.285700 55.000000
119.296900 128.000000
119.324700 67.000000
119.335100 113.000000
119.351000 88.000000
119.369800 64.000000
119.383800 138.000000
119.401900 33.000000
119.408900 101.000000
119.418100 34.000000
119.430000 45.000000
119.443400 111.000000
119.469300 63.000000
119.480500 78.000000
119.489000 31.000000
119.502500 129.000000
119.525100 115.000000
119.554500 104.000000
119.581400 22.000000
119.594200 58.000000
119.602300 35.000000
119.617500 73.000000
119.635100 36.000000
119.659600 47.000000
119.682900 70.000000
119.703900 59.000000
119.723900 40.000000
119.734200 43.000000
119.793700 39.000000
119.807600 24.000000
119.831500 21.000000
119.852500 46.000000
119.888400 37.000000
119.910000 45.000000
119.958200 57.000000
119.988800 29.000000
120.015500 23.000000
120.047300 104.000000
120.088300 26.000000
120.123600 30.000000
120.159400 24.000000
120.168600 20.000000
120.191500 35.000000
120.237600 37.000000
120.263300 41.000000
120.327200 30.000000
120.433000 39.000000
120.535400 22.000000
121.023600 72.000000
133.022100 32.000000
137.486000 40.000000
165.064100 21.000000
195.075500 38.000000

