>compound BML2092934
>parentmass 391.2854
>ionization [M-H]-
>formula C24H40O4
>rt 647.700000
>profile qtof
#smiles_iso CC(CCC(=O)O)C1CCC2C1(CCC3C2C(CC4C3(CCC(C4)O)C)O)C
#smiles_can CC(CCC(=O)O)C1CCC2C1(CCC3C2C(CC4C3(CCC(C4)O)C)O)C
#inchikey RUDATBOHQWOJDD-UHFFFAOYSA-N
#pubchem_id 5645
#mb_accession BML00990,BML00998,BML01006

>ms2peaks
139.958700 23.000000
180.508500 32.000000
210.871900 20.000000
214.823400 28.000000
391.283400 1603.000000

>ms2peaks
146.284900 30.000000
180.967400 28.000000
247.294300 21.000000
340.348300 22.000000
347.951800 25.000000
357.674200 23.000000
391.282500 1330.000000

>ms2peaks
103.870900 21.000000
141.614700 25.000000
185.552300 23.000000
268.644100 27.000000
345.287000 23.000000
373.268900 50.000000
391.285300 375.000000

