>compound BML2825813
>parentmass 285.0404
>ionization [M-H]-
>formula C15H10O6
>rt 428.640000
>profile qtof
#smiles_iso C1=CC(=C(C=C1C2=CC(=O)C3=C(C=C(C=C3O2)O)O)O)O
#smiles_can C1=CC(=C(C=C1C2=CC(=O)C3=C(C=C(C=C3O2)O)O)O)O
#inchikey IQPNAANSBPBGFQ-UHFFFAOYSA-N
#pubchem_id 5280445
#mb_accession BML00136,BML00144,BML00151

>ms2peaks
133.028200 246.000000
151.004900 108.000000
256.036100 211.000000
257.032700 91.000000
284.031100 252.000000
284.270600 100.000000
285.040000 18145.000000

>ms2peaks
107.013800 176.000000
133.028800 916.000000
149.024800 263.000000
151.002800 706.000000
175.039700 475.000000
197.061300 121.000000
198.033600 107.000000
199.041400 379.000000
201.019800 103.000000
213.058600 140.000000
215.037600 119.000000
217.049500 320.000000
241.050900 251.000000
243.028800 175.000000
256.032400 318.000000
257.037800 210.000000
285.039800 13022.000000

>ms2peaks
104.027500 54.000000
105.034600 294.000000
107.013600 1047.000000
115.016600 40.000000
115.054400 42.000000
117.033100 81.000000
121.029000 351.000000
132.021000 636.000000
133.029100 7520.000000
133.063200 123.000000
133.080400 108.000000
133.112000 41.000000
133.136600 113.000000
143.047400 66.000000
145.031400 134.000000
146.038800 52.000000
147.047500 71.000000
149.025100 321.000000
151.002600 516.000000
167.050700 56.000000
169.028300 66.000000
171.042400 57.000000
173.025800 93.000000
174.029600 78.000000
175.040200 571.000000
182.036000 80.000000
183.057400 45.000000
185.055300 64.000000
187.040000 70.000000
195.046700 54.000000
197.022700 76.000000
198.034100 176.000000
199.038000 263.000000
201.019700 223.000000
211.037800 77.000000
214.022100 54.000000
215.034100 76.000000
217.048700 62.000000
223.041200 50.000000
229.049300 39.000000
239.037800 60.000000
242.019600 50.000000
255.032000 42.000000
256.037900 49.000000
285.040000 121.000000

