>compound BML2747646
>parentmass 306.2074
>ionization [M-H]-
>formula C18H29NO3
>rt 563.160000
>profile qtof
#smiles_iso CC(C)CCCCCCC(=O)NCC1=CC(=C(C=C1)O)OC
#smiles_can CC(C)CCCCCCC(=O)NCC1=CC(=C(C=C1)O)OC
#inchikey XJQPQKLURWNAAH-UHFFFAOYSA-N
#pubchem_id 107982
#mb_accession BML00768,BML00773,BML00778

>ms2peaks
141.015000 227.000000
170.154400 43309.000000
170.192000 1158.000000
170.211000 563.000000
170.237800 260.000000
170.275700 731.000000
306.207500 3089.000000

>ms2peaks
170.154400 33871.000000
170.195800 995.000000
170.212600 358.000000
170.241000 243.000000
170.275100 519.000000

>ms2peaks
141.855200 26.000000
152.143000 80.000000
170.153900 1432.000000
170.189800 23.000000
170.605300 21.000000

