>compound BML2732078
>parentmass 287.0713
>ionization [M-H]-
>formula C19H12O3
>rt 582.240000
>profile qtof
#smiles_iso C1=CC=C2C(=C1)C=CC3=C2OC(=CC3=O)C4=CC=CC=C4O
#smiles_can C1=CC=C2C(=C1)C=CC3=C2OC(=CC3=O)C4=CC=CC=C4O
#inchikey ZKMLQDNHMSFULN-UHFFFAOYSA-N
#pubchem_id 676302
#mb_accession BML00336,BML00341,BML00346

>ms2
117.034300 1923.000000
259.074700 532.000000
287.070900 41230.000000

>ms2
117.034100 13875.000000
117.065700 379.000000
117.085100 166.000000
117.134900 208.000000
143.049600 183.000000
167.050000 801.000000
245.059300 118.000000
259.076000 2905.000000
259.124400 125.000000
269.055000 113.000000
287.070700 18239.000000

>ms2
117.034300 24620.000000
117.068500 700.000000
117.085100 275.000000
117.135000 406.000000
141.034200 161.000000
143.049300 725.000000
167.049300 1804.000000
259.076300 780.000000

