>compound BML2472105
>parentmass 445.114
>ionization [M-H]-
>formula C22H22O10
>rt 400.800000
>profile qtof
#smiles_iso C1C2C(C3=C(O1)C=C(C=C3)OC4C(C(C(C(O4)CO)O)O)O)OC5=CC6=C(C=C25)OCO6
#smiles_can C1C2C(C3=C(O1)C=C(C=C3)OC4C(C(C(C(O4)CO)O)O)O)OC5=CC6=C(C=C25)OCO6
#inchikey VGSYCWGXBYZLLE-UHFFFAOYSA-N
#pubchem_id 4485132
#mb_accession BML01616,BML01624,BML01632

>ms2peaks
147.631900 36.000000
283.061400 860.000000
283.106500 53.000000
325.062400 22.000000
325.078900 68.000000

>ms2peaks
198.540700 22.000000
206.256200 23.000000
268.039200 47.000000
277.337900 22.000000
283.060400 726.000000
283.102200 75.000000
283.137500 25.000000

>ms2peaks
103.939500 28.000000
195.043700 37.000000
258.728200 31.000000
267.023300 47.000000
268.036900 496.000000
268.054400 22.000000
283.059500 222.000000
283.105300 21.000000
303.319100 31.000000

