>compound BML2723297
>parentmass 383.0136
>ionization [M-H]-
>formula C16H17BrO6
>rt 350.100000
>profile qtof
#smiles_iso C1=CC2=C(C=CC(=C2)Br)C=C1OC3C(C(C(C(O3)CO)O)O)O
#smiles_can C1=CC2=C(C=CC(=C2)Br)C=C1OC3C(C(C(C(O3)CO)O)O)O
#inchikey NLRXQZJJCPRATR-UHFFFAOYSA-N
#pubchem_id 119836
#mb_accession BML01732,BML01739,BML01746

>ms2
220.960200 1100.000000
220.990400 47.000000
221.006600 40.000000
300.004600 23.000000

>ms2
142.314000 31.000000
220.959300 1456.000000
220.999200 58.000000
221.025200 23.000000
348.838000 22.000000

>ms2
220.956600 518.000000
220.993800 34.000000
377.561800 32.000000

