>compound BML2404572
>parentmass 339.1714
>ionization [M-H]-
>formula C20H24N2O3
>rt 192.960000
>profile qtof
#smiles_iso C1CC(C(C2C1CN3CCC4=C(C3C2)NC5=CC=CC=C45)C(=O)O)O
#smiles_can C1CC(C(C2C1CN3CCC4=C(C3C2)NC5=CC=CC=C45)C(=O)O)O
#inchikey AADVZSXPNRLYLV-UHFFFAOYSA-N
#pubchem_id 630921
#mb_accession BML00377,BML00383,BML00389

>ms2peaks
120.179800 65.000000
277.166900 289.000000
295.183100 92.000000
321.158500 107.000000
339.171000 8074.000000

>ms2peaks
136.385900 61.000000
155.074300 59.000000
267.143000 28.000000
277.169500 826.000000
277.220500 47.000000
277.241000 21.000000
277.963200 21.000000
293.164500 159.000000
293.187900 23.000000
293.822700 42.000000
295.178900 366.000000
295.241000 28.000000
321.156100 322.000000
321.178900 33.000000
339.170400 3917.000000

>ms2peaks
109.067500 25.000000
116.054900 48.000000
142.066000 159.000000
144.074500 68.000000
144.082400 21.000000
155.076800 130.000000
156.074200 66.000000
156.084200 105.000000
166.055600 27.000000
168.939800 35.000000
169.076400 290.000000
178.084600 39.000000
182.089000 43.000000
182.098800 31.000000
183.097300 83.000000
184.111700 23.000000
207.084800 22.000000
211.123200 109.000000
223.120300 73.000000
237.141200 20.000000
239.153000 38.000000
264.677600 30.000000
265.179400 20.000000
267.158300 56.000000
275.151100 111.000000
277.171500 645.000000
277.217900 50.000000
291.157200 45.000000
293.167000 248.000000
295.179700 290.000000
305.083800 26.000000
321.168400 49.000000
339.154400 23.000000

