>compound BML2406946
>parentmass 167.9972
>ionization [M-H]-
>formula C3H7NO5S
>rt 22.860000
>profile qtof
#smiles_iso C(C(C(=O)O)N)S(=O)(=O)O
#smiles_can C(C(C(=O)O)N)S(=O)(=O)O
#inchikey XVOYSCVBGLVSOL-UHFFFAOYSA-N
#pubchem_id 25701
#mb_accession BML01673,BML01683

>ms2
106.980800 38.000000
121.991500 118.000000
122.977500 120.000000
124.025800 33.000000
129.080200 34.000000
135.850700 24.000000
149.984900 191.000000
150.021900 40.000000
150.942700 26.000000
150.970400 10304.000000
151.008700 303.000000
151.055600 69.000000
151.083400 164.000000
151.106000 24.000000
151.122800 25.000000
151.152300 56.000000
151.170500 43.000000
151.229200 42.000000
151.254400 26.000000
151.278300 36.000000
151.299500 44.000000
151.336600 43.000000
151.370500 20.000000
151.423500 30.000000
151.449600 50.000000
151.472000 22.000000
151.495200 29.000000
151.556500 37.000000
151.617600 29.000000
151.651900 56.000000
151.722700 22.000000
151.884100 23.000000
166.998400 46.000000
167.238400 92.000000
167.967600 51.000000
167.996900 33258.000000

>ms2
106.980200 114.000000
119.098800 27.000000
121.989900 33.000000
122.977600 99.000000
124.004000 31.000000
126.416800 24.000000
139.999300 28.000000
145.703300 29.000000
149.991000 72.000000
150.970100 2485.000000
151.005500 50.000000
151.028000 21.000000
151.047800 22.000000
151.083500 37.000000
151.318900 22.000000
151.386700 33.000000
159.246700 32.000000
161.686200 23.000000
167.996500 1555.000000

