>compound BML2611688
>parentmass 351.051
>ionization [M-H]-
>formula C19H12O7
>rt 447.480000
>profile qtof
#smiles_iso COC1=C(C=C2C(=C1)C=C(C(=O)O2)OC3=CC4=C(C=C3)C=CC(=O)O4)O
#smiles_can COC1=C(C=C2C(=C1)C=C(C(=O)O2)OC3=CC4=C(C=C3)C=CC(=O)O4)O
#inchikey JRHMMVBOTXEHGJ-UHFFFAOYSA-N
#pubchem_id 5281406
#mb_accession BML00201,BML00214,BML00227

>ms2peaks
163.002700 739.000000
190.996900 976.000000
308.031800 297.000000
336.027000 3722.000000
351.050700 32096.000000

>ms2peaks
135.009000 211.000000
163.003100 3743.000000
163.046800 140.000000
190.998200 7742.000000
191.039800 284.000000
191.059500 100.000000
206.021100 1016.000000
252.042300 626.000000
264.046600 106.000000
279.029500 152.000000
279.067500 172.000000
280.037700 609.000000
292.038000 452.000000
293.039400 106.000000
295.062200 168.000000
307.020500 108.000000
308.031500 601.000000
323.059900 319.000000
336.027200 19397.000000
336.102600 278.000000
336.191200 225.000000
336.246600 115.000000
336.301100 99.000000
351.050400 6937.000000

>ms2peaks
107.013800 169.000000
119.012900 660.000000
135.008000 3337.000000
147.006900 182.000000
161.023900 738.000000
163.003100 29385.000000
163.039100 947.000000
163.121800 461.000000
190.997300 3678.000000
207.044100 292.000000
235.040500 175.000000
252.041400 407.000000
263.040500 210.000000
279.027600 155.000000

