>compound BML2337876
>parentmass 407.1347
>ionization [M-H]-
>formula C20H24O9
>rt 315.300000
>profile qtof
#smiles_iso CC1C(=O)OC2C1(C34C(=O)OC5C3(C2)C6(C(C5)C(C)(C)C)C(C(=O)OC6O4)O)O
#smiles_can CC1C(=O)OC2C1(C34C(=O)OC5C3(C2)C6(C(C5)C(C)(C)C)C(C(=O)OC6O4)O)O
#inchikey FPUXKXIZEIDQKW-UHFFFAOYSA-N
#pubchem_id 115221
#mb_accession BML00627,BML00631

>ms2peaks
277.099500 21.000000
289.147300 26.000000
291.149400 27.000000
301.153100 46.000000
307.141400 38.000000
317.130800 36.000000
319.155500 143.000000
333.133900 63.000000
333.160900 22.000000
335.150500 152.000000
351.143800 1487.000000
351.200700 83.000000
363.144000 206.000000
379.144700 117.000000
407.134300 680.000000

>ms2peaks
109.330500 25.000000
132.270600 23.000000
135.080600 24.000000
136.850300 24.000000
149.023200 22.000000
152.773700 30.000000
156.041500 26.000000
159.891500 23.000000
164.083800 30.000000
172.094000 26.000000
187.464200 27.000000
191.144700 21.000000
203.099800 29.000000
205.133100 35.000000
205.157700 40.000000
216.108800 47.000000
217.131800 35.000000
217.158600 49.000000
229.158900 74.000000
229.169700 31.000000
230.067600 22.000000
230.850900 29.000000
231.138900 22.000000
233.119500 39.000000
235.133900 28.000000
235.172200 44.000000
245.112000 27.000000
245.151400 66.000000
245.164800 52.000000
247.166200 36.000000
255.139400 81.000000
257.148700 53.000000
260.110100 66.000000
263.169500 41.000000
271.136600 76.000000
273.145700 97.000000
275.163500 56.000000
277.137400 36.000000
289.152200 78.000000
301.139300 51.000000
307.149000 99.000000
317.126100 22.000000
319.107400 21.000000
326.542200 22.000000
333.135300 125.000000
333.161500 39.000000
335.133300 24.000000
335.158000 47.000000
351.141600 619.000000
351.181300 47.000000
351.229700 20.000000
354.159600 24.000000
363.143400 77.000000
367.683600 20.000000
407.130600 146.000000

