>compound BML3939883
>parentmass 154.0622
>ionization [M-H]-
>formula C6H9N3O2
>rt 19.800000
>profile qtof
#smiles_iso C1=C(NC=N1)CC(C(=O)O)N
#smiles_can C1=C(NC=N1)CC(C(=O)O)N
#inchikey HNDVDQJCIGZPNO-UHFFFAOYSA-N
#pubchem_id 773
#mb_accession BML01094,BML01100

>ms2peaks
100.358000 33.000000
108.056500 791.000000
108.091700 31.000000
109.039400 699.000000
109.065800 36.000000
110.047000 39.000000
110.071400 1821.000000
110.098300 62.000000
110.118600 25.000000
110.170600 33.000000
110.295200 21.000000
118.040900 394.000000
122.938900 32.000000
126.260200 33.000000
136.051300 1504.000000
136.088200 62.000000
136.416600 21.000000
136.761600 24.000000
137.035100 4714.000000
137.066000 94.000000
137.073900 53.000000
137.099700 76.000000
137.143900 70.000000
137.165400 33.000000
137.220300 27.000000
137.236000 21.000000
137.290900 22.000000
137.334600 25.000000
137.402500 24.000000
153.241100 22.000000
154.061700 19720.000000

>ms2peaks
106.039300 70.000000
106.995000 25.000000
107.020200 25.000000
108.060700 214.000000
108.441200 20.000000
108.558600 22.000000
109.037500 321.000000
109.084600 27.000000
110.072000 1345.000000
110.105500 31.000000
110.171200 23.000000
112.562000 29.000000
112.656800 23.000000
118.038700 490.000000
118.067100 25.000000
118.341900 20.000000
129.615900 26.000000
136.049800 622.000000
136.159700 27.000000
137.003000 20.000000
137.034700 1734.000000
137.071900 89.000000
137.087400 46.000000
137.143200 23.000000
137.302600 23.000000
137.476000 20.000000
140.828900 21.000000
154.037300 61.000000
154.061300 1282.000000

