>compound BML3457977
>parentmass 196.0615
>ionization [M-H]-
>formula C9H11NO4
>rt 23.280000
>profile qtof
#smiles_iso C1=CC(=C(C=C1CC(C(=O)O)N)O)O
#smiles_can C1=CC(=C(C=C1CC(C(=O)O)N)O)O
#inchikey WTDRDQBEARUVNC-UHFFFAOYSA-N
#pubchem_id 836
#mb_accession BML01832,BML01842,BML01852

>ms2peaks
101.706900 24.000000
107.052000 76.000000
108.046400 30.000000
109.029600 452.000000
121.023600 23.000000
122.037100 382.000000
123.046800 54.000000
134.060200 149.000000
134.067000 57.000000
135.044200 1973.000000
135.075100 83.000000
135.095800 45.000000
152.071700 635.000000
160.841600 195.000000
179.034100 1299.000000
179.073700 62.000000
179.100600 24.000000
189.648300 23.000000
195.046700 27.000000
195.808400 355.000000
195.839500 22.000000
196.023700 20.000000
196.061000 2715.000000

>ms2peaks
106.038100 35.000000
107.049800 184.000000
108.017900 26.000000
109.029000 495.000000
109.038100 25.000000
109.059200 22.000000
121.030200 54.000000
122.036200 787.000000
122.064100 22.000000
123.043900 254.000000
125.056800 32.000000
134.036100 231.000000
135.044700 2405.000000
135.071400 55.000000
135.082700 72.000000
135.124300 30.000000
135.152600 35.000000
144.756800 25.000000
148.621700 29.000000
150.049300 24.000000
160.843000 378.000000
160.878500 28.000000
168.149500 25.000000
179.033500 177.000000

>ms2peaks
106.039300 31.000000
107.053200 23.000000
108.019900 103.000000
109.028100 167.000000
122.036800 56.000000
123.050100 36.000000
134.038200 237.000000
135.044200 125.000000

