>compound BML3178831
>parentmass 609.1825
>ionization [M-H]-
>formula C28H34O15
>rt 339.420000
>profile qtof
#smiles_iso C[C@H]1[C@@H]([C@H]([C@H]([C@@H](O1)OC[C@@H]2[C@H]([C@@H]([C@H]([C@@H](O2)OC3=CC(=C4C(=O)C[C@H](OC4=C3)C5=CC(=C(C=C5)OC)O)O)O)O)O)O)O)O
#smiles_can CC1C(C(C(C(O1)OCC2C(C(C(C(O2)OC3=CC(=C4C(=O)CC(OC4=C3)C5=CC(=C(C=C5)OC)O)O)O)O)O)O)O)O
#inchikey QUQPHWDTPGMPEX-QJBIFVCTSA-N
#pubchem_id 10621
#mb_accession BML00674,BML00682,BML00690

>ms2peaks
100.037100 63.000000
151.284000 50.000000
185.720300 78.000000
246.958100 49.000000
286.034700 46.000000
301.072200 4160.000000
301.121300 248.000000
301.161800 69.000000
301.191300 47.000000
301.221400 63.000000
301.306400 47.000000
301.389100 39.000000
325.073500 52.000000
609.181000 7756.000000

>ms2peaks
112.661100 59.000000
141.010700 71.000000
257.085300 74.000000
301.071500 9372.000000
301.110200 241.000000
301.167100 134.000000
301.194300 48.000000
301.228800 115.000000
301.334400 52.000000
301.409100 76.000000
301.439000 47.000000
301.573600 64.000000
301.729800 51.000000
302.077400 62.000000
302.128300 58.000000
325.066600 201.000000
343.082500 84.000000
609.180800 2061.000000

>ms2peaks
107.013100 44.000000
107.019600 29.000000
125.026100 202.000000
134.032400 69.000000
135.043000 23.000000
139.040600 44.000000
150.999800 77.000000
152.014500 29.000000
158.030000 45.000000
164.011700 199.000000
164.808900 21.000000
173.063500 57.000000
174.031100 83.000000
174.049100 31.000000
175.008400 34.000000
185.017100 28.000000
187.031400 23.000000
187.871700 53.000000
198.034500 28.000000
199.034700 94.000000
200.053200 51.000000
200.510000 68.000000
201.012400 60.000000
201.034600 22.000000
206.028900 31.000000
211.308000 24.000000
215.017800 22.000000
215.041800 35.000000
215.070400 43.000000
216.047300 48.000000
217.043400 55.000000
227.025400 22.000000
229.013600 32.000000
233.082000 26.000000
240.043300 28.000000
240.060400 29.000000
241.056400 56.000000
242.056300 327.000000
243.811400 23.000000
251.222400 23.000000
257.079800 133.000000
258.048600 102.000000
267.025000 47.000000
268.041700 30.000000
269.033400 21.000000
279.673900 20.000000
283.048700 22.000000
283.069000 50.000000
286.047300 363.000000
286.090900 34.000000
286.239200 34.000000
287.054500 21.000000
291.074500 31.000000
292.037300 26.000000
300.058500 26.000000
301.070100 3522.000000
301.114900 94.000000
301.136000 59.000000
301.164100 56.000000
301.187400 41.000000
301.230800 89.000000
301.315300 31.000000
301.367600 36.000000
301.418700 57.000000
301.603000 41.000000
301.640200 30.000000
301.731600 33.000000
302.072600 37.000000
302.137200 31.000000
303.076100 26.000000
310.050200 62.000000
311.042700 20.000000
325.073500 83.000000
332.980100 23.000000
343.095200 44.000000
367.086500 21.000000
401.038300 28.000000
432.770700 26.000000
438.988600 22.000000
475.988600 20.000000
483.684800 26.000000
488.333100 31.000000
546.982600 142.000000
551.656800 43.000000

