>compound BML3546606
>parentmass 465.3216
>ionization [M+CH3COOH-H]-
>formula C25H42O4
>rt 690.900000
>profile qtof
#smiles_iso CC(CCC(=O)OC)C1CCC2C1(C(CC3C2CCC4C3(CCC(C4)O)C)O)C
#smiles_can CC(CCC(=O)OC)C1CCC2C1(C(CC3C2CCC4C3(CCC(C4)O)C)O)C
#inchikey ZHUOOEGSSFNTNP-UHFFFAOYSA-N
#pubchem_id 95608
#mb_accession BML01206

>ms2
101.515300 31.000000
103.747800 21.000000
113.133100 33.000000
129.869300 37.000000
192.244400 22.000000
216.994000 31.000000
218.998300 29.000000
219.013700 33.000000
219.583200 36.000000
220.391000 31.000000
299.498100 36.000000
383.006400 20.000000
465.229400 34.000000
465.318800 1825.000000

