>compound BML3523670
>parentmass 503.3009
>ionization [M+CH3COOH-H]-
>formula C27H40O5
>rt 650.640000
>profile qtof
#smiles_iso CC(=O)C12CCCCC1CC3C2(CCC4C3CC(=O)C5(C4(CCC(C5)OC(=O)C)C)O)C
#smiles_can CC(=O)C12CCCCC1CC3C2(CCC4C3CC(=O)C5(C4(CCC(C5)OC(=O)C)C)O)C
#inchikey DMAXEADUOQCSHM-UHFFFAOYSA-N
#pubchem_id 4008455
#mb_accession BML00047

>ms2peaks
106.554400 23.000000
156.775500 22.000000
173.572100 25.000000
240.935000 24.000000
243.911200 24.000000
310.440700 23.000000
339.166700 22.000000
383.258500 166.000000
443.273100 194.000000
503.299300 2138.000000

