>compound BML3871604
>parentmass 165.0921
>ionization [M-H]-
>formula C10H14O2
>rt 460.800000
>profile qtof
#smiles_iso CC(=C)[C@H]1CCC(=CC1)C(=O)O
#smiles_can CC(=C)C1CCC(=CC1)C(=O)O
#inchikey CDSMSBUVCWHORP-MRVPVSSYSA-N
#pubchem_id 2724160
#mb_accession BML01837

>ms2peaks
118.161200 22.000000
121.100700 144.000000
143.561700 65.000000
146.394400 43.000000
149.065800 41.000000
165.043800 27.000000
165.091500 14746.000000

