>compound BML3871930
>parentmass 317.0101
>ionization [M-H]-
>formula C12H12Cl2N2O4
>rt 331.200000
>profile qtof
#smiles_iso C1=C2C(=CC(=C1Cl)Cl)N(C=N2)C3C(C(C(O3)CO)O)O
#smiles_can C1=C2C(=CC(=C1Cl)Cl)N(C=N2)C3C(C(C(O3)CO)O)O
#inchikey XHSQDZXAVJRBMX-UHFFFAOYSA-N
#pubchem_id 3165
#mb_accession BML01511,BML01519,BML01527

>ms2peaks
148.988300 39.000000
184.966800 6076.000000
185.004900 242.000000
185.028700 73.000000
185.044500 24.000000
185.057800 39.000000
185.093300 76.000000
185.145900 31.000000
185.194800 30.000000
185.224500 27.000000
185.290300 32.000000
185.323700 37.000000
185.370100 28.000000
185.513200 23.000000
185.564400 21.000000
185.601200 29.000000
185.723400 34.000000
228.310400 23.000000
234.976000 57.000000
317.002400 62.000000

>ms2peaks
148.988900 48.000000
184.966600 4927.000000
185.006900 207.000000
185.032400 40.000000
185.054500 23.000000
185.092000 49.000000
227.227900 28.000000

>ms2peaks
113.012400 44.000000
148.990900 907.000000
149.030800 47.000000
149.996200 67.000000
160.863700 21.000000
180.491500 20.000000
184.967300 4012.000000
184.998800 24.000000
185.009300 162.000000
185.057700 37.000000
185.093500 52.000000
185.117000 24.000000
185.194100 26.000000
185.239600 20.000000
185.534700 43.000000
185.688400 22.000000
209.184900 22.000000
244.781900 22.000000
298.076500 32.000000
305.659000 24.000000

