>compound BML3146128
>parentmass 959.2457
>ionization [M+CH3COOH-H]-
>formula C42H44O22
>rt 602.220000
>profile qtof
#smiles_iso CC(=O)OC1COC(C(C1OC(=O)C)OC(=O)C)OCC2C(C(C(C(O2)OC3=CC4=C(C(=C3)OC(=O)C)C(=O)C(=CO4)C5=CC=C(C=C5)OC(=O)C)OC(=O)C)OC(=O)C)OC(=O)C
#smiles_can CC(=O)OC1COC(C(C1OC(=O)C)OC(=O)C)OCC2C(C(C(C(O2)OC3=CC4=C(C(=C3)OC(=O)C)C(=O)C(=CO4)C5=CC=C(C=C5)OC(=O)C)OC(=O)C)OC(=O)C)OC(=O)C
#inchikey PWNURKDPPRSGQU-UHFFFAOYSA-N
#pubchem_id 20106114
#mb_accession BML01623,BML01631,BML01639

>ms2
152.341000 31.000000
159.147900 28.000000
221.729600 21.000000
297.432200 20.000000
305.019300 24.000000
321.132900 36.000000
325.885800 20.000000
353.056700 34.000000
528.595500 33.000000
598.029100 22.000000
632.004700 27.000000
794.947800 43.000000
815.203100 61.000000
857.210100 1230.000000
857.290700 68.000000
857.348300 27.000000
857.426900 34.000000
857.512200 30.000000
857.885600 21.000000
857.938900 21.000000
858.236100 25.000000
858.596000 38.000000
858.699500 20.000000
876.981000 22.000000
899.228600 48.000000
900.065800 23.000000
917.250000 41.000000
958.955500 32.000000
959.004500 41.000000
959.242800 2276.000000

>ms2
181.056400 23.000000
311.052400 125.000000
353.065400 102.000000
362.675500 26.000000
368.788400 26.000000
463.000800 30.000000
630.915000 28.000000
631.021900 37.000000
719.977700 22.000000
755.168800 45.000000
773.178600 30.000000
803.879000 35.000000
806.016900 60.000000
806.975900 32.000000
815.194000 130.000000
857.211000 821.000000
857.316800 28.000000
857.612500 21.000000
899.185800 44.000000
917.244700 24.000000
959.242300 45.000000

>ms2
141.013000 29.000000
199.682800 33.000000
269.246000 44.000000
298.991800 20.000000
311.054600 599.000000
311.122800 29.000000
353.073500 90.000000
461.862200 27.000000
612.460100 29.000000
713.153400 31.000000
755.162700 22.000000
755.190000 71.000000
771.197800 32.000000
813.247700 34.000000
815.235200 22.000000
857.210800 51.000000
870.291300 21.000000

