>compound BML3544659
>parentmass 350.147
>ionization [M-H]-
>formula C15H21N5O5
>rt 237.720000
>profile qtof
#smiles_iso CC(=CCNC1=C2C(=NC=N1)N(C=N2)C3C(C(C(O3)CO)O)O)CO
#smiles_can CC(=CCNC1=C2C(=NC=N1)N(C=N2)C3C(C(C(O3)CO)O)O)CO
#inchikey GOSWTRUMMSCNCW-UHFFFAOYSA-N
#pubchem_id 5529
#mb_accession BML00939,BML00945

>ms2
100.091700 26.000000
111.908200 35.000000
133.032500 60.000000
134.048700 63.000000
157.780000 41.000000
165.653200 21.000000
189.749800 50.000000
218.103500 1223.000000
218.140400 70.000000
218.170800 22.000000
218.403100 22.000000
244.762200 68.000000
249.530300 41.000000
266.087000 121.000000
266.120900 37.000000
267.934700 32.000000
281.431400 20.000000
350.153000 262.000000

>ms2
103.036000 31.000000
133.001900 34.000000
134.047300 296.000000
159.732200 64.000000
165.123000 31.000000
185.990900 31.000000
188.093900 45.000000
192.593100 26.000000
200.096400 70.000000
218.104500 883.000000
218.142800 63.000000
225.446600 30.000000
266.086800 242.000000
283.189200 21.000000
331.758800 23.000000
350.134000 57.000000

