>compound BML3407542
>parentmass 382.1521
>ionization [M-H]-
>formula C19H21N5O4
>rt 335.880000
>profile qtof
#smiles_iso COC1=C(C=C2C(=C1)C(=NC(=N2)N3CCN(CC3)C(=O)C4=CC=CO4)N)OC
#smiles_can COC1=C(C=C2C(=C1)C(=NC(=N2)N3CCN(CC3)C(=O)C4=CC=CO4)N)OC
#inchikey IENZQIKPVFGBNW-UHFFFAOYSA-N
#pubchem_id 4893
#mb_accession BML00725

>ms2
110.028500 31.000000
112.615200 26.000000
164.103800 36.000000
190.707100 27.000000
202.065600 25.000000
217.002300 61.000000
245.088800 33.000000
256.590600 29.000000
284.090500 21.000000
298.993600 32.000000
299.014300 28.000000
321.873600 23.000000
367.111900 83.000000
367.126000 135.000000
382.152300 973.000000

