>compound BML3010172
>parentmass 322.1521
>ionization [M-H]-
>formula C14H21N5O4
>rt 312.840000
>profile qtof
#smiles_iso CCN(CC)C1=NC=NC2=C1N=CN2C3C(C(C(O3)CO)O)O
#smiles_can CCN(CC)C1=NC=NC2=C1N=CN2C3C(C(C(O3)CO)O)O
#inchikey AVNJCDRLZOVEDM-UHFFFAOYSA-N
#pubchem_id 3300105
#mb_accession BML01448,BML01455,BML01462

>ms2peaks
162.078800 54.000000
174.728900 23.000000
190.109300 1920.000000
190.148600 95.000000
190.170800 23.000000
190.206500 26.000000
190.237400 20.000000
252.829100 21.000000
288.022100 28.000000
298.874500 28.000000

>ms2peaks
123.851400 22.000000
158.786500 35.000000
162.078000 110.000000
190.109500 2304.000000
190.148800 75.000000
190.179400 37.000000

>ms2peaks
133.037800 109.000000
134.045300 172.000000
142.941700 21.000000
146.044800 78.000000
159.563600 28.000000
162.077800 994.000000
162.119100 51.000000
190.109300 724.000000
190.141900 38.000000

