>compound BML3471496
>parentmass 361.202
>ionization [M-H]-
>formula C21H30O5
>rt 444.540000
>profile qtof
#smiles_iso C[C@]12CCC(=O)C=C1CC[C@@H]3[C@@H]2[C@H](C[C@]4([C@H]3CC[C@@]4(C(=O)CO)O)C)O
#smiles_can CC12CCC(=O)C=C1CCC3C2C(CC4(C3CCC4(C(=O)CO)O)C)O
#inchikey JYGXADMDTFJGBT-VWUMJDOOSA-N
#pubchem_id 5754
#mb_accession BML01036,BML01043,BML01050

>ms2
116.929800 34.000000
221.061200 34.000000
234.557800 32.000000
272.532300 25.000000
297.153900 113.000000
301.191600 23.000000
306.509700 20.000000
315.158000 44.000000
315.173400 31.000000
331.190300 1951.000000
331.246800 76.000000
331.309600 22.000000
331.363400 22.000000
332.020800 20.000000
343.186300 34.000000

>ms2
106.764500 39.000000
116.930000 51.000000
125.058300 108.000000
135.419300 25.000000
189.090500 236.000000
196.688100 26.000000
243.144800 24.000000
282.125600 242.000000
287.160400 22.000000
290.649800 25.000000
297.150000 645.000000
297.184400 45.000000
297.203800 27.000000
308.231700 23.000000
313.186900 38.000000
315.156700 247.000000
315.180600 24.000000
315.209100 24.000000
331.189300 1266.000000
331.226300 44.000000
331.248300 51.000000
331.275300 41.000000
331.358800 23.000000
332.105900 20.000000
354.523400 80.000000

>ms2
107.043300 30.000000
107.049700 25.000000
116.925100 57.000000
123.079200 68.000000
125.063500 226.000000
135.083900 36.000000
149.059100 22.000000
161.098300 43.000000
174.060400 29.000000
174.070400 35.000000
178.842400 29.000000
189.090100 63.000000
267.134700 35.000000
282.124300 341.000000
282.160800 22.000000
295.131600 21.000000
297.150100 108.000000
300.351500 32.000000
315.144600 20.000000

