>compound BML3843256
>parentmass 309.098
>ionization [M-H]-
>formula C15H18O7
>rt 222.120000
>profile qtof
#smiles_iso CC12C3C4C(C(C1(CC5C2(O5)C(=O)O3)O)C(=O)O4)C(C)(C)O
#smiles_can CC12C3C4C(C(C1(CC5C2(O5)C(=O)O3)O)C(=O)O4)C(C)(C)O
#inchikey RYEFFICCPKWYML-UHFFFAOYSA-N
#pubchem_id 4815
#mb_accession BML00671,BML00679,BML00687

>ms2
109.029500 825.000000
109.064900 223.000000
110.032600 77.000000
111.043600 818.000000
111.049500 114.000000
122.032500 87.000000
123.045300 96.000000
125.060200 158.000000
127.077400 65.000000
135.049400 96.000000
135.080700 190.000000
137.024300 1985.000000
137.063200 69.000000
145.071200 83.000000
161.063200 87.000000
163.075000 316.000000
165.058000 86.000000
171.067200 288.000000
175.108100 185.000000
177.091400 68.000000
177.126200 131.000000
189.054400 132.000000
193.124000 1050.000000
203.102200 136.000000
207.062400 500.000000
219.107000 92.000000
221.118400 90.000000
237.113500 1503.000000
251.051600 223.000000
281.102400 483.000000
309.097700 12552.000000

>ms2
107.051600 219.000000
109.029100 1544.000000
109.065100 384.000000
109.126400 21.000000
110.034600 189.000000
111.044700 1487.000000
111.080500 59.000000
117.068500 60.000000
119.084700 42.000000
121.062900 121.000000
122.035300 75.000000
123.045200 63.000000
123.075500 21.000000
125.061200 201.000000
127.077400 126.000000
128.941800 63.000000
130.039300 60.000000
130.052500 47.000000
131.088100 41.000000
133.066400 57.000000
134.038700 25.000000
135.043600 202.000000
135.081300 248.000000
137.024300 3497.000000
137.061000 214.000000
137.079100 83.000000
137.100200 103.000000
137.134100 50.000000
137.912900 22.000000
138.034300 37.000000
139.042300 35.000000
143.045600 75.000000
145.066600 171.000000
146.034000 22.000000
148.018400 25.000000
148.058300 53.000000
151.041700 49.000000
151.113900 21.000000
155.030500 64.000000
161.060800 286.000000
161.094700 57.000000
163.075200 385.000000
163.099300 28.000000
163.115700 22.000000
165.093200 30.000000
167.044500 21.000000
171.064900 159.000000
171.081700 29.000000
174.027600 66.000000
175.112800 254.000000
177.090600 49.000000
177.125900 274.000000
177.136300 31.000000
179.069900 154.000000
185.094200 42.000000
187.074200 21.000000
188.090700 31.000000
189.054700 312.000000
190.054100 20.000000
193.122000 840.000000
193.158400 47.000000
201.089600 23.000000
203.105800 183.000000
205.095200 33.000000
207.066800 384.000000
207.106300 28.000000
208.073100 26.000000
216.121200 65.000000
219.082300 36.000000
219.101900 191.000000
221.082100 22.000000
221.121800 45.000000
223.048100 30.000000
236.952300 20.000000
237.111900 553.000000
237.163200 24.000000
251.057600 88.000000
251.128300 31.000000
265.114800 28.000000
281.100400 100.000000
309.096800 728.000000

>ms2
105.039800 37.000000
105.066500 28.000000
105.278000 27.000000
107.049200 444.000000
107.962700 34.000000
108.021000 279.000000
109.029400 4489.000000
109.065700 222.000000
109.094500 24.000000
109.127000 46.000000
109.223100 29.000000
109.431100 27.000000
109.456600 35.000000
109.772800 25.000000
110.035300 28.000000
110.712000 23.000000
111.045400 1678.000000
111.080100 81.000000
111.098700 24.000000
111.145500 28.000000
111.627900 23.000000
112.760700 24.000000
115.055500 41.000000
117.064700 94.000000
117.073700 28.000000
119.053300 41.000000
119.083900 46.000000
120.057600 40.000000
120.342400 68.000000
121.026500 33.000000
121.063700 63.000000
122.035900 37.000000
123.045300 324.000000
125.058000 38.000000
127.035300 51.000000
130.041200 80.000000
133.065000 61.000000
134.030900 60.000000
134.074000 27.000000
135.042100 71.000000
135.081300 83.000000
136.056800 23.000000
137.023600 1153.000000
137.053300 32.000000
137.062900 96.000000
140.239100 27.000000
143.043100 78.000000
143.050900 293.000000
143.614400 23.000000
145.063600 65.000000
146.035000 78.000000
146.068300 24.000000
147.044500 78.000000
147.082800 25.000000
148.051300 168.000000
151.039400 50.000000
151.072200 80.000000
156.024300 39.000000
160.042500 35.000000
161.056200 152.000000
162.067700 61.000000
163.066700 72.000000
171.043700 26.000000
175.114500 41.000000
177.089700 31.000000
188.052900 134.000000
191.039500 47.000000
192.042300 35.000000
201.445600 36.000000
207.068600 42.000000
242.865700 49.000000
250.440800 35.000000
276.480100 27.000000
279.434800 39.000000
297.242400 23.000000
299.501400 32.000000

