>compound BML3840046
>parentmass 343.0823
>ionization [M-H]-
>formula C18H16O7
>rt 645.060000
>profile qtof
#smiles_iso CC1=C(C(=C2C(=C1O)C3(C(=CC(=O)C(C3=O)C(=O)C)O2)C)C(=O)C)O
#smiles_can CC1=C(C(=C2C(=C1O)C3(C(=CC(=O)C(C3=O)C(=O)C)O2)C)C(=O)C)O
#inchikey CUCUKLJLRRAKFN-UHFFFAOYSA-N
#pubchem_id 5646
#mb_accession BML00262,BML00269,BML00276

>ms2
144.971200 53.000000
231.068400 112.000000
259.060400 579.000000
299.090900 365.000000
301.071700 193.000000
313.030800 73.000000
327.181000 56.000000
328.058200 1437.000000
328.120900 72.000000
343.081100 9999.000000

>ms2
110.775400 22.000000
131.671100 20.000000
144.770300 21.000000
153.327900 24.000000
164.309500 22.000000
171.045000 27.000000
199.080200 22.000000
211.090700 23.000000
215.076700 25.000000
231.064100 423.000000
235.703200 25.000000
235.981600 30.000000
250.289300 46.000000
252.842300 29.000000
255.065300 36.000000
257.071100 26.000000
259.058700 1311.000000
259.104200 95.000000
259.135400 24.000000
259.353500 24.000000
283.066100 32.000000
286.042900 28.000000
299.090600 320.000000
301.071400 113.000000
311.809900 34.000000
313.034400 205.000000
315.083100 68.000000
328.055400 1905.000000
328.102200 83.000000
328.145600 42.000000
343.082300 583.000000

>ms2
103.437000 26.000000
105.861700 29.000000
139.043800 25.000000
141.071000 31.000000
142.047000 43.000000
143.084400 22.000000
145.063800 124.000000
149.057300 22.000000
159.045200 36.000000
159.083000 25.000000
160.051400 62.000000
161.056600 111.000000
169.067900 40.000000
170.072600 55.000000
171.042100 116.000000
173.055000 41.000000
185.056400 79.000000
186.027600 45.000000
187.044300 46.000000
187.079700 43.000000
188.043100 76.000000
189.054200 300.000000
189.080600 22.000000
199.062000 33.000000
203.074500 100.000000
203.925400 25.000000
207.245000 24.000000
213.049000 118.000000
213.067800 34.000000
214.020000 34.000000
214.034400 60.000000
215.034000 277.000000
215.053100 36.000000
215.984300 21.000000
216.041100 28.000000
216.082300 23.000000
217.061000 45.000000
226.065200 21.000000
229.047000 471.000000
231.013600 27.000000
231.063900 568.000000
231.111400 25.000000
240.036100 31.000000
241.047600 141.000000
242.065100 33.000000
243.025900 21.000000
245.040400 45.000000
255.068300 46.000000
257.042100 412.000000
257.188900 24.000000
257.489600 24.000000
259.054900 26.000000
259.078200 23.000000
262.656100 31.000000
268.032300 21.000000
269.047300 155.000000
269.346000 21.000000
285.040800 144.000000
286.050800 24.000000
297.077800 41.000000
299.045000 24.000000
299.070100 45.000000
306.866100 34.000000
313.036100 1111.000000
313.087000 72.000000
313.114800 43.000000
313.137800 27.000000
314.216600 23.000000
327.046500 68.000000
327.143700 52.000000
328.059000 196.000000

