>compound BML3633330
>parentmass 319.1187
>ionization [M-H]-
>formula C17H20O6
>rt 485.340000
>profile qtof
#smiles_iso CC1=C2COC(=O)C2=C(C(=C1OC)CC=C(C)CCC(=O)O)O
#smiles_can CC1=C2COC(=O)C2=C(C(=C1OC)CC=C(C)CCC(=O)O)O
#inchikey HPNSFSBZBAHARI-UHFFFAOYSA-N
#pubchem_id 4272
#mb_accession BML00261,BML00268,BML00275

>ms2
179.034900 978.000000
191.035400 1228.000000
192.040500 726.000000
205.049000 357.000000
207.067800 556.000000
243.101200 1092.000000
275.128300 6934.000000
287.091400 1981.000000
319.118700 49384.000000

>ms2
107.051000 73.000000
133.061900 101.000000
135.048000 179.000000
139.073400 51.000000
147.041700 57.000000
148.052200 616.000000
149.061100 139.000000
158.077100 80.000000
160.049300 63.000000
161.060600 111.000000
161.100200 54.000000
163.038900 76.000000
171.120300 67.000000
173.057600 148.000000
174.077300 58.000000
175.110400 48.000000
176.003400 48.000000
176.047500 52.000000
177.018000 114.000000
178.022800 129.000000
179.034100 3588.000000
179.059900 93.000000
179.076500 109.000000
179.098800 75.000000
179.161900 62.000000
183.091800 69.000000
184.084500 71.000000
187.075000 214.000000
188.083900 129.000000
189.091000 78.000000
191.033800 6626.000000
191.075700 208.000000
191.104300 90.000000
191.164700 66.000000
192.042200 3277.000000
192.098100 110.000000
192.166600 50.000000
198.101600 56.000000
199.113100 592.000000
201.062300 86.000000
201.085300 208.000000
201.104500 110.000000
203.034500 188.000000
203.069300 69.000000
205.050100 1925.000000
205.094300 68.000000
206.059600 153.000000
207.066800 1263.000000
207.108600 98.000000
215.074300 50.000000
215.107300 448.000000
216.124000 145.000000
225.094000 227.000000
228.075600 47.000000
231.062500 242.000000
231.132300 81.000000
232.068200 96.000000
233.078600 242.000000
241.083400 116.000000
242.097200 176.000000
243.101200 1013.000000
243.134100 86.000000
245.080900 570.000000
245.119300 47.000000
247.096800 90.000000
247.128600 97.000000
259.100500 65.000000
260.111800 56.000000
269.078900 509.000000
273.105000 64.000000
275.128100 4633.000000
275.178600 229.000000
275.228400 74.000000
275.279100 52.000000
285.072600 152.000000
287.093000 2489.000000
287.146600 149.000000
291.127400 76.000000
301.113000 173.000000
319.117700 9131.000000

>ms2
187.074900 535.000000
187.116300 51.000000
188.378900 21.000000
190.024000 52.000000
190.035400 28.000000
191.034300 3696.000000
191.073600 149.000000
191.089000 78.000000
191.107400 81.000000
191.126400 56.000000
191.162700 64.000000
191.230200 21.000000
191.321900 25.000000
191.354300 42.000000
191.376800 33.000000
191.581800 30.000000
191.909000 33.000000
192.040300 507.000000
192.057300 20.000000
192.398100 22.000000
193.047700 79.000000
197.065900 25.000000
197.092900 72.000000
199.073600 178.000000
199.109600 21.000000
200.080200 124.000000
201.052300 23.000000
201.089800 405.000000
201.114900 40.000000
203.032700 906.000000
203.086600 29.000000
203.638900 24.000000
205.050400 2018.000000
205.092100 88.000000
205.113000 39.000000
205.183700 28.000000
205.230800 62.000000
205.824300 26.000000
210.072200 24.000000
213.057700 20.000000
214.057200 42.000000
214.104800 25.000000
215.068900 35.000000
215.109000 174.000000
217.049200 50.000000
217.083100 82.000000
227.069700 122.000000
227.127100 20.000000
229.050700 99.000000
230.062800 25.000000
231.062600 284.000000
231.696600 38.000000
241.084000 34.000000
243.072600 64.000000
243.340300 41.000000
245.081600 511.000000
245.124500 23.000000
248.949400 24.000000
261.135400 30.000000
275.134300 42.000000
283.238100 27.000000

