>compound BML3439215
>parentmass 407.1136
>ionization [M-H]-
>formula C23H20O7
>rt 566.940000
>profile qtof
#smiles_iso COC1=C(C=C2C(=C1)C3=C(CO2)OC4=C(C3=O)C=CC5=C4CC(O5)C(=C)CO)OC
#smiles_can COC1=C(C=C2C(=C1)C3=C(CO2)OC4=C(C3=O)C=CC5=C4CC(O5)C(=C)CO)OC
#inchikey ZHDJHNSKUYZDCF-UHFFFAOYSA-N
#pubchem_id 4435675
#mb_accession BML00207,BML00220

>ms2
116.474900 21.000000
195.106300 27.000000
216.043300 32.000000
219.892100 32.000000
250.011900 25.000000
283.266500 29.000000
290.430200 36.000000
337.343900 55.000000
377.070700 167.000000
377.118400 42.000000
389.111100 22.000000
392.085200 242.000000
392.109700 84.000000
407.113200 1636.000000

>ms2
104.346400 21.000000
116.543900 35.000000
124.698500 23.000000
141.473300 29.000000
176.047100 20.000000
179.533700 21.000000
207.046800 36.000000
211.922300 26.000000
244.436400 20.000000
263.028200 44.000000
291.019100 67.000000
294.086500 21.000000
318.402900 34.000000
322.056500 58.000000
333.533700 22.000000
335.040900 53.000000
349.078000 67.000000
357.632600 32.000000
359.050400 36.000000
359.069100 21.000000
362.071200 39.000000
364.070400 26.000000
374.069900 23.000000
374.280700 48.000000
375.075400 30.000000
377.063200 904.000000
377.117200 76.000000
377.151600 26.000000
389.096900 24.000000
391.085100 58.000000
392.084500 732.000000
392.152000 45.000000
407.115500 674.000000

