>compound BML4708948
>parentmass 132.0302
>ionization [M-H]-
>formula C4H7NO4
>rt 22.020000
>profile qtof
#smiles_iso C(C(C(=O)O)N)C(=O)O
#smiles_can C(C(C(=O)O)N)C(=O)O
#inchikey CKLJMWTZIZZHCS-UHFFFAOYSA-N
#pubchem_id 424
#mb_accession BML01334

>ms2
113.180500 20.000000
114.021200 189.000000
115.003000 735.000000
115.035000 26.000000
131.086200 23.000000
132.030800 1607.000000

