>compound BML4832566
>parentmass 373.1293
>ionization [M-H]-
>formula C20H22O7
>rt 608.100000
>profile qtof
#smiles_iso COC1=CC(=C(C(=C1)OC)C(=O)C=CC2=CC(=C(C=C2OC)OC)OC)O
#smiles_can COC1=CC(=C(C(=C1)OC)C(=O)C=CC2=CC(=C(C=C2OC)OC)OC)O
#inchikey VHCQVGQULWFQTM-UHFFFAOYSA-N
#pubchem_id 3899901
#mb_accession BML01736

>ms2
126.386800 53.000000
127.000200 22.000000
135.487000 31.000000
138.553800 50.000000
279.938600 36.000000
291.006700 26.000000
373.126800 443.000000

