>compound BML4117434
>parentmass 823.448
>ionization [M+CH3COOH-H]-
>formula C41H64O13
>rt 649.800000
>profile qtof
#smiles_iso CC1C(C(CC(O1)OC2C(OC(CC2O)OC3C(OC(CC3O)OC4CCC5(C(C4)CCC6C5CCC7(C6(CCC7C8=CC(=O)OC8)O)C)C)C)C)O)O
#smiles_can CC1C(C(CC(O1)OC2C(OC(CC2O)OC3C(OC(CC3O)OC4CCC5(C(C4)CCC6C5CCC7(C6(CCC7C8=CC(=O)OC8)O)C)C)C)C)O)O
#inchikey WDJUZGPOPHTGOT-UHFFFAOYSA-N
#pubchem_id 3061
#mb_accession BML01164,BML01173,BML01182

>ms2
189.092200 22.000000
228.299100 20.000000
393.447000 49.000000
397.950500 45.000000
404.347400 41.000000
502.123600 20.000000
503.302000 33.000000
530.840200 42.000000
633.358800 77.000000
763.358900 21.000000
763.423500 2742.000000
763.518500 128.000000
763.555900 49.000000
763.599200 40.000000
763.650600 59.000000
763.688700 39.000000
763.784800 44.000000
763.940200 208.000000
764.002700 32.000000
764.068300 37.000000
764.142900 31.000000
764.196800 40.000000
764.267700 33.000000
764.327800 30.000000
764.415100 70.000000
764.481400 48.000000
764.555700 34.000000
764.611700 30.000000
764.819700 30.000000
764.851900 29.000000
764.924600 21.000000
764.959400 25.000000
765.028200 28.000000
765.130500 38.000000
765.195000 26.000000
765.285200 33.000000
765.493200 24.000000
766.121200 30.000000
793.426100 286.000000
793.504300 37.000000
793.566300 21.000000
793.916400 102.000000
793.974300 32.000000
823.174900 26.000000
823.237000 71.000000
823.446100 15059.000000

>ms2
105.894100 21.000000
111.047000 39.000000
113.793400 25.000000
138.830200 21.000000
153.123300 33.000000
205.223700 27.000000
212.805000 29.000000
230.678700 22.000000
357.939000 26.000000
361.078700 37.000000
366.200000 56.000000
433.575300 27.000000
495.231600 25.000000
503.296100 120.000000
545.016000 23.000000
580.436800 21.000000
633.366100 473.000000
633.405000 44.000000
633.440000 60.000000
634.350900 26.000000
659.231400 39.000000
745.417100 52.000000
763.320100 22.000000
763.423600 10924.000000
763.598400 220.000000
763.651900 161.000000
763.703800 38.000000
763.761100 113.000000
763.905500 152.000000
764.003500 80.000000
764.047500 38.000000
764.120400 115.000000
764.184800 36.000000
764.228600 54.000000
764.292600 52.000000
764.413600 234.000000
764.455500 54.000000
764.516400 69.000000
764.584700 101.000000
764.645000 59.000000
764.710600 74.000000
764.770100 88.000000
764.848100 61.000000
764.934000 102.000000
764.992400 35.000000
765.039100 38.000000
765.100200 95.000000
765.179000 95.000000
765.257800 51.000000
765.294900 23.000000
765.338900 68.000000
765.396600 76.000000
765.477700 56.000000
765.569600 46.000000
765.610200 29.000000
765.672300 28.000000
765.728400 46.000000
765.796000 27.000000
765.845000 28.000000
765.899600 43.000000
766.042100 45.000000
766.227900 38.000000
766.350400 27.000000
766.460400 20.000000
766.504000 22.000000
766.574400 38.000000
766.637900 27.000000
766.688800 24.000000
766.796600 32.000000
767.686700 29.000000
823.314400 32.000000
823.445600 7359.000000

>ms2
111.045100 190.000000
129.054200 129.000000
217.005500 80.000000
350.039400 21.000000
373.249400 55.000000
459.318100 40.000000
503.222300 27.000000
503.298900 1269.000000
503.401800 55.000000
503.751500 29.000000
503.965700 25.000000
504.296600 42.000000
615.356000 183.000000
633.359800 1918.000000
633.483900 69.000000
633.591700 26.000000
633.661400 28.000000
633.744900 23.000000
633.791400 22.000000
634.114600 22.000000
634.235200 30.000000
634.335800 29.000000
634.367500 26.000000
634.411300 38.000000
634.843200 26.000000
727.380100 27.000000
745.403600 195.000000
745.457800 66.000000
745.497800 23.000000
763.421400 1832.000000
763.537700 63.000000
763.602700 32.000000
763.677200 25.000000
763.799400 30.000000
763.876600 24.000000
763.921700 21.000000
764.004600 43.000000
764.202900 24.000000
764.263700 31.000000
764.441300 95.000000
764.552900 22.000000
764.649100 27.000000
764.720200 21.000000

