>compound BML4893112
>parentmass 269.0455
>ionization [M-H]-
>formula C15H10O5
>rt 468.360000
>profile qtof
#smiles_iso C1=CC(=CC=C1C2=CC(=O)C3=C(C=C(C=C3O2)O)O)O
#smiles_can C1=CC(=CC=C1C2=CC(=O)C3=C(C=C(C=C3O2)O)O)O
#inchikey KZNIFHPLKGYRTM-UHFFFAOYSA-N
#pubchem_id 5280443
#mb_accession BML00444,BML00454,BML00464

>ms2peaks
117.033900 313.000000
149.025000 197.000000
151.004700 286.000000
225.054600 215.000000
269.045300 28203.000000

>ms2peaks
107.013300 516.000000
117.034400 2318.000000
149.023700 2057.000000
151.002600 2524.000000
159.043800 297.000000
181.066700 481.000000
183.043000 322.000000
197.062500 143.000000
201.053900 616.000000
224.045600 225.000000
225.053600 1319.000000
227.036300 648.000000
269.045100 26391.000000

>ms2peaks
131.047900 105.000000
141.035600 145.000000
149.023900 619.000000
151.002300 1026.000000
154.039100 69.000000
154.764600 76.000000
159.047100 456.000000
171.045000 154.000000
180.057400 146.000000
181.064600 131.000000
183.046500 219.000000
185.026000 73.000000
196.057500 103.000000
227.034100 106.000000
269.036500 81.000000

