>compound BML4590518
>parentmass 299.0561
>ionization [M-H]-
>formula C16H12O6
>rt 525.780000
>profile qtof
#smiles_iso COC1=CC=C(C=C1)C2=C(C(=O)C3=C(C=C(C=C3O2)O)O)O
#smiles_can COC1=CC=C(C=C1)C2=C(C(=O)C3=C(C=C(C=C3O2)O)O)O
#inchikey SQFSKOYWJBQGKQ-UHFFFAOYSA-N
#pubchem_id 5281666
#mb_accession BML01840,BML01850,BML01860

>ms2
102.086500 41.000000
107.015200 26.000000
120.024700 65.000000
128.747500 31.000000
132.021800 137.000000
139.794600 42.000000
149.996400 22.000000
151.003300 114.000000
152.668200 20.000000
162.995400 22.000000
164.009400 31.000000
173.009900 66.000000
176.012900 21.000000
194.668000 85.000000
217.003200 642.000000
217.046500 36.000000
217.671900 24.000000
228.040300 53.000000
228.066700 30.000000
266.202500 38.000000
283.974100 24.000000
284.033200 1618.000000
284.081400 138.000000
284.136400 24.000000
284.917900 27.000000
298.045900 29.000000
299.054800 10676.000000

>ms2
107.012900 114.000000
109.911000 76.000000
122.004000 47.000000
122.918500 29.000000
133.995200 21.000000
136.800700 30.000000
149.995900 88.000000
151.001600 516.000000
151.036300 25.000000
151.959000 30.000000
163.003200 43.000000
164.011900 69.000000
173.005700 86.000000
173.031300 24.000000
208.256600 47.000000
211.045400 43.000000
217.001600 200.000000
227.037100 41.000000
228.043400 22.000000
228.130100 26.000000
247.831200 27.000000
255.037200 59.000000
256.043500 78.000000
282.852300 35.000000
283.018900 67.000000
283.037200 43.000000
284.031600 5846.000000
284.084000 308.000000
284.102400 83.000000
284.120500 57.000000
284.144800 69.000000
284.186500 86.000000
284.241600 48.000000
284.266300 36.000000
284.342400 20.000000
284.372700 45.000000
284.392500 20.000000
284.539800 31.000000
284.585000 32.000000
284.615300 24.000000
284.660400 23.000000
284.689100 26.000000
284.769100 23.000000
284.796600 24.000000
284.826500 30.000000
284.941900 23.000000
285.053700 28.000000
285.238200 28.000000
285.422300 28.000000
286.288300 24.000000
299.055600 2973.000000

>ms2
104.027000 143.000000
107.015000 1133.000000
107.051100 24.000000
108.022400 313.000000
119.011700 59.000000
120.016400 49.000000
120.025300 64.000000
121.983900 29.000000
121.999100 107.000000
130.043700 22.000000
132.021300 450.000000
135.006600 117.000000
136.018400 94.000000
143.052800 31.000000
149.996300 49.000000
151.002400 1098.000000
151.037700 21.000000
151.048800 27.000000
151.109300 21.000000
155.045800 22.000000
156.979800 39.000000
159.051700 27.000000
163.003600 404.000000
163.066400 23.000000
164.010600 404.000000
182.038500 24.000000
183.041800 86.000000
184.049800 100.000000
185.018900 41.000000
199.030100 80.000000
199.043500 54.000000
200.057200 31.000000
207.276700 36.000000
210.030900 49.000000
211.029500 84.000000
211.048200 30.000000
212.048900 38.000000
214.040200 21.000000
227.032100 264.000000
227.048900 46.000000
227.079400 27.000000
229.381200 24.000000
232.459300 24.000000
239.046500 38.000000
240.035000 66.000000
244.637800 21.000000
255.027800 237.000000
256.038300 35.000000
283.022700 162.000000
284.030000 411.000000
284.060400 68.000000
285.044000 22.000000

