>compound BML4060720
>parentmass 401.2333
>ionization [M-H]-
>formula C24H34O5
>rt 489.180000
>profile qtof
#smiles_iso CC(CCC(=O)O)C1CCC2C1(C(=O)CC3C2C(=O)CC4C3(CCC(=O)C4)C)C
#smiles_can CC(CCC(=O)O)C1CCC2C1(C(=O)CC3C2C(=O)CC4C3(CCC(=O)C4)C)C
#inchikey OHXPGWPVLFPUSM-UHFFFAOYSA-N
#pubchem_id 2975
#mb_accession BML01336,BML01341

>ms2peaks
121.484100 37.000000
143.106900 33.000000
331.187800 68.000000
354.200000 22.000000
401.232600 2532.000000

>ms2peaks
215.147400 22.000000
218.653200 20.000000
249.152900 92.000000
263.167800 21.000000
264.647300 22.000000
287.194600 31.000000
289.170000 26.000000
291.159500 52.000000
313.183300 60.000000
331.189800 219.000000
383.222900 43.000000
401.230700 1194.000000

