>compound BML4322733
>parentmass 297.0768
>ionization [M-H]-
>formula C17H14O5
>rt 570.600000
>profile qtof
#smiles_iso COC1=CC2=C(C=C1)C(=O)C(=C(O2)C3=CC(=CC=C3)OC)O
#smiles_can COC1=CC2=C(C=C1)C(=O)C(=C(O2)C3=CC(=CC=C3)OC)O
#inchikey PFMGWOVPHHEHAL-UHFFFAOYSA-N
#pubchem_id 688836
#mb_accession BML01682,BML01692,BML01702

>ms2
147.573600 25.000000
156.485900 21.000000
210.032700 21.000000
211.041100 23.000000
225.057400 31.000000
226.068400 56.000000
239.030000 31.000000
253.067300 37.000000
254.054600 132.000000
276.403400 37.000000
282.052200 215.000000
297.073200 1115.000000

>ms2
147.736900 21.000000
159.492000 22.000000
160.690300 21.000000
171.253100 34.000000
210.026400 58.000000
211.039500 231.000000
214.886600 21.000000
225.053100 356.000000
226.058400 71.000000
226.373500 30.000000
233.945800 44.000000
239.031400 68.000000
246.044900 42.000000
253.052200 156.000000
254.057500 317.000000
266.744100 25.000000
269.077300 22.000000
282.050800 325.000000
282.098100 33.000000
297.070600 245.000000

>ms2
103.293900 53.000000
109.683000 23.000000
117.670300 37.000000
121.047500 22.000000
150.721700 25.000000
155.878500 34.000000
167.051300 44.000000
168.057200 42.000000
182.035400 89.000000
183.039200 54.000000
195.043900 67.000000
197.058600 57.000000
199.796000 36.000000
210.032700 492.000000
210.056900 24.000000
211.040400 564.000000
211.088200 31.000000
218.927800 31.000000
225.051700 197.000000
225.062500 44.000000
225.273000 22.000000
238.024500 154.000000
239.038300 51.000000
253.051000 54.000000
255.961400 21.000000

