>compound BML4661801
>parentmass 180.0666
>ionization [M-H]-
>formula C9H11NO3
>rt 23.340000
>profile qtof
#smiles_iso C1=CC(=CC=C1CC(C(=O)O)N)O
#smiles_can C1=CC(=CC=C1CC(C(=O)O)N)O
#inchikey OUYCCCASQSFEME-UHFFFAOYSA-N
#pubchem_id 1153
#mb_accession BML01095,BML01101

>ms2peaks
106.042300 69.000000
106.452700 23.000000
107.048800 83.000000
108.555900 20.000000
119.051200 1771.000000
119.080300 44.000000
119.088900 30.000000
119.102000 42.000000
119.499500 20.000000
136.076100 310.000000
162.051400 24.000000
163.039700 3368.000000
163.075200 114.000000
163.094500 27.000000
163.129800 33.000000
163.158300 45.000000
163.227400 38.000000
163.294000 22.000000
163.441100 30.000000
163.587300 20.000000
163.709100 22.000000
164.012100 22.000000
180.066200 8325.000000

>ms2peaks
104.026800 42.000000
106.045800 38.000000
109.382100 27.000000
118.999600 25.000000
119.049800 2930.000000
119.080100 105.000000
119.102100 21.000000
119.149800 34.000000
123.888400 36.000000
134.055900 80.000000
134.064200 54.000000
136.070900 35.000000
152.782100 42.000000
162.055300 28.000000
163.038700 805.000000
163.075600 43.000000
163.086700 30.000000
180.068400 357.000000

