>compound BML4945041
>parentmass 579.1719
>ionization [M-H]-
>formula C27H32O14
>rt 327.480000
>profile qtof
#smiles_iso CC1C(C(C(C(O1)OC2C(C(C(OC2OC3=CC(=C4C(=O)CC(OC4=C3)C5=CC=C(C=C5)O)O)CO)O)O)O)O)O
#smiles_can CC1C(C(C(C(O1)OC2C(C(C(OC2OC3=CC(=C4C(=O)CC(OC4=C3)C5=CC=C(C=C5)O)O)CO)O)O)O)O)O
#inchikey DFPMSGMNTNDNHN-UHFFFAOYSA-N
#pubchem_id 4441
#mb_accession BML01161,BML01170,BML01179

>ms2
109.025800 40.000000
119.056000 29.000000
122.236900 27.000000
136.020800 24.000000
150.999000 121.000000
151.009100 27.000000
164.919600 41.000000
177.027000 20.000000
212.637400 20.000000
235.027000 45.000000
251.242200 26.000000
270.016900 25.000000
271.062400 278.000000
271.470300 24.000000
300.969500 23.000000
312.328600 23.000000
313.073600 32.000000
332.436800 24.000000
337.454800 34.000000
373.079800 22.000000
399.344100 24.000000
417.299200 48.000000
451.331400 22.000000
459.108900 271.000000
459.182500 24.000000
501.160200 25.000000
574.652900 25.000000
579.034200 30.000000
579.075300 53.000000
579.170500 11723.000000

>ms2
103.038200 24.000000
107.015100 34.000000
113.029700 23.000000
119.047300 36.000000
119.061800 40.000000
131.017300 20.000000
135.720300 24.000000
145.028000 60.000000
145.401300 57.000000
151.005300 351.000000
151.029600 27.000000
165.014500 59.000000
167.027600 21.000000
174.999000 155.000000
175.417300 20.000000
177.014000 75.000000
177.045200 28.000000
179.050500 22.000000
186.852700 30.000000
193.014500 81.000000
193.044000 23.000000
211.021400 33.000000
211.756300 40.000000
217.005300 23.000000
227.548400 43.000000
235.025200 225.000000
235.040000 37.000000
247.612100 27.000000
253.036100 50.000000
271.060200 1740.000000
271.103900 103.000000
271.128300 45.000000
272.069200 35.000000
274.981300 31.000000
279.040700 34.000000
295.056300 62.000000
313.065200 99.000000
313.080100 176.000000
313.116200 25.000000
336.980400 24.000000
337.054500 21.000000
337.078500 29.000000
339.071100 97.000000
345.110400 50.000000
355.091100 56.000000
357.085400 28.000000
363.018300 34.000000
373.077300 48.000000
373.099400 88.000000
375.962600 62.000000
397.082700 34.000000
415.102400 42.000000
417.117300 34.000000
433.128800 29.000000
433.144700 90.000000
458.946600 28.000000
459.111000 1468.000000
459.166600 75.000000
459.189500 92.000000
459.232000 38.000000
459.304400 29.000000
459.415100 20.000000
460.115400 48.000000
475.692600 38.000000
510.190600 20.000000
576.320900 28.000000
579.002000 24.000000
579.064100 29.000000
579.170700 12022.000000

>ms2
101.023200 25.000000
107.014900 459.000000
115.039900 42.000000
117.036700 24.000000
119.050100 615.000000
121.999500 30.000000
125.024900 200.000000
145.026800 315.000000
149.029400 30.000000
151.003200 5030.000000
151.044000 137.000000
151.085900 53.000000
151.116400 64.000000
151.149400 22.000000
151.192100 26.000000
151.219800 27.000000
151.252200 21.000000
151.268100 21.000000
151.349600 30.000000
151.363400 32.000000
151.385700 27.000000
152.383300 22.000000
164.010600 147.000000
165.018500 169.000000
167.038100 30.000000
171.324800 42.000000
173.060200 31.000000
175.004200 172.000000
177.015900 336.000000
185.058600 26.000000
187.038600 39.000000
188.383800 28.000000
188.901000 22.000000
191.025300 27.000000
193.014200 179.000000
203.962000 22.000000
205.014700 144.000000
207.030500 27.000000
212.767400 30.000000
217.018100 57.000000
227.065300 88.000000
227.084800 49.000000
229.048800 137.000000
230.845400 21.000000
235.025600 238.000000
235.080800 21.000000
236.484200 46.000000
249.058600 21.000000
255.071100 30.000000
269.039400 29.000000
269.088400 28.000000
270.057100 42.000000
271.060500 4935.000000
271.114000 35.000000
271.132500 134.000000
271.162400 48.000000
271.208700 64.000000
271.253200 25.000000
271.352000 29.000000
271.403800 34.000000
271.447900 24.000000
271.499900 31.000000
271.605100 26.000000
271.758500 31.000000
271.880400 22.000000
272.131900 25.000000
272.212900 29.000000
272.346700 73.000000
295.057600 82.000000
297.053500 38.000000
301.550600 32.000000
313.060600 38.000000
313.074100 194.000000
325.077400 24.000000
339.069700 178.000000
357.079700 55.000000
368.570300 25.000000
397.792100 42.000000
399.321300 43.000000
405.411500 30.000000
408.653000 36.000000
415.122800 39.000000
417.115500 33.000000
441.127700 38.000000
448.776100 43.000000
459.108400 520.000000
459.168200 24.000000
459.190000 34.000000
473.114700 30.000000
504.559000 38.000000
579.166500 426.000000

