>compound BML4300398
>parentmass 217.0982
>ionization [M-H]-
>formula C12H14N2O2
>rt 92.220000
>profile qtof
#smiles_iso CNC(CC1=CNC2=CC=CC=C21)C(=O)O
#smiles_can CNC(CC1=CNC2=CC=CC=C21)C(=O)O
#inchikey CZCIKBSVHDNIDH-UHFFFAOYSA-N
#pubchem_id 914
#mb_accession BML00843,BML00850,BML00857

>ms2peaks
116.050400 1821.000000
116.080700 38.000000
116.150400 28.000000
129.057300 73.000000
130.066000 94.000000
142.065300 556.000000
173.011300 112.000000
173.102300 45.000000
173.113100 28.000000
186.055700 300.000000
198.638400 36.000000
216.929000 34.000000
216.999400 148.000000
217.097800 4932.000000

>ms2peaks
116.050000 1662.000000
116.081900 43.000000
116.126400 25.000000
116.150700 23.000000
122.633700 26.000000
130.067000 109.000000
142.065500 461.000000
142.098600 25.000000
156.981600 29.000000
157.081100 22.000000
186.053100 55.000000
213.991900 20.000000
217.097900 135.000000

>ms2peaks
112.986500 55.000000
116.051000 1401.000000
116.086400 42.000000
116.151300 27.000000
142.063900 119.000000
171.100100 39.000000
186.478800 22.000000

