>compound BML4695503
>parentmass 203.08260000000004
>ionization [M-H]-
>formula C11H12N2O2
>rt 75.300000
>profile qtof
#smiles_iso C1=CC=C2C(=C1)C(=CN2)CC(C(=O)O)N
#smiles_can C1=CC=C2C(=C1)C(=CN2)CC(C(=O)O)N
#inchikey QIVBCDIJIAJPQS-UHFFFAOYSA-N
#pubchem_id 1148
#mb_accession BML01203,BML01208,BML01213

>ms2
109.200300 45.000000
116.050500 1487.000000
116.080300 81.000000
117.054200 21.000000
129.061800 46.000000
130.063900 31.000000
131.060100 33.000000
132.082600 32.000000
142.065200 389.000000
142.095500 28.000000
149.762500 23.000000
159.092100 898.000000
159.121800 31.000000
159.133000 27.000000
160.892100 40.000000
186.050900 108.000000
186.064500 56.000000
202.903000 28.000000
203.018600 25.000000
203.082400 3307.000000

>ms2
116.050600 1570.000000
116.079700 52.000000
116.090500 30.000000
116.154800 32.000000
124.660600 47.000000
130.060200 160.000000
142.066900 528.000000
142.104500 29.000000
157.081900 25.000000
159.090500 43.000000
160.905700 29.000000
184.978600 32.000000
203.078400 42.000000

>ms2
116.050200 565.000000
116.077500 46.000000
140.052400 23.000000
142.065100 53.000000
143.894600 21.000000
171.109200 25.000000

