>compound BML4623272
>parentmass 346.1157
>ionization [M-H]-
>formula C15H17N5O5
>rt 284.100000
>profile qtof
#smiles_iso C1=COC(=C1)CNC2=C3C(=NC=N2)N(C=N3)[C@H]4[C@@H]([C@@H]([C@H](O4)CO)O)O
#smiles_can C1=COC(=C1)CNC2=C3C(=NC=N2)N(C=N3)C4C(C(C(O4)CO)O)O
#inchikey CAGLGYNQQSIUGX-SDBHATRESA-N
#pubchem_id 20345
#mb_accession BML00548,BML00556,BML01863

>ms2
214.347100 27.000000
214.472700 25.000000
214.538400 34.000000
214.691600 29.000000
214.774100 24.000000
264.002300 42.000000
346.115200 1784.000000

>ms2
106.031100 49.000000
110.075000 25.000000
132.024300 47.000000
133.039200 397.000000
134.046800 243.000000
169.050800 36.000000
170.042600 69.000000
172.055000 25.000000
196.061600 216.000000
214.073500 4978.000000
214.101300 41.000000
214.118300 40.000000
214.138900 90.000000
214.177700 58.000000
214.211400 59.000000
214.448600 25.000000
214.487900 45.000000
215.002300 28.000000
215.082700 35.000000
346.114000 397.000000

>ms2
105.045400 28.000000
106.028400 477.000000
106.041900 46.000000
107.034300 58.000000
108.498000 33.000000
117.019400 69.000000
118.026000 46.000000
132.025300 30.000000
132.032800 92.000000
133.038900 1307.000000
133.060300 32.000000
133.077400 31.000000
133.096600 23.000000
134.046500 1518.000000
134.066100 33.000000
134.085600 68.000000
134.154800 21.000000
138.501200 27.000000
142.040100 41.000000
144.029400 29.000000
146.046400 87.000000
158.044000 34.000000
159.066300 38.000000
159.779200 58.000000
163.392500 43.000000
169.052100 178.000000
170.050700 106.000000
172.063500 61.000000
173.029300 71.000000
180.305000 38.000000
182.788500 20.000000
184.062900 21.000000
186.077000 87.000000
196.061300 165.000000
199.051400 24.000000
211.427600 27.000000
213.056900 24.000000
214.049200 25.000000
214.072800 691.000000
214.139900 20.000000
225.723200 30.000000
311.166600 28.000000
317.694400 29.000000
328.500400 29.000000

