>compound BML4930777
>parentmass 455.0976
>ionization [M-H]-
>formula C23H25BrN2O3
>rt 496.980000
>profile qtof
#smiles_iso CC1(CC2=C(C(NC3=CC=CC=C3N2)C4=C(C=CC(=C4Br)OC)OC)C(=O)C1)C
#smiles_can CC1(CC2=C(C(NC3=CC=CC=C3N2)C4=C(C=CC(=C4Br)OC)OC)C(=O)C1)C
#inchikey AHTIKTYAZWVOGR-UHFFFAOYSA-N
#pubchem_id 4570635
#mb_accession BML00893,BML00898,BML00903

>ms2
390.028600 59.000000
405.060300 136.000000
407.044400 57.000000
437.085500 787.000000
455.096600 11152.000000

>ms2
131.061100 381.000000
150.997300 26.000000
171.095100 48.000000
193.925900 26.000000
220.960800 30.000000
221.109700 39.000000
226.110200 36.000000
230.018400 43.000000
239.119400 358.000000
239.141100 45.000000
253.956100 22.000000
309.005700 25.000000
311.111700 58.000000
313.108700 27.000000
313.140100 42.000000
323.993100 29.000000
327.103000 32.000000
327.131600 38.000000
328.124700 76.000000
342.012000 46.000000
342.132100 83.000000
343.139300 114.000000
357.160200 39.000000
366.674300 22.000000
375.046800 91.000000
381.025900 59.000000
390.036800 239.000000
405.060400 524.000000
405.108200 26.000000
407.037300 185.000000
408.043200 205.000000
409.050700 32.000000
422.062800 260.000000
423.069200 276.000000
423.174100 27.000000
437.084800 2861.000000
437.206700 43.000000
437.270800 27.000000
437.325100 30.000000
437.385500 35.000000
437.604700 29.000000
437.720300 25.000000
438.021200 32.000000
438.100200 30.000000
438.156500 24.000000
438.217100 26.000000
438.326200 34.000000
440.068700 216.000000
440.140800 22.000000
455.096000 4044.000000

>ms2
130.051200 63.000000
131.059500 866.000000
138.469400 26.000000
171.093200 37.000000
197.109500 57.000000
223.086500 36.000000
225.104100 38.000000
239.120000 466.000000
284.111500 24.000000
285.104500 28.000000
310.124300 20.000000
313.095300 37.000000
318.989300 37.000000
327.100200 39.000000
328.108000 36.000000
343.140700 24.000000
347.859000 31.000000
352.989700 20.000000
375.014200 80.000000
390.026200 53.000000
392.020700 29.000000
407.040000 105.000000
408.047100 22.000000
409.051500 91.000000
440.077700 24.000000

