>compound BML4473704
>parentmass 811.2297
>ionization [M+CH3COOH-H]-
>formula C34H40O19
>rt 544.440000
>profile qtof
#smiles_iso CC1C(C(C(C(O1)OCC2C(C(C(C(O2)OC3=C(C=C4C=CC(=O)OC4=C3)OC)OC(=O)C)OC(=O)C)OC(=O)C)OC(=O)C)OC(=O)C)OC(=O)C
#smiles_can CC1C(C(C(C(O1)OCC2C(C(C(C(O2)OC3=C(C=C4C=CC(=O)OC4=C3)OC)OC(=O)C)OC(=O)C)OC(=O)C)OC(=O)C)OC(=O)C)OC(=O)C
#inchikey SRRSXTUHQTVABO-UHFFFAOYSA-N
#pubchem_id 20106092
#mb_accession BML01681

>ms2peaks
101.599500 24.000000
107.086300 59.000000
134.841900 24.000000
134.861400 25.000000
191.038500 57.000000
208.799300 41.000000
240.725800 39.000000
308.378400 39.000000
314.469200 26.000000
428.188200 21.000000
454.388100 36.000000
454.432500 28.000000
469.736800 27.000000
470.293800 31.000000
492.917600 23.000000
504.993300 23.000000
511.377200 26.000000
544.985200 31.000000
605.400600 42.000000
712.836100 108.000000
729.128700 27.000000
737.144900 35.000000
737.180200 38.000000
737.532300 41.000000
751.206400 84.000000
751.254100 24.000000
769.219900 35.000000
811.227800 971.000000

