>compound BML4486000
>parentmass 675.2294
>ionization [M-H]-
>formula C33H40O15
>rt 475.620000
>profile qtof
#smiles_iso C[C@H]1[C@@H]([C@H]([C@H]([C@@H](O1)OC2=C(OC3=C(C2=O)C(=CC(=C3CC=C(C)C)O[C@H]4[C@@H]([C@H]([C@@H]([C@H](O4)CO)O)O)O)O)C5=CC=C(C=C5)OC)O)O)O
#smiles_can CC1C(C(C(C(O1)OC2=C(OC3=C(C2=O)C(=CC(=C3CC=C(C)C)OC4C(C(C(C(O4)CO)O)O)O)O)C5=CC=C(C=C5)OC)O)O)O
#inchikey TZJALUIVHRYQQB-XLRXWWTNSA-N
#pubchem_id 5318997
#mb_accession BML01838,BML01848

>ms2peaks
160.023100 22.000000
179.487500 20.000000
265.009800 23.000000
367.118600 60.000000
373.954400 20.000000
409.128700 48.000000
513.177300 643.000000
513.208300 56.000000
513.244100 51.000000
517.915000 25.000000
529.167900 82.000000
592.993400 35.000000
593.375700 39.000000

>ms2peaks
114.484300 24.000000
119.563000 31.000000
192.659000 28.000000
205.126200 23.000000
249.762700 25.000000
249.794200 21.000000
263.067300 25.000000
306.932600 38.000000
311.765300 36.000000
347.014400 38.000000
367.097900 38.000000
367.115900 217.000000
367.572700 21.000000
409.131200 126.000000
433.100300 20.000000
513.173900 727.000000
513.244400 94.000000
513.312700 22.000000
513.380200 20.000000
525.485400 21.000000
529.168700 135.000000
554.443800 23.000000
576.958100 35.000000
635.128100 24.000000
656.594700 22.000000

