>compound BML4822941
>parentmass 267.0663
>ionization [M-H]-
>formula C16H12O4
>rt 516.420000
>profile qtof
#smiles_iso COC1=CC=CC(=C1)C2=CC(=O)C3=C(O2)C=C(C=C3)O
#smiles_can COC1=CC=CC(=C1)C2=CC(=O)C3=C(O2)C=C(C=C3)O
#inchikey PTXIWVJSAQPKEY-UHFFFAOYSA-N
#pubchem_id 5393153
#mb_accession BML01515,BML01523,BML01531

>ms2
105.578800 21.000000
130.864700 24.000000
135.008900 54.000000
146.450100 23.000000
167.050800 29.000000
195.045900 66.000000
216.192800 24.000000
223.483900 26.000000
224.047900 432.000000
224.096800 32.000000
241.240200 37.000000
249.447300 27.000000
252.042700 1237.000000
252.113900 27.000000
252.131700 20.000000
266.295300 21.000000
266.555800 22.000000
267.065300 19019.000000

>ms2
135.007400 53.000000
135.014600 58.000000
145.952500 23.000000
167.045900 60.000000
167.073100 36.000000
173.944400 41.000000
195.041100 294.000000
195.073100 29.000000
196.048400 31.000000
224.045900 2138.000000
224.092700 82.000000
224.132400 25.000000
224.185500 26.000000
224.235300 22.000000
224.331200 29.000000
224.565000 27.000000
225.659700 24.000000
226.410400 53.000000
251.962900 36.000000
252.042000 9227.000000
252.090100 71.000000
252.147100 122.000000
252.186200 104.000000
252.270800 51.000000
252.321900 38.000000
252.360400 41.000000
252.420900 46.000000
252.457000 38.000000
252.526600 23.000000
252.571400 24.000000
252.604600 45.000000
252.690300 27.000000
252.736300 42.000000
252.782300 21.000000
252.920500 32.000000
252.953400 31.000000
253.057000 46.000000
253.122000 23.000000
253.203600 26.000000
253.296300 31.000000
253.463100 24.000000
253.780200 27.000000
255.643400 24.000000
267.066200 7982.000000

>ms2
103.070100 21.000000
117.038300 60.000000
120.445400 57.000000
132.024200 129.000000
135.007400 2287.000000
135.042800 69.000000
135.064200 32.000000
135.086800 24.000000
135.112900 25.000000
135.451500 27.000000
139.058200 25.000000
139.778100 32.000000
152.058600 56.000000
159.003800 26.000000
167.049100 519.000000
167.084600 37.000000
168.057200 285.000000
179.046800 22.000000
180.056500 61.000000
182.040100 96.000000
182.485200 22.000000
183.045900 24.000000
188.535700 36.000000
195.044100 6614.000000
195.083700 282.000000
195.112600 26.000000
195.174800 99.000000
195.223900 26.000000
195.289600 21.000000
195.312400 24.000000
195.382800 23.000000
195.491300 38.000000
195.666900 25.000000
195.687600 21.000000
195.749200 30.000000
196.052500 360.000000
196.080500 91.000000
196.353100 31.000000
196.686800 22.000000
197.488300 20.000000
198.025500 31.000000
198.036100 83.000000
198.571100 29.000000
222.517400 25.000000
223.038800 350.000000
224.046500 4737.000000
224.084600 187.000000
224.113900 108.000000
224.147300 41.000000
224.183900 74.000000
224.232600 28.000000
224.288000 33.000000
224.327700 38.000000
224.381900 27.000000
224.424400 34.000000
224.567100 24.000000
224.621700 39.000000
224.686100 36.000000
224.725400 29.000000
229.588000 22.000000
251.029300 30.000000
252.040700 627.000000
252.374500 21.000000
267.264700 22.000000

