>compound BML4778149
>parentmass 409.1656
>ionization [M-H]-
>formula C24H26O6
>rt 670.260000
>profile qtof
#smiles_iso CC(=CCC1=C(C2=C(C=C1O)OC3=C(C2=O)C(=C(C(=C3)O)OC)CC=C(C)C)O)C
#smiles_can CC(=CCC1=C(C2=C(C=C1O)OC3=C(C2=O)C(=C(C(=C3)O)OC)CC=C(C)C)O)C
#inchikey GNRIZKKCNOBBMO-UHFFFAOYSA-N
#pubchem_id 5281650
#mb_accession BML00678,BML00686,BML00694

>ms2
127.895400 27.000000
150.624100 25.000000
150.642500 21.000000
184.428200 20.000000
199.726900 31.000000
220.964500 26.000000
234.347300 25.000000
235.477400 32.000000
329.534900 32.000000
339.082000 116.000000
340.095300 43.000000
351.086500 81.000000
354.074500 28.000000
363.123800 34.000000
364.130400 27.000000
365.098000 71.000000
365.128500 23.000000
371.292900 26.000000
377.151400 22.000000
393.150400 21.000000
394.144600 60.000000
408.145100 112.000000
409.166600 2309.000000

>ms2
170.414200 47.000000
204.968500 22.000000
216.593700 35.000000
255.030300 22.000000
307.143200 40.000000
311.089200 32.000000
318.050600 25.000000
338.089300 26.000000
339.079200 323.000000
339.138100 20.000000
340.100500 34.000000
351.084600 547.000000
351.138700 49.000000
353.100900 30.000000
364.130500 26.000000
365.103100 300.000000
366.112100 81.000000
375.132600 43.000000
377.137800 284.000000
377.228000 27.000000
379.122600 53.000000
387.157800 23.000000
392.391500 25.000000
393.117800 44.000000
393.141900 49.000000
394.136800 642.000000
394.190900 30.000000
395.142600 25.000000
408.155700 29.000000
409.164000 1457.000000

>ms2
121.027700 33.000000
173.062400 23.000000
191.687300 30.000000
235.265500 21.000000
255.042500 29.000000
256.037400 84.000000
267.026600 41.000000
268.034300 35.000000
271.037200 23.000000
276.388100 27.000000
282.016600 63.000000
283.022500 109.000000
283.063300 34.000000
284.032700 54.000000
291.050700 23.000000
295.021600 85.000000
296.030100 44.000000
296.045300 39.000000
298.073200 22.000000
305.039000 25.000000
306.049300 63.000000
307.030100 282.000000
308.029300 64.000000
310.778900 25.000000
311.096300 301.000000
311.166000 24.000000
318.262400 27.000000
319.064200 31.000000
321.036500 23.000000
321.064100 36.000000
324.054900 29.000000
324.077900 25.000000
331.060300 28.000000
333.294900 23.000000
337.059900 34.000000
339.088700 418.000000
339.128500 29.000000
340.880800 28.000000
344.405000 24.000000
351.085300 856.000000
351.138600 62.000000
351.184900 24.000000
353.098300 22.000000
361.111200 21.000000
362.110800 43.000000
375.119200 135.000000
377.139000 198.000000
393.140200 54.000000

