>compound BML4029463
>parentmass 343.1187
>ionization [M-H]-
>formula C19H20O6
>rt 467.280000
>profile qtof
#smiles_iso COC1=CC(=C(C(=C1)OC)C(=O)/C=C/C2=CC(=C(C=C2)O)OC)OC
#smiles_can COC1=CC(=C(C(=C1)OC)C(=O)C=CC2=CC(=C(C=C2)O)OC)OC
#inchikey BAHHZVVNFAOLAZ-SOFGYWHQSA-N
#pubchem_id 9974764
#mb_accession BML01788,BML01794,BML01800

>ms2peaks
105.033000 38.000000
108.762500 42.000000
127.056100 24.000000
139.052700 23.000000
139.198700 23.000000
143.321600 31.000000
165.064500 21.000000
168.571000 32.000000
210.025800 22.000000
222.041700 79.000000
237.014500 25.000000
237.063000 49.000000
241.017000 20.000000
249.018100 33.000000
250.252800 21.000000
253.044000 21.000000
254.056500 72.000000
255.032100 70.000000
267.035100 26.000000
268.051200 29.000000
269.086400 51.000000
270.053600 56.000000
281.046000 58.000000
285.084500 28.000000
296.064100 23.000000
297.072700 39.000000
298.045500 175.000000
298.081900 22.000000
305.759800 26.000000
313.067300 232.000000
313.092500 36.000000
319.272500 45.000000
328.094400 3782.000000
328.145700 49.000000
328.163700 126.000000
328.208700 33.000000
328.262000 55.000000
328.418600 28.000000
328.504200 29.000000
328.543800 25.000000
328.598000 22.000000
328.788500 41.000000
328.853900 26.000000
328.887800 43.000000
329.566200 28.000000
329.683400 21.000000
335.167300 23.000000
343.024900 26.000000
343.118200 19496.000000

>ms2peaks
100.050200 27.000000
103.305900 21.000000
104.027000 28.000000
105.030500 60.000000
120.017700 25.000000
123.830300 32.000000
131.020500 22.000000
133.031900 43.000000
139.036200 33.000000
147.046200 38.000000
148.045800 22.000000
160.019800 61.000000
165.017800 41.000000
166.037200 30.000000
175.029900 31.000000
177.018600 20.000000
177.052600 24.000000
179.037100 43.000000
183.044100 24.000000
191.891600 31.000000
195.783400 25.000000
198.025600 49.000000
207.049900 21.000000
211.041000 34.000000
212.043200 43.000000
214.053100 24.000000
222.031100 130.000000
225.054300 37.000000
226.021400 29.000000
233.542200 46.000000
237.057900 213.000000
239.026200 32.000000
240.077100 22.000000
242.058900 29.000000
249.017600 128.000000
249.045100 41.000000
251.046700 22.000000
253.048000 175.000000
254.055700 222.000000
255.034100 126.000000
257.097300 35.000000
257.466800 45.000000
266.021300 138.000000
267.040800 32.000000
269.039300 36.000000
269.055800 21.000000
269.082100 295.000000
269.100100 23.000000
269.125800 24.000000
270.052500 94.000000
274.166600 23.000000
281.047200 488.000000
281.102200 27.000000
282.065700 62.000000
283.026400 103.000000
283.059000 65.000000
285.077900 172.000000
295.066500 26.000000
296.061500 29.000000
296.078300 24.000000
297.070800 76.000000
298.012700 28.000000
298.048700 512.000000
299.093200 21.000000
300.090600 25.000000
300.098700 72.000000
311.111500 38.000000
313.071400 801.000000
313.117800 42.000000
328.094400 12469.000000
328.148800 504.000000
328.172500 185.000000
328.213700 116.000000
328.236300 38.000000
328.263700 149.000000
328.291000 21.000000
328.324200 65.000000
328.356300 62.000000
328.401900 52.000000
328.420800 44.000000
328.473100 44.000000
328.513400 43.000000
328.538300 53.000000
328.600200 23.000000
328.638700 38.000000
328.669100 49.000000
328.704500 81.000000
328.731900 20.000000
328.770500 26.000000
328.799800 47.000000
328.814000 43.000000
328.856300 37.000000
328.883000 36.000000
328.939000 45.000000
328.990900 49.000000
329.037600 25.000000
329.090400 74.000000
329.134600 50.000000
329.182900 21.000000
329.239600 45.000000
329.271600 29.000000
329.304200 33.000000
329.348200 28.000000
329.386600 38.000000
329.419400 23.000000
329.521600 26.000000
329.567200 20.000000
329.642900 22.000000
329.698800 24.000000
330.208800 23.000000
343.117000 2476.000000

>ms2peaks
105.035300 83.000000
119.689500 22.000000
120.019600 30.000000
121.029800 39.000000
125.853800 20.000000
127.690700 23.000000
132.020700 189.000000
133.029100 312.000000
135.052000 30.000000
136.015100 29.000000
138.029200 61.000000
147.041500 23.000000
149.025500 75.000000
153.048900 40.000000
153.057300 101.000000
155.045700 22.000000
160.014700 200.000000
162.027300 26.000000
163.037000 36.000000
165.029600 84.000000
166.041600 113.000000
167.050600 23.000000
177.053700 95.000000
182.033100 47.000000
182.042500 38.000000
183.045400 129.000000
184.050600 34.000000
185.058700 23.000000
189.029000 24.000000
193.024200 78.000000
194.033000 40.000000
195.045200 65.000000
197.063200 45.000000
198.023700 22.000000
198.075900 22.000000
199.039200 93.000000
205.028200 32.000000
207.050600 36.000000
208.044900 30.000000
210.028000 107.000000
210.038200 35.000000
211.039900 379.000000
211.073100 22.000000
213.055300 33.000000
214.062800 43.000000
221.017500 63.000000
222.032300 278.000000
222.053700 23.000000
223.038800 48.000000
224.046400 88.000000
225.057400 141.000000
226.030900 106.000000
226.061800 38.000000
227.033700 437.000000
235.043800 48.000000
236.042600 59.000000
236.061400 32.000000
237.064600 33.000000
238.004400 22.000000
238.025600 127.000000
239.032900 225.000000
239.054100 21.000000
239.078500 21.000000
240.044900 57.000000
241.047100 158.000000
242.058400 131.000000
249.017300 46.000000
252.040100 32.000000
253.050500 654.000000
253.071000 40.000000
253.091600 24.000000
253.124500 25.000000
254.058200 213.000000
255.030000 909.000000
255.072000 73.000000
255.094900 25.000000
255.112300 21.000000
257.082200 86.000000
257.099400 22.000000
266.023500 166.000000
267.031100 176.000000
268.037400 37.000000
269.045900 115.000000
269.085000 33.000000
270.053100 339.000000
280.037500 44.000000
281.045900 166.000000
282.057100 91.000000
283.023700 690.000000
283.080900 30.000000
285.077500 208.000000
290.990100 44.000000
297.036700 132.000000
297.052100 22.000000
297.072800 43.000000
298.046700 1184.000000
298.097100 54.000000
298.122900 31.000000
313.072800 80.000000
328.091900 72.000000
329.791000 25.000000

