>compound BML4253514
>parentmass 253.0506
>ionization [M-H]-
>formula C15H10O4
>rt 466.320000
>profile qtof
#smiles_iso C1=CC=C2C(=C1)C(=O)C(=C(O2)C3=CC(=CC=C3)O)O
#smiles_can C1=CC=C2C(=C1)C(=O)C(=C(O2)C3=CC(=CC=C3)O)O
#inchikey QZESEGHSLFKZIV-UHFFFAOYSA-N
#pubchem_id 676295
#mb_accession BML00333,BML00338,BML00343

>ms2
195.044100 2839.000000
197.059400 3573.000000
207.042100 358.000000
208.055400 207.000000
223.036700 183.000000
224.047200 632.000000
225.055100 2713.000000
253.049500 33972.000000

>ms2
167.050000 99.000000
169.067700 618.000000
179.049700 1167.000000
180.053800 358.000000
181.066700 548.000000
195.044800 16892.000000
195.084700 594.000000
195.115400 117.000000
195.138800 157.000000
195.172900 189.000000
195.273900 85.000000
196.052300 220.000000
197.060400 15670.000000
197.104700 605.000000
197.147100 181.000000
197.190700 212.000000
197.227800 87.000000
197.346300 95.000000
207.046300 962.000000
208.051500 883.000000
209.062400 594.000000
210.035500 115.000000
223.038200 430.000000
224.046600 2139.000000
225.055200 3868.000000
225.096600 166.000000
253.050900 4008.000000

>ms2
165.066900 74.000000
167.049800 695.000000
169.064600 844.000000
179.048000 169.000000
180.059100 135.000000
182.037300 85.000000
195.044700 10742.000000
195.088000 349.000000
195.109300 82.000000
195.143100 66.000000
195.172400 122.000000
195.229500 72.000000
195.301200 58.000000
196.051800 97.000000
197.060800 337.000000
208.051500 66.000000
223.037900 168.000000

