>compound BML4287046
>parentmass 409.1293
>ionization [M-H]-
>formula C23H22O7
>rt 481.440000
>profile qtof
#smiles_iso COC1=C(C=C2C(=C1)[C@H]3[C@@H](CO2)OC4=C(C3=O)C=CC5=C4C[C@@H](O5)C(=C)CO)OC
#smiles_can COC1=C(C=C2C(=C1)C3C(CO2)OC4=C(C3=O)C=CC5=C4CC(O5)C(=C)CO)OC
#inchikey ZJMLELXRQUXRIU-HBGVWJBISA-N
#pubchem_id 92207
#mb_accession BML00205,BML00218,BML00231

>ms2peaks
161.023600 431.000000
173.059400 186.000000
176.048300 203.000000
191.071400 166.000000
217.050500 325.000000
218.057300 355.000000
337.067700 257.000000
379.081200 512.000000
381.136500 260.000000
391.118200 190.000000
394.104100 1273.000000
409.128700 29229.000000

>ms2peaks
121.034300 54.000000
130.040800 75.000000
133.029300 120.000000
135.009400 59.000000
145.066800 159.000000
148.016500 88.000000
150.026400 66.000000
158.039500 128.000000
159.039900 115.000000
161.023700 2266.000000
161.060900 107.000000
161.082800 49.000000
162.043600 61.000000
163.004200 42.000000
163.041500 103.000000
163.077800 234.000000
171.050200 42.000000
172.051300 129.000000
173.060300 156.000000
174.065600 42.000000
175.041400 72.000000
176.046500 1035.000000
178.022400 46.000000
187.042500 41.000000
187.076300 71.000000
188.046900 218.000000
189.019700 63.000000
189.056000 379.000000
190.063000 383.000000
191.072100 573.000000
199.039300 66.000000
200.051100 170.000000
201.054900 76.000000
202.027600 52.000000
202.048300 47.000000
203.035100 105.000000
203.067300 43.000000
211.042900 53.000000
215.068600 43.000000
216.040700 200.000000
217.049400 1494.000000
217.092700 79.000000
218.057800 1071.000000
218.101800 60.000000
228.040400 73.000000
256.068700 68.000000
267.066300 75.000000
281.072100 41.000000
285.080500 80.000000
289.105600 44.000000
296.069700 60.000000
307.095600 96.000000
309.072800 54.000000
311.059400 435.000000
317.075800 44.000000
319.063800 185.000000
320.122100 54.000000
322.048100 204.000000
323.056100 205.000000
323.095000 87.000000
324.058300 154.000000
325.069900 98.000000
326.075800 308.000000
333.079400 75.000000
334.080800 45.000000
335.094500 462.000000
336.053000 41.000000
337.071200 1813.000000
337.111600 47.000000
337.142300 113.000000
338.403000 48.000000
339.080900 77.000000
347.075000 67.000000
347.116400 46.000000
348.102400 82.000000
349.086800 41.000000
350.109800 161.000000
351.087100 790.000000
351.139200 53.000000
352.097000 125.000000
361.072200 436.000000
361.108700 74.000000
363.102400 80.000000
364.098100 154.000000
365.103500 298.000000
365.138300 95.000000
366.109500 394.000000
367.125500 168.000000
367.145900 61.000000
367.655600 68.000000
375.082300 48.000000
376.092900 551.000000
377.097500 81.000000
379.081800 3909.000000
379.116400 148.000000
379.143300 78.000000
379.179500 52.000000
379.213300 49.000000
379.259000 50.000000
379.339600 42.000000
379.475000 50.000000
380.100700 43.000000
381.135000 617.000000
391.116500 524.000000
393.095400 282.000000
394.105900 3144.000000
394.146400 92.000000
394.178400 83.000000
394.289500 55.000000
394.387300 50.000000
409.128100 7929.000000

>ms2peaks
105.035000 109.000000
108.021600 148.000000
117.032300 119.000000
119.047900 69.000000
121.029800 104.000000
122.036600 94.000000
123.007700 110.000000
129.069800 126.000000
130.043300 246.000000
132.022100 113.000000
133.028400 936.000000
133.062900 78.000000
135.009300 56.000000
143.047200 140.000000
145.031800 79.000000
145.065800 314.000000
147.045200 167.000000
148.016500 70.000000
149.023300 154.000000
150.029000 96.000000
155.052500 83.000000
157.063000 65.000000
158.034800 349.000000
159.045400 490.000000
160.016300 76.000000
161.023300 10835.000000
161.055000 474.000000
161.084600 167.000000
161.140700 118.000000
161.278000 55.000000
162.032400 336.000000
163.004600 240.000000
163.039600 279.000000
163.074300 227.000000
171.045900 121.000000
172.052800 183.000000
173.025000 60.000000
173.060300 708.000000
173.085700 55.000000
174.032100 161.000000
175.038100 362.000000
176.011500 93.000000
176.046500 477.000000
177.019500 339.000000
185.026400 56.000000
187.001800 264.000000
187.037900 218.000000
188.013900 62.000000
188.048400 79.000000
189.019600 201.000000
189.054900 336.000000
190.063600 135.000000
191.069000 148.000000
199.046200 64.000000
201.051700 238.000000
201.063200 62.000000
213.020700 119.000000
215.034500 69.000000
217.050700 713.000000
217.099100 58.000000
219.087200 59.000000
235.078800 57.000000
236.043700 71.000000
238.063900 55.000000
251.043200 63.000000
255.028300 81.000000
261.093500 86.000000
265.049300 63.000000
266.058100 59.000000
271.055800 56.000000
275.077100 65.000000
279.100400 58.000000
281.089200 103.000000
289.082500 57.000000
292.039000 81.000000
293.039100 88.000000
293.074400 56.000000
295.084200 94.000000
296.043400 65.000000
303.050200 87.000000
305.080900 78.000000
307.056900 106.000000
307.092900 146.000000
309.033600 73.000000
309.081400 124.000000
310.047000 79.000000
315.060100 61.000000
317.080000 148.000000
321.036100 172.000000
321.072300 88.000000
322.047200 264.000000
323.090100 223.000000
333.081200 80.000000
337.075900 190.000000
351.088400 235.000000
352.095100 65.000000
361.075800 280.000000
364.051000 61.000000
377.102500 56.000000
379.084400 256.000000
393.096500 58.000000

