>compound BML5141548
>parentmass 253.0506
>ionization [M-H]-
>formula C15H10O4
>rt 443.640000
>profile qtof
#smiles_iso C1=CC(=CC(=C1)O)C2=CC(=O)C3=C(O2)C=C(C=C3)O
#smiles_can C1=CC(=CC(=C1)O)C2=CC(=O)C3=C(O2)C=C(C=C3)O
#inchikey DYARIVMCYYQNNQ-UHFFFAOYSA-N
#pubchem_id 5391140
#mb_accession BML00259,BML00266,BML00273

>ms2
135.009600 763.000000
253.050800 101437.000000

>ms2
117.035800 238.000000
133.028200 189.000000
135.007600 1535.000000
180.059700 225.000000
181.063100 200.000000
196.048800 226.000000
209.064100 332.000000
224.048700 554.000000
225.056700 374.000000
253.050300 35832.000000

>ms2
101.037100 80.000000
103.018100 72.000000
103.029100 30.000000
103.056800 78.000000
104.027100 181.000000
105.035400 163.000000
105.451600 26.000000
107.010200 75.000000
108.264900 20.000000
110.585700 41.000000
113.038500 133.000000
115.012100 39.000000
115.018600 107.000000
115.052600 98.000000
116.032800 60.000000
117.034400 3309.000000
117.065600 97.000000
117.091400 33.000000
117.135900 36.000000
117.250800 22.000000
127.054800 72.000000
127.837400 20.000000
128.055400 22.000000
128.306200 40.000000
129.034100 431.000000
129.063000 20.000000
130.039900 73.000000
131.046100 84.000000
132.021500 378.000000
133.028700 483.000000
133.064700 20.000000
135.007300 1617.000000
135.042400 32.000000
135.055500 23.000000
135.080300 30.000000
135.904900 22.000000
139.054700 75.000000
140.570200 29.000000
141.031400 336.000000
141.067500 157.000000
142.041100 36.000000
142.048700 25.000000
142.713100 27.000000
143.049500 116.000000
145.027200 84.000000
145.651300 28.000000
149.003900 21.000000
151.053400 188.000000
151.068200 39.000000
152.061100 262.000000
153.072200 114.000000
153.383400 22.000000
154.043000 234.000000
155.049000 249.000000
155.788000 24.000000
156.058600 128.000000
157.030100 126.000000
157.061600 54.000000
158.034500 77.000000
158.045100 22.000000
159.044200 233.000000
160.014900 161.000000
161.024000 217.000000
161.895300 36.000000
163.029400 21.000000
165.032800 46.000000
165.070300 54.000000
167.048400 311.000000
168.061000 114.000000
169.032000 51.000000
169.066600 452.000000
169.096200 32.000000
170.713500 23.000000
171.046400 56.000000
178.052800 23.000000
179.048400 258.000000
180.057200 1088.000000
180.097800 40.000000
180.888300 26.000000
181.065300 312.000000
182.036800 575.000000
183.042800 435.000000
184.045300 43.000000
185.022300 297.000000
185.063000 143.000000
185.110800 25.000000
187.007200 28.000000
187.043100 49.000000
191.057600 26.000000
194.038100 22.000000
195.043700 1179.000000
195.077500 29.000000
195.088200 32.000000
196.051200 1089.000000
196.096200 63.000000
197.062000 310.000000
198.025200 76.000000
199.045500 60.000000
207.038500 66.000000
208.053600 441.000000
208.093800 23.000000
209.018100 26.000000
209.062300 338.000000
209.099300 40.000000
210.035500 215.000000
211.041500 221.000000
223.038800 385.000000
224.047700 1353.000000
224.086900 73.000000
224.137900 25.000000
225.060200 150.000000
235.033900 72.000000
238.179500 25.000000
251.032400 64.000000
252.047700 93.000000
252.073500 49.000000
253.050800 933.000000

