>compound BML5756519
>parentmass 283.0248
>ionization [M-H]-
>formula C15H8O6
>rt 513.120000
>profile qtof
#smiles_iso C1=CC2=C(C(=C1)O)C(=O)C3=C(C2=O)C=C(C=C3O)C(=O)O
#smiles_can C1=CC2=C(C(=C1)O)C(=O)C3=C(C2=O)C=C(C=C3O)C(=O)O
#inchikey FCDLCPWAQCPTKC-UHFFFAOYSA-N
#pubchem_id 10168
#mb_accession BML01037,BML01044,BML01051

>ms2
118.966700 40.000000
119.035900 33.000000
141.016300 43.000000
157.778900 39.000000
183.043700 204.000000
201.020400 39.000000
211.041200 111.000000
239.034000 6288.000000
239.081700 180.000000
239.103100 101.000000
239.136600 27.000000
239.177900 91.000000
239.223600 23.000000
239.270200 22.000000
239.309600 35.000000
239.358100 25.000000
239.493100 23.000000
239.518600 25.000000
239.550200 21.000000
239.603700 26.000000
239.643500 24.000000
239.704700 35.000000
239.786400 30.000000
283.024400 1549.000000

>ms2
119.033800 74.000000
137.892400 32.000000
158.973800 24.000000
167.048300 26.000000
182.036000 31.000000
183.044800 1387.000000
183.080600 81.000000
210.029800 25.000000
211.039600 1087.000000
211.072200 44.000000
211.086200 31.000000
212.722000 21.000000
213.068900 21.000000
238.982800 23.000000
239.033800 6821.000000
239.077300 259.000000
239.106800 74.000000
239.179000 106.000000
239.242900 42.000000
239.275900 24.000000
239.369000 23.000000
239.382800 22.000000
239.418400 22.000000
239.493400 30.000000
239.522700 24.000000
239.585800 41.000000
239.648400 37.000000
239.717300 23.000000
239.744600 22.000000
239.774300 34.000000
240.005300 21.000000
240.041000 36.000000
260.782700 23.000000
273.999800 37.000000
283.028900 284.000000

>ms2
127.052300 35.000000
137.038300 116.000000
139.055700 81.000000
154.038300 120.000000
155.039900 26.000000
155.050000 159.000000
165.034500 336.000000
167.052800 240.000000
182.037000 366.000000
183.044400 3700.000000
183.074200 38.000000
183.112100 37.000000
183.134100 20.000000
183.147500 34.000000
183.169600 46.000000
183.191300 22.000000
183.231500 22.000000
183.494600 22.000000
193.032500 35.000000
201.066300 21.000000
209.019000 24.000000
210.032800 151.000000
211.038600 1016.000000
211.083600 42.000000
239.033400 186.000000

