>compound BML5295156
>parentmass 327.0874
>ionization [M-H]-
>formula C18H16O6
>rt 555.480000
>profile qtof
#smiles_iso COC1=CC(=CC(=C1OC)OC)C2=C(C(=O)C3=CC=CC=C3O2)O
#smiles_can COC1=CC(=CC(=C1OC)OC)C2=C(C(=O)C3=CC=CC=C3O2)O
#inchikey MWFLTXAQDCOKEK-UHFFFAOYSA-N
#pubchem_id 688827
#mb_accession BML01841,BML01851,BML01861

>ms2peaks
138.390400 21.000000
210.029300 34.000000
225.046600 23.000000
234.955500 26.000000
246.475800 25.000000
248.190700 50.000000
254.035100 29.000000
269.046100 40.000000
281.607400 21.000000
284.073700 23.000000
297.039300 513.000000
297.090300 21.000000
312.063200 2194.000000
312.099700 67.000000
312.129300 21.000000
312.227100 25.000000
312.435800 22.000000
312.516700 22.000000
312.551400 35.000000
313.379900 30.000000
317.458600 57.000000
327.086500 2627.000000

>ms2peaks
161.540000 32.000000
170.038600 44.000000
182.040000 32.000000
198.031200 57.000000
209.019000 33.000000
210.031500 98.000000
238.028500 140.000000
239.032000 68.000000
241.043700 28.000000
253.043800 29.000000
254.021300 97.000000
266.025200 56.000000
267.031100 101.000000
269.041200 170.000000
293.062500 56.000000
297.038800 2736.000000

>ms2peaks
106.002900 44.000000
109.562800 24.000000
117.034900 21.000000
133.024400 24.000000
136.016300 25.000000
142.041100 25.000000
145.023500 28.000000
147.044400 28.000000
148.901500 24.000000
149.024100 131.000000
153.037500 32.000000
154.048200 41.000000
161.993300 23.000000
166.033600 21.000000
167.053300 37.000000
169.024500 36.000000
169.060400 23.000000
170.033700 52.000000
181.866000 30.000000
182.038500 230.000000
182.556900 25.000000
193.033700 27.000000
194.031700 43.000000
195.044100 97.000000
198.028600 596.000000
198.071800 33.000000
209.022300 94.000000
210.034000 612.000000
210.072900 36.000000
211.040000 74.000000
223.035700 33.000000
225.016400 127.000000
225.069200 28.000000
226.024000 364.000000
227.078700 29.000000
232.417800 32.000000
237.010000 26.000000
238.033100 233.000000
238.068000 29.000000
239.030300 95.000000
253.044900 21.000000
254.021600 299.000000
266.024700 270.000000
267.027700 307.000000
267.084800 32.000000
269.043900 96.000000
269.081500 31.000000
297.038600 315.000000
326.002700 39.000000

