>compound BML5944565
>parentmass 440.1324
>ionization [M-H]-
>formula C19H19N7O6
>rt 239.880000
>profile qtof
#smiles_iso C1=CC(=CC=C1C(=O)N[C@@H](CCC(=O)O)C(=O)O)NCC2=CN=C3C(=N2)C(=O)N=C(N3)N
#smiles_can C1=CC(=CC=C1C(=O)NC(CCC(=O)O)C(=O)O)NCC2=CN=C3C(=N2)C(=O)N=C(N3)N
#inchikey OVBPIULPVIDEAO-LBPRGKRZSA-N
#pubchem_id 6037
#mb_accession BML00986,BML00994,BML01002

>ms2peaks
165.004100 33.000000
175.056800 35.000000
180.871500 22.000000
232.528600 30.000000
239.027000 23.000000
246.844700 29.000000
275.254600 49.000000
289.531500 23.000000
311.087800 284.000000
311.128700 24.000000
334.136400 35.000000
378.151700 44.000000
385.742200 20.000000
396.143700 68.000000
419.072900 25.000000
422.119900 91.000000
440.130100 3129.000000

>ms2peaks
103.411200 24.000000
119.037300 42.000000
128.035300 72.000000
128.050400 23.000000
132.055900 33.000000
146.043400 40.000000
148.066200 33.000000
174.037400 25.000000
175.052300 80.000000
175.085500 26.000000
177.590300 21.000000
203.084800 56.000000
221.093800 24.000000
262.702900 21.000000
265.087700 46.000000
268.081700 30.000000
293.079800 165.000000
293.102300 39.000000
311.090300 1242.000000
311.139400 48.000000
334.146000 66.000000
334.199600 32.000000
335.120300 38.000000
352.157300 79.000000
353.132700 103.000000
378.124500 60.000000
379.112200 58.000000
394.155400 20.000000
396.142000 299.000000
397.122700 62.000000
422.121300 269.000000
440.129700 1660.000000

>ms2peaks
102.053300 76.000000
104.022900 22.000000
119.038600 51.000000
128.034400 152.000000
131.032800 25.000000
132.043400 805.000000
133.026800 32.000000
133.046500 48.000000
135.057800 99.000000
136.037500 217.000000
136.045000 37.000000
146.045700 56.000000
147.050600 56.000000
148.065900 51.000000
149.030400 28.000000
149.086000 23.000000
157.039200 26.000000
159.091600 29.000000
161.025900 33.000000
161.071900 27.000000
162.041200 173.000000
174.042400 120.000000
175.047700 1137.000000
175.071900 29.000000
175.094100 87.000000
175.110900 23.000000
175.173800 22.000000
175.572800 22.000000
176.058800 82.000000
177.101500 154.000000
177.121500 29.000000
198.065000 24.000000
203.081700 129.000000
205.410700 39.000000
219.607900 20.000000
221.093800 132.000000
224.093200 43.000000
265.078000 47.000000
266.093600 23.000000
267.091900 38.000000
267.117100 36.000000
268.081600 61.000000
268.104800 23.000000
274.056600 24.000000
282.089300 21.000000
293.062100 35.000000
293.078800 62.000000
298.202700 30.000000
308.112100 22.000000
309.138200 46.000000
310.110000 21.000000
311.089600 217.000000
326.116300 20.000000
335.130200 75.000000
336.140100 20.000000
352.160700 45.000000
353.136700 111.000000
378.125000 104.000000
378.162300 23.000000
396.134300 150.000000
396.167700 22.000000
414.528300 20.000000
438.524900 24.000000

