>compound BML5086790
>parentmass 610.3035
>ionization [M-H]-
>formula C35H41N5O5
>rt 426.600000
>profile qtof
#smiles_iso CC(C)C1(C(=O)N2C(C(=O)N3CCCC3C2(O1)O)CC4=CC=CC=C4)NC(=O)C5CC6C(CC7=CNC8=CC=CC6=C78)N(C5)C
#smiles_can CC(C)C1(C(=O)N2C(C(=O)N3CCCC3C2(O1)O)CC4=CC=CC=C4)NC(=O)C5CC6C(CC7=CNC8=CC=CC6=C78)N(C5)C
#inchikey DEQITUUQPICUMR-UHFFFAOYSA-N
#pubchem_id 3065
#mb_accession BML00500,BML00508,BML00516

>ms2peaks
114.058000 274.000000
148.468100 64.000000
226.091200 50.000000
243.116000 87.000000
244.629200 129.000000
249.117400 70.000000
261.126700 122.000000
338.168600 47.000000
348.184000 43.000000
366.176100 130.000000
366.209900 59.000000
387.757100 45.000000
451.260300 169.000000
495.210400 45.000000
495.241200 340.000000
566.291800 57.000000
577.903400 44.000000
610.300500 8470.000000

>ms2peaks
109.093200 33.000000
114.055600 705.000000
115.037600 95.000000
116.968000 23.000000
118.382100 21.000000
123.608500 21.000000
149.626400 25.000000
152.061900 25.000000
174.057300 43.000000
199.126700 80.000000
226.088500 161.000000
239.871700 25.000000
243.107200 49.000000
250.092900 35.000000
250.139600 69.000000
251.115700 41.000000
261.121800 458.000000
265.605400 50.000000
268.144800 83.000000
296.783900 29.000000
313.146200 34.000000
314.185800 26.000000
322.192800 49.000000
334.207700 26.000000
341.152000 87.000000
346.185700 69.000000
347.185400 21.000000
348.168300 31.000000
360.185600 26.000000
365.190300 44.000000
366.182800 86.000000
424.215900 29.000000
451.249700 675.000000
451.309100 36.000000
478.206300 27.000000
495.239300 773.000000
495.309600 58.000000
527.971100 38.000000
538.180500 24.000000
566.321300 95.000000
566.345000 22.000000
567.310300 85.000000
596.968400 25.000000
610.238900 20.000000
610.301200 3105.000000

>ms2peaks
121.045300 35.000000
122.064200 38.000000
124.077100 20.000000
130.473700 26.000000
131.052800 21.000000
139.050600 34.000000
152.058900 37.000000
154.067500 25.000000
157.056800 43.000000
160.667500 32.000000
166.059900 21.000000
174.047600 33.000000
174.060400 21.000000
182.089800 82.000000
182.120800 34.000000
194.094300 28.000000
197.107400 84.000000
199.126800 247.000000
215.121100 22.000000
222.105300 24.000000
223.127400 30.000000
224.123900 36.000000
225.124100 21.000000
226.081700 59.000000
226.109400 157.000000
226.478300 26.000000
243.112100 129.000000
248.053400 21.000000
250.109900 20.000000
250.134700 76.000000
251.113400 124.000000
261.122800 216.000000
261.148600 31.000000
268.146400 288.000000
269.173800 22.000000
300.824200 20.000000
314.190500 44.000000
322.190800 295.000000
322.235800 21.000000
322.260400 21.000000
333.201900 199.000000
334.198400 31.000000
334.610100 45.000000
338.189900 51.000000
346.181200 223.000000
347.199400 84.000000
348.161800 54.000000
359.180300 168.000000
360.189700 75.000000
365.204900 24.000000
366.182100 29.000000
367.631100 26.000000
370.862700 22.000000
382.196200 89.000000
414.183300 39.000000
424.237400 28.000000
425.124400 35.000000
449.251200 25.000000
451.246900 339.000000
451.286000 42.000000
495.228500 41.000000
566.294800 45.000000
566.329900 29.000000
610.303800 21.000000

