>compound BML5257461
>parentmass 255.06630000000004
>ionization [M-H]-
>formula C15H12O4
>rt 471.540000
>profile qtof
#smiles_iso C1C(OC2=CC(=CC(=C2C1=O)O)O)C3=CC=CC=C3
#smiles_can C1C(OC2=CC(=CC(=C2C1=O)O)O)C3=CC=CC=C3
#inchikey URFCJEUYXNAHFI-UHFFFAOYSA-N
#pubchem_id 238782
#mb_accession BML00892,BML00897,BML00902

>ms2peaks
151.003700 1061.000000
171.044600 595.000000
211.075700 588.000000
213.055400 1417.000000
255.066200 115538.000000

>ms2peaks
107.013700 2929.000000
108.022900 226.000000
123.009600 350.000000
125.024100 439.000000
133.028200 220.000000
136.015500 508.000000
141.069400 331.000000
145.064900 3017.000000
151.002600 6575.000000
164.010100 1374.000000
169.066000 1579.000000
171.043600 2573.000000
172.052300 746.000000
177.018100 292.000000
183.080300 600.000000
185.060000 939.000000
187.075100 2116.000000
193.067400 241.000000
211.074500 2322.000000
213.055400 8331.000000
213.093000 468.000000
227.070700 763.000000
255.065700 41539.000000

>ms2peaks
101.038900 1166.000000
101.065700 21.000000
101.070200 24.000000
101.089600 26.000000
103.054800 604.000000
103.163500 58.000000
105.033700 42.000000
105.039600 25.000000
106.264700 21.000000
107.014100 3424.000000
107.045800 87.000000
107.110200 30.000000
108.021000 1276.000000
108.050000 24.000000
108.057300 24.000000
108.373600 21.000000
109.028800 172.000000
115.055300 383.000000
117.034500 472.000000
117.069600 240.000000
119.012600 78.000000
120.021700 169.000000
120.325600 21.000000
121.030800 30.000000
122.000200 251.000000
123.007300 307.000000
125.020600 114.000000
126.051000 35.000000
127.056500 285.000000
127.087300 29.000000
129.032500 52.000000
129.070100 102.000000
129.928200 21.000000
130.043500 358.000000
131.047300 60.000000
133.032800 54.000000
136.016700 329.000000
139.054300 146.000000
141.070100 733.000000
141.105000 43.000000
143.049100 431.000000
145.065100 1830.000000
145.099600 82.000000
145.119800 26.000000
145.148000 28.000000
145.177500 27.000000
145.338500 23.000000
151.003000 781.000000
151.046900 32.000000
151.068700 27.000000
151.116700 21.000000
154.037900 24.000000
155.088600 61.000000
157.067600 121.000000
162.999100 93.000000
163.015100 34.000000
164.010600 150.000000
167.045900 85.000000
168.062200 29.000000
169.064900 379.000000
171.044200 2363.000000
171.080300 45.000000
171.093200 26.000000
171.105600 46.000000
171.128100 28.000000
171.166000 31.000000
171.536200 22.000000
172.051000 146.000000
172.059400 85.000000
177.024600 61.000000
183.086600 95.000000
184.055600 45.000000
185.059300 1313.000000
185.097900 38.000000
187.077700 121.000000
187.439500 37.000000
193.058900 76.000000
195.057300 28.000000
195.913200 28.000000
196.057800 21.000000
199.041700 25.000000
209.062000 74.000000
211.073200 80.000000
213.056400 352.000000
215.040100 24.000000
218.541000 25.000000
219.862200 34.000000
221.893100 23.000000
224.357300 28.000000
226.057500 27.000000
227.069900 53.000000
255.061800 91.000000

