>compound BML5813225
>parentmass 256.0979
>ionization [M-H]-
>formula C15H15NO3
>rt 510.000000
>profile qtof
#smiles_iso CC1(C=CC2=C(O1)C3=C(C=CC(=C3)OC)NC2=O)C
#smiles_can CC1(C=CC2=C(O1)C3=C(C=CC(=C3)OC)NC2=O)C
#inchikey IXRKDGGGFFCRIR-UHFFFAOYSA-N
#pubchem_id 648601
#mb_accession BML00045,BML00053

>ms2peaks
241.073400 237.000000
255.059800 27.000000
255.232200 1873.000000
255.275200 107.000000
255.302400 37.000000
256.096900 561.000000
256.139800 29.000000
256.236300 233.000000

>ms2peaks
111.209700 38.000000
135.614000 52.000000
172.563500 70.000000
241.076700 117.000000
249.056100 84.000000
255.230200 873.000000

