>compound BML5513447
>parentmass 251.0713
>ionization [M-H]-
>formula C16H12O3
>rt 510.840000
>profile qtof
#smiles_iso CC1=C(OC2=C(C1=O)C=CC(=C2)O)C3=CC=CC=C3
#smiles_can CC1=C(OC2=C(C1=O)C=CC(=C2)O)C3=CC=CC=C3
#inchikey SUNCCQBNDWHMPR-UHFFFAOYSA-N
#pubchem_id 5391151
#mb_accession BML00334,BML00339

>ms2peaks
251.070800 6326.000000

>ms2peaks
145.036000 59.000000
180.054900 46.000000
193.070000 59.000000
206.073000 57.000000
207.085100 91.000000
209.056900 86.000000
251.070800 9093.000000

