>compound BML5740987
>parentmass 253.0506
>ionization [M-H]-
>formula C15H10O4
>rt 582.660000
>profile qtof
#smiles_iso CC1=CC2=C(C(=C1)O)C(=O)C3=C(C2=O)C=CC=C3O
#smiles_can CC1=CC2=C(C(=C1)O)C(=O)C3=C(C2=O)C=CC=C3O
#inchikey LQGUBLBATBMXHT-UHFFFAOYSA-N
#pubchem_id 10208
#mb_accession BML01163,BML01172,BML01181

>ms2peaks
104.492200 22.000000
155.666100 30.000000
169.825100 21.000000
193.085900 22.000000
209.065100 24.000000
225.054400 137.000000
231.135400 25.000000
237.911600 23.000000
253.050600 2626.000000

>ms2peaks
100.850600 39.000000
120.701500 36.000000
138.749000 22.000000
171.023600 22.000000
171.094900 26.000000
174.937400 52.000000
203.163500 29.000000
225.055300 214.000000
236.046500 25.000000
253.051500 912.000000

>ms2peaks
154.034800 32.000000
155.052500 33.000000
180.055400 31.000000
180.299800 62.000000
181.064200 114.000000
181.538700 26.000000
182.035100 36.000000
195.042900 23.000000
196.049600 23.000000
196.083000 29.000000
207.049500 34.000000
210.029800 119.000000
224.048200 117.000000
225.056600 428.000000
225.087100 40.000000

