>compound BML5857691
>parentmass 447.0933
>ionization [M-H]-
>formula C21H20O11
>rt 336.720000
>profile qtof
#smiles_iso C1=CC(=C(C=C1C2=CC(=O)C3=C(C=C(C=C3O2)OC4C(C(C(C(O4)CO)O)O)O)O)O)O
#smiles_can C1=CC(=C(C=C1C2=CC(=O)C3=C(C=C(C=C3O2)OC4C(C(C(C(O4)CO)O)O)O)O)O)O
#inchikey PEFNSGRTCBGNAN-UHFFFAOYSA-N
#pubchem_id 5291488
#mb_accession BML00134,BML00142,BML00149

>ms2peaks
239.773800 79.000000
284.029500 214.000000
285.039800 553.000000
447.092400 7751.000000

>ms2peaks
106.140100 20.000000
112.276800 28.000000
127.204100 44.000000
133.027300 23.000000
133.037100 44.000000
170.601400 29.000000
176.827200 20.000000
209.188800 22.000000
227.038700 23.000000
244.079700 26.000000
255.030000 46.000000
265.023600 33.000000
273.520000 21.000000
283.021400 62.000000
284.029200 394.000000
285.039600 2413.000000
285.098300 130.000000
285.149300 22.000000
285.202200 35.000000
285.431400 25.000000
285.613200 23.000000
285.766400 26.000000
285.795600 29.000000
285.921500 24.000000
285.949100 33.000000
287.276000 24.000000
296.038700 49.000000
327.052300 72.000000
427.987600 51.000000
430.115000 20.000000
430.609100 41.000000
446.089900 43.000000
447.090500 3193.000000

>ms2peaks
103.618500 50.000000
107.012800 33.000000
116.198600 47.000000
119.034000 24.000000
133.031000 42.000000
147.533700 25.000000
149.991000 48.000000
151.003300 155.000000
151.032200 29.000000
172.978100 23.000000
175.036000 22.000000
175.055700 22.000000
194.726600 43.000000
196.054900 22.000000
198.642200 22.000000
199.042000 50.000000
201.043300 34.000000
203.667500 21.000000
203.872500 31.000000
216.032700 24.000000
227.034300 66.000000
255.027100 31.000000
255.044800 24.000000
256.037800 99.000000
283.025900 27.000000
284.030800 2225.000000
284.072200 81.000000
284.089400 48.000000
284.107600 32.000000
284.188800 27.000000
284.949600 25.000000
285.039300 2854.000000
285.085800 95.000000
285.102300 45.000000
285.124500 77.000000
285.198100 50.000000
285.312600 32.000000
285.373800 25.000000
285.433400 23.000000
285.658500 28.000000
286.264500 35.000000
286.734600 20.000000
297.040400 71.000000
330.919100 28.000000
357.801100 37.000000
360.488100 97.000000

