>compound BML5474079
>parentmass 303.051
>ionization [M-H]-
>formula C15H12O7
>rt 261.900000
>profile qtof
#smiles_iso C1=CC(=C(C=C1C2C(C(=O)C3=C(C=C(C=C3O2)O)O)O)O)O
#smiles_can C1=CC(=C(C=C1C2C(C(=O)C3=C(C=C(C=C3O2)O)O)O)O)O
#inchikey CXQWRCVTCMQVQX-UHFFFAOYSA-N
#pubchem_id 471
#mb_accession BML01273,BML01276,BML01279

>ms2
109.024200 23.000000
123.042700 29.000000
125.024100 1628.000000
125.041100 23.000000
125.051600 23.000000
125.062900 63.000000
125.078100 23.000000
125.128000 22.000000
131.463900 25.000000
137.027700 29.000000
147.052300 21.000000
149.025500 37.000000
149.077900 26.000000
151.003100 123.000000
151.043400 69.000000
153.019300 150.000000
159.371900 22.000000
165.054600 28.000000
173.064800 23.000000
175.041100 168.000000
177.019800 944.000000
177.043400 28.000000
177.060200 46.000000
178.997600 206.000000
179.008900 31.000000
180.007900 56.000000
181.008000 43.000000
181.016500 202.000000
189.053900 33.000000
197.050800 33.000000
199.039200 63.000000
201.016200 32.000000
216.038100 62.000000
216.893500 22.000000
217.048600 211.000000
219.024800 38.000000
230.221800 47.000000
231.066200 22.000000
238.830600 24.000000
241.050200 213.000000
243.031900 24.000000
257.042500 76.000000
259.058900 312.000000
259.106000 23.000000
274.041600 39.000000
275.055600 522.000000
275.074100 46.000000
275.091100 23.000000
275.112100 27.000000
285.039800 4551.000000
285.088800 198.000000
285.116100 119.000000
285.152100 37.000000
285.194700 61.000000
285.260900 30.000000
285.293500 21.000000
285.337800 23.000000
285.509600 23.000000
285.551600 21.000000
285.907000 28.000000
286.042700 31.000000
286.555400 22.000000
302.039400 232.000000
302.083300 25.000000
303.049500 1232.000000

>ms2
107.011500 49.000000
109.027600 38.000000
109.031300 49.000000
121.028700 77.000000
122.036000 32.000000
123.043200 48.000000
123.050300 23.000000
125.024300 2684.000000
125.057600 41.000000
125.065900 63.000000
125.100900 23.000000
125.125500 36.000000
125.705300 22.000000
133.030300 40.000000
137.021400 80.000000
145.068300 20.000000
146.034500 26.000000
149.022500 143.000000
150.030300 90.000000
151.003700 317.000000
151.040200 257.000000
152.010100 237.000000
153.017500 393.000000
161.021000 74.000000
171.043800 60.000000
173.028200 26.000000
173.061100 37.000000
174.029200 43.000000
175.039100 630.000000
175.065400 23.000000
177.019300 431.000000
177.871400 22.000000
178.998500 245.000000
179.052200 22.000000
180.005600 87.000000
181.017100 92.000000
188.044300 42.000000
189.057800 99.000000
191.074600 26.000000
193.050400 116.000000
197.065200 48.000000
199.039300 324.000000
200.008700 20.000000
201.021300 81.000000
202.025300 24.000000
213.051200 40.000000
216.038000 64.000000
217.048600 485.000000
217.099700 24.000000
219.038300 45.000000
231.059700 64.000000
231.071100 28.000000
241.054200 258.000000
242.013800 39.000000
243.026500 64.000000
257.046200 128.000000
259.057600 167.000000
274.045400 66.000000
275.055400 124.000000
285.040800 834.000000
285.081200 31.000000
285.126800 22.000000
303.038000 35.000000

>ms2
103.053400 36.000000
105.034400 61.000000
107.013700 134.000000
107.043700 27.000000
109.030000 136.000000
111.007900 42.000000
115.053400 22.000000
119.048600 28.000000
121.029300 127.000000
122.037800 74.000000
123.045400 459.000000
124.015800 141.000000
125.023300 754.000000
125.040400 24.000000
125.062400 24.000000
129.032500 36.000000
130.041000 29.000000
143.050100 80.000000
145.029600 65.000000
146.041800 60.000000
147.045900 28.000000
148.055100 34.000000
149.026000 64.000000
150.031600 242.000000
151.003900 263.000000
151.036600 89.000000
151.063200 22.000000
152.011100 86.000000
153.016900 38.000000
157.034700 47.000000
159.044500 52.000000
161.059700 20.000000
164.048900 45.000000
171.046800 61.000000
173.014300 22.000000
173.024400 38.000000
174.031500 98.000000
175.040500 153.000000
176.015200 20.000000
184.046500 23.000000
185.055900 34.000000
187.039800 45.000000
188.042900 60.000000
188.054200 23.000000
189.055700 23.000000
193.048800 24.000000
199.044000 34.000000
201.018700 30.000000
207.021800 20.000000
209.687100 24.000000
217.045300 41.000000
259.366400 22.000000

