>compound BML5425615
>parentmass 205.0362
>ionization [M-H]-
>formula C8H14O2S2
>rt 392.700000
>profile qtof
#smiles_iso C1CSSC1CCCCC(=O)O
#smiles_can C1CSSC1CCCCC(=O)O
#inchikey AGBQKNBQESQNJD-UHFFFAOYSA-N
#pubchem_id 864
#mb_accession BML01301,BML01306

>ms2
127.058700 2229.000000
127.091100 105.000000
127.112500 31.000000
127.163600 32.000000
137.062500 74.000000
139.074700 222.000000
141.091900 95.000000
159.048600 317.000000
171.048300 9141.000000
171.085400 329.000000
171.112800 97.000000
171.131100 32.000000
171.141500 62.000000
171.169800 131.000000
171.189800 20.000000
171.232900 34.000000
171.292000 23.000000
171.335900 43.000000
171.359000 27.000000
171.392200 20.000000
171.400400 24.000000
171.414100 21.000000
171.470000 23.000000
171.576500 28.000000
171.627600 22.000000
171.857300 22.000000
205.036000 196.000000

>ms2
111.028200 23.000000
111.046900 21.000000
115.058400 82.000000
127.058500 1075.000000
127.089500 49.000000
137.059900 39.000000
139.075900 81.000000
159.048100 76.000000
171.048900 309.000000
195.295500 35.000000

