>compound BML5141562
>parentmass 224.0677
>ionization [M-H]-
>formula C9H11N3O4
>rt 21.660000
>profile qtof
#smiles_iso C1=CN2C3C(C(C(O3)CO)O)OC2=NC1=N
#smiles_can C1=CN2C3C(C(C(O3)CO)O)OC2=NC1=N
#inchikey BBDAGFIXKZCXAH-UHFFFAOYSA-N
#pubchem_id 279063
#mb_accession BML00437

>ms2peaks
109.040200 42.000000
110.037400 505.000000
110.064300 28.000000
121.038300 102.000000
122.024400 26.000000
125.165700 28.000000
134.037900 238.000000
141.016300 268.000000
148.055100 129.000000
151.053900 46.000000
152.045800 40.000000
162.993200 39.000000
164.044700 38.000000
164.836900 30.000000
166.065700 27.000000
181.061600 230.000000
205.089500 22.000000
206.052900 21.000000
223.023500 88.000000
223.843500 29.000000
224.067300 85.000000

