>compound BML5679996
>parentmass 417.11910000000006
>ionization [M-H]-
>formula C21H22O9
>rt 304.140000
>profile qtof
#smiles_iso C1C(OC2=C(C1=O)C=CC(=C2)O)C3=CC=C(C=C3)OC4C(C(C(C(O4)CO)O)O)O
#smiles_can C1C(OC2=C(C1=O)C=CC(=C2)O)C3=CC=C(C=C3)OC4C(C(C(C(O4)CO)O)O)O
#inchikey DEMKZLAVQYISIA-UHFFFAOYSA-N
#pubchem_id 3794292
#mb_accession BML01676,BML01686,BML01696

>ms2peaks
119.049200 191.000000
132.876300 20.000000
135.008100 266.000000
255.066100 5555.000000
255.116200 197.000000
255.138300 45.000000
255.150800 61.000000
255.176300 28.000000
255.213900 66.000000
255.270400 30.000000
255.318200 26.000000
255.383500 27.000000
255.440600 30.000000
255.507900 39.000000
255.637900 21.000000
255.679100 26.000000
255.757600 25.000000
256.066300 36.000000
311.333400 33.000000
334.990800 38.000000
357.126700 32.000000
417.117700 7926.000000

>ms2peaks
119.050300 485.000000
135.008500 1486.000000
135.041200 49.000000
135.063300 28.000000
135.118100 23.000000
252.969000 34.000000
255.065600 10565.000000
255.105300 62.000000
255.116300 132.000000
255.157800 24.000000
255.181400 66.000000
255.213600 135.000000
255.262700 55.000000
255.291700 42.000000
255.325000 41.000000
255.343700 26.000000
255.394000 40.000000
255.458100 30.000000
255.476100 34.000000
255.520700 23.000000
255.536900 35.000000
255.632200 54.000000
255.701800 37.000000
255.759100 33.000000
255.815300 48.000000
255.886400 24.000000
255.907500 31.000000
256.067200 42.000000
256.333900 22.000000
283.078500 42.000000
357.121000 28.000000
412.678200 21.000000
417.117100 745.000000

>ms2peaks
119.049600 4815.000000
119.083300 216.000000
119.097600 64.000000
119.105300 30.000000
119.150900 62.000000
119.348700 22.000000
120.020600 101.000000
129.710700 22.000000
135.007700 5222.000000
135.042100 136.000000
135.060700 64.000000
135.078400 32.000000
135.115800 60.000000
135.162900 26.000000
135.225500 22.000000
135.587000 24.000000
135.981000 23.000000
148.012600 161.000000
149.025300 103.000000
169.061300 22.000000
203.295700 40.000000
211.071700 21.000000
213.050500 55.000000
222.885700 22.000000
226.070400 23.000000
255.066600 839.000000
255.102700 41.000000
255.123200 33.000000
294.108300 20.000000
298.693000 22.000000
335.913000 30.000000
348.114400 24.000000

