>compound BML5181085
>parentmass 313.0717
>ionization [M-H]-
>formula C17H14O6
>rt 496.380000
>profile qtof
#smiles_iso COC1=C(C=C(C=C1)C2=C(C(=O)C3=C(O2)C=C(C=C3)O)O)OC
#smiles_can COC1=C(C=C(C=C1)C2=C(C(=O)C3=C(O2)C=C(C=C3)O)O)OC
#inchikey LTSJJOKAWSCMBC-UHFFFAOYSA-N
#pubchem_id 5378832
#mb_accession BML01678,BML01688,BML01698

>ms2
117.018000 20.000000
127.056700 43.000000
129.183800 68.000000
171.039300 41.000000
183.037800 28.000000
199.041800 45.000000
235.782700 32.000000
253.110900 49.000000
255.029200 156.000000
255.047900 35.000000
269.047400 54.000000
283.020600 308.000000
287.235100 22.000000
297.041700 189.000000
297.585100 25.000000
298.047600 1006.000000
298.107600 24.000000
298.123200 27.000000
298.147900 22.000000
298.639500 34.000000
313.021400 27.000000
313.071100 7076.000000

>ms2
103.018200 23.000000
109.027400 42.000000
128.208600 21.000000
149.269900 20.000000
155.051400 27.000000
183.034800 32.000000
190.692300 25.000000
207.763200 55.000000
211.038800 46.000000
227.032400 56.000000
230.145100 21.000000
238.960600 39.000000
252.050500 24.000000
255.030300 554.000000
255.060800 34.000000
255.090900 30.000000
255.824600 25.000000
268.037100 54.000000
269.044100 635.000000
269.079600 33.000000
283.025100 3148.000000
283.073400 136.000000
283.101400 29.000000
283.161700 44.000000
283.342000 36.000000
283.484100 20.000000
283.551500 29.000000
283.573200 28.000000
283.596800 22.000000
283.651700 20.000000
283.733000 22.000000
283.841600 25.000000
284.015600 35.000000
284.260300 36.000000
297.038300 852.000000
297.078000 22.000000
297.107700 56.000000
297.991600 37.000000
298.047200 5209.000000
298.106500 215.000000
298.158100 63.000000
298.212000 64.000000
298.242000 32.000000
298.291100 21.000000
298.404600 35.000000
298.485700 25.000000
298.576100 21.000000
298.640200 27.000000
298.669000 26.000000
299.187500 22.000000
299.378300 21.000000
313.069500 2114.000000

>ms2
100.029000 52.000000
102.323700 73.000000
119.017400 62.000000
121.027200 25.000000
133.030500 62.000000
135.009200 359.000000
139.058700 35.000000
143.053700 40.000000
145.028700 44.000000
147.006600 75.000000
155.048100 135.000000
167.047900 60.000000
171.043800 113.000000
173.027400 28.000000
176.007500 136.000000
180.044400 67.000000
181.018500 21.000000
182.033900 31.000000
182.059800 36.000000
183.043800 197.000000
185.027200 62.000000
185.058800 22.000000
197.067400 40.000000
198.028900 69.000000
199.041000 143.000000
199.658700 21.000000
211.038000 320.000000
211.074000 23.000000
211.423400 24.000000
213.044700 41.000000
213.061400 112.000000
214.030100 35.000000
215.037600 41.000000
216.098300 22.000000
223.042200 100.000000
224.048100 60.000000
224.156300 21.000000
226.025900 60.000000
227.032900 1292.000000
227.078500 69.000000
227.117900 20.000000
227.175100 22.000000
227.973000 22.000000
233.693400 34.000000
237.014300 30.000000
237.056700 32.000000
238.033500 85.000000
239.035200 231.000000
241.046200 49.000000
241.063500 65.000000
255.029100 3524.000000
255.076400 188.000000
255.101100 32.000000
255.135300 38.000000
255.167900 42.000000
255.214000 25.000000
255.538100 24.000000
266.015600 20.000000
267.037000 28.000000
268.039000 54.000000
268.063000 49.000000
269.046600 497.000000
270.051800 30.000000
281.034900 23.000000
281.051500 21.000000
283.021500 589.000000
283.065500 88.000000
283.082800 38.000000
283.841900 21.000000
284.188600 23.000000
295.012500 41.000000
295.607200 26.000000
297.040100 689.000000
297.109900 21.000000

