>compound BML5647584
>parentmass 283.0612
>ionization [M-H]-
>formula C16H12O5
>rt 504.480000
>profile qtof
#smiles_iso COC1=CC=C(C=C1)C2=COC3=CC(=CC(=C3C2=O)O)O
#smiles_can COC1=CC=C(C=C1)C2=COC3=CC(=CC(=C3C2=O)O)O
#inchikey WUADCCWRTIWANL-UHFFFAOYSA-N
#pubchem_id 5280373
#mb_accession BML00767,BML00772,BML00777

>ms2
267.026500 251.000000
268.037100 4822.000000
283.060600 48803.000000

>ms2
132.020000 331.000000
195.044400 161.000000
211.036600 568.000000
212.047400 236.000000
223.041600 213.000000
224.045900 359.000000
226.027500 227.000000
239.033900 831.000000
240.041600 535.000000
267.030300 1164.000000
268.037400 28069.000000
268.092300 321.000000
268.187500 435.000000
283.060300 14631.000000

>ms2
104.027000 568.000000
104.054300 29.000000
105.035600 87.000000
107.015400 144.000000
112.648200 32.000000
117.034200 47.000000
117.346800 23.000000
127.051100 31.000000
128.064400 26.000000
130.040800 80.000000
132.021000 2587.000000
132.053600 60.000000
132.074400 52.000000
132.129100 48.000000
134.037700 236.000000
135.006500 466.000000
141.032000 24.000000
142.044000 172.000000
143.053400 62.000000
147.004800 75.000000
151.001900 280.000000
151.060400 32.000000
152.060400 35.000000
153.034400 42.000000
154.039900 317.000000
155.047900 114.000000
156.057900 82.000000
158.033500 36.000000
166.040100 122.000000
167.048900 789.000000
167.087000 26.000000
168.057300 50.000000
170.039700 116.000000
171.045200 95.000000
178.040800 63.000000
179.049500 170.000000
180.056300 150.000000
182.037200 133.000000
183.043400 589.000000
184.052100 489.000000
194.036800 88.000000
195.044700 1182.000000
195.091300 53.000000
196.051900 436.000000
197.023900 144.000000
198.034900 171.000000
199.045900 98.000000
200.039600 23.000000
207.080100 31.000000
210.031900 109.000000
211.039800 4560.000000
211.085700 167.000000
211.131900 48.000000
211.174600 55.000000
211.279400 25.000000
211.392600 25.000000
211.610700 25.000000
212.047900 320.000000
212.091300 34.000000
222.029800 37.000000
223.040000 1163.000000
223.085900 40.000000
223.113400 23.000000
224.048600 323.000000
225.021000 34.000000
226.026200 322.000000
239.034700 4513.000000
239.081200 197.000000
239.140800 36.000000
239.179300 43.000000
239.220800 25.000000
239.271100 23.000000
239.467700 23.000000
239.821900 23.000000
240.016600 27.000000
240.042400 681.000000
240.090500 30.000000
240.106300 46.000000
240.256600 26.000000
250.024500 69.000000
251.038800 73.000000
267.029700 4246.000000
267.087800 66.000000
267.134900 47.000000
267.182200 50.000000
267.217700 32.000000
267.281400 28.000000
267.336800 27.000000
267.368600 24.000000
267.563900 38.000000
268.013200 41.000000
268.036000 1440.000000
268.092900 42.000000
268.130700 30.000000
268.277200 24.000000

