>compound BML5309188
>parentmass 218.1047
>ionization [M-H]-
>formula C10H13N5O
>rt 194.460000
>profile qtof
#smiles_iso C/C(=C\CNC1=NC=NC2=C1NC=N2)/CO
#smiles_can CC(=CCNC1=NC=NC2=C1NC=N2)CO
#inchikey UZKQTCBAMSWPJD-FARCUNLSSA-N
#pubchem_id 449093
#mb_accession BML00890,BML00895,BML00900

>ms2
100.862500 24.000000
104.999000 22.000000
106.028100 29.000000
107.034600 39.000000
133.037300 200.000000
134.039500 25.000000
134.047000 1507.000000
134.079600 57.000000
134.154500 29.000000
137.367200 39.000000
173.013300 47.000000
188.094300 587.000000
188.111900 31.000000
188.133000 34.000000
200.093900 827.000000
200.137300 45.000000
216.997100 23.000000
217.968700 23.000000
218.006300 52.000000
218.103800 3852.000000

>ms2
107.034600 219.000000
117.020900 43.000000
118.031800 36.000000
119.035000 36.000000
119.047200 21.000000
123.901500 30.000000
124.410100 24.000000
132.032800 222.000000
133.038300 1556.000000
133.071700 72.000000
133.147700 22.000000
133.631900 24.000000
134.046200 2584.000000
134.081000 108.000000
134.102800 46.000000
134.120000 26.000000
134.153100 31.000000
144.034800 31.000000
145.051000 21.000000
146.042400 75.000000
146.077300 30.000000
158.044800 90.000000
160.058200 57.000000
160.067200 30.000000
160.084000 22.000000
173.082100 48.000000
184.059600 52.000000
185.679700 104.000000
186.085400 74.000000
187.086600 79.000000
188.093600 401.000000
188.128400 24.000000
189.043200 20.000000
200.092400 919.000000
200.136500 47.000000
200.488600 21.000000
218.105700 356.000000

>ms2
105.020400 76.000000
106.028600 452.000000
107.036200 571.000000
111.415600 29.000000
117.021800 427.000000
118.027900 65.000000
119.037500 144.000000
124.858300 28.000000
130.031900 23.000000
132.031000 1405.000000
132.071200 34.000000
133.039500 848.000000
133.071400 30.000000
134.045500 617.000000
144.037000 58.000000
146.051700 112.000000
147.535200 22.000000
158.006600 35.000000
158.046500 93.000000
174.139400 29.000000
184.064200 23.000000
186.077600 112.000000

