>compound BML5125177
>parentmass 214.0734
>ionization [M-H]-
>formula C10H9N5O
>rt 263.100000
>profile qtof
#smiles_iso C1=COC(=C1)CNC2=NC=NC3=C2NC=N3
#smiles_can C1=COC(=C1)CNC2=NC=NC3=C2NC=N3
#inchikey QANMHLXAZMSUEX-UHFFFAOYSA-N
#pubchem_id 3830
#mb_accession BML00723,BML00730,BML00737

>ms2peaks
107.035700 241.000000
117.021000 222.000000
132.030500 462.000000
133.039200 8700.000000
134.046500 8979.000000
134.078900 287.000000
158.046200 403.000000
169.051300 360.000000
170.046800 1067.000000
173.033500 279.000000
186.077200 787.000000
196.062000 4710.000000
214.073100 44437.000000

>ms2peaks
106.027900 2060.000000
107.036800 2745.000000
117.020400 2512.000000
118.028200 611.000000
119.035900 412.000000
132.030800 6772.000000
133.038900 78551.000000
133.072500 1782.000000
133.087200 932.000000
133.118100 684.000000
133.146100 1568.000000
134.046800 53044.000000
134.079600 1410.000000
134.101000 977.000000
134.154200 896.000000
142.040500 1811.000000
144.031800 504.000000
146.046700 956.000000
158.047000 1468.000000
160.023200 663.000000
160.061800 1020.000000
169.051000 3570.000000
170.045900 4731.000000
172.061500 596.000000
173.034800 644.000000
186.077000 3618.000000
196.062200 11502.000000
196.104900 400.000000
199.050700 416.000000
214.072200 10386.000000

>ms2peaks
105.019800 848.000000
106.028400 5376.000000
106.060700 186.000000
107.035900 5687.000000
107.065500 166.000000
117.020000 5011.000000
117.050700 233.000000
118.027000 267.000000
119.034700 322.000000
132.031400 19184.000000
132.064800 500.000000
132.082000 235.000000
132.105600 146.000000
132.137600 307.000000
133.038900 11855.000000
133.071600 131.000000
133.119600 114.000000
133.146000 185.000000
134.047000 4988.000000
134.078200 214.000000
142.039800 305.000000
143.037200 244.000000
144.031000 736.000000
146.048500 255.000000
158.052700 154.000000
170.046600 287.000000
184.063400 314.000000

