>compound BML5359677
>parentmass 299.0925
>ionization [M-H]-
>formula C17H16O5
>rt 450.900000
>profile qtof
#smiles_iso COC1=CC2=C(C(=O)CC(O2)C3=CC=C(C=C3)O)C(=C1)OC
#smiles_can COC1=CC2=C(C(=O)CC(O2)C3=CC=C(C=C3)O)C(=C1)OC
#inchikey REBBZOCNEVVAPX-UHFFFAOYSA-N
#pubchem_id 5271551
#mb_accession BML01836,BML01846,BML01856

>ms2peaks
104.025900 22.000000
117.034300 33.000000
119.049400 22786.000000
119.082300 682.000000
119.127900 156.000000
119.151000 319.000000
119.190000 53.000000
119.204200 44.000000
119.217600 37.000000
119.250100 59.000000
119.275200 28.000000
119.281800 40.000000
119.296500 21.000000
119.304800 32.000000
119.315200 74.000000
119.331700 36.000000
119.339900 37.000000
119.364700 86.000000
119.384100 35.000000
119.405600 41.000000
119.424100 33.000000
119.444400 33.000000
119.456700 41.000000
119.469200 20.000000
119.478600 24.000000
119.514500 33.000000
119.533400 33.000000
119.561700 22.000000
119.576000 51.000000
119.602100 28.000000
119.638400 44.000000
119.694300 24.000000
119.772500 23.000000
119.794100 25.000000
119.836800 47.000000
119.861600 40.000000
119.909200 25.000000
119.920600 35.000000
119.956600 44.000000
120.037700 29.000000
120.054500 45.000000
120.074100 32.000000
120.320100 26.000000
121.024500 34.000000
145.027000 172.000000
153.058600 27.000000
160.902400 39.000000
183.420400 31.000000
216.681000 56.000000
217.001000 835.000000
217.031600 61.000000
217.081500 28.000000
218.887200 21.000000
248.762100 25.000000
250.170200 55.000000
255.098900 42.000000
267.067600 79.000000
273.800800 38.000000
284.067700 109.000000
297.386800 26.000000
297.723900 21.000000
298.257200 25.000000
298.474200 31.000000
298.997700 28.000000
299.091900 29485.000000

>ms2peaks
119.050200 37865.000000
119.083000 1031.000000
119.099500 370.000000
119.124400 133.000000
119.151400 586.000000
119.177600 61.000000
119.201500 148.000000
119.219300 56.000000
119.240800 126.000000
119.253500 43.000000
119.281300 169.000000
119.306600 72.000000
119.332400 120.000000
119.368900 38.000000
119.381100 44.000000
119.407600 35.000000
119.431300 105.000000
119.462200 42.000000
119.483400 47.000000
119.499600 28.000000
119.512000 44.000000
119.531400 51.000000
119.557600 86.000000
119.581100 101.000000
119.602200 64.000000
119.622400 47.000000
119.640700 68.000000
119.665700 28.000000
119.679300 53.000000
119.698100 65.000000
119.722000 36.000000
119.740200 28.000000
119.763200 39.000000
119.823700 44.000000
119.845200 28.000000
119.878300 59.000000
119.899400 65.000000
119.914200 21.000000
119.932100 20.000000
119.995500 24.000000
120.013600 34.000000
120.060300 49.000000
120.087400 31.000000
120.247000 20.000000
120.263300 37.000000
120.591200 24.000000
120.663000 28.000000
120.714200 25.000000
121.037500 33.000000
122.119200 23.000000
132.528800 41.000000
145.029600 211.000000
152.019500 20.000000
156.978200 58.000000
165.017500 76.000000
173.018400 89.000000
176.799500 22.000000
178.029500 89.000000
191.034400 31.000000
216.994500 97.000000
217.009500 141.000000
224.053200 43.000000
225.056200 72.000000
241.041900 31.000000
258.004700 53.000000
258.487200 31.000000
264.031700 28.000000
267.074300 44.000000
281.069500 33.000000
283.058700 31.000000
284.066600 124.000000
299.091900 891.000000

>ms2peaks
104.024700 52.000000
104.536100 22.000000
108.023500 26.000000
117.035000 324.000000
117.055100 27.000000
118.854600 33.000000
118.948400 27.000000
119.049700 46172.000000
119.081100 1320.000000
119.098300 842.000000
119.123600 409.000000
119.150800 800.000000
119.179100 169.000000
119.231800 153.000000
119.256100 82.000000
119.278300 139.000000
119.305200 101.000000
119.334800 78.000000
119.350400 68.000000
119.380500 80.000000
119.388400 55.000000
119.415800 66.000000
119.437200 28.000000
119.457200 69.000000
119.487100 108.000000
119.509900 48.000000
119.546900 56.000000
119.562500 100.000000
119.581100 26.000000
119.595100 59.000000
119.618400 32.000000
119.630800 21.000000
119.638300 48.000000
119.654500 24.000000
119.673800 46.000000
119.685800 25.000000
119.700700 32.000000
119.707300 38.000000
119.723600 31.000000
119.740500 32.000000
119.788700 30.000000
119.815600 33.000000
119.822000 28.000000
119.866900 51.000000
119.891400 25.000000
119.929500 34.000000
119.950200 26.000000
119.967400 31.000000
120.022800 26.000000
120.039800 25.000000
120.046900 39.000000
120.056200 75.000000
120.084000 31.000000
120.132100 30.000000
120.144200 26.000000
120.168200 26.000000
120.215100 31.000000
120.227900 23.000000
120.280300 25.000000
120.298600 30.000000
120.509600 24.000000
120.567600 24.000000
120.614200 23.000000
120.888200 20.000000
121.028200 182.000000
121.881000 32.000000
138.030000 44.000000
141.961900 34.000000
145.031800 34.000000
147.041300 29.000000
149.022900 260.000000
149.041600 30.000000
165.021600 92.000000
173.780500 33.000000
176.013600 30.000000
223.040900 25.000000
225.046600 24.000000
228.204800 30.000000
241.046300 36.000000
268.036900 98.000000
269.046700 56.000000
284.063100 23.000000
297.647700 22.000000

