>compound BML5864744
>parentmass 455.353
>ionization [M-H]-
>formula C30H48O3
>rt 722.340000
>profile qtof
#smiles_iso CC1(CCC2(CCC3(C(=CCC4C3(CCC5C4(CCC(C5(C)C)O)C)C)C2C1)C)C(=O)O)C
#smiles_can CC1(CCC2(CCC3(C(=CCC4C3(CCC5C4(CCC(C5(C)C)O)C)C)C2C1)C)C(=O)O)C
#inchikey MIJYXULNPSFWEK-UHFFFAOYSA-N
#pubchem_id 619166
#mb_accession BML00591,BML00596,BML00601

>ms2
164.609500 21.000000
167.217000 24.000000
192.255900 36.000000
282.696900 32.000000
319.377500 24.000000
356.272900 24.000000
372.047300 21.000000
373.315200 21.000000
388.751300 24.000000
405.517900 28.000000
421.575900 46.000000
455.350400 3558.000000

>ms2
133.467100 20.000000
133.490100 23.000000
140.788200 44.000000
161.093700 20.000000
162.963600 25.000000
196.592000 22.000000
263.692400 23.000000
270.376700 30.000000
291.026200 36.000000
455.350700 4066.000000

>ms2
103.413300 27.000000
111.127500 44.000000
130.923000 29.000000
182.704600 22.000000
207.654900 20.000000
230.683700 23.000000
240.905900 27.000000
252.233200 26.000000
306.981400 32.000000
313.150400 24.000000
317.942100 53.000000
407.331600 89.000000
410.180500 26.000000
429.695800 20.000000
455.350400 2417.000000

