>compound BML5095241
>parentmass 304.1918
>ionization [M-H]-
>formula C18H27NO3
>rt 534.420000
>profile qtof
#smiles_iso CC(C)/C=C/CCCCC(=O)NCC1=CC(=C(C=C1)O)OC
#smiles_can CC(C)C=CCCCCC(=O)NCC1=CC(=C(C=C1)O)OC
#inchikey YKPUWZUDDOIDPM-SOFGYWHQSA-N
#pubchem_id 1548943
#mb_accession BML00629,BML00633

>ms2
168.138700 24842.000000
168.176700 882.000000
168.230100 182.000000
168.258500 363.000000
304.190600 2143.000000

>ms2
168.138100 4974.000000
168.168800 31.000000
168.182900 113.000000
168.200200 31.000000
168.259300 51.000000
168.434900 33.000000

