>compound BML6944961
>parentmass 255.0986
>ionization [M-H]-
>formula C11H16N2O5
>rt 146.820000
>profile qtof
#smiles_iso CCC1=CN(C(=O)NC1=O)C2CC(C(O2)CO)O
#smiles_can CCC1=CN(C(=O)NC1=O)C2CC(C(O2)CO)O
#inchikey XACKNLSZYYIACO-UHFFFAOYSA-N
#pubchem_id 1814
#mb_accession BML01238,BML01244

>ms2peaks
126.517600 53.000000
130.001100 29.000000
130.390500 25.000000
132.034000 44.000000
138.555900 29.000000
139.045600 38.000000
139.053900 176.000000
140.073300 22.000000
150.094900 23.000000
164.071100 22.000000
165.065300 272.000000
165.103100 22.000000
182.082800 37.000000
203.997300 30.000000
212.094200 58.000000
254.524300 20.000000
255.096800 3991.000000

>ms2peaks
171.371400 25.000000
196.744300 21.000000
255.229000 217.000000

