>compound BML6370764
>parentmass 381.182
>ionization [M-H]-
>formula C22H26N2O4
>rt 336.360000
>profile qtof
#smiles_iso CC1C2CN3CCC4=C(C3CC2C(=CO1)C(=O)OC)NC5=C4C=CC(=C5)OC
#smiles_can CC1C2CN3CCC4=C(C3CC2C(=CO1)C(=O)OC)NC5=C4C=CC(=C5)OC
#inchikey KXEMQEGRZWUKJS-UHFFFAOYSA-N
#pubchem_id 95501
#mb_accession BML01407,BML01413,BML01419

>ms2peaks
131.361200 36.000000
170.057100 34.000000
183.058600 20.000000
184.055600 23.000000
217.002300 464.000000
217.024200 37.000000
217.046500 35.000000
298.998500 119.000000
299.024900 33.000000
321.155900 55.000000
330.523700 30.000000
366.156800 618.000000
366.222600 31.000000
381.181300 5349.000000

>ms2peaks
101.027800 40.000000
112.014600 23.000000
115.948600 33.000000
127.038700 105.000000
183.055800 20.000000
210.870300 30.000000
213.096600 27.000000
217.001000 421.000000
241.130600 33.000000
306.149400 57.000000
321.156400 77.000000
321.175500 21.000000
332.087500 26.000000
332.116200 25.000000
334.128300 23.000000
349.154100 86.000000
366.158000 2545.000000
366.210100 92.000000
366.243300 48.000000
366.275100 35.000000
366.314500 49.000000
366.394200 35.000000
366.530100 20.000000
366.626900 25.000000
366.685700 29.000000
366.822600 28.000000
381.180400 2380.000000

>ms2peaks
101.024500 72.000000
105.164400 25.000000
120.042400 27.000000
127.038500 1444.000000
127.072600 50.000000
128.041300 21.000000
129.491900 36.000000
133.698600 21.000000
144.037600 22.000000
156.980800 31.000000
158.054100 24.000000
161.746000 23.000000
170.059600 440.000000
171.070000 42.000000
172.076700 29.000000
173.011100 75.000000
182.048400 44.000000
183.064000 86.000000
184.063800 174.000000
185.076000 44.000000
189.771200 22.000000
196.067900 25.000000
196.084200 25.000000
198.066600 41.000000
198.095800 25.000000
209.082300 25.000000
210.050500 22.000000
217.002900 49.000000
224.082300 27.000000
234.073200 53.000000
250.049200 25.000000
265.065300 25.000000
266.074600 24.000000
278.109600 30.000000
278.138800 34.000000
280.518200 23.000000
289.098400 25.000000
292.105300 29.000000
294.106600 32.000000
305.131400 20.000000
306.129400 128.000000
306.155300 59.000000
307.142100 26.000000
319.118600 43.000000
322.141400 24.000000
336.149400 21.000000
338.170400 25.000000
354.889000 23.000000
365.145600 35.000000
366.158500 696.000000

