>compound BML6238606
>parentmass 338.1874
>ionization [M-H]-
>formula C20H25N3O2
>rt 198.840000
>profile qtof
#smiles_iso CCC(CO)NC(=O)C1CN(C2CC3=CNC4=CC=CC(=C34)C2=C1)C
#smiles_can CCC(CO)NC(=O)C1CN(C2CC3=CNC4=CC=CC(=C34)C2=C1)C
#inchikey UNBRKDKAWYKMIV-UHFFFAOYSA-N
#pubchem_id 4140
#mb_accession BML00938,BML00944,BML00950

>ms2
129.487000 41.000000
135.374800 20.000000
154.053500 22.000000
180.080800 61.000000
182.084600 24.000000
194.099300 25.000000
195.091800 95.000000
200.767300 35.000000
223.123400 361.000000
237.119100 37.000000
249.102500 199.000000
251.116900 31.000000
275.855400 45.000000
301.115100 20.000000
335.125800 20.000000
337.235000 31.000000
337.254400 31.000000
338.186700 5261.000000

>ms2
114.054000 25.000000
140.074300 28.000000
142.089400 46.000000
154.085200 49.000000
156.099700 78.000000
156.109800 28.000000
175.289500 27.000000
179.080200 21.000000
180.075700 145.000000
181.076700 127.000000
193.078600 54.000000
193.087700 21.000000
195.091700 233.000000
208.104700 36.000000
219.092900 32.000000
221.109400 45.000000
223.122900 807.000000
223.133600 22.000000
223.171100 27.000000
234.078100 41.000000
235.092000 22.000000
249.104200 476.000000
256.231500 39.000000
295.145300 24.000000
297.406800 31.000000
336.171200 33.000000
338.188000 1153.000000

>ms2
116.046300 27.000000
129.061000 52.000000
130.068900 61.000000
140.072700 21.000000
151.055700 26.000000
154.060000 50.000000
166.065700 34.000000
167.060400 35.000000
171.169100 23.000000
174.080000 21.000000
178.046900 27.000000
179.071800 151.000000
180.073200 588.000000
180.096100 27.000000
181.080600 123.000000
192.078900 25.000000
193.076400 51.000000
194.084400 89.000000
195.092800 127.000000
196.114800 26.000000
205.080400 40.000000
206.087500 22.000000
207.088400 280.000000
207.105500 48.000000
208.091000 44.000000
208.100600 63.000000
211.448800 21.000000
219.092900 42.000000
221.111900 78.000000
223.123500 174.000000
247.075000 41.000000
249.105400 64.000000
249.118600 23.000000
258.665000 57.000000
264.577500 23.000000
274.251500 22.000000
278.223800 24.000000

