>compound BML6893519
>parentmass 271.0612
>ionization [M-H]-
>formula C15H12O5
>rt 398.820000
>profile qtof
#smiles_iso C1C(OC2=CC(=CC(=C2C1=O)O)O)C3=CC=C(C=C3)O
#smiles_can C1C(OC2=CC(=CC(=C2C1=O)O)O)C3=CC=C(C=C3)O
#inchikey FTVWIRXFELQLPI-UHFFFAOYSA-N
#pubchem_id 932
#mb_accession BML00676,BML00684,BML00692

>ms2peaks
107.013000 738.000000
119.049900 2568.000000
151.003200 12375.000000
151.036900 339.000000
165.019200 319.000000
177.018500 1936.000000
271.060700 49318.000000

>ms2peaks
107.014000 6475.000000
107.050300 150.000000
108.990600 155.000000
119.049600 16329.000000
119.083000 498.000000
119.151300 235.000000
121.030200 158.000000
125.022300 469.000000
143.048900 154.000000
145.029400 417.000000
151.003100 25783.000000
151.039500 783.000000
151.055100 150.000000
151.082800 235.000000
151.117800 406.000000
161.061400 213.000000
165.018700 1051.000000
177.017900 3374.000000
185.059100 259.000000
187.039300 345.000000
227.069300 489.000000
229.048600 166.000000
253.053000 236.000000
271.059400 6771.000000

>ms2peaks
107.012800 1813.000000
108.022000 177.000000
109.028500 218.000000
117.034400 428.000000
119.049600 14773.000000
119.079800 437.000000
119.101900 226.000000
119.123700 108.000000
119.151200 219.000000
119.186100 75.000000
121.032300 93.000000
143.049200 435.000000
145.026400 271.000000
151.002600 666.000000
157.061400 120.000000
161.060300 183.000000
177.017500 168.000000
185.058300 79.000000
187.043000 389.000000
201.057300 89.000000

