>compound BML6134454
>parentmass 299.0561
>ionization [M-H]-
>formula C16H12O6
>rt 483.480000
>profile qtof
#smiles_iso COC1=C(C=CC(=C1)C2=CC(=O)C3=C(C=C(C=C3O2)O)O)O
#smiles_can COC1=C(C=CC(=C1)C2=CC(=O)C3=C(C=C(C=C3O2)O)O)O
#inchikey SCZVLDHREVKTSH-UHFFFAOYSA-N
#pubchem_id 5280666
#mb_accession BML01620,BML01628,BML01636

>ms2
101.188900 25.000000
102.256300 26.000000
124.047500 50.000000
137.477000 29.000000
147.865800 26.000000
156.986700 22.000000
192.590600 22.000000
192.625500 26.000000
210.784200 72.000000
217.001100 450.000000
217.055000 20.000000
256.037500 139.000000
256.053500 39.000000
269.047200 23.000000
284.030600 1611.000000
284.083200 69.000000
284.121300 23.000000
284.167400 24.000000
284.714900 37.000000
284.980800 23.000000
288.481000 21.000000
298.534400 27.000000
298.997100 31.000000
299.054700 8491.000000

>ms2
101.059100 42.000000
134.031800 21.000000
138.993200 29.000000
145.032500 26.000000
156.984200 30.000000
159.003900 46.000000
173.012500 149.000000
181.211000 23.000000
212.036900 39.000000
215.264100 54.000000
217.001600 239.000000
227.036300 91.000000
230.027500 26.000000
242.253400 21.000000
255.026300 70.000000
255.649700 22.000000
256.037000 709.000000
256.083400 41.000000
256.120600 30.000000
257.046800 24.000000
268.220100 31.000000
283.022800 30.000000
283.976200 22.000000
284.032500 8202.000000
284.085200 335.000000
284.122800 74.000000
284.181200 105.000000
284.210300 39.000000
284.233300 52.000000
284.258900 58.000000
284.302800 23.000000
284.339400 43.000000
284.391900 27.000000
284.424200 61.000000
284.451200 34.000000
284.478300 25.000000
284.538400 45.000000
284.603600 23.000000
284.673400 42.000000
284.710200 50.000000
284.815700 47.000000
284.963900 33.000000
285.032100 52.000000
285.077500 31.000000
298.792900 22.000000
299.053600 2075.000000

>ms2
104.030900 37.000000
107.012500 266.000000
108.020200 24.000000
108.026100 30.000000
122.002900 51.000000
124.013900 63.000000
125.027200 26.000000
132.031600 40.000000
132.825900 33.000000
133.025300 155.000000
134.036100 72.000000
135.007200 33.000000
145.022800 21.000000
148.007500 41.000000
148.023500 34.000000
149.992100 49.000000
150.205500 20.000000
151.003500 292.000000
152.006300 64.000000
154.035000 33.000000
155.055400 35.000000
156.058700 46.000000
158.036100 117.000000
159.745800 35.000000
160.058200 24.000000
172.011000 35.000000
172.060200 35.000000
174.041500 27.000000
183.040000 160.000000
184.054000 42.000000
186.022900 38.000000
186.346000 26.000000
187.037800 109.000000
188.044000 43.000000
192.778100 27.000000
199.038800 117.000000
200.041600 140.000000
211.042400 210.000000
212.045600 40.000000
213.012100 41.000000
227.032200 398.000000
227.063000 60.000000
228.047200 40.000000
228.580600 23.000000
239.035700 54.000000
243.036600 25.000000
243.483800 28.000000
255.027400 251.000000
255.045600 36.000000
256.038500 860.000000
256.081600 34.000000
256.111200 33.000000
283.022300 91.000000
284.032200 654.000000
284.070500 28.000000
284.090800 39.000000
284.122000 22.000000

