>compound BML6512063
>parentmass 529.1351
>ionization [M-H]-
>formula C26H26O12
>rt 508.920000
>profile qtof
#smiles_iso C/C=C/C(=O)OCC1C(C(C(C(O1)OC2=CC(=C3C(=C2)OC(=CC3=O)C4=CC(=C(C=C4)O)OC)O)O)O)O
#smiles_can CC=CC(=O)OCC1C(C(C(C(O1)OC2=CC(=C3C(=C2)OC(=CC3=O)C4=CC(=C(C=C4)O)OC)O)O)O)O
#inchikey OAZSPRBLFZZMMR-ONEGZZNKSA-N
#pubchem_id 24208689
#mb_accession BML01621,BML01629,BML01637

>ms2peaks
188.665300 23.000000
283.029500 86.000000
284.030700 27.000000
299.052400 805.000000
299.069200 41.000000
299.110500 40.000000
299.545300 21.000000
313.979100 21.000000
364.977700 37.000000
365.041900 26.000000
491.806600 31.000000
514.107000 97.000000
528.985300 31.000000
529.133200 5014.000000

>ms2peaks
255.028800 47.000000
283.023400 144.000000
284.038000 84.000000
285.039900 50.000000
298.050000 76.000000
299.054600 2618.000000
299.088700 30.000000
299.108900 94.000000
299.145000 24.000000
299.210800 33.000000
299.271500 35.000000
299.377500 24.000000
299.834700 26.000000
313.039100 61.000000
341.065200 79.000000
365.072000 20.000000
365.265300 25.000000
429.084800 24.000000
443.095000 26.000000
461.112200 26.000000
514.110400 288.000000
514.145400 56.000000
529.133500 2590.000000

>ms2peaks
116.958200 22.000000
149.991600 26.000000
241.005500 21.000000
255.030300 748.000000
255.073700 22.000000
255.085600 21.000000
256.032700 33.000000
266.002300 21.000000
268.033800 35.000000
269.045500 103.000000
283.023000 1350.000000
283.063800 119.000000
283.094600 54.000000
283.131100 24.000000
283.178500 21.000000
283.257700 33.000000
284.030900 1205.000000
284.065000 31.000000
284.083200 25.000000
284.678200 22.000000
284.739000 24.000000
285.039400 246.000000
285.092800 25.000000
297.041300 340.000000
297.057400 35.000000
298.050200 277.000000
299.055100 1572.000000
299.110200 68.000000
299.133300 29.000000
299.212500 35.000000
311.051100 39.000000
313.031000 320.000000
327.051500 34.000000
340.060000 23.000000
385.060100 21.000000
428.074200 49.000000
429.081500 113.000000
445.078800 20.000000
446.094800 25.000000
495.088500 21.000000
497.086200 35.000000
514.105900 208.000000
514.123300 47.000000
514.149000 38.000000

