>compound BML6969831
>parentmass 225.0768
>ionization [M-H]-
>formula C11H14O5
>rt 258.960000
>profile qtof
#smiles_iso COC(=O)C1=COC(C2C1CC=C2CO)O
#smiles_can COC(=O)C1=COC(C2C1CC=C2CO)O
#inchikey AZKVWQKMDGGDSV-UHFFFAOYSA-N
#pubchem_id 23340
#mb_accession BML01731,BML01738

>ms2
101.024100 3124.000000
101.055200 87.000000
101.093800 32.000000
101.119000 39.000000
105.032800 186.000000
111.043300 71.000000
117.319300 22.000000
118.045200 20.000000
119.166800 22.000000
123.044100 1276.000000
123.073700 21.000000
123.099100 22.000000
127.040900 63.000000
131.047200 32.000000
147.045500 393.000000
148.574500 22.000000
165.057900 26.000000
175.039700 110.000000
177.063700 20.000000
207.065700 516.000000
207.100700 63.000000
225.073600 116.000000

>ms2
101.023600 1723.000000
101.051200 45.000000
101.072000 23.000000
101.116600 23.000000
103.053800 37.000000
105.034400 348.000000
109.030300 106.000000
111.046400 51.000000
117.035100 60.000000
119.049100 107.000000
121.030600 54.000000
123.044200 344.000000
127.041600 37.000000
129.032200 39.000000
147.044600 821.000000
147.080500 43.000000
148.056700 28.000000
175.041200 80.000000
207.059200 36.000000
207.069800 39.000000

