>compound BML6617401
>parentmass 715.1874000000001
>ionization [M+CH3COOH-H]-
>formula C32H32O15
>rt 593.820000
>profile qtof
#smiles_iso CC(=O)OCC1C(C(C(C(O1)OC2=C(C3=C(C=C2)OC=C(C3=O)C4=CC=C(C=C4)OC)OC(=O)C)OC(=O)C)OC(=O)C)OC(=O)C
#smiles_can CC(=O)OCC1C(C(C(C(O1)OC2=C(C3=C(C=C2)OC=C(C3=O)C4=CC=C(C=C4)OC)OC(=O)C)OC(=O)C)OC(=O)C)OC(=O)C
#inchikey RFTHIXXAUSTEOS-UHFFFAOYSA-N
#pubchem_id 5125341
#mb_accession BML00208,BML00221,BML00234

>ms2peaks
141.018000 83.000000
154.815800 35.000000
169.654000 34.000000
170.166800 48.000000
173.707600 41.000000
176.693000 51.000000
217.735800 58.000000
232.940100 26.000000
283.053900 42.000000
305.026500 173.000000
321.499200 34.000000
339.442100 21.000000
387.019600 438.000000
387.070700 53.000000
469.026100 322.000000
477.684100 34.000000
498.309900 28.000000
547.897000 26.000000
551.028800 640.000000
551.130800 23.000000
554.872200 26.000000
603.158700 22.000000
613.154400 253.000000
613.248100 47.000000
626.796800 42.000000
633.030400 175.000000
633.092400 49.000000
715.030400 213.000000

>ms2peaks
121.318400 43.000000
140.536100 23.000000
141.017200 436.000000
141.080000 20.000000
141.991000 25.000000
188.249400 25.000000
195.684200 23.000000
202.938800 22.000000
212.947400 20.000000
223.021400 346.000000
226.428900 20.000000
283.061100 61.000000
305.020400 587.000000
305.079800 25.000000
387.024600 716.000000
387.066600 51.000000
387.775900 21.000000
387.919700 25.000000
395.844900 22.000000
395.895700 21.000000
406.002300 39.000000
469.012100 119.000000
469.040300 135.000000
477.765000 25.000000
537.216600 41.000000
551.033900 32.000000
561.398600 22.000000
571.132200 29.000000
589.173600 31.000000
590.651700 26.000000
613.156400 52.000000
641.261600 28.000000
657.764900 25.000000

>ms2peaks
114.864100 31.000000
141.016300 1637.000000
141.048500 38.000000
141.056300 20.000000
141.073000 35.000000
173.014800 58.000000
217.011400 28.000000
223.021000 162.000000
239.447700 27.000000
256.433900 21.000000
283.057000 102.000000
305.012400 55.000000
339.067100 23.000000
488.365100 20.000000

