>compound BML6588833
>parentmass 214.0873
>ionization [M-H]-
>formula C13H13NO2
>rt 206.580000
>profile qtof
#smiles_iso C1=CC=C2C=C(C=CC2=C1)CC(C(=O)O)N
#smiles_can C1=CC=C2C=C(C=CC2=C1)CC(C(=O)O)N
#inchikey JPZXHKDZASGCLU-UHFFFAOYSA-N
#pubchem_id 250399
#mb_accession BML01675,BML01685

>ms2
117.523000 23.000000
133.946600 36.000000
141.069300 193.000000
141.104700 21.000000
153.070900 899.000000
168.079300 64.000000
170.097400 587.000000
170.120300 32.000000
176.910200 37.000000
197.061000 1776.000000
197.101400 46.000000
197.126000 31.000000
197.189200 22.000000
197.455900 28.000000
204.149500 40.000000
205.446500 79.000000
214.085900 1810.000000

>ms2
120.770500 69.000000
123.039200 29.000000
124.068400 20.000000
127.052800 96.000000
141.071000 399.000000
153.070500 1291.000000
153.108000 40.000000
153.675900 37.000000
168.079000 187.000000
170.667500 20.000000
197.060100 459.000000
197.104600 21.000000
212.770300 22.000000

