>compound BML6232858
>parentmass 275.0925
>ionization [M-H]-
>formula C15H16O5
>rt 465.180000
>profile qtof
#smiles_iso CC(=CCOC1=C(C=C2C=CC(=O)OC2=C1O)OC)C
#smiles_can CC(=CCOC1=C(C=C2C=CC(=O)OC2=C1O)OC)C
#inchikey QJZRVRVZRIXGMR-UHFFFAOYSA-N
#pubchem_id 644959
#mb_accession BML00203,BML00216,BML00229

>ms2peaks
107.020800 62.000000
135.004800 61.000000
163.000800 112.000000
190.998200 1017.000000
191.030700 73.000000
191.746400 26.000000
205.975700 27.000000
206.021400 5097.000000
206.061300 148.000000
206.082400 99.000000
206.097400 45.000000
206.129800 32.000000
206.154100 64.000000
206.186400 35.000000
206.393600 34.000000
206.465000 30.000000
206.583100 30.000000
207.021600 44.000000
215.442900 54.000000

>ms2peaks
104.881000 32.000000
107.016900 89.000000
111.297200 28.000000
119.014300 42.000000
130.922800 39.000000
135.008500 266.000000
147.013500 65.000000
150.031900 58.000000
163.001300 584.000000
175.004500 33.000000
178.029500 47.000000
190.997800 4675.000000
191.036100 154.000000
191.059700 83.000000
191.072800 30.000000
191.127300 68.000000
191.186200 29.000000
191.289500 34.000000
191.323500 27.000000
191.442300 29.000000
191.490400 38.000000
191.759700 26.000000
192.010600 46.000000
192.096500 35.000000
193.095900 26.000000
200.478200 48.000000
205.012100 37.000000
206.021900 1964.000000
206.066300 70.000000
206.086200 63.000000
206.708800 30.000000
232.317100 35.000000
233.921600 25.000000

>ms2peaks
105.030400 91.000000
107.014300 1204.000000
107.044100 59.000000
107.062100 47.000000
107.097000 29.000000
107.326000 20.000000
107.729300 31.000000
110.940200 73.000000
112.444200 65.000000
113.848200 20.000000
117.129300 220.000000
119.012200 217.000000
119.047500 23.000000
135.008400 1072.000000
135.032800 47.000000
135.045600 49.000000
135.103400 21.000000
135.739300 27.000000
135.976400 32.000000
137.460500 111.000000
144.491900 23.000000
147.012300 53.000000
148.916800 37.000000
154.001400 20.000000
158.872500 30.000000
159.002800 46.000000
163.001700 1423.000000
163.044800 56.000000
163.088900 24.000000
163.122600 29.000000
163.627400 20.000000
164.310300 25.000000
177.014700 48.000000
187.856000 27.000000
188.709900 50.000000
190.996900 385.000000
191.031300 22.000000
194.179900 21.000000
210.108100 29.000000
210.616200 21.000000
214.510100 38.000000
230.036500 26.000000
252.871900 23.000000

