>compound BML6822394
>parentmass 209.1183
>ionization [M-H]-
>formula C12H18O3
>rt 402.360000
>profile qtof
#smiles_iso CCC=CCC1C(CCC1=O)CC(=O)O
#smiles_can CCC=CCC1C(CCC1=O)CC(=O)O
#inchikey ZNJFBWYDHIGLCU-UHFFFAOYSA-N
#pubchem_id 557758
#mb_accession BML00677

>ms2
109.065400 59.000000
123.121000 41.000000
126.974900 27.000000
149.098700 31.000000
152.663700 39.000000
165.129100 370.000000
209.072700 67.000000
209.117500 4340.000000

