>compound BML6020595
>parentmass 195.0523
>ionization [M-H]-
>formula C7H8N4O3
>rt 108.420000
>profile qtof
#smiles_iso CN1C2=C(C(=O)N(C(=O)N2)C)NC1=O
#smiles_can CN1C2=C(C(=O)N(C(=O)N2)C)NC1=O
#inchikey UARKDOLETOEBCU-UHFFFAOYSA-N
#pubchem_id 108712
#mb_accession BML01730,BML01737

>ms2peaks
114.886100 26.000000
129.463300 76.000000
136.037900 26.000000
137.024200 374.000000
138.028800 107.000000
151.068000 28.000000
152.044700 55.000000
192.795700 21.000000
195.051700 5054.000000

>ms2peaks
105.133800 20.000000
115.968200 31.000000
121.017400 51.000000
123.008500 98.000000
136.036200 93.000000
137.023600 984.000000
137.064600 35.000000
138.030900 77.000000
151.069500 35.000000
152.047900 59.000000
161.751600 33.000000
195.052300 889.000000

