>compound BML6895951
>parentmass 193.0354
>ionization [M-H]-
>formula C6H10O7
>rt 22.920000
>profile qtof
#smiles_iso C1(C(C(OC(C1O)O)C(=O)O)O)O
#smiles_can C1(C(C(OC(C1O)O)C(=O)O)O)O
#inchikey AEMOLEFTQBMNLQ-UHFFFAOYSA-N
#pubchem_id 610
#mb_accession BML00983,BML00991

>ms2
101.025100 763.000000
101.048900 30.000000
103.003100 760.000000
103.040300 62.000000
113.024000 2751.000000
113.050200 20.000000
113.057200 64.000000
113.071600 36.000000
113.087700 21.000000
113.107900 22.000000
113.123500 43.000000
119.034500 23.000000
129.020600 29.000000
130.720400 41.000000
131.034500 761.000000
131.073000 20.000000
131.108700 20.000000
133.015200 147.000000
135.755500 43.000000
157.014400 211.000000
163.025300 145.000000
175.025700 108.000000
193.035400 930.000000

>ms2
101.023400 291.000000
102.018400 22.000000
103.004700 99.000000
113.023900 882.000000
113.057700 32.000000
131.179600 59.000000
157.777000 30.000000

