>compound BML6238906
>parentmass 345.0616
>ionization [M-H]-
>formula C17H14O8
>rt 474.300000
>profile qtof
#smiles_iso COC1=C(C=CC(=C1)C2=C(C(=O)C3=C(O2)C(=C(C=C3O)O)OC)O)O
#smiles_can COC1=C(C=CC(=C1)C2=C(C(=O)C3=C(O2)C(=C(C=C3O)O)OC)O)O
#inchikey IBXCKSUZOFKGSB-UHFFFAOYSA-N
#pubchem_id 5489485
#mb_accession BML01619,BML01627,BML01635

>ms2peaks
104.520600 67.000000
109.027200 38.000000
144.099900 35.000000
149.020300 48.000000
151.580300 47.000000
167.035200 28.000000
175.001900 22.000000
195.908900 23.000000
205.995900 21.000000
213.564100 34.000000
217.020700 45.000000
239.918100 24.000000
243.024700 27.000000
285.026500 30.000000
285.044000 32.000000
286.020700 21.000000
315.009000 105.000000
329.021900 90.000000
330.037000 2064.000000
330.088300 132.000000
330.110400 97.000000
330.198300 23.000000
330.475700 45.000000
330.973000 20.000000
344.051500 70.000000
345.060500 4789.000000

>ms2peaks
110.000100 37.000000
124.990800 26.000000
131.536900 28.000000
139.003900 22.000000
148.117200 21.000000
149.015000 21.000000
149.031300 22.000000
164.985300 36.000000
165.988700 48.000000
171.049600 38.000000
175.000100 53.000000
177.992300 57.000000
178.990100 22.000000
187.036500 136.000000
192.001200 21.000000
193.989800 21.000000
200.459700 26.000000
203.023100 21.000000
204.034000 24.000000
204.049000 34.000000
218.049400 46.000000
228.020500 30.000000
232.041800 29.000000
232.057900 25.000000
257.042900 20.000000
270.024300 40.000000
271.028100 55.000000
273.039800 67.000000
276.931600 28.000000
285.026900 36.000000
285.042100 27.000000
286.016200 30.000000
286.052700 67.000000
287.015400 78.000000
301.033700 39.000000
314.834500 49.000000
315.014200 728.000000
315.066600 32.000000
315.919900 21.000000
329.021700 34.000000
329.955800 36.000000
329.977300 37.000000
330.037500 4883.000000
330.090800 291.000000
330.129700 56.000000
330.167300 60.000000
330.210200 44.000000
330.262400 22.000000
330.401500 23.000000
330.435700 49.000000
330.464500 33.000000
330.514300 27.000000
330.537400 22.000000
330.568800 43.000000
330.663600 63.000000
330.719800 32.000000
331.108300 30.000000
331.219300 26.000000
345.063000 501.000000

>ms2peaks
106.007800 33.000000
108.692400 21.000000
109.032300 32.000000
110.001300 384.000000
111.009300 55.000000
115.054200 90.000000
115.586200 38.000000
120.999200 57.000000
121.027200 237.000000
122.007700 53.000000
123.010400 33.000000
123.029600 24.000000
133.996100 26.000000
135.010500 22.000000
135.052900 30.000000
136.984100 77.000000
136.993400 50.000000
138.002000 32.000000
139.006300 127.000000
144.028300 22.000000
145.017800 21.000000
145.027300 71.000000
146.583300 22.000000
147.012200 68.000000
147.043900 42.000000
149.025800 286.000000
149.994700 76.000000
150.999100 58.000000
159.043200 142.000000
161.023100 50.000000
164.985700 282.000000
165.993600 186.000000
171.044500 125.000000
172.011500 69.000000
173.018300 130.000000
174.037400 28.000000
175.035100 42.000000
177.989700 37.000000
178.995200 44.000000
179.015200 22.000000
185.029700 26.000000
187.036800 341.000000
187.089100 21.000000
189.017400 127.000000
189.039000 28.000000
194.282100 32.000000
197.024300 90.000000
199.035000 61.000000
202.025200 25.000000
203.032000 123.000000
204.042300 149.000000
204.058300 34.000000
214.032800 35.000000
215.032300 179.000000
217.007900 52.000000
219.029400 40.000000
226.882800 23.000000
230.019600 32.000000
230.052800 24.000000
231.027300 171.000000
238.993600 33.000000
241.017700 56.000000
242.012600 60.000000
242.035100 37.000000
243.030000 386.000000
243.084100 24.000000
245.004300 39.000000
246.064200 32.000000
258.014700 164.000000
259.021300 155.000000
269.990800 40.000000
270.006300 41.000000
271.024500 124.000000
287.020100 97.000000
287.043800 78.000000
315.007800 114.000000
315.595100 23.000000
322.454600 22.000000
330.040100 110.000000
340.451000 26.000000

