>compound BML6541995
>parentmass 435.1296
>ionization [M-H]-
>formula C21H24O10
>rt 315.900000
>profile qtof
#smiles_iso C1=CC(=CC=C1CCC(=O)C2=C(C=C(C=C2OC3C(C(C(C(O3)CO)O)O)O)O)O)O
#smiles_can C1=CC(=CC=C1CCC(=O)C2=C(C=C(C=C2OC3C(C(C(C(O3)CO)O)O)O)O)O)O
#inchikey IOUVKUPGCMBWBT-UHFFFAOYSA-N
#pubchem_id 4789
#mb_accession BML00588,BML00593,BML00598

>ms2peaks
119.492800 83.000000
125.021200 130.000000
167.034900 832.000000
273.075600 16612.000000
273.119900 310.000000
273.164200 278.000000
273.223600 208.000000
273.411200 135.000000
273.439000 93.000000
273.666800 94.000000
297.070500 143.000000
435.126500 3509.000000

>ms2peaks
167.074600 106.000000
179.034900 393.000000
191.036700 85.000000
273.076000 12465.000000
273.119700 180.000000
273.153200 136.000000
273.181000 110.000000
273.231800 143.000000
273.325900 84.000000
273.377500 63.000000
273.478000 85.000000
273.774600 91.000000
297.072600 85.000000
315.089400 78.000000
435.123100 97.000000

>ms2peaks
167.065900 284.000000
167.089000 154.000000
167.098200 42.000000
167.109400 82.000000
167.125200 63.000000
167.154600 116.000000
167.290400 52.000000
179.033200 1072.000000
179.076600 51.000000
187.073500 58.000000
189.056100 113.000000
191.036900 97.000000
201.047300 61.000000
229.086400 84.000000
255.069600 169.000000
273.078100 618.000000

