>compound BML6308152
>parentmass 280.1554
>ionization [M-H]-
>formula C15H23NO4
>rt 342.240000
>profile qtof
#smiles_iso C[C@H]1C[C@@H](C(=O)[C@@H](C1)[C@@H](CC2CC(=O)NC(=O)C2)O)C
#smiles_can CC1CC(C(=O)C(C1)C(CC2CC(=O)NC(=O)C2)O)C
#inchikey YPHMISFOHDHNIV-FSZOTQKASA-N
#pubchem_id 6197
#mb_accession BML00726,BML00733,BML00740

>ms2peaks
110.024500 2978.000000
110.057300 92.000000
110.122200 62.000000
112.044000 106.000000
123.081600 66.000000
125.097700 551.000000
151.113600 228.000000
154.050400 10691.000000
154.088100 328.000000
154.138500 81.000000
154.165600 152.000000
154.763100 54.000000
177.127900 59.000000
244.824000 59.000000
262.143800 147.000000
280.154700 455.000000

>ms2peaks
110.023900 3653.000000
110.045300 107.000000
110.058700 128.000000
110.076100 54.000000
110.103200 26.000000
110.122400 57.000000
111.046100 89.000000
112.039400 555.000000
113.019100 111.000000
121.887700 48.000000
123.080900 292.000000
123.094100 21.000000
125.096700 1980.000000
125.117500 22.000000
125.131700 117.000000
125.146800 35.000000
125.161300 29.000000
125.284400 21.000000
125.462400 23.000000
137.024700 38.000000
151.112700 682.000000
152.884400 22.000000
154.049700 2794.000000
154.087800 108.000000
154.129200 25.000000
154.166300 41.000000
154.335200 22.000000
167.102000 32.000000
167.439200 31.000000
168.136800 45.000000
177.127000 200.000000
193.130400 25.000000
220.140700 38.000000
262.136000 21.000000

>ms2peaks
107.043300 26.000000
107.049300 33.000000
107.929500 32.000000
108.037000 22.000000
110.024600 1747.000000
110.061700 37.000000
110.086400 32.000000
111.052100 27.000000
121.065900 115.000000
123.081600 1267.000000
123.113100 50.000000
123.132500 28.000000
123.175000 23.000000
125.096700 507.000000
125.118600 22.000000
146.938600 29.000000
149.097800 62.000000
151.113700 219.000000
151.138600 47.000000
154.052400 74.000000
156.107000 49.000000
161.096000 32.000000
177.126300 96.000000
183.995100 24.000000
187.722500 22.000000
194.909900 51.000000
203.097900 24.000000
257.035800 27.000000

