>compound BML6814767
>parentmass 253.0506
>ionization [M-H]-
>formula C15H10O4
>rt 447.840000
>profile qtof
#smiles_iso C1=CC=C(C(=C1)C2=CC(=O)C3=C(O2)C=CC(=C3)O)O
#smiles_can C1=CC=C(C(=C1)C2=CC(=O)C3=C(O2)C=CC(=C3)O)O
#inchikey YCGXYGWBHFKQHY-UHFFFAOYSA-N
#pubchem_id 688661
#mb_accession BML01513,BML01521,BML01529

>ms2peaks
107.014300 306.000000
108.022900 68.000000
108.031100 20.000000
117.034400 438.000000
117.060600 21.000000
133.027500 74.000000
133.838200 23.000000
135.008300 289.000000
153.072800 22.000000
161.022300 44.000000
179.052900 44.000000
180.060200 26.000000
181.065900 79.000000
183.048800 21.000000
197.056000 100.000000
207.042800 21.000000
208.047800 59.000000
209.059500 327.000000
211.044600 40.000000
219.670000 54.000000
224.046500 57.000000
225.056000 304.000000
225.094700 24.000000
235.040500 110.000000
246.304900 20.000000
251.034500 53.000000
252.042100 25.000000
253.049800 29378.000000

>ms2peaks
101.038000 31.000000
105.033000 38.000000
107.014000 1926.000000
107.044400 54.000000
107.064200 22.000000
107.111400 33.000000
108.021800 625.000000
108.052800 33.000000
109.029300 35.000000
117.034800 3166.000000
117.058800 40.000000
117.065900 59.000000
117.073200 30.000000
117.089600 37.000000
117.132800 45.000000
117.228200 20.000000
117.341600 29.000000
120.028900 29.000000
133.028400 462.000000
135.009000 1852.000000
135.033900 42.000000
135.059200 49.000000
145.023900 67.000000
145.031200 76.000000
147.006400 51.000000
152.062600 42.000000
153.068400 64.000000
153.076200 87.000000
155.046800 32.000000
160.015100 199.000000
161.020300 151.000000
165.069100 90.000000
167.051100 25.000000
169.064100 163.000000
175.001000 34.000000
177.017900 121.000000
179.048000 61.000000
180.052800 64.000000
180.063700 138.000000
180.387800 29.000000
181.049600 46.000000
181.065200 496.000000
181.096700 36.000000
181.113700 22.000000
183.044000 161.000000
191.043000 22.000000
195.057600 22.000000
196.050100 62.000000
197.060300 669.000000
197.104000 25.000000
198.034300 95.000000
199.038300 29.000000
207.038200 30.000000
207.051100 43.000000
208.052100 284.000000
209.060100 1868.000000
209.102200 62.000000
209.123200 48.000000
209.154300 21.000000
209.195800 27.000000
210.036200 107.000000
211.039400 372.000000
211.075400 29.000000
223.035500 50.000000
224.046800 249.000000
225.057100 1294.000000
225.103400 67.000000
228.448500 23.000000
233.152800 22.000000
234.546000 22.000000
235.040800 527.000000
235.074400 31.000000
238.097300 29.000000
251.028600 131.000000
252.039800 167.000000
253.050300 12107.000000

>ms2peaks
101.039700 34.000000
105.034200 40.000000
107.014700 393.000000
108.020600 357.000000
109.026500 31.000000
116.024400 45.000000
116.992700 25.000000
117.034600 7243.000000
117.065000 245.000000
117.086000 62.000000
117.101900 36.000000
117.135200 109.000000
117.208200 27.000000
117.242300 33.000000
117.283500 23.000000
117.328800 27.000000
117.428200 30.000000
117.483900 21.000000
117.921600 23.000000
132.705300 26.000000
133.028800 206.000000
135.003100 21.000000
141.031200 24.000000
143.052300 52.000000
147.010200 64.000000
151.057700 45.000000
155.051300 39.000000
157.064300 29.000000
159.045200 22.000000
160.014400 29.000000
161.022800 34.000000
167.047200 78.000000
168.068000 28.000000
169.063300 150.000000
177.020000 37.000000
179.053700 32.000000
180.054500 71.000000
181.064800 31.000000
182.040600 42.000000
183.045600 49.000000
195.042600 72.000000
195.061900 25.000000
196.051900 36.000000
197.051000 57.000000
197.060800 26.000000
207.049700 41.000000
208.050500 53.000000
211.042900 28.000000
223.032400 50.000000
223.043200 97.000000
224.039700 72.000000
224.052000 38.000000
225.051300 20.000000
235.033700 40.000000
253.049900 25.000000

