>compound BML6970089
>parentmass 367.1187
>ionization [M-H]-
>formula C21H20O6
>rt 570.180000
>profile qtof
#smiles_iso COC1=C(C=CC(=C1)/C=C/C(=O)CC(=O)/C=C/C2=CC(=C(C=C2)O)OC)O
#smiles_can COC1=C(C=CC(=C1)C=CC(=O)CC(=O)C=CC2=CC(=C(C=C2)O)OC)O
#inchikey VFLDPWHFBUODDF-FCXRPNKRSA-N
#pubchem_id 969516
#mb_accession BML00308,BML00312,BML00316

>ms2peaks
100.213400 24.000000
120.149900 102.000000
130.049400 34.000000
133.286400 73.000000
134.039400 167.000000
139.056800 25.000000
141.031500 32.000000
144.991700 22.000000
149.060100 713.000000
149.094000 36.000000
149.125000 24.000000
158.041700 80.000000
173.060400 512.000000
173.096900 22.000000
175.039200 26.000000
202.022200 37.000000
214.192600 22.000000
217.049300 1368.000000
217.087700 95.000000
217.124800 31.000000
217.186900 31.000000
220.455500 23.000000
284.036800 27.000000
284.278100 21.000000
288.267700 26.000000
297.436700 31.000000
328.712100 44.000000
343.849800 22.000000
357.194600 49.000000
367.117500 515.000000

>ms2peaks
173.060400 615.000000
173.094800 22.000000
175.037300 56.000000
202.025800 103.000000
217.046800 258.000000
222.113300 26.000000
272.946400 21.000000

>ms2peaks
173.060900 72.000000
174.033800 37.000000
175.041100 35.000000
187.254800 69.000000
201.021800 72.000000
202.022800 49.000000
223.076000 38.000000
270.352800 32.000000
287.208500 20.000000
311.579200 24.000000

