>compound BML6620516
>parentmass 191.035
>ionization [M-H]-
>formula C10H8O4
>rt 277.800000
>profile qtof
#smiles_iso COC1=C(C=C2C(=C1)C=CC(=O)O2)O
#smiles_can COC1=C(C=C2C(=C1)C=CC(=O)O2)O
#inchikey RODXRVNMMDRFIK-UHFFFAOYSA-N
#pubchem_id 5280460
#mb_accession BML00378,BML00384,BML00390

>ms2peaks
104.025800 446.000000
105.351000 83.000000
120.023000 108.000000
148.016800 685.000000
176.011100 13816.000000
176.048600 377.000000
176.069400 147.000000
176.088500 94.000000
176.134000 189.000000
191.034200 6840.000000

>ms2peaks
104.027000 4015.000000
104.062200 66.000000
104.121600 63.000000
120.021000 1134.000000
148.016400 4540.000000
148.051200 150.000000
148.075700 74.000000
176.010500 11524.000000
176.050000 358.000000
176.074700 141.000000
176.100500 92.000000
176.133800 171.000000
191.037000 148.000000

>ms2peaks
104.026900 2223.000000
104.058300 83.000000
104.121200 43.000000
119.017400 59.000000
120.014400 26.000000
120.021900 642.000000
120.054400 25.000000
148.014400 263.000000
171.880600 33.000000
176.013600 38.000000
176.405600 20.000000

