>compound BML6430741
>parentmass 301.0717
>ionization [M-H]-
>formula C16H14O6
>rt 135.720000
>profile qtof
#smiles_iso C1C2=CC(=C(C=C2C3C1(COC4=C3C=CC(=C4O)O)O)O)O
#smiles_can C1C2=CC(=C(C=C2C3C1(COC4=C3C=CC(=C4O)O)O)O)O
#inchikey WZUVPPKBWHMQCE-UHFFFAOYSA-N
#pubchem_id 10603
#mb_accession BML01097,BML01103

>ms2peaks
102.063700 21.000000
119.042600 30.000000
125.024500 26.000000
175.051800 22.000000
179.032600 87.000000
203.744300 29.000000
283.056700 37.000000
288.606800 20.000000
300.056600 112.000000
300.095900 24.000000
301.070900 1340.000000

>ms2peaks
105.039000 23.000000
109.031100 44.000000
111.012000 26.000000
123.009100 49.000000
123.040500 20.000000
125.022500 40.000000
151.043900 36.000000
161.022200 38.000000
163.033600 50.000000
164.010600 59.000000
173.060000 24.000000
174.026900 29.000000
175.038200 53.000000
175.138100 20.000000
179.035900 379.000000
197.059900 36.000000
211.074200 26.000000
226.032400 22.000000
235.241800 24.000000
237.063700 23.000000
241.045000 33.000000
243.028000 40.000000
244.035700 39.000000
245.520800 25.000000
255.063400 40.000000
257.043800 37.000000
258.062800 22.000000
283.060800 144.000000
300.066200 42.000000
301.071200 596.000000

