>compound BML6843593
>parentmass 637.1774
>ionization [M-H]-
>formula C29H34O16
>rt 396.720000
>profile qtof
#smiles_iso CC1C(C(C(C(O1)OCC2C(C(C(C(O2)OC3=C(C(=C4C(=C3)OC(=CC4=O)C5=CC(=C(C=C5)O)OC)O)OC)O)O)O)O)O)O
#smiles_can CC1C(C(C(C(O1)OCC2C(C(C(C(O2)OC3=C(C(=C4C(=C3)OC(=CC4=O)C5=CC(=C(C=C5)O)OC)O)OC)O)O)O)O)O)O
#inchikey PYPKJBUJNZMSTH-UHFFFAOYSA-N
#pubchem_id 20106119
#mb_accession BML01677,BML01687,BML01697

>ms2peaks
149.732800 21.000000
299.021100 28.000000
314.036200 36.000000
317.105700 34.000000
329.063000 553.000000
329.120800 39.000000
330.064700 27.000000
554.971100 28.000000
636.951000 21.000000
637.173900 2980.000000

>ms2peaks
127.840400 36.000000
147.705800 20.000000
216.996700 28.000000
298.994000 21.000000
299.027400 32.000000
314.053200 40.000000
323.772400 28.000000
329.066200 2774.000000
329.114100 71.000000
329.134900 23.000000
329.154400 85.000000
329.178000 23.000000
329.233800 31.000000
329.485500 24.000000
329.831800 26.000000
329.921700 30.000000
330.064300 22.000000
371.083200 39.000000
488.943400 36.000000
576.586300 21.000000
588.720100 21.000000
637.178900 938.000000

>ms2peaks
217.003200 82.000000
285.041800 46.000000
299.017300 597.000000
299.070600 23.000000
304.653900 26.000000
313.038700 129.000000
314.040900 1123.000000
314.085800 43.000000
314.115900 42.000000
329.065900 1869.000000
329.113200 46.000000
329.133100 38.000000
329.238400 25.000000
329.418400 22.000000

