>compound BML7282836
>parentmass 273.0768
>ionization [M-H]-
>formula C15H14O5
>rt 402.840000
>profile qtof
#smiles_iso C1=CC(=CC=C1CCC(=O)C2=C(C=C(C=C2O)O)O)O
#smiles_can C1=CC(=CC=C1CCC(=O)C2=C(C=C(C=C2O)O)O)O
#inchikey VGEREEWJJVICBM-UHFFFAOYSA-N
#pubchem_id 4788
#mb_accession BML00590,BML00595,BML00600

>ms2peaks
119.049600 648.000000
123.044600 1376.000000
125.023500 1182.000000
167.034500 18005.000000
167.074300 545.000000
167.153600 229.000000
179.034800 859.000000
229.088200 330.000000
273.076500 32744.000000

>ms2peaks
123.045200 11305.000000
123.079100 391.000000
125.023700 3207.000000
135.044500 387.000000
149.023600 391.000000
151.002900 1195.000000
167.034400 32040.000000
167.073400 935.000000
167.127200 187.000000
167.154900 499.000000
179.034100 2374.000000
187.074500 368.000000
189.056700 753.000000
229.086100 565.000000
255.069400 248.000000
273.076700 2989.000000

>ms2peaks
104.024400 26.000000
105.034900 92.000000
107.014200 824.000000
107.052000 39.000000
108.025300 55.000000
109.031500 66.000000
111.045600 22.000000
115.052600 38.000000
117.035200 141.000000
119.050000 4313.000000
119.083300 167.000000
119.100900 25.000000
119.127600 38.000000
119.149800 61.000000
119.263500 37.000000
120.028900 27.000000
121.031200 104.000000
122.034300 53.000000
123.044600 3391.000000
123.076100 127.000000
123.099700 45.000000
123.121300 26.000000
123.148100 47.000000
124.015700 101.000000
125.024200 722.000000
125.056400 29.000000
130.039700 57.000000
133.066600 25.000000
135.045500 88.000000
137.022900 91.000000
142.109500 22.000000
143.051700 209.000000
145.027700 101.000000
145.064700 152.000000
147.046000 203.000000
149.025400 64.000000
151.002600 893.000000
151.042600 50.000000
152.011800 29.000000
157.065900 35.000000
161.058100 128.000000
164.007000 36.000000
165.020200 22.000000
166.025800 84.000000
167.036500 434.000000
167.047700 33.000000
167.073900 25.000000
168.059100 65.000000
169.065100 106.000000
171.044700 166.000000
171.077000 42.000000
172.052200 75.000000
181.060900 31.000000
182.067000 23.000000
182.079400 34.000000
185.064500 63.000000
185.515500 34.000000
187.077800 43.000000
189.054900 592.000000
208.046000 29.000000
211.082700 27.000000
213.416900 37.000000
227.070800 26.000000
233.333600 32.000000
237.049100 40.000000

