>compound BML7380466
>parentmass 336.1313
>ionization [M-H]-
>formula C14H19N5O5
>rt 257.340000
>profile qtof
#smiles_iso CC(C)C(=O)NC1=NC2=C(C(=O)N1)N=CN2[C@H]3C[C@@H]([C@H](O3)CO)O
#smiles_can CC(C)C(=O)NC1=NC2=C(C(=O)N1)N=CN2C3CC(C(O3)CO)O
#inchikey SIDXEQFMTMICKG-DJLDLDEBSA-N
#pubchem_id 135407017
#mb_accession BML01785,BML01791,BML01797

>ms2
107.036500 43.000000
108.018200 49.000000
133.014500 127.000000
150.042500 1161.000000
150.078000 44.000000
176.057000 81.000000
183.040800 30.000000
220.086200 372.000000
220.109200 30.000000
223.079300 25.000000
266.089900 4728.000000
266.137100 239.000000
266.176500 45.000000
266.194900 34.000000
266.238500 50.000000
266.304600 30.000000
266.526100 21.000000
266.603900 28.000000
266.759800 25.000000
267.092700 45.000000
281.114900 29.000000
335.998900 30.000000
336.130900 19340.000000

>ms2
107.037900 148.000000
108.020400 97.000000
111.057200 33.000000
132.028200 35.000000
133.015000 384.000000
150.041700 6879.000000
150.076900 267.000000
150.097200 65.000000
150.122800 41.000000
150.154500 92.000000
150.250300 22.000000
150.405400 23.000000
176.056300 595.000000
191.014100 20.000000
220.084700 1457.000000
220.123400 38.000000
220.154400 32.000000
220.186500 24.000000
220.217300 28.000000
223.079800 149.000000
236.081800 21.000000
246.095900 65.000000
248.079500 92.000000
266.089200 12839.000000
266.126900 52.000000
266.184900 82.000000
266.206000 67.000000
266.241200 166.000000
266.287600 76.000000
266.314100 28.000000
266.341200 43.000000
266.360800 23.000000
266.393300 42.000000
266.412900 49.000000
266.445400 30.000000
266.482000 43.000000
266.515100 43.000000
266.574100 73.000000
266.617300 46.000000
266.666100 73.000000
266.713000 44.000000
266.766500 46.000000
266.803500 44.000000
266.819000 23.000000
266.876900 31.000000
266.956500 25.000000
266.989000 29.000000
267.037600 43.000000
267.071700 44.000000
267.110300 33.000000
267.150500 55.000000
267.173200 23.000000
267.256100 32.000000
267.307500 21.000000
267.342100 30.000000
267.435600 23.000000
267.470200 28.000000
267.587500 21.000000
336.131300 3078.000000

>ms2
105.020700 86.000000
106.031500 91.000000
106.040700 45.000000
107.035400 746.000000
108.020300 1537.000000
108.052800 39.000000
111.055300 339.000000
111.064100 32.000000
125.044400 26.000000
132.032200 97.000000
133.015600 4101.000000
133.051500 230.000000
133.080100 36.000000
133.088500 26.000000
133.123200 77.000000
133.155900 21.000000
134.034700 219.000000
134.061300 21.000000
149.036700 161.000000
150.041600 8011.000000
150.079500 263.000000
150.104500 27.000000
150.129800 84.000000
150.155500 99.000000
150.194700 21.000000
150.252900 23.000000
150.374900 20.000000
150.399300 26.000000
150.438700 24.000000
150.553000 21.000000
150.793900 25.000000
151.194900 22.000000
159.037500 46.000000
161.376600 30.000000
176.058200 817.000000
176.090800 26.000000
192.415200 51.000000
220.075600 91.000000
220.091700 28.000000
248.075800 21.000000
266.087900 197.000000

