>compound BML7435816
>parentmass 301.0717
>ionization [M-H]-
>formula C16H14O6
>rt 423.180000
>profile qtof
#smiles_iso COC1=C(C=C(C=C1)C2CC(=O)C3=C(C=C(C=C3O2)O)O)O
#smiles_can COC1=C(C=C(C=C1)C2CC(=O)C3=C(C=C(C=C3O2)O)O)O
#inchikey AIONOLUJZLIMTK-UHFFFAOYSA-N
#pubchem_id 3593
#mb_accession BML00307,BML00311,BML00315

>ms2
125.023600 523.000000
136.015900 300.000000
151.002700 341.000000
164.011500 803.000000
174.031900 310.000000
199.039500 331.000000
201.016300 240.000000
242.059000 653.000000
257.079900 583.000000
258.055800 242.000000
283.061600 246.000000
286.046300 1315.000000
301.071500 40342.000000

>ms2
136.051000 51.000000
146.037400 55.000000
149.060500 418.000000
151.002900 2047.000000
151.038100 70.000000
151.064700 39.000000
152.014300 90.000000
158.038600 392.000000
164.010500 5095.000000
164.042400 117.000000
164.052500 58.000000
164.068100 68.000000
164.097600 59.000000
164.126500 61.000000
164.595200 37.000000
165.018800 36.000000
172.054000 138.000000
173.029700 47.000000
173.060800 370.000000
174.031300 1600.000000
174.061700 45.000000
175.039500 87.000000
176.016200 42.000000
176.047500 135.000000
177.017900 142.000000
183.046300 51.000000
185.026300 220.000000
186.066100 51.000000
187.038200 109.000000
188.047000 206.000000
191.070100 269.000000
192.026600 47.000000
198.033800 183.000000
199.038500 1356.000000
200.015800 217.000000
200.046800 532.000000
201.017500 1563.000000
201.060800 59.000000
202.024600 151.000000
203.029700 54.000000
211.075200 47.000000
212.049300 76.000000
213.052100 144.000000
213.070000 40.000000
214.064100 322.000000
215.035700 779.000000
215.073500 253.000000
215.120300 43.000000
216.039600 325.000000
217.049600 372.000000
218.060400 58.000000
224.045500 133.000000
225.051800 63.000000
227.036200 486.000000
230.055100 154.000000
230.077100 44.000000
233.079100 322.000000
239.073600 184.000000
240.043400 448.000000
241.049600 816.000000
241.087300 50.000000
242.056600 3116.000000
242.101700 72.000000
242.138300 37.000000
242.199500 38.000000
242.886300 50.000000
243.035900 53.000000
255.062000 41.000000
257.080900 1415.000000
257.129000 67.000000
258.052600 976.000000
258.098200 48.000000
259.061900 126.000000
261.076000 48.000000
267.034400 37.000000
268.038200 529.000000
269.085800 40.000000
283.061300 557.000000
283.101700 43.000000
285.041200 257.000000
285.069500 36.000000
286.047800 2950.000000
286.104200 114.000000
286.146200 47.000000
286.206300 49.000000
286.336200 44.000000
301.070000 7071.000000

>ms2
106.038600 28.000000
107.013000 1885.000000
107.040500 48.000000
107.057300 45.000000
108.021500 5502.000000
108.053700 177.000000
108.095000 46.000000
108.118800 65.000000
109.026900 62.000000
118.039300 39.000000
118.047900 40.000000
119.015200 93.000000
119.035400 28.000000
120.022300 232.000000
121.026500 114.000000
122.003700 54.000000
122.037000 38.000000
124.015100 296.000000
125.023900 176.000000
125.571200 29.000000
129.035700 88.000000
130.043100 116.000000
132.018300 64.000000
133.028400 208.000000
134.036800 1876.000000
134.070900 68.000000
134.083900 35.000000
135.003300 51.000000
135.044400 1207.000000
135.155300 29.000000
136.015900 2949.000000
136.068400 37.000000
136.099500 28.000000
136.123700 30.000000
137.022900 109.000000
140.064000 31.000000
143.049900 174.000000
144.055900 58.000000
146.038600 56.000000
148.050100 78.000000
151.003100 1537.000000
151.032700 28.000000
151.042700 58.000000
151.061300 32.000000
152.010800 45.000000
154.042800 31.000000
155.056700 46.000000
157.033400 45.000000
157.068300 31.000000
158.036700 422.000000
158.067000 55.000000
160.011600 160.000000
161.023100 65.000000
164.010900 1425.000000
164.049200 58.000000
164.070900 28.000000
165.023300 100.000000
167.047400 30.000000
170.044100 28.000000
171.044000 303.000000
172.051500 201.000000
173.023900 175.000000
173.064600 55.000000
174.031500 481.000000
175.038100 273.000000
176.049200 190.000000
177.016400 273.000000
183.044300 114.000000
184.017400 29.000000
185.026400 44.000000
185.059800 203.000000
186.067400 105.000000
187.046500 187.000000
187.903400 30.000000
188.045100 73.000000
191.081500 34.000000
196.047200 109.000000
197.026200 39.000000
197.057700 98.000000
197.067100 42.000000
198.029400 192.000000
199.037500 586.000000
199.083500 28.000000
200.049100 143.000000
201.018300 582.000000
201.061000 55.000000
202.025900 168.000000
203.037600 59.000000
211.043600 29.000000
213.056100 326.000000
214.065000 165.000000
215.032800 196.000000
216.044100 91.000000
223.034700 54.000000
224.041500 32.000000
225.059000 37.000000
227.033500 77.000000
227.048600 37.000000
229.040400 82.000000
239.038300 34.000000
240.037800 127.000000
241.051000 247.000000
241.088800 38.000000
242.055800 88.000000
243.025300 70.000000
243.039800 58.000000
244.873600 35.000000
257.044500 132.000000
269.042600 69.000000
274.060100 37.000000
277.271300 40.000000
285.038900 419.000000

