>compound BML7421555
>parentmass 681.1672
>ionization [M-H]-
>formula C30H34O18
>rt 431.160000
>profile qtof
#smiles_iso CC1C(C(C(C(O1)OC2C(C(C(OC2OC3=C(C4=C(C(=C3)O)C(=O)C(=C(O4)C5=CC(=C(C=C5)O)OC)O)O)COC(=O)C)O)O)O)O)O
#smiles_can CC1C(C(C(C(O1)OC2C(C(C(OC2OC3=C(C4=C(C(=C3)O)C(=O)C(=C(O4)C5=CC(=C(C=C5)O)OC)O)O)COC(=O)C)O)O)O)O)O
#inchikey LLPAOCBYQCXXKS-UHFFFAOYSA-N
#pubchem_id 20106108
#mb_accession BML01617,BML01625,BML01633

>ms2peaks
108.458100 21.000000
109.783300 21.000000
112.923300 21.000000
158.507500 24.000000
179.115400 48.000000
269.033800 21.000000
301.027400 24.000000
329.011600 61.000000
330.033300 87.000000
331.047500 226.000000
397.943600 53.000000
416.743400 28.000000
432.922100 29.000000
448.311200 29.000000
460.313500 37.000000
484.302300 37.000000
511.653500 26.000000
517.111900 138.000000
577.848600 23.000000
600.652900 22.000000
617.702400 21.000000
620.927300 32.000000
621.131700 100.000000
621.167900 91.000000
621.918300 22.000000
639.186900 27.000000
680.146600 118.000000
681.165300 8100.000000

>ms2peaks
131.755500 21.000000
135.594500 20.000000
137.923600 28.000000
222.384100 48.000000
260.642100 29.000000
287.199800 26.000000
289.036300 22.000000
313.069300 37.000000
316.021300 72.000000
329.028300 42.000000
329.063500 31.000000
330.036600 173.000000
330.974400 36.000000
331.044500 1294.000000
331.089300 27.000000
331.135300 31.000000
331.594300 32.000000
422.983700 22.000000
444.736900 39.000000
457.076700 41.000000
465.636600 21.000000
517.094800 709.000000
517.188000 29.000000
517.454500 24.000000
535.103200 118.000000
535.149900 27.000000
584.875700 29.000000
621.145100 343.000000
621.204400 48.000000
639.160600 190.000000
653.154600 38.000000
680.141000 36.000000
681.164600 4863.000000

>ms2peaks
120.846200 21.000000
139.005000 122.000000
141.011100 33.000000
164.984100 53.000000
165.990200 64.000000
166.998300 31.000000
177.017300 24.000000
190.034300 21.000000
195.083500 24.000000
199.825500 30.000000
204.037500 26.000000
205.018300 24.000000
211.038900 31.000000
219.034400 45.000000
232.055700 20.000000
258.045500 36.000000
259.025300 47.000000
260.454900 24.000000
271.015700 26.000000
272.033000 41.000000
272.680500 21.000000
285.043300 45.000000
287.008700 29.000000
299.756900 21.000000
301.033500 88.000000
303.028100 38.000000
303.052400 44.000000
311.061300 22.000000
313.070400 45.000000
315.013400 89.000000
315.052500 34.000000
316.021900 521.000000
316.058500 38.000000
324.050300 22.000000
329.025000 213.000000
329.069900 33.000000
330.035900 1666.000000
330.094200 23.000000
330.117800 44.000000
330.193500 33.000000
330.506900 26.000000
330.962900 25.000000
331.045300 4801.000000
331.091800 193.000000
331.139000 84.000000
331.160700 33.000000
331.200100 27.000000
331.225600 45.000000
331.293400 26.000000
331.393300 30.000000
331.427700 21.000000
331.496900 37.000000
331.560100 35.000000
331.603100 22.000000
331.622900 33.000000
331.654800 22.000000
331.777400 40.000000
332.032600 33.000000
332.166100 23.000000
332.281000 24.000000
354.054500 22.000000
357.056300 28.000000
373.067500 28.000000
385.083300 24.000000
442.041200 22.000000
457.078100 52.000000
458.073700 22.000000
475.082900 116.000000
502.132800 23.000000
517.095100 245.000000
517.124700 58.000000
527.416400 35.000000
535.110700 41.000000
621.144900 138.000000
639.157200 62.000000
660.541000 25.000000
681.166600 90.000000

