>compound BML7972000
>parentmass 621.1825
>ionization [M-H]-
>formula C29H34O15
>rt 441.060000
>profile qtof
#smiles_iso CC1C(C(C(C(O1)OCC2C(C(C(C(O2)OC3=C(C(=C4C(=C3)OC(=CC4=O)C5=CC=C(C=C5)OC)O)OC)O)O)O)O)O)O
#smiles_can CC1C(C(C(C(O1)OCC2C(C(C(C(O2)OC3=C(C(=C4C(=C3)OC(=CC4=O)C5=CC=C(C=C5)OC)O)OC)O)O)O)O)O)O
#inchikey DUXQKCCELUKXOE-UHFFFAOYSA-N
#pubchem_id 3818047
#mb_accession BML01618,BML01626,BML01634

>ms2peaks
119.671600 60.000000
313.070600 855.000000
313.121200 26.000000
313.143300 22.000000
374.991700 58.000000
457.015000 37.000000
500.115500 22.000000
532.671000 20.000000
538.995000 74.000000
621.161700 32.000000
621.203200 56.000000

>ms2peaks
186.977200 20.000000
188.011200 25.000000
253.918400 27.000000
297.034800 29.000000
298.033800 27.000000
298.051100 24.000000
313.070400 534.000000
313.123100 33.000000
338.426600 26.000000
374.991400 75.000000
375.713200 21.000000
423.355000 28.000000
557.165200 20.000000
564.423800 21.000000

>ms2peaks
117.037600 22.000000
146.682300 20.000000
217.012500 44.000000
226.472600 25.000000
234.949600 33.000000
283.027800 56.000000
298.046700 297.000000
313.071000 185.000000
313.107900 30.000000
395.136200 25.000000
403.271100 23.000000
422.618600 31.000000
435.360200 26.000000
576.399100 26.000000
618.925200 20.000000

