>compound BML7121242
>parentmass 146.0459
>ionization [M-H]-
>formula C5H9NO4
>rt 21.660000
>profile qtof
#smiles_iso C(CC(=O)O)C(C(=O)O)N
#smiles_can C(CC(=O)O)C(C(=O)O)N
#inchikey WHUUTDBJXJRKMK-UHFFFAOYSA-N
#pubchem_id 611
#mb_accession BML01298,BML01303

>ms2
100.041000 69.000000
102.056000 6184.000000
102.088200 216.000000
102.104200 43.000000
102.127000 23.000000
102.150000 92.000000
102.199200 26.000000
102.239300 35.000000
102.358100 22.000000
102.450000 30.000000
102.953100 24.000000
127.963900 21.000000
128.034600 4575.000000
128.069800 169.000000
128.084800 27.000000
128.110000 48.000000
128.140400 59.000000
128.187700 20.000000
128.490100 24.000000
128.827600 25.000000
146.045600 3457.000000

>ms2
101.028300 35.000000
102.055400 5165.000000
102.083700 193.000000
102.104800 85.000000
102.124700 48.000000
102.150100 80.000000
102.175700 26.000000
102.189700 24.000000
102.251800 43.000000
102.363200 32.000000
102.449900 34.000000
102.481400 21.000000
102.605400 24.000000
102.621700 30.000000
102.636100 21.000000
102.678000 24.000000
102.964500 20.000000
102.990300 38.000000
103.159600 21.000000
103.646100 36.000000
109.685100 24.000000
114.253300 20.000000
115.570700 73.000000
126.900200 47.000000
128.036100 834.000000
128.064300 55.000000
128.267400 25.000000
128.866700 26.000000
132.253200 20.000000
132.677300 21.000000
146.045000 57.000000

