>compound BML7589328
>parentmass 253.087
>ionization [M-H]-
>formula C16H14O3
>rt 471.060000
>profile qtof
#smiles_iso CC(C1=CC(=CC=C1)C(=O)C2=CC=CC=C2)C(=O)O
#smiles_can CC(C1=CC(=CC=C1)C(=O)C2=CC=CC=C2)C(=O)O
#inchikey DKYWVDODHFEZIM-UHFFFAOYSA-N
#pubchem_id 3825
#mb_accession BML00846

>ms2peaks
149.051400 21.000000
165.017000 23.000000
171.137800 20.000000
185.524200 29.000000
209.096200 1449.000000
209.152500 140.000000
209.978900 21.000000
253.113000 111.000000

