>compound BML7382238
>parentmass 861.1883000000001
>ionization [M-H]-
>formula C42H38O20
>rt 381.060000
>profile qtof
#smiles_iso C1=CC2=C(C(=C1)OC3C(C(C(C(O3)CO)O)O)O)C(=O)C4=C(C2C5C6=C(C(=CC=C6)OC7C(C(C(C(O7)CO)O)O)O)C(=O)C8=C5C=C(C=C8O)C(=O)O)C=C(C=C4O)C(=O)O
#smiles_can C1=CC2=C(C(=C1)OC3C(C(C(C(O3)CO)O)O)O)C(=O)C4=C(C2C5C6=C(C(=CC=C6)OC7C(C(C(C(O7)CO)O)O)O)C(=O)C8=C5C=C(C=C8O)C(=O)O)C=C(C=C4O)C(=O)O
#inchikey IPQVTOJGNYVQEO-UHFFFAOYSA-N
#pubchem_id 5199
#mb_accession BML01335,BML01340,BML01345

>ms2peaks
107.386000 36.000000
112.472000 27.000000
113.650800 21.000000
220.292800 24.000000
221.077900 33.000000
239.009700 75.000000
341.999900 23.000000
370.250800 22.000000
386.094300 63.000000
404.489400 23.000000
409.507700 75.000000
419.081100 23.000000
573.317800 50.000000
626.702400 28.000000
696.968100 25.000000
698.128500 21.000000
699.147400 359.000000
718.525300 22.000000
770.601100 30.000000
776.857800 21.000000
786.541000 33.000000
814.374600 31.000000
861.186600 3726.000000

>ms2peaks
141.016300 86.000000
142.572200 25.000000
161.429800 31.000000
172.892100 27.000000
200.706500 22.000000
206.339500 41.000000
216.995300 22.000000
224.052800 26.000000
268.032600 25.000000
300.646500 24.000000
304.764400 25.000000
318.368100 21.000000
318.680800 46.000000
386.100400 190.000000
430.095300 42.000000
434.911200 26.000000
464.035500 23.000000
469.907500 22.000000
481.617300 65.000000
537.080700 52.000000
537.129700 21.000000
598.564500 37.000000
655.184600 27.000000
686.531800 22.000000
697.001400 25.000000
699.134000 416.000000
700.133200 25.000000
718.871800 31.000000
780.163700 28.000000
803.044700 21.000000
818.222400 21.000000
861.187800 2514.000000

>ms2peaks
141.012500 23.000000
141.041800 26.000000
153.800200 28.000000
223.036200 24.000000
224.044800 262.000000
224.082400 21.000000
228.121100 33.000000
252.029400 21.000000
252.049000 22.000000
261.899700 22.000000
268.038600 79.000000
269.044200 60.000000
282.049100 25.000000
386.100800 1108.000000
386.137700 28.000000
386.200000 32.000000
386.703700 22.000000
387.100100 22.000000
431.080700 41.000000
431.101300 54.000000
447.077300 57.000000
448.073000 21.000000
449.095100 59.000000
490.086500 20.000000
492.069900 22.000000
492.103500 26.000000
493.092400 38.000000
518.107600 28.000000
536.063100 54.000000
537.083700 80.000000
537.110900 39.000000
593.141900 33.000000
603.891500 20.000000
609.144600 50.000000
610.153200 45.000000
611.143700 68.000000
622.403300 22.000000
637.134700 42.000000
654.135900 120.000000
655.135900 175.000000
655.219500 25.000000
681.113200 27.000000
697.155300 21.000000
698.113500 110.000000
699.135900 401.000000
699.185600 41.000000
699.222100 22.000000
711.136900 27.000000
713.158000 23.000000
817.192100 124.000000
817.245900 49.000000
821.641400 44.000000
861.173500 339.000000

