>compound BML7088331
>parentmass 306.1208
>ionization [M-H]-
>formula C13H17N5O4
>rt 228.000000
>profile qtof
#smiles_iso C=CCNC1=C2C(=NC=N1)N(C=N2)C3C(C(C(O3)CO)O)O
#smiles_can C=CCNC1=C2C(=NC=N1)N(C=N2)C3C(C(C(O3)CO)O)O
#inchikey WTYYPLSFICPDGL-UHFFFAOYSA-N
#pubchem_id 264006
#mb_accession BML01447,BML01454,BML01461

>ms2
132.029600 24.000000
133.043500 74.000000
141.017400 45.000000
142.019100 36.000000
149.312500 58.000000
153.731100 33.000000
174.078400 1913.000000
174.110400 52.000000
174.122500 47.000000
269.309200 24.000000
306.119300 414.000000

>ms2
133.037500 271.000000
134.042600 29.000000
137.350700 24.000000
147.068100 30.000000
174.078000 1754.000000
174.100400 42.000000
174.113600 80.000000
174.144400 36.000000
264.161500 21.000000
306.118900 37.000000

>ms2
106.028800 180.000000
107.813500 27.000000
117.020900 22.000000
119.034700 29.000000
132.031700 78.000000
132.041200 29.000000
132.052300 22.000000
133.038500 1376.000000
133.071600 44.000000
134.047300 21.000000
147.066500 81.000000
158.044000 28.000000
169.597200 28.000000
174.076700 333.000000
630.858900 23.000000
700.591000 27.000000

