>compound BML7824394
>parentmass 182.0822
>ionization [M-H]-
>formula C9H13NO3
>rt 22.140000
>profile qtof
#smiles_iso CNCC(C1=CC(=C(C=C1)O)O)O
#smiles_can CNCC(C1=CC(=C(C=C1)O)O)O
#inchikey UCTWMZQNUQWSLP-UHFFFAOYSA-N
#pubchem_id 838
#mb_accession BML01158,BML01167

>ms2
122.036400 306.000000
122.062300 20.000000
137.020900 64.000000
149.048000 80.000000
163.527500 45.000000
164.072200 1568.000000
164.114000 54.000000
164.191200 22.000000
182.082000 234.000000

>ms2
103.099200 21.000000
106.970200 29.000000
122.037500 321.000000
149.044100 37.000000
149.055700 33.000000
164.072700 133.000000
164.123500 21.000000

