>compound BML7223616
>parentmass 173.0455
>ionization [M-H]-
>formula C7H10O5
>rt 23.160000
>profile qtof
#smiles_iso C1C(C(C(C=C1C(=O)O)O)O)O
#smiles_can C1C(C(C(C=C1C(=O)O)O)O)O
#inchikey JXOHGGNKMLTUBP-UHFFFAOYSA-N
#pubchem_id 1094
#mb_accession BML01061

>ms2peaks
101.023100 28.000000
111.010800 58.000000
111.044800 1725.000000
111.071700 38.000000
111.095800 26.000000
111.142100 22.000000
113.025100 67.000000
129.019800 179.000000
129.055400 101.000000
131.814300 21.000000
137.023700 1197.000000
137.058000 44.000000
137.079900 21.000000
143.035900 220.000000
154.946700 47.000000
155.036000 594.000000
161.144900 27.000000
172.960500 28.000000
173.044800 799.000000

