>compound BML7203210
>parentmass 325.0929
>ionization [M-H]-
>formula C15H18O8
>rt 207.780000
>profile qtof
#smiles_iso CC(C)(C)C1(CC2C3(C14C(C(=O)OC4OC3=O)O)CC(=O)O2)O
#smiles_can CC(C)(C)C1(CC2C3(C14C(C(=O)OC4OC3=O)O)CC(=O)O2)O
#inchikey MOLPUWBMSBJXER-UHFFFAOYSA-N
#pubchem_id 545839
#mb_accession BML00546,BML00554,BML00562

>ms2
101.064200 99.000000
109.063800 238.000000
119.036100 50.000000
153.011900 46.000000
153.024900 55.000000
163.112100 6818.000000
163.149000 248.000000
163.174200 150.000000
163.200400 63.000000
163.231300 129.000000
163.569300 40.000000
165.128200 334.000000
175.111600 59.000000
191.104600 39.000000
193.123200 1685.000000
193.157200 69.000000
201.093300 39.000000
207.102900 211.000000
209.119400 65.000000
219.101500 217.000000
219.787500 66.000000
237.111500 610.000000
250.570400 63.000000
251.090900 1204.000000
251.117400 36.000000
251.139700 49.000000
253.243900 48.000000
263.086200 65.000000
281.108100 52.000000
325.094100 1058.000000

>ms2
135.115800 85.000000
136.049500 255.000000
157.118400 50.000000
163.112200 9752.000000
163.151000 341.000000
163.199400 101.000000
163.232200 133.000000
163.390000 85.000000
163.435000 53.000000
163.476700 67.000000
163.661400 54.000000
163.855100 53.000000
165.128300 827.000000
175.108200 139.000000
191.110100 147.000000
193.122200 1106.000000
201.089200 65.000000
219.104700 181.000000
237.113400 94.000000

>ms2
106.041700 180.000000
107.048800 42.000000
109.064700 118.000000
119.087500 39.000000
135.117300 47.000000
163.112300 1108.000000
163.151500 32.000000
186.460300 24.000000

