>compound BML8154974
>parentmass 283.0612
>ionization [M-H]-
>formula C16H12O5
>rt 538.920000
>profile qtof
#smiles_iso COC1=CC=C(C=C1)C2=CC(=O)C3=C(C=C(C=C3O2)O)O
#smiles_can COC1=CC=C(C=C1)C2=CC(=O)C3=C(C=C(C=C3O2)O)O
#inchikey DANYIYRPLHHOCZ-UHFFFAOYSA-N
#pubchem_id 5280442
#mb_accession BML00847,BML00854,BML00861

>ms2peaks
268.036200 5795.000000
268.085400 272.000000
283.060900 47719.000000

>ms2peaks
211.039700 190.000000
239.034400 361.000000
240.044200 408.000000
268.037200 37075.000000
268.089900 896.000000
268.142700 286.000000
268.188100 582.000000
283.060400 14226.000000

>ms2peaks
104.023700 47.000000
106.006400 47.000000
107.014100 2655.000000
107.041400 70.000000
107.084600 37.000000
116.025200 75.000000
117.034300 675.000000
117.066500 36.000000
119.034200 38.000000
120.020200 223.000000
121.025900 46.000000
121.999200 223.000000
123.010600 156.000000
130.038000 40.000000
130.045200 128.000000
132.022600 65.000000
141.036500 75.000000
142.042100 68.000000
143.049400 170.000000
147.009000 93.000000
148.017600 352.000000
149.996100 527.000000
151.004200 1896.000000
151.045800 66.000000
154.039900 132.000000
155.048700 233.000000
156.058000 274.000000
158.037400 304.000000
166.040000 89.000000
167.049000 715.000000
168.057500 190.000000
170.039900 109.000000
171.044400 777.000000
172.053200 741.000000
172.082300 42.000000
180.056900 41.000000
182.039000 70.000000
183.046300 499.000000
184.051800 624.000000
186.029900 83.000000
194.038500 43.000000
195.045200 602.000000
195.057700 38.000000
196.050100 496.000000
196.097300 40.000000
197.023600 154.000000
198.030900 152.000000
199.040900 274.000000
200.045400 385.000000
210.027300 100.000000
210.050600 37.000000
211.039100 3792.000000
211.086700 134.000000
211.114300 38.000000
211.171900 51.000000
212.046700 495.000000
213.014300 55.000000
222.033500 52.000000
223.042700 132.000000
224.047600 108.000000
227.034700 159.000000
238.999100 38.000000
239.034700 2961.000000
239.085600 134.000000
239.116800 49.000000
239.172600 40.000000
240.042300 2290.000000
240.079800 115.000000
240.110900 48.000000
240.190800 42.000000
251.041000 43.000000
267.029400 1538.000000
267.090100 58.000000
268.037400 6937.000000
268.090000 311.000000
268.127700 65.000000
268.147700 48.000000
268.187600 82.000000
268.264900 64.000000
268.390400 40.000000
268.499400 43.000000
268.682200 39.000000

