>compound BML8117151
>parentmass 221.0732
>ionization [M-H]-
>formula C11H11FN2O2
>rt 98.160000
>profile qtof
#smiles_iso C1=CC2=C(C=C1F)NC=C2CC(C(=O)O)N
#smiles_can C1=CC2=C(C=C1F)NC=C2CC(C(=O)O)N
#inchikey YMEXGEAJNZRQEH-UHFFFAOYSA-N
#pubchem_id 94937
#mb_accession BML01569,BML01576,BML01583

>ms2peaks
134.041600 1655.000000
134.079100 63.000000
134.115200 21.000000
134.148400 23.000000
144.684600 31.000000
146.040600 90.000000
147.045800 87.000000
148.055800 136.000000
150.068600 41.000000
160.056500 782.000000
160.095400 53.000000
177.082400 1704.000000
177.120400 87.000000
177.149200 29.000000
177.209500 29.000000
177.529900 22.000000
184.865800 28.000000
191.038700 46.000000
193.880300 24.000000
204.045000 158.000000
221.071900 4364.000000

>ms2peaks
113.700700 27.000000
119.839500 21.000000
134.040200 2740.000000
134.074800 91.000000
134.090000 37.000000
134.146900 53.000000
134.330800 23.000000
146.038600 48.000000
147.047000 110.000000
148.056700 181.000000
150.073300 39.000000
160.055500 964.000000
160.090600 35.000000
168.566100 29.000000
175.070800 51.000000
177.083600 216.000000
204.044000 106.000000
204.637000 25.000000
221.072900 111.000000

>ms2peaks
114.033300 92.000000
117.865300 20.000000
128.057300 27.000000
129.888900 22.000000
134.040400 963.000000
140.052500 21.000000
146.043800 43.000000
148.056200 64.000000
158.045200 21.000000
160.052400 60.000000

