>compound BML8271459
>parentmass 343.0823
>ionization [M-H]-
>formula C18H16O7
>rt 520.140000
>profile qtof
#smiles_iso COC1=CC(=CC(=C1OC)OC)C2=C(C(=O)C3=C(O2)C=C(C=C3)O)O
#smiles_can COC1=CC(=CC(=C1OC)OC)C2=C(C(=O)C3=C(O2)C=C(C=C3)O)O
#inchikey NJNGYVOYOVPWBB-UHFFFAOYSA-N
#pubchem_id 6250403
#mb_accession BML01839,BML01849,BML01859

>ms2peaks
104.768400 24.000000
117.034900 38.000000
144.022400 34.000000
153.164700 36.000000
154.695400 25.000000
186.026100 23.000000
192.145500 38.000000
198.279700 40.000000
199.983900 23.000000
206.163100 39.000000
211.035700 27.000000
214.031600 85.000000
242.018500 94.000000
261.066100 26.000000
270.015300 115.000000
272.406300 37.000000
283.156800 22.000000
285.037200 96.000000
299.026800 26.000000
299.050600 59.000000
299.074200 23.000000
312.990800 25.000000
313.033300 1036.000000
313.084100 98.000000
313.192400 21.000000
313.966800 23.000000
327.041400 75.000000
327.063400 21.000000
328.057900 2045.000000
328.122000 47.000000
328.145600 40.000000
328.188400 29.000000
328.636200 30.000000
328.723800 31.000000
341.007300 29.000000
341.178600 31.000000
342.334500 29.000000
342.977800 23.000000
343.017400 73.000000
343.081400 16829.000000

>ms2peaks
102.132500 35.000000
135.014100 27.000000
158.032300 39.000000
160.010300 37.000000
177.016400 35.000000
186.034500 38.000000
211.043900 37.000000
214.028400 77.000000
224.053600 22.000000
242.023400 240.000000
253.054200 23.000000
270.017800 193.000000
281.008800 26.000000
282.054100 43.000000
283.023100 58.000000
283.256200 35.000000
284.030900 40.000000
285.042400 279.000000
295.017300 24.000000
296.758500 24.000000
297.032200 21.000000
298.006800 44.000000
299.057800 204.000000
300.054400 28.000000
309.028200 25.000000
313.034900 5717.000000
313.088900 129.000000
313.135100 27.000000
313.152400 24.000000
313.197100 91.000000
313.314500 30.000000
313.350800 32.000000
313.407900 42.000000
313.445800 44.000000
313.520400 81.000000
313.567400 26.000000
313.640300 33.000000
313.758200 28.000000
313.879100 25.000000
313.920800 30.000000
314.032400 24.000000
314.053300 25.000000
314.191700 27.000000
315.028900 44.000000
327.052600 153.000000
328.058500 5488.000000
328.152000 125.000000
328.182800 30.000000
328.226700 77.000000
328.265700 39.000000
328.327500 29.000000
328.356200 23.000000
328.438900 42.000000
328.478700 22.000000
328.537700 27.000000
328.772400 44.000000
328.902500 24.000000
328.986500 21.000000
329.210900 21.000000
329.379300 22.000000
339.707100 43.000000
342.989000 30.000000
343.080100 2353.000000

>ms2peaks
101.947200 33.000000
108.019300 43.000000
109.026300 67.000000
116.026300 37.000000
121.027100 33.000000
127.270900 48.000000
130.042700 90.000000
135.006100 220.000000
145.029400 34.000000
147.375100 65.000000
148.015100 21.000000
149.027000 21.000000
154.047200 21.000000
156.069100 34.000000
158.035500 433.000000
160.007500 29.000000
161.996900 36.000000
163.009700 36.000000
170.033200 42.000000
172.019000 31.000000
173.021500 25.000000
176.016500 22.000000
182.040800 31.000000
183.043800 30.000000
184.054100 60.000000
185.022100 62.000000
186.029300 368.000000
187.042000 61.000000
193.006600 24.000000
195.032200 31.000000
195.048700 22.000000
197.028300 40.000000
197.073000 22.000000
198.030000 111.000000
199.040700 26.000000
211.037100 85.000000
211.058100 24.000000
212.049100 50.000000
213.049900 22.000000
214.026400 1799.000000
214.069900 30.000000
214.094300 34.000000
214.157800 26.000000
225.020400 24.000000
225.053700 22.000000
226.025300 327.000000
227.033800 77.000000
228.040100 27.000000
229.043600 39.000000
230.018400 24.000000
237.017000 40.000000
239.027300 57.000000
239.044600 26.000000
240.037500 58.000000
241.019700 29.000000
241.041300 71.000000
241.056800 45.000000
242.023200 3447.000000
242.062600 172.000000
242.086100 64.000000
242.111600 46.000000
242.160900 50.000000
242.195600 26.000000
242.232300 30.000000
242.288700 28.000000
242.373600 23.000000
242.417900 27.000000
242.525900 26.000000
242.590200 21.000000
242.656000 20.000000
242.720800 25.000000
242.851200 20.000000
242.887000 33.000000
243.023000 100.000000
243.045300 39.000000
251.438700 30.000000
253.023400 25.000000
254.012300 126.000000
254.027600 63.000000
255.024700 131.000000
255.058700 44.000000
256.042300 56.000000
257.042200 278.000000
267.029100 36.000000
269.047900 24.000000
269.962900 23.000000
270.015400 1889.000000
270.069700 97.000000
270.127400 23.000000
270.170400 28.000000
281.006300 96.000000
281.050800 23.000000
282.013400 197.000000
282.030800 28.000000
282.052600 36.000000
284.034300 146.000000
284.998400 29.000000
285.039600 2034.000000
285.081600 168.000000
285.115800 45.000000
285.145700 25.000000
285.196800 25.000000
285.239100 21.000000
285.331500 28.000000
286.141400 30.000000
289.465000 21.000000
295.074500 58.000000
297.011200 32.000000
297.035200 43.000000
298.021000 109.000000
299.063300 95.000000
309.043800 73.000000
312.027600 47.000000
313.033400 1394.000000
313.102100 54.000000
313.123500 64.000000
313.196300 23.000000
327.052500 49.000000

