>compound BML8636175
>parentmass 347.10369999999995
>ionization [M-H]-
>formula C20H16N2O4
>rt 455.640000
>profile qtof
#smiles_iso CCC1(C2=C(COC1=O)C(=O)N3CC4=CC5=CC=CC=C5N=C4C3=C2)O
#smiles_can CCC1(C2=C(COC1=O)C(=O)N3CC4=CC5=CC=CC=C5N=C4C3=C2)O
#inchikey VSJKWCGYPAHWDS-UHFFFAOYSA-N
#pubchem_id 2538
#mb_accession BML00443,BML00453,BML00463

>ms2
167.062000 135.000000
259.130600 72.000000
288.094700 96.000000
303.113200 11272.000000

>ms2
100.999600 38.000000
121.030100 39.000000
123.044500 238.000000
135.893800 46.000000
167.061000 208.000000
218.088700 48.000000
230.085400 168.000000
231.102700 51.000000
246.075700 169.000000
247.084900 254.000000
247.117000 38.000000
247.140500 47.000000
257.106400 52.000000
259.119400 288.000000
276.091300 42.000000
288.089100 427.000000
303.112000 7382.000000
303.155900 136.000000
303.211300 47.000000
303.229800 61.000000
303.266500 106.000000
303.355200 66.000000
303.395400 45.000000
303.424700 58.000000
303.484900 63.000000
303.541200 61.000000
303.609700 42.000000
303.864300 48.000000
303.999500 45.000000
304.294700 50.000000

>ms2
167.061500 402.000000
170.109200 27.000000
180.060600 30.000000
191.065800 23.000000
193.079700 53.000000
202.056700 23.000000
203.065000 113.000000
204.078900 32.000000
205.068800 21.000000
217.072400 76.000000
218.085800 67.000000
219.049800 30.000000
219.092300 211.000000
219.108600 38.000000
229.077400 131.000000
230.086900 70.000000
230.741100 37.000000
231.066200 21.000000
231.116200 33.000000
232.059500 66.000000
232.082300 63.000000
232.106600 32.000000
232.127900 23.000000
233.076200 21.000000
243.092900 216.000000
244.098200 27.000000
245.068300 312.000000
245.111500 26.000000
246.068700 48.000000
246.083900 75.000000
247.082500 189.000000
247.117400 22.000000
257.104400 54.000000
258.957900 23.000000
259.051100 63.000000
259.082300 225.000000
259.116700 40.000000
260.067300 55.000000
260.090600 131.000000
261.100700 21.000000
271.094300 33.000000
273.069200 204.000000
287.078800 211.000000
288.062900 23.000000
288.089400 446.000000
288.136900 24.000000
303.108900 145.000000

