>compound BML8869116
>parentmass 453.0822
>ionization [M+CH3COOH-H]-
>formula C21H14O8
>rt 487.380000
>profile qtof
#smiles_iso CC(=O)OC1=C(C=C2C=C(C(=O)OC2=C1)OC3=CC4=C(C=C3)C=CC(=O)O4)OC
#smiles_can CC(=O)OC1=C(C=C2C=C(C(=O)OC2=C1)OC3=CC4=C(C=C3)C=CC(=O)O4)OC
#inchikey JGZOXTSCOZGQNQ-UHFFFAOYSA-N
#pubchem_id 1269245
#mb_accession BML01205,BML01210,BML01215

>ms2
117.843500 36.000000
119.929700 20.000000
122.117400 24.000000
140.500000 36.000000
163.008200 41.000000
185.833600 34.000000
190.994900 51.000000
251.501400 29.000000
253.932700 30.000000
295.090600 36.000000
323.050600 42.000000
336.033000 145.000000
350.416800 22.000000
351.050100 8959.000000
351.094700 50.000000
351.113200 200.000000
351.134500 23.000000
351.166100 105.000000
351.222800 91.000000
351.248200 28.000000
351.272800 58.000000
351.327000 40.000000
351.357600 22.000000
351.437300 64.000000
351.462300 35.000000
351.488000 28.000000
351.519300 27.000000
351.550000 51.000000
351.605700 27.000000
351.633000 46.000000
351.680500 26.000000
351.742100 46.000000
351.881300 29.000000
351.946900 51.000000
352.019600 40.000000
352.045700 45.000000
352.087600 21.000000
352.130700 26.000000
352.159300 33.000000
352.268100 30.000000
352.348100 21.000000
352.386100 36.000000
352.600300 32.000000
352.820000 20.000000
373.670700 28.000000
387.101700 24.000000
401.706800 27.000000
453.188100 21.000000

>ms2
123.198600 24.000000
147.584000 43.000000
163.001500 57.000000
183.929800 28.000000
190.997500 139.000000
201.948900 30.000000
206.028700 26.000000
242.012000 23.000000
279.063900 21.000000
295.056000 27.000000
308.036400 59.000000
323.059500 26.000000
336.023900 769.000000
336.045300 32.000000
336.079800 55.000000
350.992900 23.000000
351.050000 3092.000000
351.113900 74.000000
351.146600 70.000000
351.187000 27.000000
351.225900 44.000000
351.361900 23.000000
351.487800 29.000000
351.520800 22.000000
351.554800 21.000000
351.587400 22.000000
351.628400 20.000000
351.693600 25.000000
351.851800 20.000000
351.926000 27.000000
351.987800 25.000000
352.039800 20.000000
364.526100 23.000000

>ms2
135.008800 38.000000
163.003200 743.000000
163.049100 28.000000
190.996600 930.000000
191.033800 25.000000
191.051800 26.000000
193.983900 32.000000
206.017600 58.000000
251.025100 20.000000
252.041800 124.000000
252.058700 27.000000
279.036500 21.000000
308.031600 42.000000
318.026400 26.000000
336.024300 590.000000
336.069200 54.000000
351.044900 55.000000
408.214800 23.000000

