>compound BML8768931
>parentmass 263.1289
>ionization [M-H]-
>formula C15H20O4
>rt 387.000000
>profile qtof
#smiles_iso CC1=CC(=O)CC(C1(C=CC(=CC(=O)O)C)O)(C)C
#smiles_can CC1=CC(=O)CC(C1(C=CC(=CC(=O)O)C)O)(C)C
#inchikey JLIDBLDQVAYHNE-UHFFFAOYSA-N
#pubchem_id 287291
#mb_accession BML00498,BML00506,BML00514

>ms2
139.075000 170.000000
151.073600 187.000000
152.083400 2302.000000
153.091400 28357.000000
153.125800 826.000000
153.150900 349.000000
153.177600 228.000000
153.206400 408.000000
159.115500 200.000000
161.096400 537.000000
163.073700 443.000000
186.103000 190.000000
201.126900 1854.000000
203.104200 155.000000
204.115000 2729.000000
219.138200 7829.000000
219.179900 244.000000
263.127700 1708.000000

>ms2
153.334700 48.000000
153.717700 52.000000
159.116700 232.000000
161.096400 210.000000
163.074400 903.000000
163.109300 87.000000
164.082700 163.000000
175.080000 63.000000
177.132700 77.000000
183.114800 124.000000
185.100100 100.000000
186.103700 470.000000
188.084500 83.000000
189.093900 158.000000
189.117600 57.000000
201.127000 1821.000000
201.165400 91.000000
201.188200 53.000000
203.105900 561.000000
204.114600 4293.000000
204.153000 159.000000
204.183500 87.000000
219.137800 3645.000000
219.185700 84.000000
219.204300 90.000000
219.274900 54.000000
245.120100 73.000000
248.107700 81.000000

>ms2
133.067100 47.000000
135.047900 86.000000
135.081300 148.000000
136.052200 1139.000000
136.083200 70.000000
136.104300 26.000000
136.159100 21.000000
136.566200 22.000000
136.789000 28.000000
137.061000 388.000000
138.070900 194.000000
139.074700 227.000000
139.371400 22.000000
142.375200 21.000000
143.088000 144.000000
144.059600 55.000000
145.066500 87.000000
146.068600 31.000000
147.040000 59.000000
147.078600 96.000000
148.050500 556.000000
148.067300 28.000000
148.085400 32.000000
148.783600 21.000000
149.060500 248.000000
151.076000 399.000000
151.103100 29.000000
151.126300 20.000000
152.081900 58.000000
153.099500 25.000000
159.045100 57.000000
160.095000 35.000000
161.066400 36.000000
161.096300 144.000000
162.070800 44.000000
163.072800 142.000000
164.050000 34.000000
164.084400 139.000000
170.079600 21.000000
171.080900 342.000000
171.126700 26.000000
172.053600 30.000000
173.060900 271.000000
174.063600 76.000000
174.091800 26.000000
174.581800 54.000000
175.077900 65.000000
185.095800 230.000000
186.103100 33.000000
187.075500 79.000000
187.085500 40.000000
188.084000 1282.000000
188.130500 64.000000
188.155100 24.000000
188.210400 23.000000
189.090500 964.000000
190.034300 23.000000
199.078500 20.000000
200.084300 20.000000
201.096700 75.000000
201.117600 29.000000
202.105900 47.000000
203.106300 1829.000000
203.141700 49.000000
203.170900 32.000000
203.240100 24.000000
204.110000 40.000000
204.120700 91.000000
206.865400 55.000000
219.137800 30.000000
220.786200 24.000000
228.242500 23.000000

