>compound BML8071627
>parentmass 141.0193
>ionization [M-H]-
>formula C6H6O4
>rt 47.280000
>profile qtof
#smiles_iso C1=C(OC=C(C1=O)O)CO
#smiles_can C1=C(OC=C(C1=O)O)CO
#inchikey BEJNERDRQOWKJM-UHFFFAOYSA-N
#pubchem_id 3840
#mb_accession BML00089

>ms2peaks
111.009100 52.000000
113.023800 50.000000
141.018700 372.000000

