>compound BML8651832
>parentmass 330.1711
>ionization [M-H]-
>formula C19H25NO4
>rt 496.560000
>profile qtof
#smiles_iso C/C(=C\COC1=CC(=O)NC2=CC=CC=C21)/CCC(C(C)(C)O)O
#smiles_can CC(=CCOC1=CC(=O)NC2=CC=CC=C21)CCC(C(C)(C)O)O
#inchikey PBWIOAMUZKICDN-JLHYYAGUSA-N
#pubchem_id 5338262
#mb_accession BML00044,BML00052,BML00060

>ms2
101.955000 72.000000
151.938300 64.000000
160.039200 5429.000000
160.080600 196.000000
160.156700 94.000000
213.080600 88.000000
226.370900 62.000000
330.169800 2682.000000

>ms2
111.040600 43.000000
131.044800 45.000000
159.030000 230.000000
160.040200 3746.000000
160.081500 143.000000
160.099900 79.000000
160.158900 58.000000
160.234200 45.000000
198.053200 148.000000
213.073400 43.000000
214.091400 43.000000
242.114800 39.000000
294.104500 60.000000
296.985200 42.000000
330.169400 823.000000

>ms2
160.157200 62.000000
160.566400 55.000000
173.042300 67.000000
198.057000 390.000000
199.067300 102.000000
200.080400 41.000000
212.067600 116.000000
226.090000 37.000000
228.104300 121.000000
232.848100 50.000000

