>compound BML8095341
>parentmass 321.005
>ionization [M-H]-
>formula C11H12Cl2N2O5
>rt 254.040000
>profile qtof
#smiles_iso C1=CC(=CC=C1[C@H]([C@@H](CO)NC(=O)C(Cl)Cl)O)[N+](=O)[O-]
#smiles_can C1=CC(=CC=C1C(C(CO)NC(=O)C(Cl)Cl)O)[N+](=O)[O-]
#inchikey WIIZWVCIJKGZOK-RKDXNWHRSA-N
#pubchem_id 5959
#mb_accession BML00987,BML00995

>ms2
105.446600 33.000000
120.452500 46.000000
121.024700 25.000000
122.005300 26.000000
126.935200 49.000000
151.028300 117.000000
152.034700 464.000000
175.050000 21.000000
176.032200 175.000000
185.071100 24.000000
194.044700 416.000000
194.076500 37.000000
205.022500 56.000000
237.048400 21.000000
237.062100 27.000000
249.047300 68.000000
257.033500 381.000000
260.893600 25.000000
310.712700 32.000000
321.002600 556.000000

>ms2
162.016800 41.000000
176.037100 152.000000
192.342700 20.000000
194.048800 42.000000
205.582600 21.000000
219.037800 26.000000
256.545600 30.000000
290.268300 26.000000
302.609000 34.000000
309.705900 41.000000
320.008700 21.000000

