>compound BML8581650
>parentmass 852.3237
>ionization [M-H]-
>formula C47H51NO14
>rt 578.400000
>profile qtof
#smiles_iso CC1=C2C(C(=O)C3(C(CC4C(C3C(C(C2(C)C)(CC1OC(=O)C(C(C5=CC=CC=C5)NC(=O)C6=CC=CC=C6)O)O)OC(=O)C7=CC=CC=C7)(CO4)OC(=O)C)O)C)OC(=O)C
#smiles_can CC1=C2C(C(=O)C3(C(CC4C(C3C(C(C2(C)C)(CC1OC(=O)C(C(C5=CC=CC=C5)NC(=O)C6=CC=CC=C6)O)O)OC(=O)C7=CC=CC=C7)(CO4)OC(=O)C)O)C)OC(=O)C
#inchikey RCINICONZNJXQF-UHFFFAOYSA-N
#pubchem_id 4666
#mb_accession BML00942,BML00948,BML00954

>ms2
111.216000 27.000000
121.027100 139.000000
130.945700 45.000000
141.010300 23.000000
195.588600 21.000000
266.082600 34.000000
313.433700 22.000000
319.157000 24.000000
373.165900 23.000000
403.175600 36.000000
410.053700 29.000000
448.618200 37.000000
525.212000 1535.000000
525.283100 42.000000
525.441600 28.000000
525.648600 21.000000
525.845500 30.000000
525.991400 25.000000
646.172700 24.000000
738.216600 26.000000
792.301300 168.000000
792.366400 34.000000
792.395500 37.000000
852.308800 29.000000

>ms2
114.920800 23.000000
121.029200 527.000000
121.064500 23.000000
125.025400 30.000000
127.782200 27.000000
130.945100 28.000000
163.669600 23.000000
238.810400 26.000000
266.078900 35.000000
284.087400 25.000000
319.146000 74.000000
319.164100 55.000000
373.162100 103.000000
403.194500 35.000000
525.210100 895.000000
525.288700 48.000000
525.778000 21.000000
567.637700 24.000000
676.389400 23.000000
792.304000 52.000000

>ms2
107.886000 22.000000
121.028800 755.000000
121.059600 35.000000
145.281300 25.000000
153.932400 24.000000
319.150200 137.000000
343.164000 27.000000
426.479200 23.000000
463.349800 21.000000
819.718400 25.000000

