>compound BML8605139
>parentmass 301.2173
>ionization [M-H]-
>formula C20H30O2
>rt 693.420000
>profile qtof
#smiles_iso CC(C)C1=CC2=CC[C@@H]3[C@@]([C@H]2CC1)(CCC[C@@]3(C)C(=O)O)C
#smiles_can CC(C)C1=CC2=CCC3C(C2CC1)(CCCC3(C)C(=O)O)C
#inchikey RSWGJHLUYNHPMX-ONCXSQPRSA-N
#pubchem_id 10569
#mb_accession BML00381,BML00387

>ms2peaks
155.865300 43.000000
267.851800 47.000000
300.999900 73.000000
301.060400 49.000000
301.215900 6307.000000

>ms2peaks
107.783100 33.000000
114.516000 28.000000
126.112000 28.000000
152.163300 21.000000
175.016200 25.000000
178.063400 36.000000
218.333000 26.000000
218.997700 23.000000
224.294800 23.000000
236.723700 34.000000
262.743300 30.000000
277.871700 22.000000
277.899900 38.000000
301.143200 24.000000
301.215000 3311.000000

