>compound BML8562017
>parentmass 140.0829
>ionization [M-H]-
>formula C6H11N3O
>rt 18.300000
>profile qtof
#smiles_iso C1=C(NC=N1)CC(CO)N
#smiles_can C1=C(NC=N1)CC(CO)N
#inchikey ZQISRDCJNBUVMM-UHFFFAOYSA-N
#pubchem_id 776
#mb_accession BML01568,BML01575

>ms2
105.045900 529.000000
108.057200 21.000000
121.039200 34.000000
122.071200 49.000000
122.081700 37.000000
122.407200 27.000000
123.054900 679.000000
123.091100 32.000000
138.066700 2039.000000
138.102700 87.000000
138.131800 41.000000
138.148400 52.000000
138.189400 31.000000
139.029100 22.000000
139.108900 35.000000
140.082300 7144.000000

>ms2
105.046800 678.000000
105.077400 42.000000
107.048500 22.000000
108.034900 95.000000
109.036900 30.000000
110.074900 51.000000
121.040800 101.000000
122.071200 25.000000
123.054400 242.000000
138.066400 776.000000
138.079700 25.000000
138.092600 28.000000
140.082900 444.000000

