>compound BML8686421
>parentmass 577.1563
>ionization [M-H]-
>formula C27H30O14
>rt 308.940000
>profile qtof
#smiles_iso CC1C(C(C(C(O1)OC2C(C(C(OC2C3=C(C=C(C4=C3OC(=CC4=O)C5=CC=C(C=C5)O)O)O)CO)O)O)O)O)O
#smiles_can CC1C(C(C(C(O1)OC2C(C(C(OC2C3=C(C=C(C4=C3OC(=CC4=O)C5=CC=C(C=C5)O)O)O)CO)O)O)O)O)O
#inchikey LYGPBZVKGHHTIE-UHFFFAOYSA-N
#pubchem_id 5874704
#mb_accession BML01786,BML01792,BML01798

>ms2peaks
200.807300 25.000000
293.046700 389.000000
293.091800 21.000000
310.519700 21.000000
311.060900 73.000000
329.266200 22.000000
397.207400 34.000000
407.810600 25.000000
413.086900 1044.000000
413.138700 57.000000
413.173700 33.000000
457.103400 134.000000
457.139400 24.000000
577.153700 10954.000000

>ms2peaks
101.019500 35.000000
117.032300 39.000000
119.040700 21.000000
135.108500 31.000000
156.665400 50.000000
175.002800 24.000000
203.919900 27.000000
269.049100 41.000000
269.695200 27.000000
293.045400 1572.000000
293.101700 66.000000
293.131100 53.000000
306.070800 24.000000
311.055000 370.000000
311.096300 30.000000
322.979900 25.000000
323.051900 62.000000
323.459400 25.000000
335.353600 21.000000
341.066000 79.000000
412.993700 29.000000
413.086600 5658.000000
413.145400 110.000000
413.185800 25.000000
413.224500 74.000000
413.270800 79.000000
413.318800 25.000000
413.361500 33.000000
413.399700 40.000000
413.503100 33.000000
413.570100 26.000000
413.644700 71.000000
413.694100 56.000000
413.765800 22.000000
413.786700 22.000000
413.813400 24.000000
413.855800 31.000000
413.954400 28.000000
414.015100 33.000000
414.074700 44.000000
414.104000 34.000000
414.248900 23.000000
414.379200 22.000000
414.528000 25.000000
431.100600 72.000000
454.358900 24.000000
457.110300 458.000000
457.175800 50.000000
544.499100 22.000000
566.873400 28.000000
575.625300 21.000000
577.154800 5562.000000

>ms2peaks
103.040500 37.000000
103.046400 20.000000
117.032400 67.000000
137.016600 42.000000
172.976700 20.000000
173.021400 65.000000
175.002600 104.000000
205.022600 32.000000
211.938300 22.000000
249.055900 49.000000
268.048300 21.000000
269.044600 166.000000
281.044800 134.000000
282.050300 159.000000
283.062800 190.000000
293.045000 8222.000000
293.093600 94.000000
293.141400 58.000000
293.159000 82.000000
293.199700 119.000000
293.222900 22.000000
293.256700 37.000000
293.275000 32.000000
293.299000 28.000000
293.449100 31.000000
293.488600 31.000000
293.544600 44.000000
293.566800 20.000000
293.668500 54.000000
293.735700 28.000000
293.798000 31.000000
293.818000 22.000000
293.903000 22.000000
293.934900 24.000000
293.994600 20.000000
294.049800 38.000000
294.098000 44.000000
294.337900 21.000000
294.456400 28.000000
295.071100 25.000000
297.038500 21.000000
297.081900 34.000000
309.043100 40.000000
311.055200 1093.000000
311.102800 100.000000
311.129300 28.000000
312.055100 25.000000
323.023000 20.000000
323.057100 190.000000
325.074300 29.000000
335.061300 85.000000
337.071500 43.000000
341.063600 170.000000
353.056300 35.000000
377.057400 40.000000
413.083900 610.000000
413.141600 54.000000
457.107500 50.000000
461.512300 21.000000

