>compound BML9062290
>parentmass 253.0506
>ionization [M-H]-
>formula C15H10O4
>rt 518.580000
>profile qtof
#smiles_iso C1=CC=C(C=C1)C2=CC(=O)C3=C(C=C(C=C3O2)O)O
#smiles_can C1=CC=C(C=C1)C2=CC(=O)C3=C(C=C(C=C3O2)O)O
#inchikey RTIXKCRFFJGDFG-UHFFFAOYSA-N
#pubchem_id 5281607
#mb_accession BML01063,BML01066,BML01069

>ms2
101.038800 49.000000
107.015100 188.000000
115.056600 87.000000
117.034300 29.000000
118.443900 32.000000
119.048300 21.000000
121.029400 47.000000
131.702900 20.000000
133.224900 43.000000
134.979200 46.000000
139.056600 24.000000
140.220200 30.000000
141.237300 51.000000
143.048500 425.000000
145.027700 273.000000
151.002200 41.000000
152.061800 39.000000
153.069900 50.000000
155.051700 37.000000
165.071500 113.000000
167.050100 74.000000
171.092400 21.000000
171.888800 22.000000
176.638900 22.000000
180.056200 117.000000
181.077500 49.000000
183.043800 46.000000
185.055900 84.000000
187.045000 60.000000
197.060400 27.000000
208.058100 26.000000
209.061700 382.000000
209.123400 42.000000
211.039300 108.000000
251.091200 33.000000
252.693000 23.000000
252.966900 72.000000
253.050100 80208.000000

>ms2
101.040900 62.000000
107.012800 982.000000
107.041800 45.000000
107.108800 22.000000
111.015700 22.000000
115.055600 59.000000
119.049900 194.000000
121.031400 38.000000
125.035300 29.000000
139.054400 89.000000
143.048800 1322.000000
143.087500 55.000000
145.027300 587.000000
145.039600 33.000000
145.063000 25.000000
148.014600 174.000000
151.002700 337.000000
151.033400 25.000000
153.070800 208.000000
155.046800 94.000000
157.056700 21.000000
157.065400 75.000000
165.069300 329.000000
167.049200 227.000000
169.066700 36.000000
175.006300 29.000000
180.057600 409.000000
181.065000 503.000000
181.099100 31.000000
183.045500 107.000000
185.060300 472.000000
187.039400 96.000000
191.052800 21.000000
197.056100 46.000000
197.070900 20.000000
208.052100 143.000000
208.987800 29.000000
209.059900 1805.000000
209.103300 46.000000
209.118100 45.000000
209.197300 22.000000
211.037700 404.000000
211.059600 24.000000
219.355700 23.000000
225.055500 211.000000
232.394600 21.000000
253.003800 25.000000
253.049900 44907.000000

>ms2
100.429800 45.000000
101.039500 1497.000000
101.063100 36.000000
101.090100 23.000000
101.131800 27.000000
106.003200 27.000000
107.014300 1200.000000
107.041100 33.000000
114.044900 21.000000
115.055900 631.000000
115.086900 28.000000
117.033500 123.000000
119.012400 23.000000
119.049900 1947.000000
119.084800 61.000000
119.124500 31.000000
119.150800 32.000000
119.773100 30.000000
121.024300 38.000000
125.037700 105.000000
127.054300 155.000000
129.037400 43.000000
132.022900 39.000000
138.047300 49.000000
139.054000 213.000000
141.033800 85.000000
142.046400 32.000000
143.049600 2705.000000
143.075400 83.000000
143.083100 28.000000
143.093400 30.000000
143.103100 31.000000
143.133700 22.000000
143.160900 40.000000
143.256500 21.000000
145.028500 1552.000000
145.053400 24.000000
145.062500 46.000000
147.011900 52.000000
148.014700 22.000000
150.933200 50.000000
151.003600 141.000000
152.062800 66.000000
153.073300 45.000000
155.048900 316.000000
156.339300 20.000000
157.066400 86.000000
165.032100 33.000000
165.070400 331.000000
166.043100 23.000000
167.048300 460.000000
169.034400 59.000000
169.066900 67.000000
180.055300 92.000000
181.065500 209.000000
181.083400 27.000000
183.042600 69.000000
185.064400 143.000000
194.033200 23.000000
195.045400 37.000000
197.060900 65.000000
205.842900 29.000000
207.034100 29.000000
208.051200 155.000000
209.055900 217.000000
209.066800 46.000000
211.046500 24.000000
228.687600 36.000000
235.044200 24.000000
253.047800 333.000000

