>compound BML9768201
>parentmass 204.1241
>ionization [M-H]-
>formula C9H19NO4
>rt 97.740000
>profile qtof
#smiles_iso CC(C)(CO)C(C(=O)NCCCO)O
#smiles_can CC(C)(CO)C(C(=O)NCCCO)O
#inchikey SNPLKNRPJHDVJA-UHFFFAOYSA-N
#pubchem_id 4678
#mb_accession BML01159,BML01168

>ms2
100.042100 135.000000
101.060700 664.000000
102.056200 4109.000000
102.082400 23.000000
102.087800 115.000000
102.102700 46.000000
102.121300 33.000000
102.150700 63.000000
102.245300 22.000000
102.325000 22.000000
102.441700 26.000000
102.596100 20.000000
120.623400 31.000000
126.093600 459.000000
129.055600 536.000000
129.084700 26.000000
130.049900 227.000000
146.079600 49.000000
146.087900 53.000000
156.102400 419.000000
172.099300 194.000000
174.114200 269.000000
204.088400 37.000000
204.124100 22866.000000

>ms2
100.040600 245.000000
100.075200 20.000000
101.052500 26.000000
102.056000 3677.000000
102.085600 135.000000
102.102700 41.000000
102.127300 29.000000
102.149600 51.000000
108.082900 88.000000
116.071800 21.000000
117.106000 22.000000
124.075700 26.000000
126.092500 622.000000
126.131000 24.000000
129.057600 122.000000
130.051300 195.000000
132.065300 23.000000
144.096600 21.000000
146.079700 130.000000
156.102400 108.000000
167.396500 26.000000
172.095000 93.000000
174.109400 76.000000
204.123600 877.000000

