>compound BML9185201
>parentmass 211.0877
>ionization [M-H]-
>formula C13H12N2O
>rt 270.540000
>profile qtof
#smiles_iso CC1=NC=CC2=C1NC3=C2C=CC(=C3)OC
#smiles_can CC1=NC=CC2=C1NC3=C2C=CC(=C3)OC
#inchikey BXNJHAXVSOCGBA-UHFFFAOYSA-N
#pubchem_id 5280953
#mb_accession BML01062,BML01065,BML01068

>ms2peaks
107.932900 25.000000
124.526200 21.000000
133.861500 33.000000
162.859400 41.000000
163.106600 34.000000
168.073800 66.000000
196.063800 3264.000000
196.108200 107.000000
196.156200 34.000000
196.192700 43.000000
196.887000 52.000000
211.087000 3634.000000

>ms2peaks
137.420700 29.000000
168.068800 306.000000
168.104200 21.000000
195.055100 65.000000
196.029100 24.000000
196.063400 6210.000000
196.105000 261.000000
196.165400 53.000000
196.194900 80.000000
196.216900 22.000000
196.249000 24.000000
196.306700 22.000000
196.412000 34.000000
196.524100 22.000000
196.630000 23.000000
196.820400 23.000000
197.068900 21.000000
197.853800 23.000000
211.086600 285.000000

>ms2peaks
167.059900 29.000000
168.061300 32.000000
168.069200 615.000000
168.106600 31.000000
195.047200 23.000000
195.055500 232.000000
196.065100 225.000000
196.072900 28.000000

