>compound BML9898432
>parentmass 304.9778
>ionization [M-H]-
>formula C9H11BrN2O5
>rt 100.080000
>profile qtof
#smiles_iso C1C(C(OC1N2C=C(C(=O)NC2=O)Br)CO)O
#smiles_can C1C(C(OC1N2C=C(C(=O)NC2=O)Br)CO)O
#inchikey WOVKYSAHUYNSMH-UHFFFAOYSA-N
#pubchem_id 236184
#mb_accession BML01443

>ms2
107.280300 41.000000
113.826900 25.000000
141.014100 53.000000
152.035100 71.000000
175.720300 31.000000
179.598100 23.000000
188.929700 29.000000
201.983000 33.000000
214.938200 56.000000
284.665000 23.000000
304.978500 397.000000

