>compound BML9001366
>parentmass 469.3323
>ionization [M-H]-
>formula C30H46O4
>rt 700.860000
>profile qtof
#smiles_iso CC1(C2CCC3(C(C2(CCC1O)C)C(=O)C=C4C3(CCC5(C4CC(CC5)(C)C(=O)O)C)C)C)C
#smiles_can CC1(C2CCC3(C(C2(CCC1O)C)C(=O)C=C4C3(CCC5(C4CC(CC5)(C)C(=O)O)C)C)C)C
#inchikey MPDGHEJMBKOTSU-UHFFFAOYSA-N
#pubchem_id 3230
#mb_accession BML00501,BML00509,BML00517

>ms2peaks
305.067000 59.000000
305.098300 22.000000
330.040300 20.000000
386.986200 42.000000
387.023400 489.000000
387.090500 28.000000
431.716600 27.000000
469.032100 22.000000
469.327100 1052.000000

>ms2peaks
152.312100 21.000000
223.018600 228.000000
305.013700 49.000000
305.027100 49.000000
334.889300 30.000000
366.851200 21.000000
377.547000 35.000000
389.856400 56.000000
425.327200 32.000000
469.274700 34.000000
469.330600 1540.000000

>ms2peaks
267.562600 24.000000
278.762200 33.000000
297.230500 32.000000
303.801900 28.000000
336.354100 37.000000
355.256900 117.000000
409.290200 27.000000
425.336100 170.000000
442.276700 32.000000
443.073500 20.000000
457.019600 33.000000
469.330100 879.000000

