>compound BML9840033
>parentmass 243.0809
>ionization [M-H]-
>formula C10H16N2O3S
>rt 207.600000
>profile qtof
#smiles_iso C1C2C(C(S1)CCCCC(=O)O)NC(=O)N2
#smiles_can C1C2C(C(S1)CCCCC(=O)O)NC(=O)N2
#inchikey YBJHBAHKTGYVGT-UHFFFAOYSA-N
#pubchem_id 253
#mb_accession BML00305,BML00309

>ms2
111.048400 83.000000
122.095000 213.000000
156.082900 91.000000
165.105700 248.000000
166.086600 1161.000000
191.080200 92.000000
197.091400 114.000000
199.090600 615.000000
200.074600 2207.000000
209.093800 519.000000
243.080600 13223.000000

>ms2
100.958900 20.000000
103.055400 23.000000
108.047500 39.000000
110.096300 22.000000
111.053000 74.000000
113.058800 29.000000
122.096800 518.000000
122.119600 33.000000
122.132100 20.000000
139.054900 210.000000
148.073700 45.000000
153.104000 115.000000
154.086800 102.000000
156.086300 308.000000
156.108700 24.000000
157.139100 42.000000
158.634300 26.000000
162.010900 20.000000
165.100100 99.000000
165.109700 80.000000
166.086200 1171.000000
166.105800 32.000000
166.124700 46.000000
166.142700 30.000000
166.204700 20.000000
167.400600 22.000000
170.084500 20.000000
179.078900 29.000000
189.715700 22.000000
192.063000 22.000000
197.092600 146.000000
199.089500 95.000000
200.073800 845.000000
200.116400 39.000000
200.194800 23.000000
209.092000 90.000000
243.078300 545.000000

