>compound BML9450364
>parentmass 255.0663
>ionization [M-H]-
>formula C15H12O4
>rt 472.440000
>profile qtof
#smiles_iso C1[C@@H](OC2=CC(=CC(=C2C1=O)O)O)C3=CC=CC=C3
#smiles_can C1C(OC2=CC(=CC(=C2C1=O)O)O)C3=CC=CC=C3
#inchikey URFCJEUYXNAHFI-CYBMUJFWSA-N
#pubchem_id 667544
#mb_accession BML00135,BML00137,BML00145,BML00152

>ms2peaks
133.028200 319.000000
136.016700 668.000000
141.069900 278.000000
145.065400 3779.000000
151.003500 7475.000000
164.010600 1325.000000
169.066000 1934.000000
171.044300 3130.000000
172.052900 753.000000
177.018300 251.000000
183.081100 660.000000
185.060800 1036.000000
187.075900 1939.000000
193.065400 299.000000
211.076400 2952.000000
213.055200 9661.000000
213.096800 361.000000
227.072600 856.000000
255.066400 47029.000000

>ms2peaks
145.067000 622.000000
151.003500 934.000000
171.044100 591.000000
211.075200 595.000000
213.055200 1719.000000
255.066600 110320.000000

>ms2peaks
107.013600 3406.000000
108.021600 253.000000
125.023600 489.000000
133.028200 319.000000
136.016700 668.000000
141.069900 278.000000
145.065400 3779.000000
151.003500 7475.000000
164.010600 1325.000000
169.066000 1934.000000
171.044300 3130.000000
172.052900 753.000000
177.018300 251.000000
183.081100 660.000000
185.060800 1036.000000
187.075900 1939.000000
193.065400 299.000000
211.076400 2952.000000
213.055200 9661.000000
213.096800 361.000000
227.072600 856.000000
255.066400 47029.000000

>ms2peaks
101.040400 763.000000
101.074100 27.000000
103.054300 596.000000
103.080600 24.000000
105.033200 41.000000
107.013600 2692.000000
107.044500 56.000000
107.050600 39.000000
107.066700 33.000000
107.084700 23.000000
107.110700 33.000000
108.022000 1274.000000
108.053500 57.000000
108.986400 21.000000
108.994300 25.000000
109.027200 98.000000
115.054600 397.000000
117.034600 384.000000
117.069600 209.000000
119.019700 31.000000
120.020100 115.000000
121.028000 33.000000
122.000500 167.000000
123.007700 299.000000
125.023100 83.000000
127.055100 494.000000
129.074000 30.000000
130.042600 432.000000
131.050100 23.000000
132.025800 26.000000
133.027600 45.000000
136.014400 409.000000
136.058600 22.000000
137.548600 22.000000
139.052000 67.000000
139.061000 30.000000
141.070400 774.000000
143.049200 439.000000
145.027900 21.000000
145.065100 1707.000000
145.100100 99.000000
147.045500 28.000000
150.786300 21.000000
151.002800 867.000000
151.052000 79.000000
152.067800 42.000000
154.058300 24.000000
155.083400 79.000000
157.062700 100.000000
163.002700 87.000000
164.011700 173.000000
165.073900 22.000000
165.663900 50.000000
167.046200 108.000000
169.067200 480.000000
171.044200 2526.000000
171.083100 39.000000
171.099100 53.000000
171.129600 21.000000
171.166200 39.000000
172.050700 284.000000
172.093000 20.000000
177.015900 43.000000
181.069200 39.000000
182.080800 21.000000
183.081900 92.000000
184.052100 63.000000
184.731800 24.000000
185.060100 1487.000000
185.094200 67.000000
185.124700 27.000000
185.186800 26.000000
187.074500 70.000000
193.072100 30.000000
195.046700 50.000000
199.075000 31.000000
209.056400 26.000000
210.063600 27.000000
211.080500 111.000000
213.054600 409.000000
227.065700 56.000000
227.078500 30.000000
237.070100 21.000000
255.060800 34.000000
255.073800 45.000000

