>compound BML9526494
>parentmass 481.176
>ionization [M-H]-
>formula C24H27ClN6O3
>rt 515.460000
>profile qtof
#smiles_iso COC1=C(C=C(C=C1)CCNC2=NC(=NC(=N2)Cl)N3CC4CC(C3)C5=CC=CC(=O)N5C4)OC
#smiles_can COC1=C(C=C(C=C1)CCNC2=NC(=NC(=N2)Cl)N3CC4CC(C3)C5=CC=CC(=O)N5C4)OC
#inchikey DRVRFMGQMHIZLI-UHFFFAOYSA-N
#pubchem_id 3579737
#mb_accession BML01680,BML01690,BML01700

>ms2peaks
103.798500 38.000000
127.533000 28.000000
141.013300 67.000000
147.870700 23.000000
234.048300 34.000000
234.977900 59.000000
273.277600 45.000000
312.082100 41.000000
316.976100 85.000000
317.090200 20.000000
399.007600 22.000000
442.502800 29.000000
481.173600 2486.000000

>ms2peaks
123.989700 49.000000
129.574600 24.000000
192.765600 32.000000
234.974300 30.000000
243.048800 38.000000
278.436200 24.000000
278.463900 20.000000
344.578600 50.000000
346.690500 27.000000
347.480700 22.000000
354.838200 71.000000
358.701800 20.000000
366.974000 21.000000
416.113700 52.000000
468.920800 20.000000
481.176700 1491.000000

>ms2peaks
146.313300 23.000000
169.802300 26.000000
172.935600 27.000000
196.170800 22.000000
245.863100 21.000000
246.187400 28.000000
285.162800 86.000000
295.266400 51.000000
331.992300 27.000000
362.196400 24.000000
376.915700 22.000000
483.109300 50.000000
592.065100 26.000000
613.147700 20.000000
653.112700 32.000000
697.769000 79.000000
713.177200 29.000000
736.805900 35.000000
754.277400 28.000000
805.992100 23.000000
967.234600 57.000000

