>compound BML9134091
>parentmass 267.0663
>ionization [M-H]-
>formula C16H12O4
>rt 469.380000
>profile qtof
#smiles_iso COC1=CC=C(C=C1)C2=COC3=C(C2=O)C=CC(=C3)O
#smiles_can COC1=CC=C(C=C1)C2=COC3=C(C2=O)C=CC(=C3)O
#inchikey HKQYGTCOTHHOMP-UHFFFAOYSA-N
#pubchem_id 5280378
#mb_accession BML00204,BML00217,BML00230

>ms2peaks
132.021700 59.000000
195.040900 75.000000
206.022000 348.000000
223.038000 121.000000
252.042100 1619.000000
267.066000 10652.000000

>ms2peaks
132.021300 172.000000
135.008000 211.000000
195.042900 264.000000
196.051500 79.000000
208.054400 147.000000
223.040500 579.000000
224.046600 270.000000
251.034800 478.000000
252.043100 10940.000000
252.087100 312.000000
252.123000 200.000000
252.189600 166.000000
252.253400 66.000000
252.301100 60.000000
267.065200 2885.000000

>ms2peaks
104.024800 839.000000
104.059100 27.000000
104.094000 30.000000
104.541200 24.000000
116.028900 79.000000
117.034700 46.000000
132.020400 2392.000000
132.042800 55.000000
132.071500 60.000000
132.128100 29.000000
132.193100 32.000000
135.007800 1192.000000
135.046900 48.000000
145.020900 22.000000
151.063900 28.000000
166.036700 25.000000
167.049900 562.000000
167.087400 31.000000
168.051900 44.000000
173.019200 25.000000
179.047700 83.000000
180.055400 195.000000
180.064900 89.000000
194.044600 52.000000
195.044600 4241.000000
195.079100 182.000000
195.092000 59.000000
195.141200 45.000000
195.169700 55.000000
195.215600 51.000000
195.570500 31.000000
195.913400 27.000000
196.060000 66.000000
197.357700 36.000000
208.050900 700.000000
208.069400 100.000000
210.040900 31.000000
211.293400 25.000000
223.039500 4253.000000
223.083400 187.000000
223.113000 74.000000
223.149100 33.000000
223.181100 51.000000
223.217600 24.000000
223.282800 22.000000
223.736700 25.000000
223.867900 22.000000
224.050100 399.000000
224.096800 38.000000
225.564100 31.000000
246.437800 24.000000
250.027900 47.000000
251.034200 2384.000000
251.073700 67.000000
251.100900 55.000000
251.176700 27.000000
251.321700 28.000000
251.455700 28.000000
251.526500 23.000000
251.571700 23.000000
252.042800 591.000000
252.086200 38.000000

