>compound BML9602818
>parentmass 219.033
>ionization [M-H]-
>formula C11H9ClN2O
>rt 424.020000
>profile qtof
#smiles_iso C1CNC(=O)C2=C1C3=C(N2)C(=CC=C3)Cl
#smiles_can C1CNC(=O)C2=C1C3=C(N2)C(=CC=C3)Cl
#inchikey ILCLBYYAGZLAGC-UHFFFAOYSA-N
#pubchem_id 4174840
#mb_accession BML01835,BML01845

>ms2
175.213400 25.000000
185.240300 22.000000
205.870400 23.000000
218.013200 26.000000
218.963400 29.000000
219.031700 1255.000000

>ms2
144.053400 31.000000
176.026200 104.000000
182.700100 22.000000
218.962700 29.000000
219.015100 50.000000
219.032600 674.000000

