>compound BML9134873
>parentmass 207.0299
>ionization [M-H]-
>formula C10H8O5
>rt 240.420000
>profile qtof
#smiles_iso COC1=C(C(=C2C(=C1)C=CC(=O)O2)O)O
#smiles_can COC1=C(C(=C2C(=C1)C=CC(=O)O2)O)O
#inchikey HAVWRBANWNTOJX-UHFFFAOYSA-N
#pubchem_id 5273569
#mb_accession BML00198,BML00211

>ms2peaks
108.021200 173.000000
127.272700 23.000000
184.508800 20.000000
191.006000 62.000000
192.005400 3775.000000
192.039700 146.000000
192.056900 23.000000
192.067200 73.000000
192.100200 38.000000
192.134400 52.000000
192.369000 24.000000
192.392600 21.000000
207.029200 2926.000000

>ms2peaks
108.022000 781.000000
120.022000 173.000000
126.321500 24.000000
136.016000 77.000000
147.007700 32.000000
162.996900 46.000000
163.004900 25.000000
164.013700 186.000000
175.009100 52.000000
190.993500 76.000000
192.005500 3002.000000
192.040100 43.000000
192.049600 112.000000
192.135000 31.000000
192.287400 22.000000
192.523300 23.000000
207.027500 95.000000

