>compound BML9698359
>parentmass 406.20239999999995
>ionization [M-H]-
>formula C25H29NO4
>rt 618.120000
>profile qtof
#smiles_iso CC1CC2(C3C(C1(COC3C4=CC=CC=C4O2)COC(=O)NC5=CC=CC=C5)C)C
#smiles_can CC1CC2(C3C(C1(COC3C4=CC=CC=C4O2)COC(=O)NC5=CC=CC=C5)C)C
#inchikey UONFBIWUOHBYQS-UHFFFAOYSA-N
#pubchem_id 2846880
#mb_accession BML00046,BML00054,BML00062

>ms2
121.028600 4446.000000
121.063100 118.000000
287.165300 9000.000000
287.210100 145.000000
287.235500 226.000000
287.316400 100.000000
406.201600 6566.000000
406.256000 106.000000

>ms2
121.028800 13161.000000
121.063500 440.000000
121.131500 195.000000
287.164200 3116.000000
287.220200 84.000000
406.202000 123.000000

>ms2
121.029100 13913.000000
121.062100 436.000000
121.082700 133.000000

