>compound BML9583130
>parentmass 423.1296
>ionization [M-H]-
>formula C20H24O10
>rt 322.980000
>profile qtof
#smiles_iso CC1C(=O)OC2C1(C34C(=O)OC5C3(C2O)C6(C(C5)C(C)(C)C)C(C(=O)OC6O4)O)O
#smiles_can CC1C(=O)OC2C1(C34C(=O)OC5C3(C2O)C6(C(C5)C(C)(C)C)C(C(=O)OC6O4)O)O
#inchikey SQOJOAFXDQDRGF-UHFFFAOYSA-N
#pubchem_id 65243
#mb_accession BML00589,BML00594,BML00599

>ms2
113.024400 625.000000
125.024500 1082.000000
261.151900 286.000000
287.121600 124.000000
305.134000 217.000000
323.152600 124.000000
349.129800 459.000000
367.138100 23573.000000
367.313200 316.000000
367.386200 151.000000
367.534600 164.000000
367.652700 155.000000
395.135500 2533.000000
423.128600 9632.000000

>ms2
143.031800 172.000000
163.112300 48.000000
174.033300 61.000000
176.985600 70.000000
177.088900 51.000000
179.109000 116.000000
193.118800 56.000000
204.111800 86.000000
209.044400 150.000000
215.144900 97.000000
225.108300 107.000000
231.098500 206.000000
231.138100 84.000000
232.112200 246.000000
233.151800 104.000000
243.136400 196.000000
249.111400 51.000000
253.104900 53.000000
259.126300 64.000000
261.148000 719.000000
261.200300 50.000000
269.113200 60.000000
275.129300 133.000000
277.145300 68.000000
287.128800 192.000000
293.133900 62.000000
305.137100 382.000000
307.116000 179.000000
321.118100 52.000000
321.143200 95.000000
323.148600 51.000000
339.144600 70.000000
349.128900 855.000000
367.139200 9244.000000
367.196300 154.000000
367.233200 71.000000
367.270900 114.000000
367.315100 124.000000
367.376000 50.000000
367.412800 48.000000
367.530100 51.000000
367.625100 57.000000
367.741400 53.000000
367.872000 62.000000
368.066600 57.000000
395.135000 610.000000
423.128100 231.000000

>ms2
125.024000 4362.000000
125.057800 189.000000
125.072200 48.000000
125.098500 84.000000
125.128800 46.000000
125.523900 26.000000
127.035600 34.000000
133.066800 24.000000
137.064700 41.000000
139.037100 28.000000
141.017600 433.000000
141.048800 27.000000
143.033000 116.000000
146.038900 34.000000
147.045600 107.000000
147.116700 30.000000
149.057900 119.000000
149.098100 88.000000
151.109200 41.000000
152.651900 33.000000
154.021600 63.000000
157.066800 33.000000
158.070300 43.000000
162.025600 25.000000
163.112800 48.000000
165.057200 110.000000
165.122400 75.000000
167.032300 42.000000
169.068000 35.000000
174.031400 196.000000
174.066700 31.000000
175.040600 219.000000
175.077500 52.000000
175.109700 40.000000
176.985300 29.000000
177.089600 46.000000
177.130600 102.000000
179.106800 378.000000
181.124800 69.000000
181.156300 32.000000
181.616000 24.000000
184.055400 25.000000
185.068700 33.000000
186.066400 102.000000
187.141900 63.000000
187.159800 59.000000
189.056500 73.000000
191.113000 67.000000
191.945400 33.000000
195.134500 28.000000
197.131600 45.000000
201.010500 24.000000
201.129400 56.000000
204.081400 26.000000
204.117400 153.000000
205.147300 34.000000
207.103800 158.000000
209.114500 38.000000
213.136700 24.000000
215.145300 197.000000
215.189700 24.000000
217.423200 33.000000
219.144500 24.000000
221.108800 32.000000
230.061500 53.000000
231.098800 76.000000
231.139000 138.000000
232.112100 143.000000
232.141100 29.000000
233.120700 27.000000
233.158900 134.000000
235.125400 33.000000
240.590900 32.000000
243.139000 161.000000
244.110900 31.000000
245.112000 37.000000
246.125300 31.000000
247.135900 201.000000
249.110900 122.000000
249.159500 43.000000
259.132200 154.000000
261.152200 104.000000
263.124400 69.000000
269.124200 38.000000
271.141500 30.000000
272.111500 52.000000
275.125400 45.000000
277.142700 79.000000
287.130600 190.000000
291.120800 26.000000
367.144200 65.000000

