>compound BML9720465
>parentmass 353.18700000000007
>ionization [M-H]-
>formula C21H26N2O3
>rt 250.860000
>profile qtof
#smiles_iso COC(=O)[C@@H]1[C@H](CC[C@@H]2[C@@H]1C[C@H]3C4=C(CCN3C2)C5=CC=CC=C5N4)O
#smiles_can COC(=O)C1C(CCC2C1CC3C4=C(CCN3C2)C5=CC=CC=C5N4)O
#inchikey BLGXFZZNTVWLAY-DKJBZYCGSA-N
#pubchem_id 92766
#mb_accession BML00587,BML00592,BML00597

>ms2
101.324000 29.000000
111.810200 28.000000
173.295800 45.000000
199.183500 29.000000
270.504400 27.000000
291.811600 20.000000
353.185300 2330.000000

>ms2
142.064000 26.000000
169.084000 25.000000
172.951800 55.000000
179.951800 45.000000
182.058900 88.000000
191.099500 24.000000
205.918100 55.000000
208.113600 22.000000
210.089100 26.000000
210.738600 36.000000
212.777000 22.000000
291.148800 22.000000
293.134400 21.000000
293.174500 81.000000
321.164400 145.000000
353.185600 1709.000000

>ms2
122.059500 29.000000
141.040900 30.000000
142.063000 30.000000
143.078500 62.000000
146.061500 24.000000
148.079000 32.000000
149.650000 31.000000
155.066100 46.000000
156.079900 246.000000
156.105900 22.000000
163.681400 21.000000
167.062100 46.000000
168.091500 20.000000
169.077400 310.000000
175.690600 29.000000
178.093200 23.000000
181.087100 50.000000
182.057500 25.000000
183.093200 60.000000
197.106500 36.000000
206.088800 23.000000
208.087000 30.000000
210.091600 27.000000
218.362400 40.000000
221.105900 29.000000
233.109300 31.000000
234.133900 33.000000
236.115000 51.000000
260.103200 34.000000
265.136900 30.000000
268.819400 26.000000
271.502500 29.000000
273.143500 76.000000
275.118200 64.000000
277.133300 20.000000
285.133600 37.000000
286.205200 69.000000
291.141400 29.000000
293.161900 233.000000
293.203100 28.000000
303.141500 68.000000
321.159500 147.000000
353.191100 120.000000

