>compound BML9100400
>parentmass 256.0939
>ionization [M-H]-
>formula C10H15N3O5
>rt 23.400000
>profile qtof
#smiles_iso CC1=CN(C(=O)N=C1N)C2C(C(C(O2)CO)O)O
#smiles_can CC1=CN(C(=O)N=C1N)C2C(C(C(O2)CO)O)O
#inchikey ZAYHVCMSTBRABG-UHFFFAOYSA-N
#pubchem_id 262543
#mb_accession BML01784

>ms2peaks
119.034300 30.000000
122.068800 31.000000
123.055800 348.000000
124.050700 375.000000
166.062100 269.000000
184.554900 28.000000
196.075400 39.000000
219.854600 27.000000
255.219900 57.000000
255.238000 104.000000
256.091900 634.000000

