>compound BML9068310
>parentmass 177.0193
>ionization [M-H]-
>formula C9H6O4
>rt 187.500000
>profile qtof
#smiles_iso C1=CC(=O)OC2=CC(=C(C=C21)O)O
#smiles_can C1=CC(=O)OC2=CC(=C(C=C21)O)O
#inchikey ILEDWLMCKZNDJK-UHFFFAOYSA-N
#pubchem_id 5281416
#mb_accession BML01674,BML01684

>ms2peaks
105.032900 323.000000
121.030900 34.000000
131.008100 34.000000
133.030100 571.000000
133.059000 21.000000
149.027400 52.000000
176.013400 101.000000
177.019000 7461.000000

>ms2peaks
102.088600 31.000000
104.025900 37.000000
105.034900 1058.000000
105.065400 32.000000
106.152800 25.000000
107.014200 39.000000
109.030800 66.000000
121.031500 139.000000
133.029800 1440.000000
133.066600 58.000000
133.089100 31.000000
149.023400 212.000000
149.311100 20.000000
173.904700 27.000000
177.020600 1523.000000

