>compound BML9293867
>parentmass 231.11389999999997
>ionization [M-H]-
>formula C13H16N2O2
>rt 300.540000
>profile qtof
#smiles_iso CC(=O)NCCC1=CNC2=C1C=C(C=C2)OC
#smiles_can CC(=O)NCCC1=CNC2=C1C=C(C=C2)OC
#inchikey DRLFMBDRBRZALE-UHFFFAOYSA-N
#pubchem_id 896
#mb_accession BML00724,BML00731,BML00738

>ms2
144.046200 726.000000
145.051600 900.000000
216.089400 8986.000000
216.132600 358.000000
216.175000 123.000000
216.197700 52.000000
216.225700 93.000000
216.263700 55.000000
216.320900 62.000000
216.632000 59.000000
230.991500 150.000000
231.114000 9794.000000

>ms2
116.049400 54.000000
144.044600 9489.000000
144.088400 89.000000
144.096600 110.000000
144.130000 61.000000
144.156300 151.000000
145.052600 5312.000000
145.089600 207.000000
145.165500 76.000000
157.050300 136.000000
216.089500 9942.000000
216.133400 268.000000
216.152900 70.000000
216.178200 103.000000
216.224600 123.000000
216.255300 56.000000
216.369500 68.000000
216.409800 52.000000
216.617400 78.000000
218.908700 54.000000
231.111800 298.000000

>ms2
116.051700 138.000000
117.036300 123.000000
118.031500 104.000000
131.043100 68.000000
144.045000 10863.000000
144.081500 291.000000
144.098500 214.000000
144.128300 61.000000
144.157600 146.000000
145.052100 184.000000

