>compound BML9495265
>parentmass 298.0615
>ionization [M-H]-
>formula C10H13N5O4S
>rt 146.040000
>profile qtof
#smiles_iso C1=NC(=C2C(=N1)N(C(=S)N2)C3C(C(C(O3)CO)O)O)N
#smiles_can C1=NC(=C2C(=N1)N(C(=S)N2)C3C(C(C(O3)CO)O)O)N
#inchikey QILZVYQRHGBEAR-UHFFFAOYSA-N
#pubchem_id 2868728
#mb_accession BML01445,BML01452,BML01459

>ms2
102.043400 27.000000
104.502000 28.000000
121.123900 25.000000
150.039100 45.000000
165.015800 23.000000
166.018000 81.000000
166.031700 46.000000
178.021200 46.000000
180.032700 33.000000
190.018200 73.000000
208.033400 182.000000
222.051100 57.000000
231.323700 24.000000
248.190200 24.000000
260.189300 33.000000
297.735000 26.000000
298.060300 1064.000000

>ms2
137.999300 33.000000
146.049500 90.000000
165.014000 41.000000
166.018700 590.000000
174.039800 29.000000
180.034000 119.000000
183.031000 41.000000
208.029000 457.000000
208.069700 25.000000
209.371600 37.000000
211.064300 57.000000
230.656900 32.000000
235.261600 33.000000
286.215300 25.000000
298.064000 195.000000

>ms2
119.036000 31.000000
134.046600 32.000000
134.919400 72.000000
139.005000 121.000000
144.800100 71.000000
146.046500 91.000000
147.055100 91.000000
149.098000 31.000000
151.004800 25.000000
153.024600 20.000000
153.426300 23.000000
165.011700 143.000000
166.021900 164.000000
171.927100 28.000000
178.016400 42.000000
179.022300 41.000000
180.036800 190.000000
208.031700 57.000000
222.032500 29.000000
242.427000 54.000000
272.478400 21.000000
428.007500 41.000000
432.715800 24.000000
535.950500 25.000000
541.673600 21.000000
563.482600 62.000000
630.347600 36.000000
667.682600 45.000000
685.438700 43.000000
750.286600 48.000000
982.464600 34.000000
983.346000 38.000000
989.235100 29.000000

