>compound BML9557399
>parentmass 277.2173
>ionization [M-H]-
>formula C18H30O2
>rt 692.160000
>profile qtof
#smiles_iso CCC=CCC=CCC=CCCCCCCCC(=O)O
#smiles_can CCC=CCC=CCC=CCCCCCCCC(=O)O
#inchikey DTOSIQBPPRVQHS-UHFFFAOYSA-N
#pubchem_id 860
#mb_accession BML01165,BML01174

>ms2
119.033800 76.000000
173.191800 28.000000
209.838200 30.000000
257.941200 33.000000
277.216500 877.000000

>ms2
116.760400 20.000000
117.803400 21.000000
119.032200 37.000000
123.912500 21.000000
137.165300 54.000000
155.104500 23.000000
182.133300 20.000000
206.237800 36.000000
277.216800 636.000000

